<?xml version="1.0"?> 
<VTKFile type="UnstructuredGrid"> 
   <UnstructuredGrid> 
      <Piece NumberOfPoints="6000"  NumberOfCells="1500">  
          <Points>  
             <DataArray type="Float64" NumberOfComponents="3" format="ascii">   
-500.0   0.0   0.0
-450.0   0.0   0.0
-500.0   30.0   0.0
-500.0   0.0   16.666666666666668
-450.0   0.0   0.0
-450.0   30.0   0.0
-500.0   30.0   0.0
-450.0   30.0   16.666666666666668
-500.0   0.0   16.666666666666668
-500.0   30.0   16.666666666666668
-450.0   30.0   16.666666666666668
-500.0   30.0   0.0
-500.0   0.0   16.666666666666668
-450.0   30.0   16.666666666666668
-450.0   0.0   16.666666666666668
-450.0   0.0   0.0
-500.0   0.0   16.666666666666668
-450.0   30.0   16.666666666666668
-450.0   0.0   0.0
-500.0   30.0   0.0
-500.0   0.0   16.666666666666668
-450.0   0.0   16.666666666666668
-500.0   30.0   16.666666666666668
-500.0   0.0   33.333333333333336
-450.0   0.0   16.666666666666668
-450.0   30.0   16.666666666666668
-500.0   30.0   16.666666666666668
-450.0   30.0   33.333333333333336
-500.0   0.0   33.333333333333336
-500.0   30.0   33.333333333333336
-450.0   30.0   33.333333333333336
-500.0   30.0   16.666666666666668
-500.0   0.0   33.333333333333336
-450.0   30.0   33.333333333333336
-450.0   0.0   33.333333333333336
-450.0   0.0   16.666666666666668
-500.0   0.0   33.333333333333336
-450.0   30.0   33.333333333333336
-450.0   0.0   16.666666666666668
-500.0   30.0   16.666666666666668
-500.0   0.0   33.333333333333336
-450.0   0.0   33.333333333333336
-500.0   30.0   33.333333333333336
-500.0   0.0   50.0
-450.0   0.0   33.333333333333336
-450.0   30.0   33.333333333333336
-500.0   30.0   33.333333333333336
-450.0   30.0   50.0
-500.0   0.0   50.0
-500.0   30.0   50.0
-450.0   30.0   50.0
-500.0   30.0   33.333333333333336
-500.0   0.0   50.0
-450.0   30.0   50.0
-450.0   0.0   50.0
-450.0   0.0   33.333333333333336
-500.0   0.0   50.0
-450.0   30.0   50.0
-450.0   0.0   33.333333333333336
-500.0   30.0   33.333333333333336
-500.0   30.0   0.0
-450.0   30.0   0.0
-500.0   60.0   0.0
-500.0   30.0   16.666666666666668
-450.0   30.0   0.0
-450.0   60.0   0.0
-500.0   60.0   0.0
-450.0   60.0   16.666666666666668
-500.0   30.0   16.666666666666668
-500.0   60.0   16.666666666666668
-450.0   60.0   16.666666666666668
-500.0   60.0   0.0
-500.0   30.0   16.666666666666668
-450.0   60.0   16.666666666666668
-450.0   30.0   16.666666666666668
-450.0   30.0   0.0
-500.0   30.0   16.666666666666668
-450.0   60.0   16.666666666666668
-450.0   30.0   0.0
-500.0   60.0   0.0
-500.0   30.0   16.666666666666668
-450.0   30.0   16.666666666666668
-500.0   60.0   16.666666666666668
-500.0   30.0   33.333333333333336
-450.0   30.0   16.666666666666668
-450.0   60.0   16.666666666666668
-500.0   60.0   16.666666666666668
-450.0   60.0   33.333333333333336
-500.0   30.0   33.333333333333336
-500.0   60.0   33.333333333333336
-450.0   60.0   33.333333333333336
-500.0   60.0   16.666666666666668
-500.0   30.0   33.333333333333336
-450.0   60.0   33.333333333333336
-450.0   30.0   33.333333333333336
-450.0   30.0   16.666666666666668
-500.0   30.0   33.333333333333336
-450.0   60.0   33.333333333333336
-450.0   30.0   16.666666666666668
-500.0   60.0   16.666666666666668
-500.0   30.0   33.333333333333336
-450.0   30.0   33.333333333333336
-500.0   60.0   33.333333333333336
-500.0   30.0   50.0
-450.0   30.0   33.333333333333336
-450.0   60.0   33.333333333333336
-500.0   60.0   33.333333333333336
-450.0   60.0   50.0
-500.0   30.0   50.0
-500.0   60.0   50.0
-450.0   60.0   50.0
-500.0   60.0   33.333333333333336
-500.0   30.0   50.0
-450.0   60.0   50.0
-450.0   30.0   50.0
-450.0   30.0   33.333333333333336
-500.0   30.0   50.0
-450.0   60.0   50.0
-450.0   30.0   33.333333333333336
-500.0   60.0   33.333333333333336
-500.0   60.0   0.0
-450.0   60.0   0.0
-500.0   90.0   0.0
-500.0   60.0   16.666666666666668
-450.0   60.0   0.0
-450.0   90.0   0.0
-500.0   90.0   0.0
-450.0   90.0   16.666666666666668
-500.0   60.0   16.666666666666668
-500.0   90.0   16.666666666666668
-450.0   90.0   16.666666666666668
-500.0   90.0   0.0
-500.0   60.0   16.666666666666668
-450.0   90.0   16.666666666666668
-450.0   60.0   16.666666666666668
-450.0   60.0   0.0
-500.0   60.0   16.666666666666668
-450.0   90.0   16.666666666666668
-450.0   60.0   0.0
-500.0   90.0   0.0
-500.0   60.0   16.666666666666668
-450.0   60.0   16.666666666666668
-500.0   90.0   16.666666666666668
-500.0   60.0   33.333333333333336
-450.0   60.0   16.666666666666668
-450.0   90.0   16.666666666666668
-500.0   90.0   16.666666666666668
-450.0   90.0   33.333333333333336
-500.0   60.0   33.333333333333336
-500.0   90.0   33.333333333333336
-450.0   90.0   33.333333333333336
-500.0   90.0   16.666666666666668
-500.0   60.0   33.333333333333336
-450.0   90.0   33.333333333333336
-450.0   60.0   33.333333333333336
-450.0   60.0   16.666666666666668
-500.0   60.0   33.333333333333336
-450.0   90.0   33.333333333333336
-450.0   60.0   16.666666666666668
-500.0   90.0   16.666666666666668
-500.0   60.0   33.333333333333336
-450.0   60.0   33.333333333333336
-500.0   90.0   33.333333333333336
-500.0   60.0   50.0
-450.0   60.0   33.333333333333336
-450.0   90.0   33.333333333333336
-500.0   90.0   33.333333333333336
-450.0   90.0   50.0
-500.0   60.0   50.0
-500.0   90.0   50.0
-450.0   90.0   50.0
-500.0   90.0   33.333333333333336
-500.0   60.0   50.0
-450.0   90.0   50.0
-450.0   60.0   50.0
-450.0   60.0   33.333333333333336
-500.0   60.0   50.0
-450.0   90.0   50.0
-450.0   60.0   33.333333333333336
-500.0   90.0   33.333333333333336
-500.0   90.0   0.0
-450.0   90.0   0.0
-500.0   120.0   0.0
-500.0   90.0   16.666666666666668
-450.0   90.0   0.0
-450.0   120.0   0.0
-500.0   120.0   0.0
-450.0   120.0   16.666666666666668
-500.0   90.0   16.666666666666668
-500.0   120.0   16.666666666666668
-450.0   120.0   16.666666666666668
-500.0   120.0   0.0
-500.0   90.0   16.666666666666668
-450.0   120.0   16.666666666666668
-450.0   90.0   16.666666666666668
-450.0   90.0   0.0
-500.0   90.0   16.666666666666668
-450.0   120.0   16.666666666666668
-450.0   90.0   0.0
-500.0   120.0   0.0
-500.0   90.0   16.666666666666668
-450.0   90.0   16.666666666666668
-500.0   120.0   16.666666666666668
-500.0   90.0   33.333333333333336
-450.0   90.0   16.666666666666668
-450.0   120.0   16.666666666666668
-500.0   120.0   16.666666666666668
-450.0   120.0   33.333333333333336
-500.0   90.0   33.333333333333336
-500.0   120.0   33.333333333333336
-450.0   120.0   33.333333333333336
-500.0   120.0   16.666666666666668
-500.0   90.0   33.333333333333336
-450.0   120.0   33.333333333333336
-450.0   90.0   33.333333333333336
-450.0   90.0   16.666666666666668
-500.0   90.0   33.333333333333336
-450.0   120.0   33.333333333333336
-450.0   90.0   16.666666666666668
-500.0   120.0   16.666666666666668
-500.0   90.0   33.333333333333336
-450.0   90.0   33.333333333333336
-500.0   120.0   33.333333333333336
-500.0   90.0   50.0
-450.0   90.0   33.333333333333336
-450.0   120.0   33.333333333333336
-500.0   120.0   33.333333333333336
-450.0   120.0   50.0
-500.0   90.0   50.0
-500.0   120.0   50.0
-450.0   120.0   50.0
-500.0   120.0   33.333333333333336
-500.0   90.0   50.0
-450.0   120.0   50.0
-450.0   90.0   50.0
-450.0   90.0   33.333333333333336
-500.0   90.0   50.0
-450.0   120.0   50.0
-450.0   90.0   33.333333333333336
-500.0   120.0   33.333333333333336
-500.0   120.0   0.0
-450.0   120.0   0.0
-500.0   150.0   0.0
-500.0   120.0   16.666666666666668
-450.0   120.0   0.0
-450.0   150.0   0.0
-500.0   150.0   0.0
-450.0   150.0   16.666666666666668
-500.0   120.0   16.666666666666668
-500.0   150.0   16.666666666666668
-450.0   150.0   16.666666666666668
-500.0   150.0   0.0
-500.0   120.0   16.666666666666668
-450.0   150.0   16.666666666666668
-450.0   120.0   16.666666666666668
-450.0   120.0   0.0
-500.0   120.0   16.666666666666668
-450.0   150.0   16.666666666666668
-450.0   120.0   0.0
-500.0   150.0   0.0
-500.0   120.0   16.666666666666668
-450.0   120.0   16.666666666666668
-500.0   150.0   16.666666666666668
-500.0   120.0   33.333333333333336
-450.0   120.0   16.666666666666668
-450.0   150.0   16.666666666666668
-500.0   150.0   16.666666666666668
-450.0   150.0   33.333333333333336
-500.0   120.0   33.333333333333336
-500.0   150.0   33.333333333333336
-450.0   150.0   33.333333333333336
-500.0   150.0   16.666666666666668
-500.0   120.0   33.333333333333336
-450.0   150.0   33.333333333333336
-450.0   120.0   33.333333333333336
-450.0   120.0   16.666666666666668
-500.0   120.0   33.333333333333336
-450.0   150.0   33.333333333333336
-450.0   120.0   16.666666666666668
-500.0   150.0   16.666666666666668
-500.0   120.0   33.333333333333336
-450.0   120.0   33.333333333333336
-500.0   150.0   33.333333333333336
-500.0   120.0   50.0
-450.0   120.0   33.333333333333336
-450.0   150.0   33.333333333333336
-500.0   150.0   33.333333333333336
-450.0   150.0   50.0
-500.0   120.0   50.0
-500.0   150.0   50.0
-450.0   150.0   50.0
-500.0   150.0   33.333333333333336
-500.0   120.0   50.0
-450.0   150.0   50.0
-450.0   120.0   50.0
-450.0   120.0   33.333333333333336
-500.0   120.0   50.0
-450.0   150.0   50.0
-450.0   120.0   33.333333333333336
-500.0   150.0   33.333333333333336
-450.0   0.0   0.0
-400.0   0.0   0.0
-450.0   30.0   0.0
-450.0   0.0   16.666666666666668
-400.0   0.0   0.0
-400.0   30.0   0.0
-450.0   30.0   0.0
-400.0   30.0   16.666666666666668
-450.0   0.0   16.666666666666668
-450.0   30.0   16.666666666666668
-400.0   30.0   16.666666666666668
-450.0   30.0   0.0
-450.0   0.0   16.666666666666668
-400.0   30.0   16.666666666666668
-400.0   0.0   16.666666666666668
-400.0   0.0   0.0
-450.0   0.0   16.666666666666668
-400.0   30.0   16.666666666666668
-400.0   0.0   0.0
-450.0   30.0   0.0
-450.0   0.0   16.666666666666668
-400.0   0.0   16.666666666666668
-450.0   30.0   16.666666666666668
-450.0   0.0   33.333333333333336
-400.0   0.0   16.666666666666668
-400.0   30.0   16.666666666666668
-450.0   30.0   16.666666666666668
-400.0   30.0   33.333333333333336
-450.0   0.0   33.333333333333336
-450.0   30.0   33.333333333333336
-400.0   30.0   33.333333333333336
-450.0   30.0   16.666666666666668
-450.0   0.0   33.333333333333336
-400.0   30.0   33.333333333333336
-400.0   0.0   33.333333333333336
-400.0   0.0   16.666666666666668
-450.0   0.0   33.333333333333336
-400.0   30.0   33.333333333333336
-400.0   0.0   16.666666666666668
-450.0   30.0   16.666666666666668
-450.0   0.0   33.333333333333336
-400.0   0.0   33.333333333333336
-450.0   30.0   33.333333333333336
-450.0   0.0   50.0
-400.0   0.0   33.333333333333336
-400.0   30.0   33.333333333333336
-450.0   30.0   33.333333333333336
-400.0   30.0   50.0
-450.0   0.0   50.0
-450.0   30.0   50.0
-400.0   30.0   50.0
-450.0   30.0   33.333333333333336
-450.0   0.0   50.0
-400.0   30.0   50.0
-400.0   0.0   50.0
-400.0   0.0   33.333333333333336
-450.0   0.0   50.0
-400.0   30.0   50.0
-400.0   0.0   33.333333333333336
-450.0   30.0   33.333333333333336
-450.0   30.0   0.0
-400.0   30.0   0.0
-450.0   60.0   0.0
-450.0   30.0   16.666666666666668
-400.0   30.0   0.0
-400.0   60.0   0.0
-450.0   60.0   0.0
-400.0   60.0   16.666666666666668
-450.0   30.0   16.666666666666668
-450.0   60.0   16.666666666666668
-400.0   60.0   16.666666666666668
-450.0   60.0   0.0
-450.0   30.0   16.666666666666668
-400.0   60.0   16.666666666666668
-400.0   30.0   16.666666666666668
-400.0   30.0   0.0
-450.0   30.0   16.666666666666668
-400.0   60.0   16.666666666666668
-400.0   30.0   0.0
-450.0   60.0   0.0
-450.0   30.0   16.666666666666668
-400.0   30.0   16.666666666666668
-450.0   60.0   16.666666666666668
-450.0   30.0   33.333333333333336
-400.0   30.0   16.666666666666668
-400.0   60.0   16.666666666666668
-450.0   60.0   16.666666666666668
-400.0   60.0   33.333333333333336
-450.0   30.0   33.333333333333336
-450.0   60.0   33.333333333333336
-400.0   60.0   33.333333333333336
-450.0   60.0   16.666666666666668
-450.0   30.0   33.333333333333336
-400.0   60.0   33.333333333333336
-400.0   30.0   33.333333333333336
-400.0   30.0   16.666666666666668
-450.0   30.0   33.333333333333336
-400.0   60.0   33.333333333333336
-400.0   30.0   16.666666666666668
-450.0   60.0   16.666666666666668
-450.0   30.0   33.333333333333336
-400.0   30.0   33.333333333333336
-450.0   60.0   33.333333333333336
-450.0   30.0   50.0
-400.0   30.0   33.333333333333336
-400.0   60.0   33.333333333333336
-450.0   60.0   33.333333333333336
-400.0   60.0   50.0
-450.0   30.0   50.0
-450.0   60.0   50.0
-400.0   60.0   50.0
-450.0   60.0   33.333333333333336
-450.0   30.0   50.0
-400.0   60.0   50.0
-400.0   30.0   50.0
-400.0   30.0   33.333333333333336
-450.0   30.0   50.0
-400.0   60.0   50.0
-400.0   30.0   33.333333333333336
-450.0   60.0   33.333333333333336
-450.0   60.0   0.0
-400.0   60.0   0.0
-450.0   90.0   0.0
-450.0   60.0   16.666666666666668
-400.0   60.0   0.0
-400.0   90.0   0.0
-450.0   90.0   0.0
-400.0   90.0   16.666666666666668
-450.0   60.0   16.666666666666668
-450.0   90.0   16.666666666666668
-400.0   90.0   16.666666666666668
-450.0   90.0   0.0
-450.0   60.0   16.666666666666668
-400.0   90.0   16.666666666666668
-400.0   60.0   16.666666666666668
-400.0   60.0   0.0
-450.0   60.0   16.666666666666668
-400.0   90.0   16.666666666666668
-400.0   60.0   0.0
-450.0   90.0   0.0
-450.0   60.0   16.666666666666668
-400.0   60.0   16.666666666666668
-450.0   90.0   16.666666666666668
-450.0   60.0   33.333333333333336
-400.0   60.0   16.666666666666668
-400.0   90.0   16.666666666666668
-450.0   90.0   16.666666666666668
-400.0   90.0   33.333333333333336
-450.0   60.0   33.333333333333336
-450.0   90.0   33.333333333333336
-400.0   90.0   33.333333333333336
-450.0   90.0   16.666666666666668
-450.0   60.0   33.333333333333336
-400.0   90.0   33.333333333333336
-400.0   60.0   33.333333333333336
-400.0   60.0   16.666666666666668
-450.0   60.0   33.333333333333336
-400.0   90.0   33.333333333333336
-400.0   60.0   16.666666666666668
-450.0   90.0   16.666666666666668
-450.0   60.0   33.333333333333336
-400.0   60.0   33.333333333333336
-450.0   90.0   33.333333333333336
-450.0   60.0   50.0
-400.0   60.0   33.333333333333336
-400.0   90.0   33.333333333333336
-450.0   90.0   33.333333333333336
-400.0   90.0   50.0
-450.0   60.0   50.0
-450.0   90.0   50.0
-400.0   90.0   50.0
-450.0   90.0   33.333333333333336
-450.0   60.0   50.0
-400.0   90.0   50.0
-400.0   60.0   50.0
-400.0   60.0   33.333333333333336
-450.0   60.0   50.0
-400.0   90.0   50.0
-400.0   60.0   33.333333333333336
-450.0   90.0   33.333333333333336
-450.0   90.0   0.0
-400.0   90.0   0.0
-450.0   120.0   0.0
-450.0   90.0   16.666666666666668
-400.0   90.0   0.0
-400.0   120.0   0.0
-450.0   120.0   0.0
-400.0   120.0   16.666666666666668
-450.0   90.0   16.666666666666668
-450.0   120.0   16.666666666666668
-400.0   120.0   16.666666666666668
-450.0   120.0   0.0
-450.0   90.0   16.666666666666668
-400.0   120.0   16.666666666666668
-400.0   90.0   16.666666666666668
-400.0   90.0   0.0
-450.0   90.0   16.666666666666668
-400.0   120.0   16.666666666666668
-400.0   90.0   0.0
-450.0   120.0   0.0
-450.0   90.0   16.666666666666668
-400.0   90.0   16.666666666666668
-450.0   120.0   16.666666666666668
-450.0   90.0   33.333333333333336
-400.0   90.0   16.666666666666668
-400.0   120.0   16.666666666666668
-450.0   120.0   16.666666666666668
-400.0   120.0   33.333333333333336
-450.0   90.0   33.333333333333336
-450.0   120.0   33.333333333333336
-400.0   120.0   33.333333333333336
-450.0   120.0   16.666666666666668
-450.0   90.0   33.333333333333336
-400.0   120.0   33.333333333333336
-400.0   90.0   33.333333333333336
-400.0   90.0   16.666666666666668
-450.0   90.0   33.333333333333336
-400.0   120.0   33.333333333333336
-400.0   90.0   16.666666666666668
-450.0   120.0   16.666666666666668
-450.0   90.0   33.333333333333336
-400.0   90.0   33.333333333333336
-450.0   120.0   33.333333333333336
-450.0   90.0   50.0
-400.0   90.0   33.333333333333336
-400.0   120.0   33.333333333333336
-450.0   120.0   33.333333333333336
-400.0   120.0   50.0
-450.0   90.0   50.0
-450.0   120.0   50.0
-400.0   120.0   50.0
-450.0   120.0   33.333333333333336
-450.0   90.0   50.0
-400.0   120.0   50.0
-400.0   90.0   50.0
-400.0   90.0   33.333333333333336
-450.0   90.0   50.0
-400.0   120.0   50.0
-400.0   90.0   33.333333333333336
-450.0   120.0   33.333333333333336
-450.0   120.0   0.0
-400.0   120.0   0.0
-450.0   150.0   0.0
-450.0   120.0   16.666666666666668
-400.0   120.0   0.0
-400.0   150.0   0.0
-450.0   150.0   0.0
-400.0   150.0   16.666666666666668
-450.0   120.0   16.666666666666668
-450.0   150.0   16.666666666666668
-400.0   150.0   16.666666666666668
-450.0   150.0   0.0
-450.0   120.0   16.666666666666668
-400.0   150.0   16.666666666666668
-400.0   120.0   16.666666666666668
-400.0   120.0   0.0
-450.0   120.0   16.666666666666668
-400.0   150.0   16.666666666666668
-400.0   120.0   0.0
-450.0   150.0   0.0
-450.0   120.0   16.666666666666668
-400.0   120.0   16.666666666666668
-450.0   150.0   16.666666666666668
-450.0   120.0   33.333333333333336
-400.0   120.0   16.666666666666668
-400.0   150.0   16.666666666666668
-450.0   150.0   16.666666666666668
-400.0   150.0   33.333333333333336
-450.0   120.0   33.333333333333336
-450.0   150.0   33.333333333333336
-400.0   150.0   33.333333333333336
-450.0   150.0   16.666666666666668
-450.0   120.0   33.333333333333336
-400.0   150.0   33.333333333333336
-400.0   120.0   33.333333333333336
-400.0   120.0   16.666666666666668
-450.0   120.0   33.333333333333336
-400.0   150.0   33.333333333333336
-400.0   120.0   16.666666666666668
-450.0   150.0   16.666666666666668
-450.0   120.0   33.333333333333336
-400.0   120.0   33.333333333333336
-450.0   150.0   33.333333333333336
-450.0   120.0   50.0
-400.0   120.0   33.333333333333336
-400.0   150.0   33.333333333333336
-450.0   150.0   33.333333333333336
-400.0   150.0   50.0
-450.0   120.0   50.0
-450.0   150.0   50.0
-400.0   150.0   50.0
-450.0   150.0   33.333333333333336
-450.0   120.0   50.0
-400.0   150.0   50.0
-400.0   120.0   50.0
-400.0   120.0   33.333333333333336
-450.0   120.0   50.0
-400.0   150.0   50.0
-400.0   120.0   33.333333333333336
-450.0   150.0   33.333333333333336
-400.0   0.0   0.0
-350.0   0.0   0.0
-400.0   30.0   0.0
-400.0   0.0   16.666666666666668
-350.0   0.0   0.0
-350.0   30.0   0.0
-400.0   30.0   0.0
-350.0   30.0   16.666666666666668
-400.0   0.0   16.666666666666668
-400.0   30.0   16.666666666666668
-350.0   30.0   16.666666666666668
-400.0   30.0   0.0
-400.0   0.0   16.666666666666668
-350.0   30.0   16.666666666666668
-350.0   0.0   16.666666666666668
-350.0   0.0   0.0
-400.0   0.0   16.666666666666668
-350.0   30.0   16.666666666666668
-350.0   0.0   0.0
-400.0   30.0   0.0
-400.0   0.0   16.666666666666668
-350.0   0.0   16.666666666666668
-400.0   30.0   16.666666666666668
-400.0   0.0   33.333333333333336
-350.0   0.0   16.666666666666668
-350.0   30.0   16.666666666666668
-400.0   30.0   16.666666666666668
-350.0   30.0   33.333333333333336
-400.0   0.0   33.333333333333336
-400.0   30.0   33.333333333333336
-350.0   30.0   33.333333333333336
-400.0   30.0   16.666666666666668
-400.0   0.0   33.333333333333336
-350.0   30.0   33.333333333333336
-350.0   0.0   33.333333333333336
-350.0   0.0   16.666666666666668
-400.0   0.0   33.333333333333336
-350.0   30.0   33.333333333333336
-350.0   0.0   16.666666666666668
-400.0   30.0   16.666666666666668
-400.0   0.0   33.333333333333336
-350.0   0.0   33.333333333333336
-400.0   30.0   33.333333333333336
-400.0   0.0   50.0
-350.0   0.0   33.333333333333336
-350.0   30.0   33.333333333333336
-400.0   30.0   33.333333333333336
-350.0   30.0   50.0
-400.0   0.0   50.0
-400.0   30.0   50.0
-350.0   30.0   50.0
-400.0   30.0   33.333333333333336
-400.0   0.0   50.0
-350.0   30.0   50.0
-350.0   0.0   50.0
-350.0   0.0   33.333333333333336
-400.0   0.0   50.0
-350.0   30.0   50.0
-350.0   0.0   33.333333333333336
-400.0   30.0   33.333333333333336
-400.0   30.0   0.0
-350.0   30.0   0.0
-400.0   60.0   0.0
-400.0   30.0   16.666666666666668
-350.0   30.0   0.0
-350.0   60.0   0.0
-400.0   60.0   0.0
-350.0   60.0   16.666666666666668
-400.0   30.0   16.666666666666668
-400.0   60.0   16.666666666666668
-350.0   60.0   16.666666666666668
-400.0   60.0   0.0
-400.0   30.0   16.666666666666668
-350.0   60.0   16.666666666666668
-350.0   30.0   16.666666666666668
-350.0   30.0   0.0
-400.0   30.0   16.666666666666668
-350.0   60.0   16.666666666666668
-350.0   30.0   0.0
-400.0   60.0   0.0
-400.0   30.0   16.666666666666668
-350.0   30.0   16.666666666666668
-400.0   60.0   16.666666666666668
-400.0   30.0   33.333333333333336
-350.0   30.0   16.666666666666668
-350.0   60.0   16.666666666666668
-400.0   60.0   16.666666666666668
-350.0   60.0   33.333333333333336
-400.0   30.0   33.333333333333336
-400.0   60.0   33.333333333333336
-350.0   60.0   33.333333333333336
-400.0   60.0   16.666666666666668
-400.0   30.0   33.333333333333336
-350.0   60.0   33.333333333333336
-350.0   30.0   33.333333333333336
-350.0   30.0   16.666666666666668
-400.0   30.0   33.333333333333336
-350.0   60.0   33.333333333333336
-350.0   30.0   16.666666666666668
-400.0   60.0   16.666666666666668
-400.0   30.0   33.333333333333336
-350.0   30.0   33.333333333333336
-400.0   60.0   33.333333333333336
-400.0   30.0   50.0
-350.0   30.0   33.333333333333336
-350.0   60.0   33.333333333333336
-400.0   60.0   33.333333333333336
-350.0   60.0   50.0
-400.0   30.0   50.0
-400.0   60.0   50.0
-350.0   60.0   50.0
-400.0   60.0   33.333333333333336
-400.0   30.0   50.0
-350.0   60.0   50.0
-350.0   30.0   50.0
-350.0   30.0   33.333333333333336
-400.0   30.0   50.0
-350.0   60.0   50.0
-350.0   30.0   33.333333333333336
-400.0   60.0   33.333333333333336
-400.0   60.0   0.0
-350.0   60.0   0.0
-400.0   90.0   0.0
-400.0   60.0   16.666666666666668
-350.0   60.0   0.0
-350.0   90.0   0.0
-400.0   90.0   0.0
-350.0   90.0   16.666666666666668
-400.0   60.0   16.666666666666668
-400.0   90.0   16.666666666666668
-350.0   90.0   16.666666666666668
-400.0   90.0   0.0
-400.0   60.0   16.666666666666668
-350.0   90.0   16.666666666666668
-350.0   60.0   16.666666666666668
-350.0   60.0   0.0
-400.0   60.0   16.666666666666668
-350.0   90.0   16.666666666666668
-350.0   60.0   0.0
-400.0   90.0   0.0
-400.0   60.0   16.666666666666668
-350.0   60.0   16.666666666666668
-400.0   90.0   16.666666666666668
-400.0   60.0   33.333333333333336
-350.0   60.0   16.666666666666668
-350.0   90.0   16.666666666666668
-400.0   90.0   16.666666666666668
-350.0   90.0   33.333333333333336
-400.0   60.0   33.333333333333336
-400.0   90.0   33.333333333333336
-350.0   90.0   33.333333333333336
-400.0   90.0   16.666666666666668
-400.0   60.0   33.333333333333336
-350.0   90.0   33.333333333333336
-350.0   60.0   33.333333333333336
-350.0   60.0   16.666666666666668
-400.0   60.0   33.333333333333336
-350.0   90.0   33.333333333333336
-350.0   60.0   16.666666666666668
-400.0   90.0   16.666666666666668
-400.0   60.0   33.333333333333336
-350.0   60.0   33.333333333333336
-400.0   90.0   33.333333333333336
-400.0   60.0   50.0
-350.0   60.0   33.333333333333336
-350.0   90.0   33.333333333333336
-400.0   90.0   33.333333333333336
-350.0   90.0   50.0
-400.0   60.0   50.0
-400.0   90.0   50.0
-350.0   90.0   50.0
-400.0   90.0   33.333333333333336
-400.0   60.0   50.0
-350.0   90.0   50.0
-350.0   60.0   50.0
-350.0   60.0   33.333333333333336
-400.0   60.0   50.0
-350.0   90.0   50.0
-350.0   60.0   33.333333333333336
-400.0   90.0   33.333333333333336
-400.0   90.0   0.0
-350.0   90.0   0.0
-400.0   120.0   0.0
-400.0   90.0   16.666666666666668
-350.0   90.0   0.0
-350.0   120.0   0.0
-400.0   120.0   0.0
-350.0   120.0   16.666666666666668
-400.0   90.0   16.666666666666668
-400.0   120.0   16.666666666666668
-350.0   120.0   16.666666666666668
-400.0   120.0   0.0
-400.0   90.0   16.666666666666668
-350.0   120.0   16.666666666666668
-350.0   90.0   16.666666666666668
-350.0   90.0   0.0
-400.0   90.0   16.666666666666668
-350.0   120.0   16.666666666666668
-350.0   90.0   0.0
-400.0   120.0   0.0
-400.0   90.0   16.666666666666668
-350.0   90.0   16.666666666666668
-400.0   120.0   16.666666666666668
-400.0   90.0   33.333333333333336
-350.0   90.0   16.666666666666668
-350.0   120.0   16.666666666666668
-400.0   120.0   16.666666666666668
-350.0   120.0   33.333333333333336
-400.0   90.0   33.333333333333336
-400.0   120.0   33.333333333333336
-350.0   120.0   33.333333333333336
-400.0   120.0   16.666666666666668
-400.0   90.0   33.333333333333336
-350.0   120.0   33.333333333333336
-350.0   90.0   33.333333333333336
-350.0   90.0   16.666666666666668
-400.0   90.0   33.333333333333336
-350.0   120.0   33.333333333333336
-350.0   90.0   16.666666666666668
-400.0   120.0   16.666666666666668
-400.0   90.0   33.333333333333336
-350.0   90.0   33.333333333333336
-400.0   120.0   33.333333333333336
-400.0   90.0   50.0
-350.0   90.0   33.333333333333336
-350.0   120.0   33.333333333333336
-400.0   120.0   33.333333333333336
-350.0   120.0   50.0
-400.0   90.0   50.0
-400.0   120.0   50.0
-350.0   120.0   50.0
-400.0   120.0   33.333333333333336
-400.0   90.0   50.0
-350.0   120.0   50.0
-350.0   90.0   50.0
-350.0   90.0   33.333333333333336
-400.0   90.0   50.0
-350.0   120.0   50.0
-350.0   90.0   33.333333333333336
-400.0   120.0   33.333333333333336
-400.0   120.0   0.0
-350.0   120.0   0.0
-400.0   150.0   0.0
-400.0   120.0   16.666666666666668
-350.0   120.0   0.0
-350.0   150.0   0.0
-400.0   150.0   0.0
-350.0   150.0   16.666666666666668
-400.0   120.0   16.666666666666668
-400.0   150.0   16.666666666666668
-350.0   150.0   16.666666666666668
-400.0   150.0   0.0
-400.0   120.0   16.666666666666668
-350.0   150.0   16.666666666666668
-350.0   120.0   16.666666666666668
-350.0   120.0   0.0
-400.0   120.0   16.666666666666668
-350.0   150.0   16.666666666666668
-350.0   120.0   0.0
-400.0   150.0   0.0
-400.0   120.0   16.666666666666668
-350.0   120.0   16.666666666666668
-400.0   150.0   16.666666666666668
-400.0   120.0   33.333333333333336
-350.0   120.0   16.666666666666668
-350.0   150.0   16.666666666666668
-400.0   150.0   16.666666666666668
-350.0   150.0   33.333333333333336
-400.0   120.0   33.333333333333336
-400.0   150.0   33.333333333333336
-350.0   150.0   33.333333333333336
-400.0   150.0   16.666666666666668
-400.0   120.0   33.333333333333336
-350.0   150.0   33.333333333333336
-350.0   120.0   33.333333333333336
-350.0   120.0   16.666666666666668
-400.0   120.0   33.333333333333336
-350.0   150.0   33.333333333333336
-350.0   120.0   16.666666666666668
-400.0   150.0   16.666666666666668
-400.0   120.0   33.333333333333336
-350.0   120.0   33.333333333333336
-400.0   150.0   33.333333333333336
-400.0   120.0   50.0
-350.0   120.0   33.333333333333336
-350.0   150.0   33.333333333333336
-400.0   150.0   33.333333333333336
-350.0   150.0   50.0
-400.0   120.0   50.0
-400.0   150.0   50.0
-350.0   150.0   50.0
-400.0   150.0   33.333333333333336
-400.0   120.0   50.0
-350.0   150.0   50.0
-350.0   120.0   50.0
-350.0   120.0   33.333333333333336
-400.0   120.0   50.0
-350.0   150.0   50.0
-350.0   120.0   33.333333333333336
-400.0   150.0   33.333333333333336
-350.0   0.0   0.0
-300.0   0.0   0.0
-350.0   30.0   0.0
-350.0   0.0   16.666666666666668
-300.0   0.0   0.0
-300.0   30.0   0.0
-350.0   30.0   0.0
-300.0   30.0   16.666666666666668
-350.0   0.0   16.666666666666668
-350.0   30.0   16.666666666666668
-300.0   30.0   16.666666666666668
-350.0   30.0   0.0
-350.0   0.0   16.666666666666668
-300.0   30.0   16.666666666666668
-300.0   0.0   16.666666666666668
-300.0   0.0   0.0
-350.0   0.0   16.666666666666668
-300.0   30.0   16.666666666666668
-300.0   0.0   0.0
-350.0   30.0   0.0
-350.0   0.0   16.666666666666668
-300.0   0.0   16.666666666666668
-350.0   30.0   16.666666666666668
-350.0   0.0   33.333333333333336
-300.0   0.0   16.666666666666668
-300.0   30.0   16.666666666666668
-350.0   30.0   16.666666666666668
-300.0   30.0   33.333333333333336
-350.0   0.0   33.333333333333336
-350.0   30.0   33.333333333333336
-300.0   30.0   33.333333333333336
-350.0   30.0   16.666666666666668
-350.0   0.0   33.333333333333336
-300.0   30.0   33.333333333333336
-300.0   0.0   33.333333333333336
-300.0   0.0   16.666666666666668
-350.0   0.0   33.333333333333336
-300.0   30.0   33.333333333333336
-300.0   0.0   16.666666666666668
-350.0   30.0   16.666666666666668
-350.0   0.0   33.333333333333336
-300.0   0.0   33.333333333333336
-350.0   30.0   33.333333333333336
-350.0   0.0   50.0
-300.0   0.0   33.333333333333336
-300.0   30.0   33.333333333333336
-350.0   30.0   33.333333333333336
-300.0   30.0   50.0
-350.0   0.0   50.0
-350.0   30.0   50.0
-300.0   30.0   50.0
-350.0   30.0   33.333333333333336
-350.0   0.0   50.0
-300.0   30.0   50.0
-300.0   0.0   50.0
-300.0   0.0   33.333333333333336
-350.0   0.0   50.0
-300.0   30.0   50.0
-300.0   0.0   33.333333333333336
-350.0   30.0   33.333333333333336
-350.0   30.0   0.0
-300.0   30.0   0.0
-350.0   60.0   0.0
-350.0   30.0   16.666666666666668
-300.0   30.0   0.0
-300.0   60.0   0.0
-350.0   60.0   0.0
-300.0   60.0   16.666666666666668
-350.0   30.0   16.666666666666668
-350.0   60.0   16.666666666666668
-300.0   60.0   16.666666666666668
-350.0   60.0   0.0
-350.0   30.0   16.666666666666668
-300.0   60.0   16.666666666666668
-300.0   30.0   16.666666666666668
-300.0   30.0   0.0
-350.0   30.0   16.666666666666668
-300.0   60.0   16.666666666666668
-300.0   30.0   0.0
-350.0   60.0   0.0
-350.0   30.0   16.666666666666668
-300.0   30.0   16.666666666666668
-350.0   60.0   16.666666666666668
-350.0   30.0   33.333333333333336
-300.0   30.0   16.666666666666668
-300.0   60.0   16.666666666666668
-350.0   60.0   16.666666666666668
-300.0   60.0   33.333333333333336
-350.0   30.0   33.333333333333336
-350.0   60.0   33.333333333333336
-300.0   60.0   33.333333333333336
-350.0   60.0   16.666666666666668
-350.0   30.0   33.333333333333336
-300.0   60.0   33.333333333333336
-300.0   30.0   33.333333333333336
-300.0   30.0   16.666666666666668
-350.0   30.0   33.333333333333336
-300.0   60.0   33.333333333333336
-300.0   30.0   16.666666666666668
-350.0   60.0   16.666666666666668
-350.0   30.0   33.333333333333336
-300.0   30.0   33.333333333333336
-350.0   60.0   33.333333333333336
-350.0   30.0   50.0
-300.0   30.0   33.333333333333336
-300.0   60.0   33.333333333333336
-350.0   60.0   33.333333333333336
-300.0   60.0   50.0
-350.0   30.0   50.0
-350.0   60.0   50.0
-300.0   60.0   50.0
-350.0   60.0   33.333333333333336
-350.0   30.0   50.0
-300.0   60.0   50.0
-300.0   30.0   50.0
-300.0   30.0   33.333333333333336
-350.0   30.0   50.0
-300.0   60.0   50.0
-300.0   30.0   33.333333333333336
-350.0   60.0   33.333333333333336
-350.0   60.0   0.0
-300.0   60.0   0.0
-350.0   90.0   0.0
-350.0   60.0   16.666666666666668
-300.0   60.0   0.0
-300.0   90.0   0.0
-350.0   90.0   0.0
-300.0   90.0   16.666666666666668
-350.0   60.0   16.666666666666668
-350.0   90.0   16.666666666666668
-300.0   90.0   16.666666666666668
-350.0   90.0   0.0
-350.0   60.0   16.666666666666668
-300.0   90.0   16.666666666666668
-300.0   60.0   16.666666666666668
-300.0   60.0   0.0
-350.0   60.0   16.666666666666668
-300.0   90.0   16.666666666666668
-300.0   60.0   0.0
-350.0   90.0   0.0
-350.0   60.0   16.666666666666668
-300.0   60.0   16.666666666666668
-350.0   90.0   16.666666666666668
-350.0   60.0   33.333333333333336
-300.0   60.0   16.666666666666668
-300.0   90.0   16.666666666666668
-350.0   90.0   16.666666666666668
-300.0   90.0   33.333333333333336
-350.0   60.0   33.333333333333336
-350.0   90.0   33.333333333333336
-300.0   90.0   33.333333333333336
-350.0   90.0   16.666666666666668
-350.0   60.0   33.333333333333336
-300.0   90.0   33.333333333333336
-300.0   60.0   33.333333333333336
-300.0   60.0   16.666666666666668
-350.0   60.0   33.333333333333336
-300.0   90.0   33.333333333333336
-300.0   60.0   16.666666666666668
-350.0   90.0   16.666666666666668
-350.0   60.0   33.333333333333336
-300.0   60.0   33.333333333333336
-350.0   90.0   33.333333333333336
-350.0   60.0   50.0
-300.0   60.0   33.333333333333336
-300.0   90.0   33.333333333333336
-350.0   90.0   33.333333333333336
-300.0   90.0   50.0
-350.0   60.0   50.0
-350.0   90.0   50.0
-300.0   90.0   50.0
-350.0   90.0   33.333333333333336
-350.0   60.0   50.0
-300.0   90.0   50.0
-300.0   60.0   50.0
-300.0   60.0   33.333333333333336
-350.0   60.0   50.0
-300.0   90.0   50.0
-300.0   60.0   33.333333333333336
-350.0   90.0   33.333333333333336
-350.0   90.0   0.0
-300.0   90.0   0.0
-350.0   120.0   0.0
-350.0   90.0   16.666666666666668
-300.0   90.0   0.0
-300.0   120.0   0.0
-350.0   120.0   0.0
-300.0   120.0   16.666666666666668
-350.0   90.0   16.666666666666668
-350.0   120.0   16.666666666666668
-300.0   120.0   16.666666666666668
-350.0   120.0   0.0
-350.0   90.0   16.666666666666668
-300.0   120.0   16.666666666666668
-300.0   90.0   16.666666666666668
-300.0   90.0   0.0
-350.0   90.0   16.666666666666668
-300.0   120.0   16.666666666666668
-300.0   90.0   0.0
-350.0   120.0   0.0
-350.0   90.0   16.666666666666668
-300.0   90.0   16.666666666666668
-350.0   120.0   16.666666666666668
-350.0   90.0   33.333333333333336
-300.0   90.0   16.666666666666668
-300.0   120.0   16.666666666666668
-350.0   120.0   16.666666666666668
-300.0   120.0   33.333333333333336
-350.0   90.0   33.333333333333336
-350.0   120.0   33.333333333333336
-300.0   120.0   33.333333333333336
-350.0   120.0   16.666666666666668
-350.0   90.0   33.333333333333336
-300.0   120.0   33.333333333333336
-300.0   90.0   33.333333333333336
-300.0   90.0   16.666666666666668
-350.0   90.0   33.333333333333336
-300.0   120.0   33.333333333333336
-300.0   90.0   16.666666666666668
-350.0   120.0   16.666666666666668
-350.0   90.0   33.333333333333336
-300.0   90.0   33.333333333333336
-350.0   120.0   33.333333333333336
-350.0   90.0   50.0
-300.0   90.0   33.333333333333336
-300.0   120.0   33.333333333333336
-350.0   120.0   33.333333333333336
-300.0   120.0   50.0
-350.0   90.0   50.0
-350.0   120.0   50.0
-300.0   120.0   50.0
-350.0   120.0   33.333333333333336
-350.0   90.0   50.0
-300.0   120.0   50.0
-300.0   90.0   50.0
-300.0   90.0   33.333333333333336
-350.0   90.0   50.0
-300.0   120.0   50.0
-300.0   90.0   33.333333333333336
-350.0   120.0   33.333333333333336
-350.0   120.0   0.0
-300.0   120.0   0.0
-350.0   150.0   0.0
-350.0   120.0   16.666666666666668
-300.0   120.0   0.0
-300.0   150.0   0.0
-350.0   150.0   0.0
-300.0   150.0   16.666666666666668
-350.0   120.0   16.666666666666668
-350.0   150.0   16.666666666666668
-300.0   150.0   16.666666666666668
-350.0   150.0   0.0
-350.0   120.0   16.666666666666668
-300.0   150.0   16.666666666666668
-300.0   120.0   16.666666666666668
-300.0   120.0   0.0
-350.0   120.0   16.666666666666668
-300.0   150.0   16.666666666666668
-300.0   120.0   0.0
-350.0   150.0   0.0
-350.0   120.0   16.666666666666668
-300.0   120.0   16.666666666666668
-350.0   150.0   16.666666666666668
-350.0   120.0   33.333333333333336
-300.0   120.0   16.666666666666668
-300.0   150.0   16.666666666666668
-350.0   150.0   16.666666666666668
-300.0   150.0   33.333333333333336
-350.0   120.0   33.333333333333336
-350.0   150.0   33.333333333333336
-300.0   150.0   33.333333333333336
-350.0   150.0   16.666666666666668
-350.0   120.0   33.333333333333336
-300.0   150.0   33.333333333333336
-300.0   120.0   33.333333333333336
-300.0   120.0   16.666666666666668
-350.0   120.0   33.333333333333336
-300.0   150.0   33.333333333333336
-300.0   120.0   16.666666666666668
-350.0   150.0   16.666666666666668
-350.0   120.0   33.333333333333336
-300.0   120.0   33.333333333333336
-350.0   150.0   33.333333333333336
-350.0   120.0   50.0
-300.0   120.0   33.333333333333336
-300.0   150.0   33.333333333333336
-350.0   150.0   33.333333333333336
-300.0   150.0   50.0
-350.0   120.0   50.0
-350.0   150.0   50.0
-300.0   150.0   50.0
-350.0   150.0   33.333333333333336
-350.0   120.0   50.0
-300.0   150.0   50.0
-300.0   120.0   50.0
-300.0   120.0   33.333333333333336
-350.0   120.0   50.0
-300.0   150.0   50.0
-300.0   120.0   33.333333333333336
-350.0   150.0   33.333333333333336
-300.0   0.0   0.0
-250.0   0.0   0.0
-300.0   30.0   0.0
-300.0   0.0   16.666666666666668
-250.0   0.0   0.0
-250.0   30.0   0.0
-300.0   30.0   0.0
-250.0   30.0   16.666666666666668
-300.0   0.0   16.666666666666668
-300.0   30.0   16.666666666666668
-250.0   30.0   16.666666666666668
-300.0   30.0   0.0
-300.0   0.0   16.666666666666668
-250.0   30.0   16.666666666666668
-250.0   0.0   16.666666666666668
-250.0   0.0   0.0
-300.0   0.0   16.666666666666668
-250.0   30.0   16.666666666666668
-250.0   0.0   0.0
-300.0   30.0   0.0
-300.0   0.0   16.666666666666668
-250.0   0.0   16.666666666666668
-300.0   30.0   16.666666666666668
-300.0   0.0   33.333333333333336
-250.0   0.0   16.666666666666668
-250.0   30.0   16.666666666666668
-300.0   30.0   16.666666666666668
-250.0   30.0   33.333333333333336
-300.0   0.0   33.333333333333336
-300.0   30.0   33.333333333333336
-250.0   30.0   33.333333333333336
-300.0   30.0   16.666666666666668
-300.0   0.0   33.333333333333336
-250.0   30.0   33.333333333333336
-250.0   0.0   33.333333333333336
-250.0   0.0   16.666666666666668
-300.0   0.0   33.333333333333336
-250.0   30.0   33.333333333333336
-250.0   0.0   16.666666666666668
-300.0   30.0   16.666666666666668
-300.0   0.0   33.333333333333336
-250.0   0.0   33.333333333333336
-300.0   30.0   33.333333333333336
-300.0   0.0   50.0
-250.0   0.0   33.333333333333336
-250.0   30.0   33.333333333333336
-300.0   30.0   33.333333333333336
-250.0   30.0   50.0
-300.0   0.0   50.0
-300.0   30.0   50.0
-250.0   30.0   50.0
-300.0   30.0   33.333333333333336
-300.0   0.0   50.0
-250.0   30.0   50.0
-250.0   0.0   50.0
-250.0   0.0   33.333333333333336
-300.0   0.0   50.0
-250.0   30.0   50.0
-250.0   0.0   33.333333333333336
-300.0   30.0   33.333333333333336
-300.0   30.0   0.0
-250.0   30.0   0.0
-300.0   60.0   0.0
-300.0   30.0   16.666666666666668
-250.0   30.0   0.0
-250.0   60.0   0.0
-300.0   60.0   0.0
-250.0   60.0   16.666666666666668
-300.0   30.0   16.666666666666668
-300.0   60.0   16.666666666666668
-250.0   60.0   16.666666666666668
-300.0   60.0   0.0
-300.0   30.0   16.666666666666668
-250.0   60.0   16.666666666666668
-250.0   30.0   16.666666666666668
-250.0   30.0   0.0
-300.0   30.0   16.666666666666668
-250.0   60.0   16.666666666666668
-250.0   30.0   0.0
-300.0   60.0   0.0
-300.0   30.0   16.666666666666668
-250.0   30.0   16.666666666666668
-300.0   60.0   16.666666666666668
-300.0   30.0   33.333333333333336
-250.0   30.0   16.666666666666668
-250.0   60.0   16.666666666666668
-300.0   60.0   16.666666666666668
-250.0   60.0   33.333333333333336
-300.0   30.0   33.333333333333336
-300.0   60.0   33.333333333333336
-250.0   60.0   33.333333333333336
-300.0   60.0   16.666666666666668
-300.0   30.0   33.333333333333336
-250.0   60.0   33.333333333333336
-250.0   30.0   33.333333333333336
-250.0   30.0   16.666666666666668
-300.0   30.0   33.333333333333336
-250.0   60.0   33.333333333333336
-250.0   30.0   16.666666666666668
-300.0   60.0   16.666666666666668
-300.0   30.0   33.333333333333336
-250.0   30.0   33.333333333333336
-300.0   60.0   33.333333333333336
-300.0   30.0   50.0
-250.0   30.0   33.333333333333336
-250.0   60.0   33.333333333333336
-300.0   60.0   33.333333333333336
-250.0   60.0   50.0
-300.0   30.0   50.0
-300.0   60.0   50.0
-250.0   60.0   50.0
-300.0   60.0   33.333333333333336
-300.0   30.0   50.0
-250.0   60.0   50.0
-250.0   30.0   50.0
-250.0   30.0   33.333333333333336
-300.0   30.0   50.0
-250.0   60.0   50.0
-250.0   30.0   33.333333333333336
-300.0   60.0   33.333333333333336
-300.0   60.0   0.0
-250.0   60.0   0.0
-300.0   90.0   0.0
-300.0   60.0   16.666666666666668
-250.0   60.0   0.0
-250.0   90.0   0.0
-300.0   90.0   0.0
-250.0   90.0   16.666666666666668
-300.0   60.0   16.666666666666668
-300.0   90.0   16.666666666666668
-250.0   90.0   16.666666666666668
-300.0   90.0   0.0
-300.0   60.0   16.666666666666668
-250.0   90.0   16.666666666666668
-250.0   60.0   16.666666666666668
-250.0   60.0   0.0
-300.0   60.0   16.666666666666668
-250.0   90.0   16.666666666666668
-250.0   60.0   0.0
-300.0   90.0   0.0
-300.0   60.0   16.666666666666668
-250.0   60.0   16.666666666666668
-300.0   90.0   16.666666666666668
-300.0   60.0   33.333333333333336
-250.0   60.0   16.666666666666668
-250.0   90.0   16.666666666666668
-300.0   90.0   16.666666666666668
-250.0   90.0   33.333333333333336
-300.0   60.0   33.333333333333336
-300.0   90.0   33.333333333333336
-250.0   90.0   33.333333333333336
-300.0   90.0   16.666666666666668
-300.0   60.0   33.333333333333336
-250.0   90.0   33.333333333333336
-250.0   60.0   33.333333333333336
-250.0   60.0   16.666666666666668
-300.0   60.0   33.333333333333336
-250.0   90.0   33.333333333333336
-250.0   60.0   16.666666666666668
-300.0   90.0   16.666666666666668
-300.0   60.0   33.333333333333336
-250.0   60.0   33.333333333333336
-300.0   90.0   33.333333333333336
-300.0   60.0   50.0
-250.0   60.0   33.333333333333336
-250.0   90.0   33.333333333333336
-300.0   90.0   33.333333333333336
-250.0   90.0   50.0
-300.0   60.0   50.0
-300.0   90.0   50.0
-250.0   90.0   50.0
-300.0   90.0   33.333333333333336
-300.0   60.0   50.0
-250.0   90.0   50.0
-250.0   60.0   50.0
-250.0   60.0   33.333333333333336
-300.0   60.0   50.0
-250.0   90.0   50.0
-250.0   60.0   33.333333333333336
-300.0   90.0   33.333333333333336
-300.0   90.0   0.0
-250.0   90.0   0.0
-300.0   120.0   0.0
-300.0   90.0   16.666666666666668
-250.0   90.0   0.0
-250.0   120.0   0.0
-300.0   120.0   0.0
-250.0   120.0   16.666666666666668
-300.0   90.0   16.666666666666668
-300.0   120.0   16.666666666666668
-250.0   120.0   16.666666666666668
-300.0   120.0   0.0
-300.0   90.0   16.666666666666668
-250.0   120.0   16.666666666666668
-250.0   90.0   16.666666666666668
-250.0   90.0   0.0
-300.0   90.0   16.666666666666668
-250.0   120.0   16.666666666666668
-250.0   90.0   0.0
-300.0   120.0   0.0
-300.0   90.0   16.666666666666668
-250.0   90.0   16.666666666666668
-300.0   120.0   16.666666666666668
-300.0   90.0   33.333333333333336
-250.0   90.0   16.666666666666668
-250.0   120.0   16.666666666666668
-300.0   120.0   16.666666666666668
-250.0   120.0   33.333333333333336
-300.0   90.0   33.333333333333336
-300.0   120.0   33.333333333333336
-250.0   120.0   33.333333333333336
-300.0   120.0   16.666666666666668
-300.0   90.0   33.333333333333336
-250.0   120.0   33.333333333333336
-250.0   90.0   33.333333333333336
-250.0   90.0   16.666666666666668
-300.0   90.0   33.333333333333336
-250.0   120.0   33.333333333333336
-250.0   90.0   16.666666666666668
-300.0   120.0   16.666666666666668
-300.0   90.0   33.333333333333336
-250.0   90.0   33.333333333333336
-300.0   120.0   33.333333333333336
-300.0   90.0   50.0
-250.0   90.0   33.333333333333336
-250.0   120.0   33.333333333333336
-300.0   120.0   33.333333333333336
-250.0   120.0   50.0
-300.0   90.0   50.0
-300.0   120.0   50.0
-250.0   120.0   50.0
-300.0   120.0   33.333333333333336
-300.0   90.0   50.0
-250.0   120.0   50.0
-250.0   90.0   50.0
-250.0   90.0   33.333333333333336
-300.0   90.0   50.0
-250.0   120.0   50.0
-250.0   90.0   33.333333333333336
-300.0   120.0   33.333333333333336
-300.0   120.0   0.0
-250.0   120.0   0.0
-300.0   150.0   0.0
-300.0   120.0   16.666666666666668
-250.0   120.0   0.0
-250.0   150.0   0.0
-300.0   150.0   0.0
-250.0   150.0   16.666666666666668
-300.0   120.0   16.666666666666668
-300.0   150.0   16.666666666666668
-250.0   150.0   16.666666666666668
-300.0   150.0   0.0
-300.0   120.0   16.666666666666668
-250.0   150.0   16.666666666666668
-250.0   120.0   16.666666666666668
-250.0   120.0   0.0
-300.0   120.0   16.666666666666668
-250.0   150.0   16.666666666666668
-250.0   120.0   0.0
-300.0   150.0   0.0
-300.0   120.0   16.666666666666668
-250.0   120.0   16.666666666666668
-300.0   150.0   16.666666666666668
-300.0   120.0   33.333333333333336
-250.0   120.0   16.666666666666668
-250.0   150.0   16.666666666666668
-300.0   150.0   16.666666666666668
-250.0   150.0   33.333333333333336
-300.0   120.0   33.333333333333336
-300.0   150.0   33.333333333333336
-250.0   150.0   33.333333333333336
-300.0   150.0   16.666666666666668
-300.0   120.0   33.333333333333336
-250.0   150.0   33.333333333333336
-250.0   120.0   33.333333333333336
-250.0   120.0   16.666666666666668
-300.0   120.0   33.333333333333336
-250.0   150.0   33.333333333333336
-250.0   120.0   16.666666666666668
-300.0   150.0   16.666666666666668
-300.0   120.0   33.333333333333336
-250.0   120.0   33.333333333333336
-300.0   150.0   33.333333333333336
-300.0   120.0   50.0
-250.0   120.0   33.333333333333336
-250.0   150.0   33.333333333333336
-300.0   150.0   33.333333333333336
-250.0   150.0   50.0
-300.0   120.0   50.0
-300.0   150.0   50.0
-250.0   150.0   50.0
-300.0   150.0   33.333333333333336
-300.0   120.0   50.0
-250.0   150.0   50.0
-250.0   120.0   50.0
-250.0   120.0   33.333333333333336
-300.0   120.0   50.0
-250.0   150.0   50.0
-250.0   120.0   33.333333333333336
-300.0   150.0   33.333333333333336
-250.0   0.0   0.0
-200.0   0.0   0.0
-250.0   30.0   0.0
-250.0   0.0   16.666666666666668
-200.0   0.0   0.0
-200.0   30.0   0.0
-250.0   30.0   0.0
-200.0   30.0   16.666666666666668
-250.0   0.0   16.666666666666668
-250.0   30.0   16.666666666666668
-200.0   30.0   16.666666666666668
-250.0   30.0   0.0
-250.0   0.0   16.666666666666668
-200.0   30.0   16.666666666666668
-200.0   0.0   16.666666666666668
-200.0   0.0   0.0
-250.0   0.0   16.666666666666668
-200.0   30.0   16.666666666666668
-200.0   0.0   0.0
-250.0   30.0   0.0
-250.0   0.0   16.666666666666668
-200.0   0.0   16.666666666666668
-250.0   30.0   16.666666666666668
-250.0   0.0   33.333333333333336
-200.0   0.0   16.666666666666668
-200.0   30.0   16.666666666666668
-250.0   30.0   16.666666666666668
-200.0   30.0   33.333333333333336
-250.0   0.0   33.333333333333336
-250.0   30.0   33.333333333333336
-200.0   30.0   33.333333333333336
-250.0   30.0   16.666666666666668
-250.0   0.0   33.333333333333336
-200.0   30.0   33.333333333333336
-200.0   0.0   33.333333333333336
-200.0   0.0   16.666666666666668
-250.0   0.0   33.333333333333336
-200.0   30.0   33.333333333333336
-200.0   0.0   16.666666666666668
-250.0   30.0   16.666666666666668
-250.0   0.0   33.333333333333336
-200.0   0.0   33.333333333333336
-250.0   30.0   33.333333333333336
-250.0   0.0   50.0
-200.0   0.0   33.333333333333336
-200.0   30.0   33.333333333333336
-250.0   30.0   33.333333333333336
-200.0   30.0   50.0
-250.0   0.0   50.0
-250.0   30.0   50.0
-200.0   30.0   50.0
-250.0   30.0   33.333333333333336
-250.0   0.0   50.0
-200.0   30.0   50.0
-200.0   0.0   50.0
-200.0   0.0   33.333333333333336
-250.0   0.0   50.0
-200.0   30.0   50.0
-200.0   0.0   33.333333333333336
-250.0   30.0   33.333333333333336
-250.0   30.0   0.0
-200.0   30.0   0.0
-250.0   60.0   0.0
-250.0   30.0   16.666666666666668
-200.0   30.0   0.0
-200.0   60.0   0.0
-250.0   60.0   0.0
-200.0   60.0   16.666666666666668
-250.0   30.0   16.666666666666668
-250.0   60.0   16.666666666666668
-200.0   60.0   16.666666666666668
-250.0   60.0   0.0
-250.0   30.0   16.666666666666668
-200.0   60.0   16.666666666666668
-200.0   30.0   16.666666666666668
-200.0   30.0   0.0
-250.0   30.0   16.666666666666668
-200.0   60.0   16.666666666666668
-200.0   30.0   0.0
-250.0   60.0   0.0
-250.0   30.0   16.666666666666668
-200.0   30.0   16.666666666666668
-250.0   60.0   16.666666666666668
-250.0   30.0   33.333333333333336
-200.0   30.0   16.666666666666668
-200.0   60.0   16.666666666666668
-250.0   60.0   16.666666666666668
-200.0   60.0   33.333333333333336
-250.0   30.0   33.333333333333336
-250.0   60.0   33.333333333333336
-200.0   60.0   33.333333333333336
-250.0   60.0   16.666666666666668
-250.0   30.0   33.333333333333336
-200.0   60.0   33.333333333333336
-200.0   30.0   33.333333333333336
-200.0   30.0   16.666666666666668
-250.0   30.0   33.333333333333336
-200.0   60.0   33.333333333333336
-200.0   30.0   16.666666666666668
-250.0   60.0   16.666666666666668
-250.0   30.0   33.333333333333336
-200.0   30.0   33.333333333333336
-250.0   60.0   33.333333333333336
-250.0   30.0   50.0
-200.0   30.0   33.333333333333336
-200.0   60.0   33.333333333333336
-250.0   60.0   33.333333333333336
-200.0   60.0   50.0
-250.0   30.0   50.0
-250.0   60.0   50.0
-200.0   60.0   50.0
-250.0   60.0   33.333333333333336
-250.0   30.0   50.0
-200.0   60.0   50.0
-200.0   30.0   50.0
-200.0   30.0   33.333333333333336
-250.0   30.0   50.0
-200.0   60.0   50.0
-200.0   30.0   33.333333333333336
-250.0   60.0   33.333333333333336
-250.0   60.0   0.0
-200.0   60.0   0.0
-250.0   90.0   0.0
-250.0   60.0   16.666666666666668
-200.0   60.0   0.0
-200.0   90.0   0.0
-250.0   90.0   0.0
-200.0   90.0   16.666666666666668
-250.0   60.0   16.666666666666668
-250.0   90.0   16.666666666666668
-200.0   90.0   16.666666666666668
-250.0   90.0   0.0
-250.0   60.0   16.666666666666668
-200.0   90.0   16.666666666666668
-200.0   60.0   16.666666666666668
-200.0   60.0   0.0
-250.0   60.0   16.666666666666668
-200.0   90.0   16.666666666666668
-200.0   60.0   0.0
-250.0   90.0   0.0
-250.0   60.0   16.666666666666668
-200.0   60.0   16.666666666666668
-250.0   90.0   16.666666666666668
-250.0   60.0   33.333333333333336
-200.0   60.0   16.666666666666668
-200.0   90.0   16.666666666666668
-250.0   90.0   16.666666666666668
-200.0   90.0   33.333333333333336
-250.0   60.0   33.333333333333336
-250.0   90.0   33.333333333333336
-200.0   90.0   33.333333333333336
-250.0   90.0   16.666666666666668
-250.0   60.0   33.333333333333336
-200.0   90.0   33.333333333333336
-200.0   60.0   33.333333333333336
-200.0   60.0   16.666666666666668
-250.0   60.0   33.333333333333336
-200.0   90.0   33.333333333333336
-200.0   60.0   16.666666666666668
-250.0   90.0   16.666666666666668
-250.0   60.0   33.333333333333336
-200.0   60.0   33.333333333333336
-250.0   90.0   33.333333333333336
-250.0   60.0   50.0
-200.0   60.0   33.333333333333336
-200.0   90.0   33.333333333333336
-250.0   90.0   33.333333333333336
-200.0   90.0   50.0
-250.0   60.0   50.0
-250.0   90.0   50.0
-200.0   90.0   50.0
-250.0   90.0   33.333333333333336
-250.0   60.0   50.0
-200.0   90.0   50.0
-200.0   60.0   50.0
-200.0   60.0   33.333333333333336
-250.0   60.0   50.0
-200.0   90.0   50.0
-200.0   60.0   33.333333333333336
-250.0   90.0   33.333333333333336
-250.0   90.0   0.0
-200.0   90.0   0.0
-250.0   120.0   0.0
-250.0   90.0   16.666666666666668
-200.0   90.0   0.0
-200.0   120.0   0.0
-250.0   120.0   0.0
-200.0   120.0   16.666666666666668
-250.0   90.0   16.666666666666668
-250.0   120.0   16.666666666666668
-200.0   120.0   16.666666666666668
-250.0   120.0   0.0
-250.0   90.0   16.666666666666668
-200.0   120.0   16.666666666666668
-200.0   90.0   16.666666666666668
-200.0   90.0   0.0
-250.0   90.0   16.666666666666668
-200.0   120.0   16.666666666666668
-200.0   90.0   0.0
-250.0   120.0   0.0
-250.0   90.0   16.666666666666668
-200.0   90.0   16.666666666666668
-250.0   120.0   16.666666666666668
-250.0   90.0   33.333333333333336
-200.0   90.0   16.666666666666668
-200.0   120.0   16.666666666666668
-250.0   120.0   16.666666666666668
-200.0   120.0   33.333333333333336
-250.0   90.0   33.333333333333336
-250.0   120.0   33.333333333333336
-200.0   120.0   33.333333333333336
-250.0   120.0   16.666666666666668
-250.0   90.0   33.333333333333336
-200.0   120.0   33.333333333333336
-200.0   90.0   33.333333333333336
-200.0   90.0   16.666666666666668
-250.0   90.0   33.333333333333336
-200.0   120.0   33.333333333333336
-200.0   90.0   16.666666666666668
-250.0   120.0   16.666666666666668
-250.0   90.0   33.333333333333336
-200.0   90.0   33.333333333333336
-250.0   120.0   33.333333333333336
-250.0   90.0   50.0
-200.0   90.0   33.333333333333336
-200.0   120.0   33.333333333333336
-250.0   120.0   33.333333333333336
-200.0   120.0   50.0
-250.0   90.0   50.0
-250.0   120.0   50.0
-200.0   120.0   50.0
-250.0   120.0   33.333333333333336
-250.0   90.0   50.0
-200.0   120.0   50.0
-200.0   90.0   50.0
-200.0   90.0   33.333333333333336
-250.0   90.0   50.0
-200.0   120.0   50.0
-200.0   90.0   33.333333333333336
-250.0   120.0   33.333333333333336
-250.0   120.0   0.0
-200.0   120.0   0.0
-250.0   150.0   0.0
-250.0   120.0   16.666666666666668
-200.0   120.0   0.0
-200.0   150.0   0.0
-250.0   150.0   0.0
-200.0   150.0   16.666666666666668
-250.0   120.0   16.666666666666668
-250.0   150.0   16.666666666666668
-200.0   150.0   16.666666666666668
-250.0   150.0   0.0
-250.0   120.0   16.666666666666668
-200.0   150.0   16.666666666666668
-200.0   120.0   16.666666666666668
-200.0   120.0   0.0
-250.0   120.0   16.666666666666668
-200.0   150.0   16.666666666666668
-200.0   120.0   0.0
-250.0   150.0   0.0
-250.0   120.0   16.666666666666668
-200.0   120.0   16.666666666666668
-250.0   150.0   16.666666666666668
-250.0   120.0   33.333333333333336
-200.0   120.0   16.666666666666668
-200.0   150.0   16.666666666666668
-250.0   150.0   16.666666666666668
-200.0   150.0   33.333333333333336
-250.0   120.0   33.333333333333336
-250.0   150.0   33.333333333333336
-200.0   150.0   33.333333333333336
-250.0   150.0   16.666666666666668
-250.0   120.0   33.333333333333336
-200.0   150.0   33.333333333333336
-200.0   120.0   33.333333333333336
-200.0   120.0   16.666666666666668
-250.0   120.0   33.333333333333336
-200.0   150.0   33.333333333333336
-200.0   120.0   16.666666666666668
-250.0   150.0   16.666666666666668
-250.0   120.0   33.333333333333336
-200.0   120.0   33.333333333333336
-250.0   150.0   33.333333333333336
-250.0   120.0   50.0
-200.0   120.0   33.333333333333336
-200.0   150.0   33.333333333333336
-250.0   150.0   33.333333333333336
-200.0   150.0   50.0
-250.0   120.0   50.0
-250.0   150.0   50.0
-200.0   150.0   50.0
-250.0   150.0   33.333333333333336
-250.0   120.0   50.0
-200.0   150.0   50.0
-200.0   120.0   50.0
-200.0   120.0   33.333333333333336
-250.0   120.0   50.0
-200.0   150.0   50.0
-200.0   120.0   33.333333333333336
-250.0   150.0   33.333333333333336
-200.0   0.0   0.0
-150.0   0.0   0.0
-200.0   30.0   0.0
-200.0   0.0   16.666666666666668
-150.0   0.0   0.0
-150.0   30.0   0.0
-200.0   30.0   0.0
-150.0   30.0   16.666666666666668
-200.0   0.0   16.666666666666668
-200.0   30.0   16.666666666666668
-150.0   30.0   16.666666666666668
-200.0   30.0   0.0
-200.0   0.0   16.666666666666668
-150.0   30.0   16.666666666666668
-150.0   0.0   16.666666666666668
-150.0   0.0   0.0
-200.0   0.0   16.666666666666668
-150.0   30.0   16.666666666666668
-150.0   0.0   0.0
-200.0   30.0   0.0
-200.0   0.0   16.666666666666668
-150.0   0.0   16.666666666666668
-200.0   30.0   16.666666666666668
-200.0   0.0   33.333333333333336
-150.0   0.0   16.666666666666668
-150.0   30.0   16.666666666666668
-200.0   30.0   16.666666666666668
-150.0   30.0   33.333333333333336
-200.0   0.0   33.333333333333336
-200.0   30.0   33.333333333333336
-150.0   30.0   33.333333333333336
-200.0   30.0   16.666666666666668
-200.0   0.0   33.333333333333336
-150.0   30.0   33.333333333333336
-150.0   0.0   33.333333333333336
-150.0   0.0   16.666666666666668
-200.0   0.0   33.333333333333336
-150.0   30.0   33.333333333333336
-150.0   0.0   16.666666666666668
-200.0   30.0   16.666666666666668
-200.0   0.0   33.333333333333336
-150.0   0.0   33.333333333333336
-200.0   30.0   33.333333333333336
-200.0   0.0   50.0
-150.0   0.0   33.333333333333336
-150.0   30.0   33.333333333333336
-200.0   30.0   33.333333333333336
-150.0   30.0   50.0
-200.0   0.0   50.0
-200.0   30.0   50.0
-150.0   30.0   50.0
-200.0   30.0   33.333333333333336
-200.0   0.0   50.0
-150.0   30.0   50.0
-150.0   0.0   50.0
-150.0   0.0   33.333333333333336
-200.0   0.0   50.0
-150.0   30.0   50.0
-150.0   0.0   33.333333333333336
-200.0   30.0   33.333333333333336
-200.0   30.0   0.0
-150.0   30.0   0.0
-200.0   60.0   0.0
-200.0   30.0   16.666666666666668
-150.0   30.0   0.0
-150.0   60.0   0.0
-200.0   60.0   0.0
-150.0   60.0   16.666666666666668
-200.0   30.0   16.666666666666668
-200.0   60.0   16.666666666666668
-150.0   60.0   16.666666666666668
-200.0   60.0   0.0
-200.0   30.0   16.666666666666668
-150.0   60.0   16.666666666666668
-150.0   30.0   16.666666666666668
-150.0   30.0   0.0
-200.0   30.0   16.666666666666668
-150.0   60.0   16.666666666666668
-150.0   30.0   0.0
-200.0   60.0   0.0
-200.0   30.0   16.666666666666668
-150.0   30.0   16.666666666666668
-200.0   60.0   16.666666666666668
-200.0   30.0   33.333333333333336
-150.0   30.0   16.666666666666668
-150.0   60.0   16.666666666666668
-200.0   60.0   16.666666666666668
-150.0   60.0   33.333333333333336
-200.0   30.0   33.333333333333336
-200.0   60.0   33.333333333333336
-150.0   60.0   33.333333333333336
-200.0   60.0   16.666666666666668
-200.0   30.0   33.333333333333336
-150.0   60.0   33.333333333333336
-150.0   30.0   33.333333333333336
-150.0   30.0   16.666666666666668
-200.0   30.0   33.333333333333336
-150.0   60.0   33.333333333333336
-150.0   30.0   16.666666666666668
-200.0   60.0   16.666666666666668
-200.0   30.0   33.333333333333336
-150.0   30.0   33.333333333333336
-200.0   60.0   33.333333333333336
-200.0   30.0   50.0
-150.0   30.0   33.333333333333336
-150.0   60.0   33.333333333333336
-200.0   60.0   33.333333333333336
-150.0   60.0   50.0
-200.0   30.0   50.0
-200.0   60.0   50.0
-150.0   60.0   50.0
-200.0   60.0   33.333333333333336
-200.0   30.0   50.0
-150.0   60.0   50.0
-150.0   30.0   50.0
-150.0   30.0   33.333333333333336
-200.0   30.0   50.0
-150.0   60.0   50.0
-150.0   30.0   33.333333333333336
-200.0   60.0   33.333333333333336
-200.0   60.0   0.0
-150.0   60.0   0.0
-200.0   90.0   0.0
-200.0   60.0   16.666666666666668
-150.0   60.0   0.0
-150.0   90.0   0.0
-200.0   90.0   0.0
-150.0   90.0   16.666666666666668
-200.0   60.0   16.666666666666668
-200.0   90.0   16.666666666666668
-150.0   90.0   16.666666666666668
-200.0   90.0   0.0
-200.0   60.0   16.666666666666668
-150.0   90.0   16.666666666666668
-150.0   60.0   16.666666666666668
-150.0   60.0   0.0
-200.0   60.0   16.666666666666668
-150.0   90.0   16.666666666666668
-150.0   60.0   0.0
-200.0   90.0   0.0
-200.0   60.0   16.666666666666668
-150.0   60.0   16.666666666666668
-200.0   90.0   16.666666666666668
-200.0   60.0   33.333333333333336
-150.0   60.0   16.666666666666668
-150.0   90.0   16.666666666666668
-200.0   90.0   16.666666666666668
-150.0   90.0   33.333333333333336
-200.0   60.0   33.333333333333336
-200.0   90.0   33.333333333333336
-150.0   90.0   33.333333333333336
-200.0   90.0   16.666666666666668
-200.0   60.0   33.333333333333336
-150.0   90.0   33.333333333333336
-150.0   60.0   33.333333333333336
-150.0   60.0   16.666666666666668
-200.0   60.0   33.333333333333336
-150.0   90.0   33.333333333333336
-150.0   60.0   16.666666666666668
-200.0   90.0   16.666666666666668
-200.0   60.0   33.333333333333336
-150.0   60.0   33.333333333333336
-200.0   90.0   33.333333333333336
-200.0   60.0   50.0
-150.0   60.0   33.333333333333336
-150.0   90.0   33.333333333333336
-200.0   90.0   33.333333333333336
-150.0   90.0   50.0
-200.0   60.0   50.0
-200.0   90.0   50.0
-150.0   90.0   50.0
-200.0   90.0   33.333333333333336
-200.0   60.0   50.0
-150.0   90.0   50.0
-150.0   60.0   50.0
-150.0   60.0   33.333333333333336
-200.0   60.0   50.0
-150.0   90.0   50.0
-150.0   60.0   33.333333333333336
-200.0   90.0   33.333333333333336
-200.0   90.0   0.0
-150.0   90.0   0.0
-200.0   120.0   0.0
-200.0   90.0   16.666666666666668
-150.0   90.0   0.0
-150.0   120.0   0.0
-200.0   120.0   0.0
-150.0   120.0   16.666666666666668
-200.0   90.0   16.666666666666668
-200.0   120.0   16.666666666666668
-150.0   120.0   16.666666666666668
-200.0   120.0   0.0
-200.0   90.0   16.666666666666668
-150.0   120.0   16.666666666666668
-150.0   90.0   16.666666666666668
-150.0   90.0   0.0
-200.0   90.0   16.666666666666668
-150.0   120.0   16.666666666666668
-150.0   90.0   0.0
-200.0   120.0   0.0
-200.0   90.0   16.666666666666668
-150.0   90.0   16.666666666666668
-200.0   120.0   16.666666666666668
-200.0   90.0   33.333333333333336
-150.0   90.0   16.666666666666668
-150.0   120.0   16.666666666666668
-200.0   120.0   16.666666666666668
-150.0   120.0   33.333333333333336
-200.0   90.0   33.333333333333336
-200.0   120.0   33.333333333333336
-150.0   120.0   33.333333333333336
-200.0   120.0   16.666666666666668
-200.0   90.0   33.333333333333336
-150.0   120.0   33.333333333333336
-150.0   90.0   33.333333333333336
-150.0   90.0   16.666666666666668
-200.0   90.0   33.333333333333336
-150.0   120.0   33.333333333333336
-150.0   90.0   16.666666666666668
-200.0   120.0   16.666666666666668
-200.0   90.0   33.333333333333336
-150.0   90.0   33.333333333333336
-200.0   120.0   33.333333333333336
-200.0   90.0   50.0
-150.0   90.0   33.333333333333336
-150.0   120.0   33.333333333333336
-200.0   120.0   33.333333333333336
-150.0   120.0   50.0
-200.0   90.0   50.0
-200.0   120.0   50.0
-150.0   120.0   50.0
-200.0   120.0   33.333333333333336
-200.0   90.0   50.0
-150.0   120.0   50.0
-150.0   90.0   50.0
-150.0   90.0   33.333333333333336
-200.0   90.0   50.0
-150.0   120.0   50.0
-150.0   90.0   33.333333333333336
-200.0   120.0   33.333333333333336
-200.0   120.0   0.0
-150.0   120.0   0.0
-200.0   150.0   0.0
-200.0   120.0   16.666666666666668
-150.0   120.0   0.0
-150.0   150.0   0.0
-200.0   150.0   0.0
-150.0   150.0   16.666666666666668
-200.0   120.0   16.666666666666668
-200.0   150.0   16.666666666666668
-150.0   150.0   16.666666666666668
-200.0   150.0   0.0
-200.0   120.0   16.666666666666668
-150.0   150.0   16.666666666666668
-150.0   120.0   16.666666666666668
-150.0   120.0   0.0
-200.0   120.0   16.666666666666668
-150.0   150.0   16.666666666666668
-150.0   120.0   0.0
-200.0   150.0   0.0
-200.0   120.0   16.666666666666668
-150.0   120.0   16.666666666666668
-200.0   150.0   16.666666666666668
-200.0   120.0   33.333333333333336
-150.0   120.0   16.666666666666668
-150.0   150.0   16.666666666666668
-200.0   150.0   16.666666666666668
-150.0   150.0   33.333333333333336
-200.0   120.0   33.333333333333336
-200.0   150.0   33.333333333333336
-150.0   150.0   33.333333333333336
-200.0   150.0   16.666666666666668
-200.0   120.0   33.333333333333336
-150.0   150.0   33.333333333333336
-150.0   120.0   33.333333333333336
-150.0   120.0   16.666666666666668
-200.0   120.0   33.333333333333336
-150.0   150.0   33.333333333333336
-150.0   120.0   16.666666666666668
-200.0   150.0   16.666666666666668
-200.0   120.0   33.333333333333336
-150.0   120.0   33.333333333333336
-200.0   150.0   33.333333333333336
-200.0   120.0   50.0
-150.0   120.0   33.333333333333336
-150.0   150.0   33.333333333333336
-200.0   150.0   33.333333333333336
-150.0   150.0   50.0
-200.0   120.0   50.0
-200.0   150.0   50.0
-150.0   150.0   50.0
-200.0   150.0   33.333333333333336
-200.0   120.0   50.0
-150.0   150.0   50.0
-150.0   120.0   50.0
-150.0   120.0   33.333333333333336
-200.0   120.0   50.0
-150.0   150.0   50.0
-150.0   120.0   33.333333333333336
-200.0   150.0   33.333333333333336
-150.0   0.0   0.0
-100.0   0.0   0.0
-150.0   30.0   0.0
-150.0   0.0   16.666666666666668
-100.0   0.0   0.0
-100.0   30.0   0.0
-150.0   30.0   0.0
-100.0   30.0   16.666666666666668
-150.0   0.0   16.666666666666668
-150.0   30.0   16.666666666666668
-100.0   30.0   16.666666666666668
-150.0   30.0   0.0
-150.0   0.0   16.666666666666668
-100.0   30.0   16.666666666666668
-100.0   0.0   16.666666666666668
-100.0   0.0   0.0
-150.0   0.0   16.666666666666668
-100.0   30.0   16.666666666666668
-100.0   0.0   0.0
-150.0   30.0   0.0
-150.0   0.0   16.666666666666668
-100.0   0.0   16.666666666666668
-150.0   30.0   16.666666666666668
-150.0   0.0   33.333333333333336
-100.0   0.0   16.666666666666668
-100.0   30.0   16.666666666666668
-150.0   30.0   16.666666666666668
-100.0   30.0   33.333333333333336
-150.0   0.0   33.333333333333336
-150.0   30.0   33.333333333333336
-100.0   30.0   33.333333333333336
-150.0   30.0   16.666666666666668
-150.0   0.0   33.333333333333336
-100.0   30.0   33.333333333333336
-100.0   0.0   33.333333333333336
-100.0   0.0   16.666666666666668
-150.0   0.0   33.333333333333336
-100.0   30.0   33.333333333333336
-100.0   0.0   16.666666666666668
-150.0   30.0   16.666666666666668
-150.0   0.0   33.333333333333336
-100.0   0.0   33.333333333333336
-150.0   30.0   33.333333333333336
-150.0   0.0   50.0
-100.0   0.0   33.333333333333336
-100.0   30.0   33.333333333333336
-150.0   30.0   33.333333333333336
-100.0   30.0   50.0
-150.0   0.0   50.0
-150.0   30.0   50.0
-100.0   30.0   50.0
-150.0   30.0   33.333333333333336
-150.0   0.0   50.0
-100.0   30.0   50.0
-100.0   0.0   50.0
-100.0   0.0   33.333333333333336
-150.0   0.0   50.0
-100.0   30.0   50.0
-100.0   0.0   33.333333333333336
-150.0   30.0   33.333333333333336
-150.0   30.0   0.0
-100.0   30.0   0.0
-150.0   60.0   0.0
-150.0   30.0   16.666666666666668
-100.0   30.0   0.0
-100.0   60.0   0.0
-150.0   60.0   0.0
-100.0   60.0   16.666666666666668
-150.0   30.0   16.666666666666668
-150.0   60.0   16.666666666666668
-100.0   60.0   16.666666666666668
-150.0   60.0   0.0
-150.0   30.0   16.666666666666668
-100.0   60.0   16.666666666666668
-100.0   30.0   16.666666666666668
-100.0   30.0   0.0
-150.0   30.0   16.666666666666668
-100.0   60.0   16.666666666666668
-100.0   30.0   0.0
-150.0   60.0   0.0
-150.0   30.0   16.666666666666668
-100.0   30.0   16.666666666666668
-150.0   60.0   16.666666666666668
-150.0   30.0   33.333333333333336
-100.0   30.0   16.666666666666668
-100.0   60.0   16.666666666666668
-150.0   60.0   16.666666666666668
-100.0   60.0   33.333333333333336
-150.0   30.0   33.333333333333336
-150.0   60.0   33.333333333333336
-100.0   60.0   33.333333333333336
-150.0   60.0   16.666666666666668
-150.0   30.0   33.333333333333336
-100.0   60.0   33.333333333333336
-100.0   30.0   33.333333333333336
-100.0   30.0   16.666666666666668
-150.0   30.0   33.333333333333336
-100.0   60.0   33.333333333333336
-100.0   30.0   16.666666666666668
-150.0   60.0   16.666666666666668
-150.0   30.0   33.333333333333336
-100.0   30.0   33.333333333333336
-150.0   60.0   33.333333333333336
-150.0   30.0   50.0
-100.0   30.0   33.333333333333336
-100.0   60.0   33.333333333333336
-150.0   60.0   33.333333333333336
-100.0   60.0   50.0
-150.0   30.0   50.0
-150.0   60.0   50.0
-100.0   60.0   50.0
-150.0   60.0   33.333333333333336
-150.0   30.0   50.0
-100.0   60.0   50.0
-100.0   30.0   50.0
-100.0   30.0   33.333333333333336
-150.0   30.0   50.0
-100.0   60.0   50.0
-100.0   30.0   33.333333333333336
-150.0   60.0   33.333333333333336
-150.0   60.0   0.0
-100.0   60.0   0.0
-150.0   90.0   0.0
-150.0   60.0   16.666666666666668
-100.0   60.0   0.0
-100.0   90.0   0.0
-150.0   90.0   0.0
-100.0   90.0   16.666666666666668
-150.0   60.0   16.666666666666668
-150.0   90.0   16.666666666666668
-100.0   90.0   16.666666666666668
-150.0   90.0   0.0
-150.0   60.0   16.666666666666668
-100.0   90.0   16.666666666666668
-100.0   60.0   16.666666666666668
-100.0   60.0   0.0
-150.0   60.0   16.666666666666668
-100.0   90.0   16.666666666666668
-100.0   60.0   0.0
-150.0   90.0   0.0
-150.0   60.0   16.666666666666668
-100.0   60.0   16.666666666666668
-150.0   90.0   16.666666666666668
-150.0   60.0   33.333333333333336
-100.0   60.0   16.666666666666668
-100.0   90.0   16.666666666666668
-150.0   90.0   16.666666666666668
-100.0   90.0   33.333333333333336
-150.0   60.0   33.333333333333336
-150.0   90.0   33.333333333333336
-100.0   90.0   33.333333333333336
-150.0   90.0   16.666666666666668
-150.0   60.0   33.333333333333336
-100.0   90.0   33.333333333333336
-100.0   60.0   33.333333333333336
-100.0   60.0   16.666666666666668
-150.0   60.0   33.333333333333336
-100.0   90.0   33.333333333333336
-100.0   60.0   16.666666666666668
-150.0   90.0   16.666666666666668
-150.0   60.0   33.333333333333336
-100.0   60.0   33.333333333333336
-150.0   90.0   33.333333333333336
-150.0   60.0   50.0
-100.0   60.0   33.333333333333336
-100.0   90.0   33.333333333333336
-150.0   90.0   33.333333333333336
-100.0   90.0   50.0
-150.0   60.0   50.0
-150.0   90.0   50.0
-100.0   90.0   50.0
-150.0   90.0   33.333333333333336
-150.0   60.0   50.0
-100.0   90.0   50.0
-100.0   60.0   50.0
-100.0   60.0   33.333333333333336
-150.0   60.0   50.0
-100.0   90.0   50.0
-100.0   60.0   33.333333333333336
-150.0   90.0   33.333333333333336
-150.0   90.0   0.0
-100.0   90.0   0.0
-150.0   120.0   0.0
-150.0   90.0   16.666666666666668
-100.0   90.0   0.0
-100.0   120.0   0.0
-150.0   120.0   0.0
-100.0   120.0   16.666666666666668
-150.0   90.0   16.666666666666668
-150.0   120.0   16.666666666666668
-100.0   120.0   16.666666666666668
-150.0   120.0   0.0
-150.0   90.0   16.666666666666668
-100.0   120.0   16.666666666666668
-100.0   90.0   16.666666666666668
-100.0   90.0   0.0
-150.0   90.0   16.666666666666668
-100.0   120.0   16.666666666666668
-100.0   90.0   0.0
-150.0   120.0   0.0
-150.0   90.0   16.666666666666668
-100.0   90.0   16.666666666666668
-150.0   120.0   16.666666666666668
-150.0   90.0   33.333333333333336
-100.0   90.0   16.666666666666668
-100.0   120.0   16.666666666666668
-150.0   120.0   16.666666666666668
-100.0   120.0   33.333333333333336
-150.0   90.0   33.333333333333336
-150.0   120.0   33.333333333333336
-100.0   120.0   33.333333333333336
-150.0   120.0   16.666666666666668
-150.0   90.0   33.333333333333336
-100.0   120.0   33.333333333333336
-100.0   90.0   33.333333333333336
-100.0   90.0   16.666666666666668
-150.0   90.0   33.333333333333336
-100.0   120.0   33.333333333333336
-100.0   90.0   16.666666666666668
-150.0   120.0   16.666666666666668
-150.0   90.0   33.333333333333336
-100.0   90.0   33.333333333333336
-150.0   120.0   33.333333333333336
-150.0   90.0   50.0
-100.0   90.0   33.333333333333336
-100.0   120.0   33.333333333333336
-150.0   120.0   33.333333333333336
-100.0   120.0   50.0
-150.0   90.0   50.0
-150.0   120.0   50.0
-100.0   120.0   50.0
-150.0   120.0   33.333333333333336
-150.0   90.0   50.0
-100.0   120.0   50.0
-100.0   90.0   50.0
-100.0   90.0   33.333333333333336
-150.0   90.0   50.0
-100.0   120.0   50.0
-100.0   90.0   33.333333333333336
-150.0   120.0   33.333333333333336
-150.0   120.0   0.0
-100.0   120.0   0.0
-150.0   150.0   0.0
-150.0   120.0   16.666666666666668
-100.0   120.0   0.0
-100.0   150.0   0.0
-150.0   150.0   0.0
-100.0   150.0   16.666666666666668
-150.0   120.0   16.666666666666668
-150.0   150.0   16.666666666666668
-100.0   150.0   16.666666666666668
-150.0   150.0   0.0
-150.0   120.0   16.666666666666668
-100.0   150.0   16.666666666666668
-100.0   120.0   16.666666666666668
-100.0   120.0   0.0
-150.0   120.0   16.666666666666668
-100.0   150.0   16.666666666666668
-100.0   120.0   0.0
-150.0   150.0   0.0
-150.0   120.0   16.666666666666668
-100.0   120.0   16.666666666666668
-150.0   150.0   16.666666666666668
-150.0   120.0   33.333333333333336
-100.0   120.0   16.666666666666668
-100.0   150.0   16.666666666666668
-150.0   150.0   16.666666666666668
-100.0   150.0   33.333333333333336
-150.0   120.0   33.333333333333336
-150.0   150.0   33.333333333333336
-100.0   150.0   33.333333333333336
-150.0   150.0   16.666666666666668
-150.0   120.0   33.333333333333336
-100.0   150.0   33.333333333333336
-100.0   120.0   33.333333333333336
-100.0   120.0   16.666666666666668
-150.0   120.0   33.333333333333336
-100.0   150.0   33.333333333333336
-100.0   120.0   16.666666666666668
-150.0   150.0   16.666666666666668
-150.0   120.0   33.333333333333336
-100.0   120.0   33.333333333333336
-150.0   150.0   33.333333333333336
-150.0   120.0   50.0
-100.0   120.0   33.333333333333336
-100.0   150.0   33.333333333333336
-150.0   150.0   33.333333333333336
-100.0   150.0   50.0
-150.0   120.0   50.0
-150.0   150.0   50.0
-100.0   150.0   50.0
-150.0   150.0   33.333333333333336
-150.0   120.0   50.0
-100.0   150.0   50.0
-100.0   120.0   50.0
-100.0   120.0   33.333333333333336
-150.0   120.0   50.0
-100.0   150.0   50.0
-100.0   120.0   33.333333333333336
-150.0   150.0   33.333333333333336
-100.0   0.0   0.0
-50.0   0.0   0.0
-100.0   30.0   0.0
-100.0   0.0   16.666666666666668
-50.0   0.0   0.0
-50.0   30.0   0.0
-100.0   30.0   0.0
-50.0   30.0   16.666666666666668
-100.0   0.0   16.666666666666668
-100.0   30.0   16.666666666666668
-50.0   30.0   16.666666666666668
-100.0   30.0   0.0
-100.0   0.0   16.666666666666668
-50.0   30.0   16.666666666666668
-50.0   0.0   16.666666666666668
-50.0   0.0   0.0
-100.0   0.0   16.666666666666668
-50.0   30.0   16.666666666666668
-50.0   0.0   0.0
-100.0   30.0   0.0
-100.0   0.0   16.666666666666668
-50.0   0.0   16.666666666666668
-100.0   30.0   16.666666666666668
-100.0   0.0   33.333333333333336
-50.0   0.0   16.666666666666668
-50.0   30.0   16.666666666666668
-100.0   30.0   16.666666666666668
-50.0   30.0   33.333333333333336
-100.0   0.0   33.333333333333336
-100.0   30.0   33.333333333333336
-50.0   30.0   33.333333333333336
-100.0   30.0   16.666666666666668
-100.0   0.0   33.333333333333336
-50.0   30.0   33.333333333333336
-50.0   0.0   33.333333333333336
-50.0   0.0   16.666666666666668
-100.0   0.0   33.333333333333336
-50.0   30.0   33.333333333333336
-50.0   0.0   16.666666666666668
-100.0   30.0   16.666666666666668
-100.0   0.0   33.333333333333336
-50.0   0.0   33.333333333333336
-100.0   30.0   33.333333333333336
-100.0   0.0   50.0
-50.0   0.0   33.333333333333336
-50.0   30.0   33.333333333333336
-100.0   30.0   33.333333333333336
-50.0   30.0   50.0
-100.0   0.0   50.0
-100.0   30.0   50.0
-50.0   30.0   50.0
-100.0   30.0   33.333333333333336
-100.0   0.0   50.0
-50.0   30.0   50.0
-50.0   0.0   50.0
-50.0   0.0   33.333333333333336
-100.0   0.0   50.0
-50.0   30.0   50.0
-50.0   0.0   33.333333333333336
-100.0   30.0   33.333333333333336
-100.0   30.0   0.0
-50.0   30.0   0.0
-100.0   60.0   0.0
-100.0   30.0   16.666666666666668
-50.0   30.0   0.0
-50.0   60.0   0.0
-100.0   60.0   0.0
-50.0   60.0   16.666666666666668
-100.0   30.0   16.666666666666668
-100.0   60.0   16.666666666666668
-50.0   60.0   16.666666666666668
-100.0   60.0   0.0
-100.0   30.0   16.666666666666668
-50.0   60.0   16.666666666666668
-50.0   30.0   16.666666666666668
-50.0   30.0   0.0
-100.0   30.0   16.666666666666668
-50.0   60.0   16.666666666666668
-50.0   30.0   0.0
-100.0   60.0   0.0
-100.0   30.0   16.666666666666668
-50.0   30.0   16.666666666666668
-100.0   60.0   16.666666666666668
-100.0   30.0   33.333333333333336
-50.0   30.0   16.666666666666668
-50.0   60.0   16.666666666666668
-100.0   60.0   16.666666666666668
-50.0   60.0   33.333333333333336
-100.0   30.0   33.333333333333336
-100.0   60.0   33.333333333333336
-50.0   60.0   33.333333333333336
-100.0   60.0   16.666666666666668
-100.0   30.0   33.333333333333336
-50.0   60.0   33.333333333333336
-50.0   30.0   33.333333333333336
-50.0   30.0   16.666666666666668
-100.0   30.0   33.333333333333336
-50.0   60.0   33.333333333333336
-50.0   30.0   16.666666666666668
-100.0   60.0   16.666666666666668
-100.0   30.0   33.333333333333336
-50.0   30.0   33.333333333333336
-100.0   60.0   33.333333333333336
-100.0   30.0   50.0
-50.0   30.0   33.333333333333336
-50.0   60.0   33.333333333333336
-100.0   60.0   33.333333333333336
-50.0   60.0   50.0
-100.0   30.0   50.0
-100.0   60.0   50.0
-50.0   60.0   50.0
-100.0   60.0   33.333333333333336
-100.0   30.0   50.0
-50.0   60.0   50.0
-50.0   30.0   50.0
-50.0   30.0   33.333333333333336
-100.0   30.0   50.0
-50.0   60.0   50.0
-50.0   30.0   33.333333333333336
-100.0   60.0   33.333333333333336
-100.0   60.0   0.0
-50.0   60.0   0.0
-100.0   90.0   0.0
-100.0   60.0   16.666666666666668
-50.0   60.0   0.0
-50.0   90.0   0.0
-100.0   90.0   0.0
-50.0   90.0   16.666666666666668
-100.0   60.0   16.666666666666668
-100.0   90.0   16.666666666666668
-50.0   90.0   16.666666666666668
-100.0   90.0   0.0
-100.0   60.0   16.666666666666668
-50.0   90.0   16.666666666666668
-50.0   60.0   16.666666666666668
-50.0   60.0   0.0
-100.0   60.0   16.666666666666668
-50.0   90.0   16.666666666666668
-50.0   60.0   0.0
-100.0   90.0   0.0
-100.0   60.0   16.666666666666668
-50.0   60.0   16.666666666666668
-100.0   90.0   16.666666666666668
-100.0   60.0   33.333333333333336
-50.0   60.0   16.666666666666668
-50.0   90.0   16.666666666666668
-100.0   90.0   16.666666666666668
-50.0   90.0   33.333333333333336
-100.0   60.0   33.333333333333336
-100.0   90.0   33.333333333333336
-50.0   90.0   33.333333333333336
-100.0   90.0   16.666666666666668
-100.0   60.0   33.333333333333336
-50.0   90.0   33.333333333333336
-50.0   60.0   33.333333333333336
-50.0   60.0   16.666666666666668
-100.0   60.0   33.333333333333336
-50.0   90.0   33.333333333333336
-50.0   60.0   16.666666666666668
-100.0   90.0   16.666666666666668
-100.0   60.0   33.333333333333336
-50.0   60.0   33.333333333333336
-100.0   90.0   33.333333333333336
-100.0   60.0   50.0
-50.0   60.0   33.333333333333336
-50.0   90.0   33.333333333333336
-100.0   90.0   33.333333333333336
-50.0   90.0   50.0
-100.0   60.0   50.0
-100.0   90.0   50.0
-50.0   90.0   50.0
-100.0   90.0   33.333333333333336
-100.0   60.0   50.0
-50.0   90.0   50.0
-50.0   60.0   50.0
-50.0   60.0   33.333333333333336
-100.0   60.0   50.0
-50.0   90.0   50.0
-50.0   60.0   33.333333333333336
-100.0   90.0   33.333333333333336
-100.0   90.0   0.0
-50.0   90.0   0.0
-100.0   120.0   0.0
-100.0   90.0   16.666666666666668
-50.0   90.0   0.0
-50.0   120.0   0.0
-100.0   120.0   0.0
-50.0   120.0   16.666666666666668
-100.0   90.0   16.666666666666668
-100.0   120.0   16.666666666666668
-50.0   120.0   16.666666666666668
-100.0   120.0   0.0
-100.0   90.0   16.666666666666668
-50.0   120.0   16.666666666666668
-50.0   90.0   16.666666666666668
-50.0   90.0   0.0
-100.0   90.0   16.666666666666668
-50.0   120.0   16.666666666666668
-50.0   90.0   0.0
-100.0   120.0   0.0
-100.0   90.0   16.666666666666668
-50.0   90.0   16.666666666666668
-100.0   120.0   16.666666666666668
-100.0   90.0   33.333333333333336
-50.0   90.0   16.666666666666668
-50.0   120.0   16.666666666666668
-100.0   120.0   16.666666666666668
-50.0   120.0   33.333333333333336
-100.0   90.0   33.333333333333336
-100.0   120.0   33.333333333333336
-50.0   120.0   33.333333333333336
-100.0   120.0   16.666666666666668
-100.0   90.0   33.333333333333336
-50.0   120.0   33.333333333333336
-50.0   90.0   33.333333333333336
-50.0   90.0   16.666666666666668
-100.0   90.0   33.333333333333336
-50.0   120.0   33.333333333333336
-50.0   90.0   16.666666666666668
-100.0   120.0   16.666666666666668
-100.0   90.0   33.333333333333336
-50.0   90.0   33.333333333333336
-100.0   120.0   33.333333333333336
-100.0   90.0   50.0
-50.0   90.0   33.333333333333336
-50.0   120.0   33.333333333333336
-100.0   120.0   33.333333333333336
-50.0   120.0   50.0
-100.0   90.0   50.0
-100.0   120.0   50.0
-50.0   120.0   50.0
-100.0   120.0   33.333333333333336
-100.0   90.0   50.0
-50.0   120.0   50.0
-50.0   90.0   50.0
-50.0   90.0   33.333333333333336
-100.0   90.0   50.0
-50.0   120.0   50.0
-50.0   90.0   33.333333333333336
-100.0   120.0   33.333333333333336
-100.0   120.0   0.0
-50.0   120.0   0.0
-100.0   150.0   0.0
-100.0   120.0   16.666666666666668
-50.0   120.0   0.0
-50.0   150.0   0.0
-100.0   150.0   0.0
-50.0   150.0   16.666666666666668
-100.0   120.0   16.666666666666668
-100.0   150.0   16.666666666666668
-50.0   150.0   16.666666666666668
-100.0   150.0   0.0
-100.0   120.0   16.666666666666668
-50.0   150.0   16.666666666666668
-50.0   120.0   16.666666666666668
-50.0   120.0   0.0
-100.0   120.0   16.666666666666668
-50.0   150.0   16.666666666666668
-50.0   120.0   0.0
-100.0   150.0   0.0
-100.0   120.0   16.666666666666668
-50.0   120.0   16.666666666666668
-100.0   150.0   16.666666666666668
-100.0   120.0   33.333333333333336
-50.0   120.0   16.666666666666668
-50.0   150.0   16.666666666666668
-100.0   150.0   16.666666666666668
-50.0   150.0   33.333333333333336
-100.0   120.0   33.333333333333336
-100.0   150.0   33.333333333333336
-50.0   150.0   33.333333333333336
-100.0   150.0   16.666666666666668
-100.0   120.0   33.333333333333336
-50.0   150.0   33.333333333333336
-50.0   120.0   33.333333333333336
-50.0   120.0   16.666666666666668
-100.0   120.0   33.333333333333336
-50.0   150.0   33.333333333333336
-50.0   120.0   16.666666666666668
-100.0   150.0   16.666666666666668
-100.0   120.0   33.333333333333336
-50.0   120.0   33.333333333333336
-100.0   150.0   33.333333333333336
-100.0   120.0   50.0
-50.0   120.0   33.333333333333336
-50.0   150.0   33.333333333333336
-100.0   150.0   33.333333333333336
-50.0   150.0   50.0
-100.0   120.0   50.0
-100.0   150.0   50.0
-50.0   150.0   50.0
-100.0   150.0   33.333333333333336
-100.0   120.0   50.0
-50.0   150.0   50.0
-50.0   120.0   50.0
-50.0   120.0   33.333333333333336
-100.0   120.0   50.0
-50.0   150.0   50.0
-50.0   120.0   33.333333333333336
-100.0   150.0   33.333333333333336
-50.0   0.0   0.0
0.0   0.0   0.0
-50.0   30.0   0.0
-50.0   0.0   16.666666666666668
0.0   0.0   0.0
0.0   30.0   0.0
-50.0   30.0   0.0
0.0   30.0   16.666666666666668
-50.0   0.0   16.666666666666668
-50.0   30.0   16.666666666666668
0.0   30.0   16.666666666666668
-50.0   30.0   0.0
-50.0   0.0   16.666666666666668
0.0   30.0   16.666666666666668
0.0   0.0   16.666666666666668
0.0   0.0   0.0
-50.0   0.0   16.666666666666668
0.0   30.0   16.666666666666668
0.0   0.0   0.0
-50.0   30.0   0.0
-50.0   0.0   16.666666666666668
0.0   0.0   16.666666666666668
-50.0   30.0   16.666666666666668
-50.0   0.0   33.333333333333336
0.0   0.0   16.666666666666668
0.0   30.0   16.666666666666668
-50.0   30.0   16.666666666666668
0.0   30.0   33.333333333333336
-50.0   0.0   33.333333333333336
-50.0   30.0   33.333333333333336
0.0   30.0   33.333333333333336
-50.0   30.0   16.666666666666668
-50.0   0.0   33.333333333333336
0.0   30.0   33.333333333333336
0.0   0.0   33.333333333333336
0.0   0.0   16.666666666666668
-50.0   0.0   33.333333333333336
0.0   30.0   33.333333333333336
0.0   0.0   16.666666666666668
-50.0   30.0   16.666666666666668
-50.0   0.0   33.333333333333336
0.0   0.0   33.333333333333336
-50.0   30.0   33.333333333333336
-50.0   0.0   50.0
0.0   0.0   33.333333333333336
0.0   30.0   33.333333333333336
-50.0   30.0   33.333333333333336
0.0   30.0   50.0
-50.0   0.0   50.0
-50.0   30.0   50.0
0.0   30.0   50.0
-50.0   30.0   33.333333333333336
-50.0   0.0   50.0
0.0   30.0   50.0
0.0   0.0   50.0
0.0   0.0   33.333333333333336
-50.0   0.0   50.0
0.0   30.0   50.0
0.0   0.0   33.333333333333336
-50.0   30.0   33.333333333333336
-50.0   30.0   0.0
0.0   30.0   0.0
-50.0   60.0   0.0
-50.0   30.0   16.666666666666668
0.0   30.0   0.0
0.0   60.0   0.0
-50.0   60.0   0.0
0.0   60.0   16.666666666666668
-50.0   30.0   16.666666666666668
-50.0   60.0   16.666666666666668
0.0   60.0   16.666666666666668
-50.0   60.0   0.0
-50.0   30.0   16.666666666666668
0.0   60.0   16.666666666666668
0.0   30.0   16.666666666666668
0.0   30.0   0.0
-50.0   30.0   16.666666666666668
0.0   60.0   16.666666666666668
0.0   30.0   0.0
-50.0   60.0   0.0
-50.0   30.0   16.666666666666668
0.0   30.0   16.666666666666668
-50.0   60.0   16.666666666666668
-50.0   30.0   33.333333333333336
0.0   30.0   16.666666666666668
0.0   60.0   16.666666666666668
-50.0   60.0   16.666666666666668
0.0   60.0   33.333333333333336
-50.0   30.0   33.333333333333336
-50.0   60.0   33.333333333333336
0.0   60.0   33.333333333333336
-50.0   60.0   16.666666666666668
-50.0   30.0   33.333333333333336
0.0   60.0   33.333333333333336
0.0   30.0   33.333333333333336
0.0   30.0   16.666666666666668
-50.0   30.0   33.333333333333336
0.0   60.0   33.333333333333336
0.0   30.0   16.666666666666668
-50.0   60.0   16.666666666666668
-50.0   30.0   33.333333333333336
0.0   30.0   33.333333333333336
-50.0   60.0   33.333333333333336
-50.0   30.0   50.0
0.0   30.0   33.333333333333336
0.0   60.0   33.333333333333336
-50.0   60.0   33.333333333333336
0.0   60.0   50.0
-50.0   30.0   50.0
-50.0   60.0   50.0
0.0   60.0   50.0
-50.0   60.0   33.333333333333336
-50.0   30.0   50.0
0.0   60.0   50.0
0.0   30.0   50.0
0.0   30.0   33.333333333333336
-50.0   30.0   50.0
0.0   60.0   50.0
0.0   30.0   33.333333333333336
-50.0   60.0   33.333333333333336
-50.0   60.0   0.0
0.0   60.0   0.0
-50.0   90.0   0.0
-50.0   60.0   16.666666666666668
0.0   60.0   0.0
0.0   90.0   0.0
-50.0   90.0   0.0
0.0   90.0   16.666666666666668
-50.0   60.0   16.666666666666668
-50.0   90.0   16.666666666666668
0.0   90.0   16.666666666666668
-50.0   90.0   0.0
-50.0   60.0   16.666666666666668
0.0   90.0   16.666666666666668
0.0   60.0   16.666666666666668
0.0   60.0   0.0
-50.0   60.0   16.666666666666668
0.0   90.0   16.666666666666668
0.0   60.0   0.0
-50.0   90.0   0.0
-50.0   60.0   16.666666666666668
0.0   60.0   16.666666666666668
-50.0   90.0   16.666666666666668
-50.0   60.0   33.333333333333336
0.0   60.0   16.666666666666668
0.0   90.0   16.666666666666668
-50.0   90.0   16.666666666666668
0.0   90.0   33.333333333333336
-50.0   60.0   33.333333333333336
-50.0   90.0   33.333333333333336
0.0   90.0   33.333333333333336
-50.0   90.0   16.666666666666668
-50.0   60.0   33.333333333333336
0.0   90.0   33.333333333333336
0.0   60.0   33.333333333333336
0.0   60.0   16.666666666666668
-50.0   60.0   33.333333333333336
0.0   90.0   33.333333333333336
0.0   60.0   16.666666666666668
-50.0   90.0   16.666666666666668
-50.0   60.0   33.333333333333336
0.0   60.0   33.333333333333336
-50.0   90.0   33.333333333333336
-50.0   60.0   50.0
0.0   60.0   33.333333333333336
0.0   90.0   33.333333333333336
-50.0   90.0   33.333333333333336
0.0   90.0   50.0
-50.0   60.0   50.0
-50.0   90.0   50.0
0.0   90.0   50.0
-50.0   90.0   33.333333333333336
-50.0   60.0   50.0
0.0   90.0   50.0
0.0   60.0   50.0
0.0   60.0   33.333333333333336
-50.0   60.0   50.0
0.0   90.0   50.0
0.0   60.0   33.333333333333336
-50.0   90.0   33.333333333333336
-50.0   90.0   0.0
0.0   90.0   0.0
-50.0   120.0   0.0
-50.0   90.0   16.666666666666668
0.0   90.0   0.0
0.0   120.0   0.0
-50.0   120.0   0.0
0.0   120.0   16.666666666666668
-50.0   90.0   16.666666666666668
-50.0   120.0   16.666666666666668
0.0   120.0   16.666666666666668
-50.0   120.0   0.0
-50.0   90.0   16.666666666666668
0.0   120.0   16.666666666666668
0.0   90.0   16.666666666666668
0.0   90.0   0.0
-50.0   90.0   16.666666666666668
0.0   120.0   16.666666666666668
0.0   90.0   0.0
-50.0   120.0   0.0
-50.0   90.0   16.666666666666668
0.0   90.0   16.666666666666668
-50.0   120.0   16.666666666666668
-50.0   90.0   33.333333333333336
0.0   90.0   16.666666666666668
0.0   120.0   16.666666666666668
-50.0   120.0   16.666666666666668
0.0   120.0   33.333333333333336
-50.0   90.0   33.333333333333336
-50.0   120.0   33.333333333333336
0.0   120.0   33.333333333333336
-50.0   120.0   16.666666666666668
-50.0   90.0   33.333333333333336
0.0   120.0   33.333333333333336
0.0   90.0   33.333333333333336
0.0   90.0   16.666666666666668
-50.0   90.0   33.333333333333336
0.0   120.0   33.333333333333336
0.0   90.0   16.666666666666668
-50.0   120.0   16.666666666666668
-50.0   90.0   33.333333333333336
0.0   90.0   33.333333333333336
-50.0   120.0   33.333333333333336
-50.0   90.0   50.0
0.0   90.0   33.333333333333336
0.0   120.0   33.333333333333336
-50.0   120.0   33.333333333333336
0.0   120.0   50.0
-50.0   90.0   50.0
-50.0   120.0   50.0
0.0   120.0   50.0
-50.0   120.0   33.333333333333336
-50.0   90.0   50.0
0.0   120.0   50.0
0.0   90.0   50.0
0.0   90.0   33.333333333333336
-50.0   90.0   50.0
0.0   120.0   50.0
0.0   90.0   33.333333333333336
-50.0   120.0   33.333333333333336
-50.0   120.0   0.0
0.0   120.0   0.0
-50.0   150.0   0.0
-50.0   120.0   16.666666666666668
0.0   120.0   0.0
0.0   150.0   0.0
-50.0   150.0   0.0
0.0   150.0   16.666666666666668
-50.0   120.0   16.666666666666668
-50.0   150.0   16.666666666666668
0.0   150.0   16.666666666666668
-50.0   150.0   0.0
-50.0   120.0   16.666666666666668
0.0   150.0   16.666666666666668
0.0   120.0   16.666666666666668
0.0   120.0   0.0
-50.0   120.0   16.666666666666668
0.0   150.0   16.666666666666668
0.0   120.0   0.0
-50.0   150.0   0.0
-50.0   120.0   16.666666666666668
0.0   120.0   16.666666666666668
-50.0   150.0   16.666666666666668
-50.0   120.0   33.333333333333336
0.0   120.0   16.666666666666668
0.0   150.0   16.666666666666668
-50.0   150.0   16.666666666666668
0.0   150.0   33.333333333333336
-50.0   120.0   33.333333333333336
-50.0   150.0   33.333333333333336
0.0   150.0   33.333333333333336
-50.0   150.0   16.666666666666668
-50.0   120.0   33.333333333333336
0.0   150.0   33.333333333333336
0.0   120.0   33.333333333333336
0.0   120.0   16.666666666666668
-50.0   120.0   33.333333333333336
0.0   150.0   33.333333333333336
0.0   120.0   16.666666666666668
-50.0   150.0   16.666666666666668
-50.0   120.0   33.333333333333336
0.0   120.0   33.333333333333336
-50.0   150.0   33.333333333333336
-50.0   120.0   50.0
0.0   120.0   33.333333333333336
0.0   150.0   33.333333333333336
-50.0   150.0   33.333333333333336
0.0   150.0   50.0
-50.0   120.0   50.0
-50.0   150.0   50.0
0.0   150.0   50.0
-50.0   150.0   33.333333333333336
-50.0   120.0   50.0
0.0   150.0   50.0
0.0   120.0   50.0
0.0   120.0   33.333333333333336
-50.0   120.0   50.0
0.0   150.0   50.0
0.0   120.0   33.333333333333336
-50.0   150.0   33.333333333333336
0.0   0.0   0.0
50.0   0.0   0.0
0.0   30.0   0.0
0.0   0.0   16.666666666666668
50.0   0.0   0.0
50.0   30.0   0.0
0.0   30.0   0.0
50.0   30.0   16.666666666666668
0.0   0.0   16.666666666666668
0.0   30.0   16.666666666666668
50.0   30.0   16.666666666666668
0.0   30.0   0.0
0.0   0.0   16.666666666666668
50.0   30.0   16.666666666666668
50.0   0.0   16.666666666666668
50.0   0.0   0.0
0.0   0.0   16.666666666666668
50.0   30.0   16.666666666666668
50.0   0.0   0.0
0.0   30.0   0.0
0.0   0.0   16.666666666666668
50.0   0.0   16.666666666666668
0.0   30.0   16.666666666666668
0.0   0.0   33.333333333333336
50.0   0.0   16.666666666666668
50.0   30.0   16.666666666666668
0.0   30.0   16.666666666666668
50.0   30.0   33.333333333333336
0.0   0.0   33.333333333333336
0.0   30.0   33.333333333333336
50.0   30.0   33.333333333333336
0.0   30.0   16.666666666666668
0.0   0.0   33.333333333333336
50.0   30.0   33.333333333333336
50.0   0.0   33.333333333333336
50.0   0.0   16.666666666666668
0.0   0.0   33.333333333333336
50.0   30.0   33.333333333333336
50.0   0.0   16.666666666666668
0.0   30.0   16.666666666666668
0.0   0.0   33.333333333333336
50.0   0.0   33.333333333333336
0.0   30.0   33.333333333333336
0.0   0.0   50.0
50.0   0.0   33.333333333333336
50.0   30.0   33.333333333333336
0.0   30.0   33.333333333333336
50.0   30.0   50.0
0.0   0.0   50.0
0.0   30.0   50.0
50.0   30.0   50.0
0.0   30.0   33.333333333333336
0.0   0.0   50.0
50.0   30.0   50.0
50.0   0.0   50.0
50.0   0.0   33.333333333333336
0.0   0.0   50.0
50.0   30.0   50.0
50.0   0.0   33.333333333333336
0.0   30.0   33.333333333333336
0.0   30.0   0.0
50.0   30.0   0.0
0.0   60.0   0.0
0.0   30.0   16.666666666666668
50.0   30.0   0.0
50.0   60.0   0.0
0.0   60.0   0.0
50.0   60.0   16.666666666666668
0.0   30.0   16.666666666666668
0.0   60.0   16.666666666666668
50.0   60.0   16.666666666666668
0.0   60.0   0.0
0.0   30.0   16.666666666666668
50.0   60.0   16.666666666666668
50.0   30.0   16.666666666666668
50.0   30.0   0.0
0.0   30.0   16.666666666666668
50.0   60.0   16.666666666666668
50.0   30.0   0.0
0.0   60.0   0.0
0.0   30.0   16.666666666666668
50.0   30.0   16.666666666666668
0.0   60.0   16.666666666666668
0.0   30.0   33.333333333333336
50.0   30.0   16.666666666666668
50.0   60.0   16.666666666666668
0.0   60.0   16.666666666666668
50.0   60.0   33.333333333333336
0.0   30.0   33.333333333333336
0.0   60.0   33.333333333333336
50.0   60.0   33.333333333333336
0.0   60.0   16.666666666666668
0.0   30.0   33.333333333333336
50.0   60.0   33.333333333333336
50.0   30.0   33.333333333333336
50.0   30.0   16.666666666666668
0.0   30.0   33.333333333333336
50.0   60.0   33.333333333333336
50.0   30.0   16.666666666666668
0.0   60.0   16.666666666666668
0.0   30.0   33.333333333333336
50.0   30.0   33.333333333333336
0.0   60.0   33.333333333333336
0.0   30.0   50.0
50.0   30.0   33.333333333333336
50.0   60.0   33.333333333333336
0.0   60.0   33.333333333333336
50.0   60.0   50.0
0.0   30.0   50.0
0.0   60.0   50.0
50.0   60.0   50.0
0.0   60.0   33.333333333333336
0.0   30.0   50.0
50.0   60.0   50.0
50.0   30.0   50.0
50.0   30.0   33.333333333333336
0.0   30.0   50.0
50.0   60.0   50.0
50.0   30.0   33.333333333333336
0.0   60.0   33.333333333333336
0.0   60.0   0.0
50.0   60.0   0.0
0.0   90.0   0.0
0.0   60.0   16.666666666666668
50.0   60.0   0.0
50.0   90.0   0.0
0.0   90.0   0.0
50.0   90.0   16.666666666666668
0.0   60.0   16.666666666666668
0.0   90.0   16.666666666666668
50.0   90.0   16.666666666666668
0.0   90.0   0.0
0.0   60.0   16.666666666666668
50.0   90.0   16.666666666666668
50.0   60.0   16.666666666666668
50.0   60.0   0.0
0.0   60.0   16.666666666666668
50.0   90.0   16.666666666666668
50.0   60.0   0.0
0.0   90.0   0.0
0.0   60.0   16.666666666666668
50.0   60.0   16.666666666666668
0.0   90.0   16.666666666666668
0.0   60.0   33.333333333333336
50.0   60.0   16.666666666666668
50.0   90.0   16.666666666666668
0.0   90.0   16.666666666666668
50.0   90.0   33.333333333333336
0.0   60.0   33.333333333333336
0.0   90.0   33.333333333333336
50.0   90.0   33.333333333333336
0.0   90.0   16.666666666666668
0.0   60.0   33.333333333333336
50.0   90.0   33.333333333333336
50.0   60.0   33.333333333333336
50.0   60.0   16.666666666666668
0.0   60.0   33.333333333333336
50.0   90.0   33.333333333333336
50.0   60.0   16.666666666666668
0.0   90.0   16.666666666666668
0.0   60.0   33.333333333333336
50.0   60.0   33.333333333333336
0.0   90.0   33.333333333333336
0.0   60.0   50.0
50.0   60.0   33.333333333333336
50.0   90.0   33.333333333333336
0.0   90.0   33.333333333333336
50.0   90.0   50.0
0.0   60.0   50.0
0.0   90.0   50.0
50.0   90.0   50.0
0.0   90.0   33.333333333333336
0.0   60.0   50.0
50.0   90.0   50.0
50.0   60.0   50.0
50.0   60.0   33.333333333333336
0.0   60.0   50.0
50.0   90.0   50.0
50.0   60.0   33.333333333333336
0.0   90.0   33.333333333333336
0.0   90.0   0.0
50.0   90.0   0.0
0.0   120.0   0.0
0.0   90.0   16.666666666666668
50.0   90.0   0.0
50.0   120.0   0.0
0.0   120.0   0.0
50.0   120.0   16.666666666666668
0.0   90.0   16.666666666666668
0.0   120.0   16.666666666666668
50.0   120.0   16.666666666666668
0.0   120.0   0.0
0.0   90.0   16.666666666666668
50.0   120.0   16.666666666666668
50.0   90.0   16.666666666666668
50.0   90.0   0.0
0.0   90.0   16.666666666666668
50.0   120.0   16.666666666666668
50.0   90.0   0.0
0.0   120.0   0.0
0.0   90.0   16.666666666666668
50.0   90.0   16.666666666666668
0.0   120.0   16.666666666666668
0.0   90.0   33.333333333333336
50.0   90.0   16.666666666666668
50.0   120.0   16.666666666666668
0.0   120.0   16.666666666666668
50.0   120.0   33.333333333333336
0.0   90.0   33.333333333333336
0.0   120.0   33.333333333333336
50.0   120.0   33.333333333333336
0.0   120.0   16.666666666666668
0.0   90.0   33.333333333333336
50.0   120.0   33.333333333333336
50.0   90.0   33.333333333333336
50.0   90.0   16.666666666666668
0.0   90.0   33.333333333333336
50.0   120.0   33.333333333333336
50.0   90.0   16.666666666666668
0.0   120.0   16.666666666666668
0.0   90.0   33.333333333333336
50.0   90.0   33.333333333333336
0.0   120.0   33.333333333333336
0.0   90.0   50.0
50.0   90.0   33.333333333333336
50.0   120.0   33.333333333333336
0.0   120.0   33.333333333333336
50.0   120.0   50.0
0.0   90.0   50.0
0.0   120.0   50.0
50.0   120.0   50.0
0.0   120.0   33.333333333333336
0.0   90.0   50.0
50.0   120.0   50.0
50.0   90.0   50.0
50.0   90.0   33.333333333333336
0.0   90.0   50.0
50.0   120.0   50.0
50.0   90.0   33.333333333333336
0.0   120.0   33.333333333333336
0.0   120.0   0.0
50.0   120.0   0.0
0.0   150.0   0.0
0.0   120.0   16.666666666666668
50.0   120.0   0.0
50.0   150.0   0.0
0.0   150.0   0.0
50.0   150.0   16.666666666666668
0.0   120.0   16.666666666666668
0.0   150.0   16.666666666666668
50.0   150.0   16.666666666666668
0.0   150.0   0.0
0.0   120.0   16.666666666666668
50.0   150.0   16.666666666666668
50.0   120.0   16.666666666666668
50.0   120.0   0.0
0.0   120.0   16.666666666666668
50.0   150.0   16.666666666666668
50.0   120.0   0.0
0.0   150.0   0.0
0.0   120.0   16.666666666666668
50.0   120.0   16.666666666666668
0.0   150.0   16.666666666666668
0.0   120.0   33.333333333333336
50.0   120.0   16.666666666666668
50.0   150.0   16.666666666666668
0.0   150.0   16.666666666666668
50.0   150.0   33.333333333333336
0.0   120.0   33.333333333333336
0.0   150.0   33.333333333333336
50.0   150.0   33.333333333333336
0.0   150.0   16.666666666666668
0.0   120.0   33.333333333333336
50.0   150.0   33.333333333333336
50.0   120.0   33.333333333333336
50.0   120.0   16.666666666666668
0.0   120.0   33.333333333333336
50.0   150.0   33.333333333333336
50.0   120.0   16.666666666666668
0.0   150.0   16.666666666666668
0.0   120.0   33.333333333333336
50.0   120.0   33.333333333333336
0.0   150.0   33.333333333333336
0.0   120.0   50.0
50.0   120.0   33.333333333333336
50.0   150.0   33.333333333333336
0.0   150.0   33.333333333333336
50.0   150.0   50.0
0.0   120.0   50.0
0.0   150.0   50.0
50.0   150.0   50.0
0.0   150.0   33.333333333333336
0.0   120.0   50.0
50.0   150.0   50.0
50.0   120.0   50.0
50.0   120.0   33.333333333333336
0.0   120.0   50.0
50.0   150.0   50.0
50.0   120.0   33.333333333333336
0.0   150.0   33.333333333333336
50.0   0.0   0.0
100.0   0.0   0.0
50.0   30.0   0.0
50.0   0.0   16.666666666666668
100.0   0.0   0.0
100.0   30.0   0.0
50.0   30.0   0.0
100.0   30.0   16.666666666666668
50.0   0.0   16.666666666666668
50.0   30.0   16.666666666666668
100.0   30.0   16.666666666666668
50.0   30.0   0.0
50.0   0.0   16.666666666666668
100.0   30.0   16.666666666666668
100.0   0.0   16.666666666666668
100.0   0.0   0.0
50.0   0.0   16.666666666666668
100.0   30.0   16.666666666666668
100.0   0.0   0.0
50.0   30.0   0.0
50.0   0.0   16.666666666666668
100.0   0.0   16.666666666666668
50.0   30.0   16.666666666666668
50.0   0.0   33.333333333333336
100.0   0.0   16.666666666666668
100.0   30.0   16.666666666666668
50.0   30.0   16.666666666666668
100.0   30.0   33.333333333333336
50.0   0.0   33.333333333333336
50.0   30.0   33.333333333333336
100.0   30.0   33.333333333333336
50.0   30.0   16.666666666666668
50.0   0.0   33.333333333333336
100.0   30.0   33.333333333333336
100.0   0.0   33.333333333333336
100.0   0.0   16.666666666666668
50.0   0.0   33.333333333333336
100.0   30.0   33.333333333333336
100.0   0.0   16.666666666666668
50.0   30.0   16.666666666666668
50.0   0.0   33.333333333333336
100.0   0.0   33.333333333333336
50.0   30.0   33.333333333333336
50.0   0.0   50.0
100.0   0.0   33.333333333333336
100.0   30.0   33.333333333333336
50.0   30.0   33.333333333333336
100.0   30.0   50.0
50.0   0.0   50.0
50.0   30.0   50.0
100.0   30.0   50.0
50.0   30.0   33.333333333333336
50.0   0.0   50.0
100.0   30.0   50.0
100.0   0.0   50.0
100.0   0.0   33.333333333333336
50.0   0.0   50.0
100.0   30.0   50.0
100.0   0.0   33.333333333333336
50.0   30.0   33.333333333333336
50.0   30.0   0.0
100.0   30.0   0.0
50.0   60.0   0.0
50.0   30.0   16.666666666666668
100.0   30.0   0.0
100.0   60.0   0.0
50.0   60.0   0.0
100.0   60.0   16.666666666666668
50.0   30.0   16.666666666666668
50.0   60.0   16.666666666666668
100.0   60.0   16.666666666666668
50.0   60.0   0.0
50.0   30.0   16.666666666666668
100.0   60.0   16.666666666666668
100.0   30.0   16.666666666666668
100.0   30.0   0.0
50.0   30.0   16.666666666666668
100.0   60.0   16.666666666666668
100.0   30.0   0.0
50.0   60.0   0.0
50.0   30.0   16.666666666666668
100.0   30.0   16.666666666666668
50.0   60.0   16.666666666666668
50.0   30.0   33.333333333333336
100.0   30.0   16.666666666666668
100.0   60.0   16.666666666666668
50.0   60.0   16.666666666666668
100.0   60.0   33.333333333333336
50.0   30.0   33.333333333333336
50.0   60.0   33.333333333333336
100.0   60.0   33.333333333333336
50.0   60.0   16.666666666666668
50.0   30.0   33.333333333333336
100.0   60.0   33.333333333333336
100.0   30.0   33.333333333333336
100.0   30.0   16.666666666666668
50.0   30.0   33.333333333333336
100.0   60.0   33.333333333333336
100.0   30.0   16.666666666666668
50.0   60.0   16.666666666666668
50.0   30.0   33.333333333333336
100.0   30.0   33.333333333333336
50.0   60.0   33.333333333333336
50.0   30.0   50.0
100.0   30.0   33.333333333333336
100.0   60.0   33.333333333333336
50.0   60.0   33.333333333333336
100.0   60.0   50.0
50.0   30.0   50.0
50.0   60.0   50.0
100.0   60.0   50.0
50.0   60.0   33.333333333333336
50.0   30.0   50.0
100.0   60.0   50.0
100.0   30.0   50.0
100.0   30.0   33.333333333333336
50.0   30.0   50.0
100.0   60.0   50.0
100.0   30.0   33.333333333333336
50.0   60.0   33.333333333333336
50.0   60.0   0.0
100.0   60.0   0.0
50.0   90.0   0.0
50.0   60.0   16.666666666666668
100.0   60.0   0.0
100.0   90.0   0.0
50.0   90.0   0.0
100.0   90.0   16.666666666666668
50.0   60.0   16.666666666666668
50.0   90.0   16.666666666666668
100.0   90.0   16.666666666666668
50.0   90.0   0.0
50.0   60.0   16.666666666666668
100.0   90.0   16.666666666666668
100.0   60.0   16.666666666666668
100.0   60.0   0.0
50.0   60.0   16.666666666666668
100.0   90.0   16.666666666666668
100.0   60.0   0.0
50.0   90.0   0.0
50.0   60.0   16.666666666666668
100.0   60.0   16.666666666666668
50.0   90.0   16.666666666666668
50.0   60.0   33.333333333333336
100.0   60.0   16.666666666666668
100.0   90.0   16.666666666666668
50.0   90.0   16.666666666666668
100.0   90.0   33.333333333333336
50.0   60.0   33.333333333333336
50.0   90.0   33.333333333333336
100.0   90.0   33.333333333333336
50.0   90.0   16.666666666666668
50.0   60.0   33.333333333333336
100.0   90.0   33.333333333333336
100.0   60.0   33.333333333333336
100.0   60.0   16.666666666666668
50.0   60.0   33.333333333333336
100.0   90.0   33.333333333333336
100.0   60.0   16.666666666666668
50.0   90.0   16.666666666666668
50.0   60.0   33.333333333333336
100.0   60.0   33.333333333333336
50.0   90.0   33.333333333333336
50.0   60.0   50.0
100.0   60.0   33.333333333333336
100.0   90.0   33.333333333333336
50.0   90.0   33.333333333333336
100.0   90.0   50.0
50.0   60.0   50.0
50.0   90.0   50.0
100.0   90.0   50.0
50.0   90.0   33.333333333333336
50.0   60.0   50.0
100.0   90.0   50.0
100.0   60.0   50.0
100.0   60.0   33.333333333333336
50.0   60.0   50.0
100.0   90.0   50.0
100.0   60.0   33.333333333333336
50.0   90.0   33.333333333333336
50.0   90.0   0.0
100.0   90.0   0.0
50.0   120.0   0.0
50.0   90.0   16.666666666666668
100.0   90.0   0.0
100.0   120.0   0.0
50.0   120.0   0.0
100.0   120.0   16.666666666666668
50.0   90.0   16.666666666666668
50.0   120.0   16.666666666666668
100.0   120.0   16.666666666666668
50.0   120.0   0.0
50.0   90.0   16.666666666666668
100.0   120.0   16.666666666666668
100.0   90.0   16.666666666666668
100.0   90.0   0.0
50.0   90.0   16.666666666666668
100.0   120.0   16.666666666666668
100.0   90.0   0.0
50.0   120.0   0.0
50.0   90.0   16.666666666666668
100.0   90.0   16.666666666666668
50.0   120.0   16.666666666666668
50.0   90.0   33.333333333333336
100.0   90.0   16.666666666666668
100.0   120.0   16.666666666666668
50.0   120.0   16.666666666666668
100.0   120.0   33.333333333333336
50.0   90.0   33.333333333333336
50.0   120.0   33.333333333333336
100.0   120.0   33.333333333333336
50.0   120.0   16.666666666666668
50.0   90.0   33.333333333333336
100.0   120.0   33.333333333333336
100.0   90.0   33.333333333333336
100.0   90.0   16.666666666666668
50.0   90.0   33.333333333333336
100.0   120.0   33.333333333333336
100.0   90.0   16.666666666666668
50.0   120.0   16.666666666666668
50.0   90.0   33.333333333333336
100.0   90.0   33.333333333333336
50.0   120.0   33.333333333333336
50.0   90.0   50.0
100.0   90.0   33.333333333333336
100.0   120.0   33.333333333333336
50.0   120.0   33.333333333333336
100.0   120.0   50.0
50.0   90.0   50.0
50.0   120.0   50.0
100.0   120.0   50.0
50.0   120.0   33.333333333333336
50.0   90.0   50.0
100.0   120.0   50.0
100.0   90.0   50.0
100.0   90.0   33.333333333333336
50.0   90.0   50.0
100.0   120.0   50.0
100.0   90.0   33.333333333333336
50.0   120.0   33.333333333333336
50.0   120.0   0.0
100.0   120.0   0.0
50.0   150.0   0.0
50.0   120.0   16.666666666666668
100.0   120.0   0.0
100.0   150.0   0.0
50.0   150.0   0.0
100.0   150.0   16.666666666666668
50.0   120.0   16.666666666666668
50.0   150.0   16.666666666666668
100.0   150.0   16.666666666666668
50.0   150.0   0.0
50.0   120.0   16.666666666666668
100.0   150.0   16.666666666666668
100.0   120.0   16.666666666666668
100.0   120.0   0.0
50.0   120.0   16.666666666666668
100.0   150.0   16.666666666666668
100.0   120.0   0.0
50.0   150.0   0.0
50.0   120.0   16.666666666666668
100.0   120.0   16.666666666666668
50.0   150.0   16.666666666666668
50.0   120.0   33.333333333333336
100.0   120.0   16.666666666666668
100.0   150.0   16.666666666666668
50.0   150.0   16.666666666666668
100.0   150.0   33.333333333333336
50.0   120.0   33.333333333333336
50.0   150.0   33.333333333333336
100.0   150.0   33.333333333333336
50.0   150.0   16.666666666666668
50.0   120.0   33.333333333333336
100.0   150.0   33.333333333333336
100.0   120.0   33.333333333333336
100.0   120.0   16.666666666666668
50.0   120.0   33.333333333333336
100.0   150.0   33.333333333333336
100.0   120.0   16.666666666666668
50.0   150.0   16.666666666666668
50.0   120.0   33.333333333333336
100.0   120.0   33.333333333333336
50.0   150.0   33.333333333333336
50.0   120.0   50.0
100.0   120.0   33.333333333333336
100.0   150.0   33.333333333333336
50.0   150.0   33.333333333333336
100.0   150.0   50.0
50.0   120.0   50.0
50.0   150.0   50.0
100.0   150.0   50.0
50.0   150.0   33.333333333333336
50.0   120.0   50.0
100.0   150.0   50.0
100.0   120.0   50.0
100.0   120.0   33.333333333333336
50.0   120.0   50.0
100.0   150.0   50.0
100.0   120.0   33.333333333333336
50.0   150.0   33.333333333333336
100.0   0.0   0.0
150.0   0.0   0.0
100.0   30.0   0.0
100.0   0.0   16.666666666666668
150.0   0.0   0.0
150.0   30.0   0.0
100.0   30.0   0.0
150.0   30.0   16.666666666666668
100.0   0.0   16.666666666666668
100.0   30.0   16.666666666666668
150.0   30.0   16.666666666666668
100.0   30.0   0.0
100.0   0.0   16.666666666666668
150.0   30.0   16.666666666666668
150.0   0.0   16.666666666666668
150.0   0.0   0.0
100.0   0.0   16.666666666666668
150.0   30.0   16.666666666666668
150.0   0.0   0.0
100.0   30.0   0.0
100.0   0.0   16.666666666666668
150.0   0.0   16.666666666666668
100.0   30.0   16.666666666666668
100.0   0.0   33.333333333333336
150.0   0.0   16.666666666666668
150.0   30.0   16.666666666666668
100.0   30.0   16.666666666666668
150.0   30.0   33.333333333333336
100.0   0.0   33.333333333333336
100.0   30.0   33.333333333333336
150.0   30.0   33.333333333333336
100.0   30.0   16.666666666666668
100.0   0.0   33.333333333333336
150.0   30.0   33.333333333333336
150.0   0.0   33.333333333333336
150.0   0.0   16.666666666666668
100.0   0.0   33.333333333333336
150.0   30.0   33.333333333333336
150.0   0.0   16.666666666666668
100.0   30.0   16.666666666666668
100.0   0.0   33.333333333333336
150.0   0.0   33.333333333333336
100.0   30.0   33.333333333333336
100.0   0.0   50.0
150.0   0.0   33.333333333333336
150.0   30.0   33.333333333333336
100.0   30.0   33.333333333333336
150.0   30.0   50.0
100.0   0.0   50.0
100.0   30.0   50.0
150.0   30.0   50.0
100.0   30.0   33.333333333333336
100.0   0.0   50.0
150.0   30.0   50.0
150.0   0.0   50.0
150.0   0.0   33.333333333333336
100.0   0.0   50.0
150.0   30.0   50.0
150.0   0.0   33.333333333333336
100.0   30.0   33.333333333333336
100.0   30.0   0.0
150.0   30.0   0.0
100.0   60.0   0.0
100.0   30.0   16.666666666666668
150.0   30.0   0.0
150.0   60.0   0.0
100.0   60.0   0.0
150.0   60.0   16.666666666666668
100.0   30.0   16.666666666666668
100.0   60.0   16.666666666666668
150.0   60.0   16.666666666666668
100.0   60.0   0.0
100.0   30.0   16.666666666666668
150.0   60.0   16.666666666666668
150.0   30.0   16.666666666666668
150.0   30.0   0.0
100.0   30.0   16.666666666666668
150.0   60.0   16.666666666666668
150.0   30.0   0.0
100.0   60.0   0.0
100.0   30.0   16.666666666666668
150.0   30.0   16.666666666666668
100.0   60.0   16.666666666666668
100.0   30.0   33.333333333333336
150.0   30.0   16.666666666666668
150.0   60.0   16.666666666666668
100.0   60.0   16.666666666666668
150.0   60.0   33.333333333333336
100.0   30.0   33.333333333333336
100.0   60.0   33.333333333333336
150.0   60.0   33.333333333333336
100.0   60.0   16.666666666666668
100.0   30.0   33.333333333333336
150.0   60.0   33.333333333333336
150.0   30.0   33.333333333333336
150.0   30.0   16.666666666666668
100.0   30.0   33.333333333333336
150.0   60.0   33.333333333333336
150.0   30.0   16.666666666666668
100.0   60.0   16.666666666666668
100.0   30.0   33.333333333333336
150.0   30.0   33.333333333333336
100.0   60.0   33.333333333333336
100.0   30.0   50.0
150.0   30.0   33.333333333333336
150.0   60.0   33.333333333333336
100.0   60.0   33.333333333333336
150.0   60.0   50.0
100.0   30.0   50.0
100.0   60.0   50.0
150.0   60.0   50.0
100.0   60.0   33.333333333333336
100.0   30.0   50.0
150.0   60.0   50.0
150.0   30.0   50.0
150.0   30.0   33.333333333333336
100.0   30.0   50.0
150.0   60.0   50.0
150.0   30.0   33.333333333333336
100.0   60.0   33.333333333333336
100.0   60.0   0.0
150.0   60.0   0.0
100.0   90.0   0.0
100.0   60.0   16.666666666666668
150.0   60.0   0.0
150.0   90.0   0.0
100.0   90.0   0.0
150.0   90.0   16.666666666666668
100.0   60.0   16.666666666666668
100.0   90.0   16.666666666666668
150.0   90.0   16.666666666666668
100.0   90.0   0.0
100.0   60.0   16.666666666666668
150.0   90.0   16.666666666666668
150.0   60.0   16.666666666666668
150.0   60.0   0.0
100.0   60.0   16.666666666666668
150.0   90.0   16.666666666666668
150.0   60.0   0.0
100.0   90.0   0.0
100.0   60.0   16.666666666666668
150.0   60.0   16.666666666666668
100.0   90.0   16.666666666666668
100.0   60.0   33.333333333333336
150.0   60.0   16.666666666666668
150.0   90.0   16.666666666666668
100.0   90.0   16.666666666666668
150.0   90.0   33.333333333333336
100.0   60.0   33.333333333333336
100.0   90.0   33.333333333333336
150.0   90.0   33.333333333333336
100.0   90.0   16.666666666666668
100.0   60.0   33.333333333333336
150.0   90.0   33.333333333333336
150.0   60.0   33.333333333333336
150.0   60.0   16.666666666666668
100.0   60.0   33.333333333333336
150.0   90.0   33.333333333333336
150.0   60.0   16.666666666666668
100.0   90.0   16.666666666666668
100.0   60.0   33.333333333333336
150.0   60.0   33.333333333333336
100.0   90.0   33.333333333333336
100.0   60.0   50.0
150.0   60.0   33.333333333333336
150.0   90.0   33.333333333333336
100.0   90.0   33.333333333333336
150.0   90.0   50.0
100.0   60.0   50.0
100.0   90.0   50.0
150.0   90.0   50.0
100.0   90.0   33.333333333333336
100.0   60.0   50.0
150.0   90.0   50.0
150.0   60.0   50.0
150.0   60.0   33.333333333333336
100.0   60.0   50.0
150.0   90.0   50.0
150.0   60.0   33.333333333333336
100.0   90.0   33.333333333333336
100.0   90.0   0.0
150.0   90.0   0.0
100.0   120.0   0.0
100.0   90.0   16.666666666666668
150.0   90.0   0.0
150.0   120.0   0.0
100.0   120.0   0.0
150.0   120.0   16.666666666666668
100.0   90.0   16.666666666666668
100.0   120.0   16.666666666666668
150.0   120.0   16.666666666666668
100.0   120.0   0.0
100.0   90.0   16.666666666666668
150.0   120.0   16.666666666666668
150.0   90.0   16.666666666666668
150.0   90.0   0.0
100.0   90.0   16.666666666666668
150.0   120.0   16.666666666666668
150.0   90.0   0.0
100.0   120.0   0.0
100.0   90.0   16.666666666666668
150.0   90.0   16.666666666666668
100.0   120.0   16.666666666666668
100.0   90.0   33.333333333333336
150.0   90.0   16.666666666666668
150.0   120.0   16.666666666666668
100.0   120.0   16.666666666666668
150.0   120.0   33.333333333333336
100.0   90.0   33.333333333333336
100.0   120.0   33.333333333333336
150.0   120.0   33.333333333333336
100.0   120.0   16.666666666666668
100.0   90.0   33.333333333333336
150.0   120.0   33.333333333333336
150.0   90.0   33.333333333333336
150.0   90.0   16.666666666666668
100.0   90.0   33.333333333333336
150.0   120.0   33.333333333333336
150.0   90.0   16.666666666666668
100.0   120.0   16.666666666666668
100.0   90.0   33.333333333333336
150.0   90.0   33.333333333333336
100.0   120.0   33.333333333333336
100.0   90.0   50.0
150.0   90.0   33.333333333333336
150.0   120.0   33.333333333333336
100.0   120.0   33.333333333333336
150.0   120.0   50.0
100.0   90.0   50.0
100.0   120.0   50.0
150.0   120.0   50.0
100.0   120.0   33.333333333333336
100.0   90.0   50.0
150.0   120.0   50.0
150.0   90.0   50.0
150.0   90.0   33.333333333333336
100.0   90.0   50.0
150.0   120.0   50.0
150.0   90.0   33.333333333333336
100.0   120.0   33.333333333333336
100.0   120.0   0.0
150.0   120.0   0.0
100.0   150.0   0.0
100.0   120.0   16.666666666666668
150.0   120.0   0.0
150.0   150.0   0.0
100.0   150.0   0.0
150.0   150.0   16.666666666666668
100.0   120.0   16.666666666666668
100.0   150.0   16.666666666666668
150.0   150.0   16.666666666666668
100.0   150.0   0.0
100.0   120.0   16.666666666666668
150.0   150.0   16.666666666666668
150.0   120.0   16.666666666666668
150.0   120.0   0.0
100.0   120.0   16.666666666666668
150.0   150.0   16.666666666666668
150.0   120.0   0.0
100.0   150.0   0.0
100.0   120.0   16.666666666666668
150.0   120.0   16.666666666666668
100.0   150.0   16.666666666666668
100.0   120.0   33.333333333333336
150.0   120.0   16.666666666666668
150.0   150.0   16.666666666666668
100.0   150.0   16.666666666666668
150.0   150.0   33.333333333333336
100.0   120.0   33.333333333333336
100.0   150.0   33.333333333333336
150.0   150.0   33.333333333333336
100.0   150.0   16.666666666666668
100.0   120.0   33.333333333333336
150.0   150.0   33.333333333333336
150.0   120.0   33.333333333333336
150.0   120.0   16.666666666666668
100.0   120.0   33.333333333333336
150.0   150.0   33.333333333333336
150.0   120.0   16.666666666666668
100.0   150.0   16.666666666666668
100.0   120.0   33.333333333333336
150.0   120.0   33.333333333333336
100.0   150.0   33.333333333333336
100.0   120.0   50.0
150.0   120.0   33.333333333333336
150.0   150.0   33.333333333333336
100.0   150.0   33.333333333333336
150.0   150.0   50.0
100.0   120.0   50.0
100.0   150.0   50.0
150.0   150.0   50.0
100.0   150.0   33.333333333333336
100.0   120.0   50.0
150.0   150.0   50.0
150.0   120.0   50.0
150.0   120.0   33.333333333333336
100.0   120.0   50.0
150.0   150.0   50.0
150.0   120.0   33.333333333333336
100.0   150.0   33.333333333333336
150.0   0.0   0.0
200.0   0.0   0.0
150.0   30.0   0.0
150.0   0.0   16.666666666666668
200.0   0.0   0.0
200.0   30.0   0.0
150.0   30.0   0.0
200.0   30.0   16.666666666666668
150.0   0.0   16.666666666666668
150.0   30.0   16.666666666666668
200.0   30.0   16.666666666666668
150.0   30.0   0.0
150.0   0.0   16.666666666666668
200.0   30.0   16.666666666666668
200.0   0.0   16.666666666666668
200.0   0.0   0.0
150.0   0.0   16.666666666666668
200.0   30.0   16.666666666666668
200.0   0.0   0.0
150.0   30.0   0.0
150.0   0.0   16.666666666666668
200.0   0.0   16.666666666666668
150.0   30.0   16.666666666666668
150.0   0.0   33.333333333333336
200.0   0.0   16.666666666666668
200.0   30.0   16.666666666666668
150.0   30.0   16.666666666666668
200.0   30.0   33.333333333333336
150.0   0.0   33.333333333333336
150.0   30.0   33.333333333333336
200.0   30.0   33.333333333333336
150.0   30.0   16.666666666666668
150.0   0.0   33.333333333333336
200.0   30.0   33.333333333333336
200.0   0.0   33.333333333333336
200.0   0.0   16.666666666666668
150.0   0.0   33.333333333333336
200.0   30.0   33.333333333333336
200.0   0.0   16.666666666666668
150.0   30.0   16.666666666666668
150.0   0.0   33.333333333333336
200.0   0.0   33.333333333333336
150.0   30.0   33.333333333333336
150.0   0.0   50.0
200.0   0.0   33.333333333333336
200.0   30.0   33.333333333333336
150.0   30.0   33.333333333333336
200.0   30.0   50.0
150.0   0.0   50.0
150.0   30.0   50.0
200.0   30.0   50.0
150.0   30.0   33.333333333333336
150.0   0.0   50.0
200.0   30.0   50.0
200.0   0.0   50.0
200.0   0.0   33.333333333333336
150.0   0.0   50.0
200.0   30.0   50.0
200.0   0.0   33.333333333333336
150.0   30.0   33.333333333333336
150.0   30.0   0.0
200.0   30.0   0.0
150.0   60.0   0.0
150.0   30.0   16.666666666666668
200.0   30.0   0.0
200.0   60.0   0.0
150.0   60.0   0.0
200.0   60.0   16.666666666666668
150.0   30.0   16.666666666666668
150.0   60.0   16.666666666666668
200.0   60.0   16.666666666666668
150.0   60.0   0.0
150.0   30.0   16.666666666666668
200.0   60.0   16.666666666666668
200.0   30.0   16.666666666666668
200.0   30.0   0.0
150.0   30.0   16.666666666666668
200.0   60.0   16.666666666666668
200.0   30.0   0.0
150.0   60.0   0.0
150.0   30.0   16.666666666666668
200.0   30.0   16.666666666666668
150.0   60.0   16.666666666666668
150.0   30.0   33.333333333333336
200.0   30.0   16.666666666666668
200.0   60.0   16.666666666666668
150.0   60.0   16.666666666666668
200.0   60.0   33.333333333333336
150.0   30.0   33.333333333333336
150.0   60.0   33.333333333333336
200.0   60.0   33.333333333333336
150.0   60.0   16.666666666666668
150.0   30.0   33.333333333333336
200.0   60.0   33.333333333333336
200.0   30.0   33.333333333333336
200.0   30.0   16.666666666666668
150.0   30.0   33.333333333333336
200.0   60.0   33.333333333333336
200.0   30.0   16.666666666666668
150.0   60.0   16.666666666666668
150.0   30.0   33.333333333333336
200.0   30.0   33.333333333333336
150.0   60.0   33.333333333333336
150.0   30.0   50.0
200.0   30.0   33.333333333333336
200.0   60.0   33.333333333333336
150.0   60.0   33.333333333333336
200.0   60.0   50.0
150.0   30.0   50.0
150.0   60.0   50.0
200.0   60.0   50.0
150.0   60.0   33.333333333333336
150.0   30.0   50.0
200.0   60.0   50.0
200.0   30.0   50.0
200.0   30.0   33.333333333333336
150.0   30.0   50.0
200.0   60.0   50.0
200.0   30.0   33.333333333333336
150.0   60.0   33.333333333333336
150.0   60.0   0.0
200.0   60.0   0.0
150.0   90.0   0.0
150.0   60.0   16.666666666666668
200.0   60.0   0.0
200.0   90.0   0.0
150.0   90.0   0.0
200.0   90.0   16.666666666666668
150.0   60.0   16.666666666666668
150.0   90.0   16.666666666666668
200.0   90.0   16.666666666666668
150.0   90.0   0.0
150.0   60.0   16.666666666666668
200.0   90.0   16.666666666666668
200.0   60.0   16.666666666666668
200.0   60.0   0.0
150.0   60.0   16.666666666666668
200.0   90.0   16.666666666666668
200.0   60.0   0.0
150.0   90.0   0.0
150.0   60.0   16.666666666666668
200.0   60.0   16.666666666666668
150.0   90.0   16.666666666666668
150.0   60.0   33.333333333333336
200.0   60.0   16.666666666666668
200.0   90.0   16.666666666666668
150.0   90.0   16.666666666666668
200.0   90.0   33.333333333333336
150.0   60.0   33.333333333333336
150.0   90.0   33.333333333333336
200.0   90.0   33.333333333333336
150.0   90.0   16.666666666666668
150.0   60.0   33.333333333333336
200.0   90.0   33.333333333333336
200.0   60.0   33.333333333333336
200.0   60.0   16.666666666666668
150.0   60.0   33.333333333333336
200.0   90.0   33.333333333333336
200.0   60.0   16.666666666666668
150.0   90.0   16.666666666666668
150.0   60.0   33.333333333333336
200.0   60.0   33.333333333333336
150.0   90.0   33.333333333333336
150.0   60.0   50.0
200.0   60.0   33.333333333333336
200.0   90.0   33.333333333333336
150.0   90.0   33.333333333333336
200.0   90.0   50.0
150.0   60.0   50.0
150.0   90.0   50.0
200.0   90.0   50.0
150.0   90.0   33.333333333333336
150.0   60.0   50.0
200.0   90.0   50.0
200.0   60.0   50.0
200.0   60.0   33.333333333333336
150.0   60.0   50.0
200.0   90.0   50.0
200.0   60.0   33.333333333333336
150.0   90.0   33.333333333333336
150.0   90.0   0.0
200.0   90.0   0.0
150.0   120.0   0.0
150.0   90.0   16.666666666666668
200.0   90.0   0.0
200.0   120.0   0.0
150.0   120.0   0.0
200.0   120.0   16.666666666666668
150.0   90.0   16.666666666666668
150.0   120.0   16.666666666666668
200.0   120.0   16.666666666666668
150.0   120.0   0.0
150.0   90.0   16.666666666666668
200.0   120.0   16.666666666666668
200.0   90.0   16.666666666666668
200.0   90.0   0.0
150.0   90.0   16.666666666666668
200.0   120.0   16.666666666666668
200.0   90.0   0.0
150.0   120.0   0.0
150.0   90.0   16.666666666666668
200.0   90.0   16.666666666666668
150.0   120.0   16.666666666666668
150.0   90.0   33.333333333333336
200.0   90.0   16.666666666666668
200.0   120.0   16.666666666666668
150.0   120.0   16.666666666666668
200.0   120.0   33.333333333333336
150.0   90.0   33.333333333333336
150.0   120.0   33.333333333333336
200.0   120.0   33.333333333333336
150.0   120.0   16.666666666666668
150.0   90.0   33.333333333333336
200.0   120.0   33.333333333333336
200.0   90.0   33.333333333333336
200.0   90.0   16.666666666666668
150.0   90.0   33.333333333333336
200.0   120.0   33.333333333333336
200.0   90.0   16.666666666666668
150.0   120.0   16.666666666666668
150.0   90.0   33.333333333333336
200.0   90.0   33.333333333333336
150.0   120.0   33.333333333333336
150.0   90.0   50.0
200.0   90.0   33.333333333333336
200.0   120.0   33.333333333333336
150.0   120.0   33.333333333333336
200.0   120.0   50.0
150.0   90.0   50.0
150.0   120.0   50.0
200.0   120.0   50.0
150.0   120.0   33.333333333333336
150.0   90.0   50.0
200.0   120.0   50.0
200.0   90.0   50.0
200.0   90.0   33.333333333333336
150.0   90.0   50.0
200.0   120.0   50.0
200.0   90.0   33.333333333333336
150.0   120.0   33.333333333333336
150.0   120.0   0.0
200.0   120.0   0.0
150.0   150.0   0.0
150.0   120.0   16.666666666666668
200.0   120.0   0.0
200.0   150.0   0.0
150.0   150.0   0.0
200.0   150.0   16.666666666666668
150.0   120.0   16.666666666666668
150.0   150.0   16.666666666666668
200.0   150.0   16.666666666666668
150.0   150.0   0.0
150.0   120.0   16.666666666666668
200.0   150.0   16.666666666666668
200.0   120.0   16.666666666666668
200.0   120.0   0.0
150.0   120.0   16.666666666666668
200.0   150.0   16.666666666666668
200.0   120.0   0.0
150.0   150.0   0.0
150.0   120.0   16.666666666666668
200.0   120.0   16.666666666666668
150.0   150.0   16.666666666666668
150.0   120.0   33.333333333333336
200.0   120.0   16.666666666666668
200.0   150.0   16.666666666666668
150.0   150.0   16.666666666666668
200.0   150.0   33.333333333333336
150.0   120.0   33.333333333333336
150.0   150.0   33.333333333333336
200.0   150.0   33.333333333333336
150.0   150.0   16.666666666666668
150.0   120.0   33.333333333333336
200.0   150.0   33.333333333333336
200.0   120.0   33.333333333333336
200.0   120.0   16.666666666666668
150.0   120.0   33.333333333333336
200.0   150.0   33.333333333333336
200.0   120.0   16.666666666666668
150.0   150.0   16.666666666666668
150.0   120.0   33.333333333333336
200.0   120.0   33.333333333333336
150.0   150.0   33.333333333333336
150.0   120.0   50.0
200.0   120.0   33.333333333333336
200.0   150.0   33.333333333333336
150.0   150.0   33.333333333333336
200.0   150.0   50.0
150.0   120.0   50.0
150.0   150.0   50.0
200.0   150.0   50.0
150.0   150.0   33.333333333333336
150.0   120.0   50.0
200.0   150.0   50.0
200.0   120.0   50.0
200.0   120.0   33.333333333333336
150.0   120.0   50.0
200.0   150.0   50.0
200.0   120.0   33.333333333333336
150.0   150.0   33.333333333333336
200.0   0.0   0.0
250.0   0.0   0.0
200.0   30.0   0.0
200.0   0.0   16.666666666666668
250.0   0.0   0.0
250.0   30.0   0.0
200.0   30.0   0.0
250.0   30.0   16.666666666666668
200.0   0.0   16.666666666666668
200.0   30.0   16.666666666666668
250.0   30.0   16.666666666666668
200.0   30.0   0.0
200.0   0.0   16.666666666666668
250.0   30.0   16.666666666666668
250.0   0.0   16.666666666666668
250.0   0.0   0.0
200.0   0.0   16.666666666666668
250.0   30.0   16.666666666666668
250.0   0.0   0.0
200.0   30.0   0.0
200.0   0.0   16.666666666666668
250.0   0.0   16.666666666666668
200.0   30.0   16.666666666666668
200.0   0.0   33.333333333333336
250.0   0.0   16.666666666666668
250.0   30.0   16.666666666666668
200.0   30.0   16.666666666666668
250.0   30.0   33.333333333333336
200.0   0.0   33.333333333333336
200.0   30.0   33.333333333333336
250.0   30.0   33.333333333333336
200.0   30.0   16.666666666666668
200.0   0.0   33.333333333333336
250.0   30.0   33.333333333333336
250.0   0.0   33.333333333333336
250.0   0.0   16.666666666666668
200.0   0.0   33.333333333333336
250.0   30.0   33.333333333333336
250.0   0.0   16.666666666666668
200.0   30.0   16.666666666666668
200.0   0.0   33.333333333333336
250.0   0.0   33.333333333333336
200.0   30.0   33.333333333333336
200.0   0.0   50.0
250.0   0.0   33.333333333333336
250.0   30.0   33.333333333333336
200.0   30.0   33.333333333333336
250.0   30.0   50.0
200.0   0.0   50.0
200.0   30.0   50.0
250.0   30.0   50.0
200.0   30.0   33.333333333333336
200.0   0.0   50.0
250.0   30.0   50.0
250.0   0.0   50.0
250.0   0.0   33.333333333333336
200.0   0.0   50.0
250.0   30.0   50.0
250.0   0.0   33.333333333333336
200.0   30.0   33.333333333333336
200.0   30.0   0.0
250.0   30.0   0.0
200.0   60.0   0.0
200.0   30.0   16.666666666666668
250.0   30.0   0.0
250.0   60.0   0.0
200.0   60.0   0.0
250.0   60.0   16.666666666666668
200.0   30.0   16.666666666666668
200.0   60.0   16.666666666666668
250.0   60.0   16.666666666666668
200.0   60.0   0.0
200.0   30.0   16.666666666666668
250.0   60.0   16.666666666666668
250.0   30.0   16.666666666666668
250.0   30.0   0.0
200.0   30.0   16.666666666666668
250.0   60.0   16.666666666666668
250.0   30.0   0.0
200.0   60.0   0.0
200.0   30.0   16.666666666666668
250.0   30.0   16.666666666666668
200.0   60.0   16.666666666666668
200.0   30.0   33.333333333333336
250.0   30.0   16.666666666666668
250.0   60.0   16.666666666666668
200.0   60.0   16.666666666666668
250.0   60.0   33.333333333333336
200.0   30.0   33.333333333333336
200.0   60.0   33.333333333333336
250.0   60.0   33.333333333333336
200.0   60.0   16.666666666666668
200.0   30.0   33.333333333333336
250.0   60.0   33.333333333333336
250.0   30.0   33.333333333333336
250.0   30.0   16.666666666666668
200.0   30.0   33.333333333333336
250.0   60.0   33.333333333333336
250.0   30.0   16.666666666666668
200.0   60.0   16.666666666666668
200.0   30.0   33.333333333333336
250.0   30.0   33.333333333333336
200.0   60.0   33.333333333333336
200.0   30.0   50.0
250.0   30.0   33.333333333333336
250.0   60.0   33.333333333333336
200.0   60.0   33.333333333333336
250.0   60.0   50.0
200.0   30.0   50.0
200.0   60.0   50.0
250.0   60.0   50.0
200.0   60.0   33.333333333333336
200.0   30.0   50.0
250.0   60.0   50.0
250.0   30.0   50.0
250.0   30.0   33.333333333333336
200.0   30.0   50.0
250.0   60.0   50.0
250.0   30.0   33.333333333333336
200.0   60.0   33.333333333333336
200.0   60.0   0.0
250.0   60.0   0.0
200.0   90.0   0.0
200.0   60.0   16.666666666666668
250.0   60.0   0.0
250.0   90.0   0.0
200.0   90.0   0.0
250.0   90.0   16.666666666666668
200.0   60.0   16.666666666666668
200.0   90.0   16.666666666666668
250.0   90.0   16.666666666666668
200.0   90.0   0.0
200.0   60.0   16.666666666666668
250.0   90.0   16.666666666666668
250.0   60.0   16.666666666666668
250.0   60.0   0.0
200.0   60.0   16.666666666666668
250.0   90.0   16.666666666666668
250.0   60.0   0.0
200.0   90.0   0.0
200.0   60.0   16.666666666666668
250.0   60.0   16.666666666666668
200.0   90.0   16.666666666666668
200.0   60.0   33.333333333333336
250.0   60.0   16.666666666666668
250.0   90.0   16.666666666666668
200.0   90.0   16.666666666666668
250.0   90.0   33.333333333333336
200.0   60.0   33.333333333333336
200.0   90.0   33.333333333333336
250.0   90.0   33.333333333333336
200.0   90.0   16.666666666666668
200.0   60.0   33.333333333333336
250.0   90.0   33.333333333333336
250.0   60.0   33.333333333333336
250.0   60.0   16.666666666666668
200.0   60.0   33.333333333333336
250.0   90.0   33.333333333333336
250.0   60.0   16.666666666666668
200.0   90.0   16.666666666666668
200.0   60.0   33.333333333333336
250.0   60.0   33.333333333333336
200.0   90.0   33.333333333333336
200.0   60.0   50.0
250.0   60.0   33.333333333333336
250.0   90.0   33.333333333333336
200.0   90.0   33.333333333333336
250.0   90.0   50.0
200.0   60.0   50.0
200.0   90.0   50.0
250.0   90.0   50.0
200.0   90.0   33.333333333333336
200.0   60.0   50.0
250.0   90.0   50.0
250.0   60.0   50.0
250.0   60.0   33.333333333333336
200.0   60.0   50.0
250.0   90.0   50.0
250.0   60.0   33.333333333333336
200.0   90.0   33.333333333333336
200.0   90.0   0.0
250.0   90.0   0.0
200.0   120.0   0.0
200.0   90.0   16.666666666666668
250.0   90.0   0.0
250.0   120.0   0.0
200.0   120.0   0.0
250.0   120.0   16.666666666666668
200.0   90.0   16.666666666666668
200.0   120.0   16.666666666666668
250.0   120.0   16.666666666666668
200.0   120.0   0.0
200.0   90.0   16.666666666666668
250.0   120.0   16.666666666666668
250.0   90.0   16.666666666666668
250.0   90.0   0.0
200.0   90.0   16.666666666666668
250.0   120.0   16.666666666666668
250.0   90.0   0.0
200.0   120.0   0.0
200.0   90.0   16.666666666666668
250.0   90.0   16.666666666666668
200.0   120.0   16.666666666666668
200.0   90.0   33.333333333333336
250.0   90.0   16.666666666666668
250.0   120.0   16.666666666666668
200.0   120.0   16.666666666666668
250.0   120.0   33.333333333333336
200.0   90.0   33.333333333333336
200.0   120.0   33.333333333333336
250.0   120.0   33.333333333333336
200.0   120.0   16.666666666666668
200.0   90.0   33.333333333333336
250.0   120.0   33.333333333333336
250.0   90.0   33.333333333333336
250.0   90.0   16.666666666666668
200.0   90.0   33.333333333333336
250.0   120.0   33.333333333333336
250.0   90.0   16.666666666666668
200.0   120.0   16.666666666666668
200.0   90.0   33.333333333333336
250.0   90.0   33.333333333333336
200.0   120.0   33.333333333333336
200.0   90.0   50.0
250.0   90.0   33.333333333333336
250.0   120.0   33.333333333333336
200.0   120.0   33.333333333333336
250.0   120.0   50.0
200.0   90.0   50.0
200.0   120.0   50.0
250.0   120.0   50.0
200.0   120.0   33.333333333333336
200.0   90.0   50.0
250.0   120.0   50.0
250.0   90.0   50.0
250.0   90.0   33.333333333333336
200.0   90.0   50.0
250.0   120.0   50.0
250.0   90.0   33.333333333333336
200.0   120.0   33.333333333333336
200.0   120.0   0.0
250.0   120.0   0.0
200.0   150.0   0.0
200.0   120.0   16.666666666666668
250.0   120.0   0.0
250.0   150.0   0.0
200.0   150.0   0.0
250.0   150.0   16.666666666666668
200.0   120.0   16.666666666666668
200.0   150.0   16.666666666666668
250.0   150.0   16.666666666666668
200.0   150.0   0.0
200.0   120.0   16.666666666666668
250.0   150.0   16.666666666666668
250.0   120.0   16.666666666666668
250.0   120.0   0.0
200.0   120.0   16.666666666666668
250.0   150.0   16.666666666666668
250.0   120.0   0.0
200.0   150.0   0.0
200.0   120.0   16.666666666666668
250.0   120.0   16.666666666666668
200.0   150.0   16.666666666666668
200.0   120.0   33.333333333333336
250.0   120.0   16.666666666666668
250.0   150.0   16.666666666666668
200.0   150.0   16.666666666666668
250.0   150.0   33.333333333333336
200.0   120.0   33.333333333333336
200.0   150.0   33.333333333333336
250.0   150.0   33.333333333333336
200.0   150.0   16.666666666666668
200.0   120.0   33.333333333333336
250.0   150.0   33.333333333333336
250.0   120.0   33.333333333333336
250.0   120.0   16.666666666666668
200.0   120.0   33.333333333333336
250.0   150.0   33.333333333333336
250.0   120.0   16.666666666666668
200.0   150.0   16.666666666666668
200.0   120.0   33.333333333333336
250.0   120.0   33.333333333333336
200.0   150.0   33.333333333333336
200.0   120.0   50.0
250.0   120.0   33.333333333333336
250.0   150.0   33.333333333333336
200.0   150.0   33.333333333333336
250.0   150.0   50.0
200.0   120.0   50.0
200.0   150.0   50.0
250.0   150.0   50.0
200.0   150.0   33.333333333333336
200.0   120.0   50.0
250.0   150.0   50.0
250.0   120.0   50.0
250.0   120.0   33.333333333333336
200.0   120.0   50.0
250.0   150.0   50.0
250.0   120.0   33.333333333333336
200.0   150.0   33.333333333333336
250.0   0.0   0.0
300.0   0.0   0.0
250.0   30.0   0.0
250.0   0.0   16.666666666666668
300.0   0.0   0.0
300.0   30.0   0.0
250.0   30.0   0.0
300.0   30.0   16.666666666666668
250.0   0.0   16.666666666666668
250.0   30.0   16.666666666666668
300.0   30.0   16.666666666666668
250.0   30.0   0.0
250.0   0.0   16.666666666666668
300.0   30.0   16.666666666666668
300.0   0.0   16.666666666666668
300.0   0.0   0.0
250.0   0.0   16.666666666666668
300.0   30.0   16.666666666666668
300.0   0.0   0.0
250.0   30.0   0.0
250.0   0.0   16.666666666666668
300.0   0.0   16.666666666666668
250.0   30.0   16.666666666666668
250.0   0.0   33.333333333333336
300.0   0.0   16.666666666666668
300.0   30.0   16.666666666666668
250.0   30.0   16.666666666666668
300.0   30.0   33.333333333333336
250.0   0.0   33.333333333333336
250.0   30.0   33.333333333333336
300.0   30.0   33.333333333333336
250.0   30.0   16.666666666666668
250.0   0.0   33.333333333333336
300.0   30.0   33.333333333333336
300.0   0.0   33.333333333333336
300.0   0.0   16.666666666666668
250.0   0.0   33.333333333333336
300.0   30.0   33.333333333333336
300.0   0.0   16.666666666666668
250.0   30.0   16.666666666666668
250.0   0.0   33.333333333333336
300.0   0.0   33.333333333333336
250.0   30.0   33.333333333333336
250.0   0.0   50.0
300.0   0.0   33.333333333333336
300.0   30.0   33.333333333333336
250.0   30.0   33.333333333333336
300.0   30.0   50.0
250.0   0.0   50.0
250.0   30.0   50.0
300.0   30.0   50.0
250.0   30.0   33.333333333333336
250.0   0.0   50.0
300.0   30.0   50.0
300.0   0.0   50.0
300.0   0.0   33.333333333333336
250.0   0.0   50.0
300.0   30.0   50.0
300.0   0.0   33.333333333333336
250.0   30.0   33.333333333333336
250.0   30.0   0.0
300.0   30.0   0.0
250.0   60.0   0.0
250.0   30.0   16.666666666666668
300.0   30.0   0.0
300.0   60.0   0.0
250.0   60.0   0.0
300.0   60.0   16.666666666666668
250.0   30.0   16.666666666666668
250.0   60.0   16.666666666666668
300.0   60.0   16.666666666666668
250.0   60.0   0.0
250.0   30.0   16.666666666666668
300.0   60.0   16.666666666666668
300.0   30.0   16.666666666666668
300.0   30.0   0.0
250.0   30.0   16.666666666666668
300.0   60.0   16.666666666666668
300.0   30.0   0.0
250.0   60.0   0.0
250.0   30.0   16.666666666666668
300.0   30.0   16.666666666666668
250.0   60.0   16.666666666666668
250.0   30.0   33.333333333333336
300.0   30.0   16.666666666666668
300.0   60.0   16.666666666666668
250.0   60.0   16.666666666666668
300.0   60.0   33.333333333333336
250.0   30.0   33.333333333333336
250.0   60.0   33.333333333333336
300.0   60.0   33.333333333333336
250.0   60.0   16.666666666666668
250.0   30.0   33.333333333333336
300.0   60.0   33.333333333333336
300.0   30.0   33.333333333333336
300.0   30.0   16.666666666666668
250.0   30.0   33.333333333333336
300.0   60.0   33.333333333333336
300.0   30.0   16.666666666666668
250.0   60.0   16.666666666666668
250.0   30.0   33.333333333333336
300.0   30.0   33.333333333333336
250.0   60.0   33.333333333333336
250.0   30.0   50.0
300.0   30.0   33.333333333333336
300.0   60.0   33.333333333333336
250.0   60.0   33.333333333333336
300.0   60.0   50.0
250.0   30.0   50.0
250.0   60.0   50.0
300.0   60.0   50.0
250.0   60.0   33.333333333333336
250.0   30.0   50.0
300.0   60.0   50.0
300.0   30.0   50.0
300.0   30.0   33.333333333333336
250.0   30.0   50.0
300.0   60.0   50.0
300.0   30.0   33.333333333333336
250.0   60.0   33.333333333333336
250.0   60.0   0.0
300.0   60.0   0.0
250.0   90.0   0.0
250.0   60.0   16.666666666666668
300.0   60.0   0.0
300.0   90.0   0.0
250.0   90.0   0.0
300.0   90.0   16.666666666666668
250.0   60.0   16.666666666666668
250.0   90.0   16.666666666666668
300.0   90.0   16.666666666666668
250.0   90.0   0.0
250.0   60.0   16.666666666666668
300.0   90.0   16.666666666666668
300.0   60.0   16.666666666666668
300.0   60.0   0.0
250.0   60.0   16.666666666666668
300.0   90.0   16.666666666666668
300.0   60.0   0.0
250.0   90.0   0.0
250.0   60.0   16.666666666666668
300.0   60.0   16.666666666666668
250.0   90.0   16.666666666666668
250.0   60.0   33.333333333333336
300.0   60.0   16.666666666666668
300.0   90.0   16.666666666666668
250.0   90.0   16.666666666666668
300.0   90.0   33.333333333333336
250.0   60.0   33.333333333333336
250.0   90.0   33.333333333333336
300.0   90.0   33.333333333333336
250.0   90.0   16.666666666666668
250.0   60.0   33.333333333333336
300.0   90.0   33.333333333333336
300.0   60.0   33.333333333333336
300.0   60.0   16.666666666666668
250.0   60.0   33.333333333333336
300.0   90.0   33.333333333333336
300.0   60.0   16.666666666666668
250.0   90.0   16.666666666666668
250.0   60.0   33.333333333333336
300.0   60.0   33.333333333333336
250.0   90.0   33.333333333333336
250.0   60.0   50.0
300.0   60.0   33.333333333333336
300.0   90.0   33.333333333333336
250.0   90.0   33.333333333333336
300.0   90.0   50.0
250.0   60.0   50.0
250.0   90.0   50.0
300.0   90.0   50.0
250.0   90.0   33.333333333333336
250.0   60.0   50.0
300.0   90.0   50.0
300.0   60.0   50.0
300.0   60.0   33.333333333333336
250.0   60.0   50.0
300.0   90.0   50.0
300.0   60.0   33.333333333333336
250.0   90.0   33.333333333333336
250.0   90.0   0.0
300.0   90.0   0.0
250.0   120.0   0.0
250.0   90.0   16.666666666666668
300.0   90.0   0.0
300.0   120.0   0.0
250.0   120.0   0.0
300.0   120.0   16.666666666666668
250.0   90.0   16.666666666666668
250.0   120.0   16.666666666666668
300.0   120.0   16.666666666666668
250.0   120.0   0.0
250.0   90.0   16.666666666666668
300.0   120.0   16.666666666666668
300.0   90.0   16.666666666666668
300.0   90.0   0.0
250.0   90.0   16.666666666666668
300.0   120.0   16.666666666666668
300.0   90.0   0.0
250.0   120.0   0.0
250.0   90.0   16.666666666666668
300.0   90.0   16.666666666666668
250.0   120.0   16.666666666666668
250.0   90.0   33.333333333333336
300.0   90.0   16.666666666666668
300.0   120.0   16.666666666666668
250.0   120.0   16.666666666666668
300.0   120.0   33.333333333333336
250.0   90.0   33.333333333333336
250.0   120.0   33.333333333333336
300.0   120.0   33.333333333333336
250.0   120.0   16.666666666666668
250.0   90.0   33.333333333333336
300.0   120.0   33.333333333333336
300.0   90.0   33.333333333333336
300.0   90.0   16.666666666666668
250.0   90.0   33.333333333333336
300.0   120.0   33.333333333333336
300.0   90.0   16.666666666666668
250.0   120.0   16.666666666666668
250.0   90.0   33.333333333333336
300.0   90.0   33.333333333333336
250.0   120.0   33.333333333333336
250.0   90.0   50.0
300.0   90.0   33.333333333333336
300.0   120.0   33.333333333333336
250.0   120.0   33.333333333333336
300.0   120.0   50.0
250.0   90.0   50.0
250.0   120.0   50.0
300.0   120.0   50.0
250.0   120.0   33.333333333333336
250.0   90.0   50.0
300.0   120.0   50.0
300.0   90.0   50.0
300.0   90.0   33.333333333333336
250.0   90.0   50.0
300.0   120.0   50.0
300.0   90.0   33.333333333333336
250.0   120.0   33.333333333333336
250.0   120.0   0.0
300.0   120.0   0.0
250.0   150.0   0.0
250.0   120.0   16.666666666666668
300.0   120.0   0.0
300.0   150.0   0.0
250.0   150.0   0.0
300.0   150.0   16.666666666666668
250.0   120.0   16.666666666666668
250.0   150.0   16.666666666666668
300.0   150.0   16.666666666666668
250.0   150.0   0.0
250.0   120.0   16.666666666666668
300.0   150.0   16.666666666666668
300.0   120.0   16.666666666666668
300.0   120.0   0.0
250.0   120.0   16.666666666666668
300.0   150.0   16.666666666666668
300.0   120.0   0.0
250.0   150.0   0.0
250.0   120.0   16.666666666666668
300.0   120.0   16.666666666666668
250.0   150.0   16.666666666666668
250.0   120.0   33.333333333333336
300.0   120.0   16.666666666666668
300.0   150.0   16.666666666666668
250.0   150.0   16.666666666666668
300.0   150.0   33.333333333333336
250.0   120.0   33.333333333333336
250.0   150.0   33.333333333333336
300.0   150.0   33.333333333333336
250.0   150.0   16.666666666666668
250.0   120.0   33.333333333333336
300.0   150.0   33.333333333333336
300.0   120.0   33.333333333333336
300.0   120.0   16.666666666666668
250.0   120.0   33.333333333333336
300.0   150.0   33.333333333333336
300.0   120.0   16.666666666666668
250.0   150.0   16.666666666666668
250.0   120.0   33.333333333333336
300.0   120.0   33.333333333333336
250.0   150.0   33.333333333333336
250.0   120.0   50.0
300.0   120.0   33.333333333333336
300.0   150.0   33.333333333333336
250.0   150.0   33.333333333333336
300.0   150.0   50.0
250.0   120.0   50.0
250.0   150.0   50.0
300.0   150.0   50.0
250.0   150.0   33.333333333333336
250.0   120.0   50.0
300.0   150.0   50.0
300.0   120.0   50.0
300.0   120.0   33.333333333333336
250.0   120.0   50.0
300.0   150.0   50.0
300.0   120.0   33.333333333333336
250.0   150.0   33.333333333333336
300.0   0.0   0.0
350.0   0.0   0.0
300.0   30.0   0.0
300.0   0.0   16.666666666666668
350.0   0.0   0.0
350.0   30.0   0.0
300.0   30.0   0.0
350.0   30.0   16.666666666666668
300.0   0.0   16.666666666666668
300.0   30.0   16.666666666666668
350.0   30.0   16.666666666666668
300.0   30.0   0.0
300.0   0.0   16.666666666666668
350.0   30.0   16.666666666666668
350.0   0.0   16.666666666666668
350.0   0.0   0.0
300.0   0.0   16.666666666666668
350.0   30.0   16.666666666666668
350.0   0.0   0.0
300.0   30.0   0.0
300.0   0.0   16.666666666666668
350.0   0.0   16.666666666666668
300.0   30.0   16.666666666666668
300.0   0.0   33.333333333333336
350.0   0.0   16.666666666666668
350.0   30.0   16.666666666666668
300.0   30.0   16.666666666666668
350.0   30.0   33.333333333333336
300.0   0.0   33.333333333333336
300.0   30.0   33.333333333333336
350.0   30.0   33.333333333333336
300.0   30.0   16.666666666666668
300.0   0.0   33.333333333333336
350.0   30.0   33.333333333333336
350.0   0.0   33.333333333333336
350.0   0.0   16.666666666666668
300.0   0.0   33.333333333333336
350.0   30.0   33.333333333333336
350.0   0.0   16.666666666666668
300.0   30.0   16.666666666666668
300.0   0.0   33.333333333333336
350.0   0.0   33.333333333333336
300.0   30.0   33.333333333333336
300.0   0.0   50.0
350.0   0.0   33.333333333333336
350.0   30.0   33.333333333333336
300.0   30.0   33.333333333333336
350.0   30.0   50.0
300.0   0.0   50.0
300.0   30.0   50.0
350.0   30.0   50.0
300.0   30.0   33.333333333333336
300.0   0.0   50.0
350.0   30.0   50.0
350.0   0.0   50.0
350.0   0.0   33.333333333333336
300.0   0.0   50.0
350.0   30.0   50.0
350.0   0.0   33.333333333333336
300.0   30.0   33.333333333333336
300.0   30.0   0.0
350.0   30.0   0.0
300.0   60.0   0.0
300.0   30.0   16.666666666666668
350.0   30.0   0.0
350.0   60.0   0.0
300.0   60.0   0.0
350.0   60.0   16.666666666666668
300.0   30.0   16.666666666666668
300.0   60.0   16.666666666666668
350.0   60.0   16.666666666666668
300.0   60.0   0.0
300.0   30.0   16.666666666666668
350.0   60.0   16.666666666666668
350.0   30.0   16.666666666666668
350.0   30.0   0.0
300.0   30.0   16.666666666666668
350.0   60.0   16.666666666666668
350.0   30.0   0.0
300.0   60.0   0.0
300.0   30.0   16.666666666666668
350.0   30.0   16.666666666666668
300.0   60.0   16.666666666666668
300.0   30.0   33.333333333333336
350.0   30.0   16.666666666666668
350.0   60.0   16.666666666666668
300.0   60.0   16.666666666666668
350.0   60.0   33.333333333333336
300.0   30.0   33.333333333333336
300.0   60.0   33.333333333333336
350.0   60.0   33.333333333333336
300.0   60.0   16.666666666666668
300.0   30.0   33.333333333333336
350.0   60.0   33.333333333333336
350.0   30.0   33.333333333333336
350.0   30.0   16.666666666666668
300.0   30.0   33.333333333333336
350.0   60.0   33.333333333333336
350.0   30.0   16.666666666666668
300.0   60.0   16.666666666666668
300.0   30.0   33.333333333333336
350.0   30.0   33.333333333333336
300.0   60.0   33.333333333333336
300.0   30.0   50.0
350.0   30.0   33.333333333333336
350.0   60.0   33.333333333333336
300.0   60.0   33.333333333333336
350.0   60.0   50.0
300.0   30.0   50.0
300.0   60.0   50.0
350.0   60.0   50.0
300.0   60.0   33.333333333333336
300.0   30.0   50.0
350.0   60.0   50.0
350.0   30.0   50.0
350.0   30.0   33.333333333333336
300.0   30.0   50.0
350.0   60.0   50.0
350.0   30.0   33.333333333333336
300.0   60.0   33.333333333333336
300.0   60.0   0.0
350.0   60.0   0.0
300.0   90.0   0.0
300.0   60.0   16.666666666666668
350.0   60.0   0.0
350.0   90.0   0.0
300.0   90.0   0.0
350.0   90.0   16.666666666666668
300.0   60.0   16.666666666666668
300.0   90.0   16.666666666666668
350.0   90.0   16.666666666666668
300.0   90.0   0.0
300.0   60.0   16.666666666666668
350.0   90.0   16.666666666666668
350.0   60.0   16.666666666666668
350.0   60.0   0.0
300.0   60.0   16.666666666666668
350.0   90.0   16.666666666666668
350.0   60.0   0.0
300.0   90.0   0.0
300.0   60.0   16.666666666666668
350.0   60.0   16.666666666666668
300.0   90.0   16.666666666666668
300.0   60.0   33.333333333333336
350.0   60.0   16.666666666666668
350.0   90.0   16.666666666666668
300.0   90.0   16.666666666666668
350.0   90.0   33.333333333333336
300.0   60.0   33.333333333333336
300.0   90.0   33.333333333333336
350.0   90.0   33.333333333333336
300.0   90.0   16.666666666666668
300.0   60.0   33.333333333333336
350.0   90.0   33.333333333333336
350.0   60.0   33.333333333333336
350.0   60.0   16.666666666666668
300.0   60.0   33.333333333333336
350.0   90.0   33.333333333333336
350.0   60.0   16.666666666666668
300.0   90.0   16.666666666666668
300.0   60.0   33.333333333333336
350.0   60.0   33.333333333333336
300.0   90.0   33.333333333333336
300.0   60.0   50.0
350.0   60.0   33.333333333333336
350.0   90.0   33.333333333333336
300.0   90.0   33.333333333333336
350.0   90.0   50.0
300.0   60.0   50.0
300.0   90.0   50.0
350.0   90.0   50.0
300.0   90.0   33.333333333333336
300.0   60.0   50.0
350.0   90.0   50.0
350.0   60.0   50.0
350.0   60.0   33.333333333333336
300.0   60.0   50.0
350.0   90.0   50.0
350.0   60.0   33.333333333333336
300.0   90.0   33.333333333333336
300.0   90.0   0.0
350.0   90.0   0.0
300.0   120.0   0.0
300.0   90.0   16.666666666666668
350.0   90.0   0.0
350.0   120.0   0.0
300.0   120.0   0.0
350.0   120.0   16.666666666666668
300.0   90.0   16.666666666666668
300.0   120.0   16.666666666666668
350.0   120.0   16.666666666666668
300.0   120.0   0.0
300.0   90.0   16.666666666666668
350.0   120.0   16.666666666666668
350.0   90.0   16.666666666666668
350.0   90.0   0.0
300.0   90.0   16.666666666666668
350.0   120.0   16.666666666666668
350.0   90.0   0.0
300.0   120.0   0.0
300.0   90.0   16.666666666666668
350.0   90.0   16.666666666666668
300.0   120.0   16.666666666666668
300.0   90.0   33.333333333333336
350.0   90.0   16.666666666666668
350.0   120.0   16.666666666666668
300.0   120.0   16.666666666666668
350.0   120.0   33.333333333333336
300.0   90.0   33.333333333333336
300.0   120.0   33.333333333333336
350.0   120.0   33.333333333333336
300.0   120.0   16.666666666666668
300.0   90.0   33.333333333333336
350.0   120.0   33.333333333333336
350.0   90.0   33.333333333333336
350.0   90.0   16.666666666666668
300.0   90.0   33.333333333333336
350.0   120.0   33.333333333333336
350.0   90.0   16.666666666666668
300.0   120.0   16.666666666666668
300.0   90.0   33.333333333333336
350.0   90.0   33.333333333333336
300.0   120.0   33.333333333333336
300.0   90.0   50.0
350.0   90.0   33.333333333333336
350.0   120.0   33.333333333333336
300.0   120.0   33.333333333333336
350.0   120.0   50.0
300.0   90.0   50.0
300.0   120.0   50.0
350.0   120.0   50.0
300.0   120.0   33.333333333333336
300.0   90.0   50.0
350.0   120.0   50.0
350.0   90.0   50.0
350.0   90.0   33.333333333333336
300.0   90.0   50.0
350.0   120.0   50.0
350.0   90.0   33.333333333333336
300.0   120.0   33.333333333333336
300.0   120.0   0.0
350.0   120.0   0.0
300.0   150.0   0.0
300.0   120.0   16.666666666666668
350.0   120.0   0.0
350.0   150.0   0.0
300.0   150.0   0.0
350.0   150.0   16.666666666666668
300.0   120.0   16.666666666666668
300.0   150.0   16.666666666666668
350.0   150.0   16.666666666666668
300.0   150.0   0.0
300.0   120.0   16.666666666666668
350.0   150.0   16.666666666666668
350.0   120.0   16.666666666666668
350.0   120.0   0.0
300.0   120.0   16.666666666666668
350.0   150.0   16.666666666666668
350.0   120.0   0.0
300.0   150.0   0.0
300.0   120.0   16.666666666666668
350.0   120.0   16.666666666666668
300.0   150.0   16.666666666666668
300.0   120.0   33.333333333333336
350.0   120.0   16.666666666666668
350.0   150.0   16.666666666666668
300.0   150.0   16.666666666666668
350.0   150.0   33.333333333333336
300.0   120.0   33.333333333333336
300.0   150.0   33.333333333333336
350.0   150.0   33.333333333333336
300.0   150.0   16.666666666666668
300.0   120.0   33.333333333333336
350.0   150.0   33.333333333333336
350.0   120.0   33.333333333333336
350.0   120.0   16.666666666666668
300.0   120.0   33.333333333333336
350.0   150.0   33.333333333333336
350.0   120.0   16.666666666666668
300.0   150.0   16.666666666666668
300.0   120.0   33.333333333333336
350.0   120.0   33.333333333333336
300.0   150.0   33.333333333333336
300.0   120.0   50.0
350.0   120.0   33.333333333333336
350.0   150.0   33.333333333333336
300.0   150.0   33.333333333333336
350.0   150.0   50.0
300.0   120.0   50.0
300.0   150.0   50.0
350.0   150.0   50.0
300.0   150.0   33.333333333333336
300.0   120.0   50.0
350.0   150.0   50.0
350.0   120.0   50.0
350.0   120.0   33.333333333333336
300.0   120.0   50.0
350.0   150.0   50.0
350.0   120.0   33.333333333333336
300.0   150.0   33.333333333333336
350.0   0.0   0.0
400.0   0.0   0.0
350.0   30.0   0.0
350.0   0.0   16.666666666666668
400.0   0.0   0.0
400.0   30.0   0.0
350.0   30.0   0.0
400.0   30.0   16.666666666666668
350.0   0.0   16.666666666666668
350.0   30.0   16.666666666666668
400.0   30.0   16.666666666666668
350.0   30.0   0.0
350.0   0.0   16.666666666666668
400.0   30.0   16.666666666666668
400.0   0.0   16.666666666666668
400.0   0.0   0.0
350.0   0.0   16.666666666666668
400.0   30.0   16.666666666666668
400.0   0.0   0.0
350.0   30.0   0.0
350.0   0.0   16.666666666666668
400.0   0.0   16.666666666666668
350.0   30.0   16.666666666666668
350.0   0.0   33.333333333333336
400.0   0.0   16.666666666666668
400.0   30.0   16.666666666666668
350.0   30.0   16.666666666666668
400.0   30.0   33.333333333333336
350.0   0.0   33.333333333333336
350.0   30.0   33.333333333333336
400.0   30.0   33.333333333333336
350.0   30.0   16.666666666666668
350.0   0.0   33.333333333333336
400.0   30.0   33.333333333333336
400.0   0.0   33.333333333333336
400.0   0.0   16.666666666666668
350.0   0.0   33.333333333333336
400.0   30.0   33.333333333333336
400.0   0.0   16.666666666666668
350.0   30.0   16.666666666666668
350.0   0.0   33.333333333333336
400.0   0.0   33.333333333333336
350.0   30.0   33.333333333333336
350.0   0.0   50.0
400.0   0.0   33.333333333333336
400.0   30.0   33.333333333333336
350.0   30.0   33.333333333333336
400.0   30.0   50.0
350.0   0.0   50.0
350.0   30.0   50.0
400.0   30.0   50.0
350.0   30.0   33.333333333333336
350.0   0.0   50.0
400.0   30.0   50.0
400.0   0.0   50.0
400.0   0.0   33.333333333333336
350.0   0.0   50.0
400.0   30.0   50.0
400.0   0.0   33.333333333333336
350.0   30.0   33.333333333333336
350.0   30.0   0.0
400.0   30.0   0.0
350.0   60.0   0.0
350.0   30.0   16.666666666666668
400.0   30.0   0.0
400.0   60.0   0.0
350.0   60.0   0.0
400.0   60.0   16.666666666666668
350.0   30.0   16.666666666666668
350.0   60.0   16.666666666666668
400.0   60.0   16.666666666666668
350.0   60.0   0.0
350.0   30.0   16.666666666666668
400.0   60.0   16.666666666666668
400.0   30.0   16.666666666666668
400.0   30.0   0.0
350.0   30.0   16.666666666666668
400.0   60.0   16.666666666666668
400.0   30.0   0.0
350.0   60.0   0.0
350.0   30.0   16.666666666666668
400.0   30.0   16.666666666666668
350.0   60.0   16.666666666666668
350.0   30.0   33.333333333333336
400.0   30.0   16.666666666666668
400.0   60.0   16.666666666666668
350.0   60.0   16.666666666666668
400.0   60.0   33.333333333333336
350.0   30.0   33.333333333333336
350.0   60.0   33.333333333333336
400.0   60.0   33.333333333333336
350.0   60.0   16.666666666666668
350.0   30.0   33.333333333333336
400.0   60.0   33.333333333333336
400.0   30.0   33.333333333333336
400.0   30.0   16.666666666666668
350.0   30.0   33.333333333333336
400.0   60.0   33.333333333333336
400.0   30.0   16.666666666666668
350.0   60.0   16.666666666666668
350.0   30.0   33.333333333333336
400.0   30.0   33.333333333333336
350.0   60.0   33.333333333333336
350.0   30.0   50.0
400.0   30.0   33.333333333333336
400.0   60.0   33.333333333333336
350.0   60.0   33.333333333333336
400.0   60.0   50.0
350.0   30.0   50.0
350.0   60.0   50.0
400.0   60.0   50.0
350.0   60.0   33.333333333333336
350.0   30.0   50.0
400.0   60.0   50.0
400.0   30.0   50.0
400.0   30.0   33.333333333333336
350.0   30.0   50.0
400.0   60.0   50.0
400.0   30.0   33.333333333333336
350.0   60.0   33.333333333333336
350.0   60.0   0.0
400.0   60.0   0.0
350.0   90.0   0.0
350.0   60.0   16.666666666666668
400.0   60.0   0.0
400.0   90.0   0.0
350.0   90.0   0.0
400.0   90.0   16.666666666666668
350.0   60.0   16.666666666666668
350.0   90.0   16.666666666666668
400.0   90.0   16.666666666666668
350.0   90.0   0.0
350.0   60.0   16.666666666666668
400.0   90.0   16.666666666666668
400.0   60.0   16.666666666666668
400.0   60.0   0.0
350.0   60.0   16.666666666666668
400.0   90.0   16.666666666666668
400.0   60.0   0.0
350.0   90.0   0.0
350.0   60.0   16.666666666666668
400.0   60.0   16.666666666666668
350.0   90.0   16.666666666666668
350.0   60.0   33.333333333333336
400.0   60.0   16.666666666666668
400.0   90.0   16.666666666666668
350.0   90.0   16.666666666666668
400.0   90.0   33.333333333333336
350.0   60.0   33.333333333333336
350.0   90.0   33.333333333333336
400.0   90.0   33.333333333333336
350.0   90.0   16.666666666666668
350.0   60.0   33.333333333333336
400.0   90.0   33.333333333333336
400.0   60.0   33.333333333333336
400.0   60.0   16.666666666666668
350.0   60.0   33.333333333333336
400.0   90.0   33.333333333333336
400.0   60.0   16.666666666666668
350.0   90.0   16.666666666666668
350.0   60.0   33.333333333333336
400.0   60.0   33.333333333333336
350.0   90.0   33.333333333333336
350.0   60.0   50.0
400.0   60.0   33.333333333333336
400.0   90.0   33.333333333333336
350.0   90.0   33.333333333333336
400.0   90.0   50.0
350.0   60.0   50.0
350.0   90.0   50.0
400.0   90.0   50.0
350.0   90.0   33.333333333333336
350.0   60.0   50.0
400.0   90.0   50.0
400.0   60.0   50.0
400.0   60.0   33.333333333333336
350.0   60.0   50.0
400.0   90.0   50.0
400.0   60.0   33.333333333333336
350.0   90.0   33.333333333333336
350.0   90.0   0.0
400.0   90.0   0.0
350.0   120.0   0.0
350.0   90.0   16.666666666666668
400.0   90.0   0.0
400.0   120.0   0.0
350.0   120.0   0.0
400.0   120.0   16.666666666666668
350.0   90.0   16.666666666666668
350.0   120.0   16.666666666666668
400.0   120.0   16.666666666666668
350.0   120.0   0.0
350.0   90.0   16.666666666666668
400.0   120.0   16.666666666666668
400.0   90.0   16.666666666666668
400.0   90.0   0.0
350.0   90.0   16.666666666666668
400.0   120.0   16.666666666666668
400.0   90.0   0.0
350.0   120.0   0.0
350.0   90.0   16.666666666666668
400.0   90.0   16.666666666666668
350.0   120.0   16.666666666666668
350.0   90.0   33.333333333333336
400.0   90.0   16.666666666666668
400.0   120.0   16.666666666666668
350.0   120.0   16.666666666666668
400.0   120.0   33.333333333333336
350.0   90.0   33.333333333333336
350.0   120.0   33.333333333333336
400.0   120.0   33.333333333333336
350.0   120.0   16.666666666666668
350.0   90.0   33.333333333333336
400.0   120.0   33.333333333333336
400.0   90.0   33.333333333333336
400.0   90.0   16.666666666666668
350.0   90.0   33.333333333333336
400.0   120.0   33.333333333333336
400.0   90.0   16.666666666666668
350.0   120.0   16.666666666666668
350.0   90.0   33.333333333333336
400.0   90.0   33.333333333333336
350.0   120.0   33.333333333333336
350.0   90.0   50.0
400.0   90.0   33.333333333333336
400.0   120.0   33.333333333333336
350.0   120.0   33.333333333333336
400.0   120.0   50.0
350.0   90.0   50.0
350.0   120.0   50.0
400.0   120.0   50.0
350.0   120.0   33.333333333333336
350.0   90.0   50.0
400.0   120.0   50.0
400.0   90.0   50.0
400.0   90.0   33.333333333333336
350.0   90.0   50.0
400.0   120.0   50.0
400.0   90.0   33.333333333333336
350.0   120.0   33.333333333333336
350.0   120.0   0.0
400.0   120.0   0.0
350.0   150.0   0.0
350.0   120.0   16.666666666666668
400.0   120.0   0.0
400.0   150.0   0.0
350.0   150.0   0.0
400.0   150.0   16.666666666666668
350.0   120.0   16.666666666666668
350.0   150.0   16.666666666666668
400.0   150.0   16.666666666666668
350.0   150.0   0.0
350.0   120.0   16.666666666666668
400.0   150.0   16.666666666666668
400.0   120.0   16.666666666666668
400.0   120.0   0.0
350.0   120.0   16.666666666666668
400.0   150.0   16.666666666666668
400.0   120.0   0.0
350.0   150.0   0.0
350.0   120.0   16.666666666666668
400.0   120.0   16.666666666666668
350.0   150.0   16.666666666666668
350.0   120.0   33.333333333333336
400.0   120.0   16.666666666666668
400.0   150.0   16.666666666666668
350.0   150.0   16.666666666666668
400.0   150.0   33.333333333333336
350.0   120.0   33.333333333333336
350.0   150.0   33.333333333333336
400.0   150.0   33.333333333333336
350.0   150.0   16.666666666666668
350.0   120.0   33.333333333333336
400.0   150.0   33.333333333333336
400.0   120.0   33.333333333333336
400.0   120.0   16.666666666666668
350.0   120.0   33.333333333333336
400.0   150.0   33.333333333333336
400.0   120.0   16.666666666666668
350.0   150.0   16.666666666666668
350.0   120.0   33.333333333333336
400.0   120.0   33.333333333333336
350.0   150.0   33.333333333333336
350.0   120.0   50.0
400.0   120.0   33.333333333333336
400.0   150.0   33.333333333333336
350.0   150.0   33.333333333333336
400.0   150.0   50.0
350.0   120.0   50.0
350.0   150.0   50.0
400.0   150.0   50.0
350.0   150.0   33.333333333333336
350.0   120.0   50.0
400.0   150.0   50.0
400.0   120.0   50.0
400.0   120.0   33.333333333333336
350.0   120.0   50.0
400.0   150.0   50.0
400.0   120.0   33.333333333333336
350.0   150.0   33.333333333333336
400.0   0.0   0.0
450.0   0.0   0.0
400.0   30.0   0.0
400.0   0.0   16.666666666666668
450.0   0.0   0.0
450.0   30.0   0.0
400.0   30.0   0.0
450.0   30.0   16.666666666666668
400.0   0.0   16.666666666666668
400.0   30.0   16.666666666666668
450.0   30.0   16.666666666666668
400.0   30.0   0.0
400.0   0.0   16.666666666666668
450.0   30.0   16.666666666666668
450.0   0.0   16.666666666666668
450.0   0.0   0.0
400.0   0.0   16.666666666666668
450.0   30.0   16.666666666666668
450.0   0.0   0.0
400.0   30.0   0.0
400.0   0.0   16.666666666666668
450.0   0.0   16.666666666666668
400.0   30.0   16.666666666666668
400.0   0.0   33.333333333333336
450.0   0.0   16.666666666666668
450.0   30.0   16.666666666666668
400.0   30.0   16.666666666666668
450.0   30.0   33.333333333333336
400.0   0.0   33.333333333333336
400.0   30.0   33.333333333333336
450.0   30.0   33.333333333333336
400.0   30.0   16.666666666666668
400.0   0.0   33.333333333333336
450.0   30.0   33.333333333333336
450.0   0.0   33.333333333333336
450.0   0.0   16.666666666666668
400.0   0.0   33.333333333333336
450.0   30.0   33.333333333333336
450.0   0.0   16.666666666666668
400.0   30.0   16.666666666666668
400.0   0.0   33.333333333333336
450.0   0.0   33.333333333333336
400.0   30.0   33.333333333333336
400.0   0.0   50.0
450.0   0.0   33.333333333333336
450.0   30.0   33.333333333333336
400.0   30.0   33.333333333333336
450.0   30.0   50.0
400.0   0.0   50.0
400.0   30.0   50.0
450.0   30.0   50.0
400.0   30.0   33.333333333333336
400.0   0.0   50.0
450.0   30.0   50.0
450.0   0.0   50.0
450.0   0.0   33.333333333333336
400.0   0.0   50.0
450.0   30.0   50.0
450.0   0.0   33.333333333333336
400.0   30.0   33.333333333333336
400.0   30.0   0.0
450.0   30.0   0.0
400.0   60.0   0.0
400.0   30.0   16.666666666666668
450.0   30.0   0.0
450.0   60.0   0.0
400.0   60.0   0.0
450.0   60.0   16.666666666666668
400.0   30.0   16.666666666666668
400.0   60.0   16.666666666666668
450.0   60.0   16.666666666666668
400.0   60.0   0.0
400.0   30.0   16.666666666666668
450.0   60.0   16.666666666666668
450.0   30.0   16.666666666666668
450.0   30.0   0.0
400.0   30.0   16.666666666666668
450.0   60.0   16.666666666666668
450.0   30.0   0.0
400.0   60.0   0.0
400.0   30.0   16.666666666666668
450.0   30.0   16.666666666666668
400.0   60.0   16.666666666666668
400.0   30.0   33.333333333333336
450.0   30.0   16.666666666666668
450.0   60.0   16.666666666666668
400.0   60.0   16.666666666666668
450.0   60.0   33.333333333333336
400.0   30.0   33.333333333333336
400.0   60.0   33.333333333333336
450.0   60.0   33.333333333333336
400.0   60.0   16.666666666666668
400.0   30.0   33.333333333333336
450.0   60.0   33.333333333333336
450.0   30.0   33.333333333333336
450.0   30.0   16.666666666666668
400.0   30.0   33.333333333333336
450.0   60.0   33.333333333333336
450.0   30.0   16.666666666666668
400.0   60.0   16.666666666666668
400.0   30.0   33.333333333333336
450.0   30.0   33.333333333333336
400.0   60.0   33.333333333333336
400.0   30.0   50.0
450.0   30.0   33.333333333333336
450.0   60.0   33.333333333333336
400.0   60.0   33.333333333333336
450.0   60.0   50.0
400.0   30.0   50.0
400.0   60.0   50.0
450.0   60.0   50.0
400.0   60.0   33.333333333333336
400.0   30.0   50.0
450.0   60.0   50.0
450.0   30.0   50.0
450.0   30.0   33.333333333333336
400.0   30.0   50.0
450.0   60.0   50.0
450.0   30.0   33.333333333333336
400.0   60.0   33.333333333333336
400.0   60.0   0.0
450.0   60.0   0.0
400.0   90.0   0.0
400.0   60.0   16.666666666666668
450.0   60.0   0.0
450.0   90.0   0.0
400.0   90.0   0.0
450.0   90.0   16.666666666666668
400.0   60.0   16.666666666666668
400.0   90.0   16.666666666666668
450.0   90.0   16.666666666666668
400.0   90.0   0.0
400.0   60.0   16.666666666666668
450.0   90.0   16.666666666666668
450.0   60.0   16.666666666666668
450.0   60.0   0.0
400.0   60.0   16.666666666666668
450.0   90.0   16.666666666666668
450.0   60.0   0.0
400.0   90.0   0.0
400.0   60.0   16.666666666666668
450.0   60.0   16.666666666666668
400.0   90.0   16.666666666666668
400.0   60.0   33.333333333333336
450.0   60.0   16.666666666666668
450.0   90.0   16.666666666666668
400.0   90.0   16.666666666666668
450.0   90.0   33.333333333333336
400.0   60.0   33.333333333333336
400.0   90.0   33.333333333333336
450.0   90.0   33.333333333333336
400.0   90.0   16.666666666666668
400.0   60.0   33.333333333333336
450.0   90.0   33.333333333333336
450.0   60.0   33.333333333333336
450.0   60.0   16.666666666666668
400.0   60.0   33.333333333333336
450.0   90.0   33.333333333333336
450.0   60.0   16.666666666666668
400.0   90.0   16.666666666666668
400.0   60.0   33.333333333333336
450.0   60.0   33.333333333333336
400.0   90.0   33.333333333333336
400.0   60.0   50.0
450.0   60.0   33.333333333333336
450.0   90.0   33.333333333333336
400.0   90.0   33.333333333333336
450.0   90.0   50.0
400.0   60.0   50.0
400.0   90.0   50.0
450.0   90.0   50.0
400.0   90.0   33.333333333333336
400.0   60.0   50.0
450.0   90.0   50.0
450.0   60.0   50.0
450.0   60.0   33.333333333333336
400.0   60.0   50.0
450.0   90.0   50.0
450.0   60.0   33.333333333333336
400.0   90.0   33.333333333333336
400.0   90.0   0.0
450.0   90.0   0.0
400.0   120.0   0.0
400.0   90.0   16.666666666666668
450.0   90.0   0.0
450.0   120.0   0.0
400.0   120.0   0.0
450.0   120.0   16.666666666666668
400.0   90.0   16.666666666666668
400.0   120.0   16.666666666666668
450.0   120.0   16.666666666666668
400.0   120.0   0.0
400.0   90.0   16.666666666666668
450.0   120.0   16.666666666666668
450.0   90.0   16.666666666666668
450.0   90.0   0.0
400.0   90.0   16.666666666666668
450.0   120.0   16.666666666666668
450.0   90.0   0.0
400.0   120.0   0.0
400.0   90.0   16.666666666666668
450.0   90.0   16.666666666666668
400.0   120.0   16.666666666666668
400.0   90.0   33.333333333333336
450.0   90.0   16.666666666666668
450.0   120.0   16.666666666666668
400.0   120.0   16.666666666666668
450.0   120.0   33.333333333333336
400.0   90.0   33.333333333333336
400.0   120.0   33.333333333333336
450.0   120.0   33.333333333333336
400.0   120.0   16.666666666666668
400.0   90.0   33.333333333333336
450.0   120.0   33.333333333333336
450.0   90.0   33.333333333333336
450.0   90.0   16.666666666666668
400.0   90.0   33.333333333333336
450.0   120.0   33.333333333333336
450.0   90.0   16.666666666666668
400.0   120.0   16.666666666666668
400.0   90.0   33.333333333333336
450.0   90.0   33.333333333333336
400.0   120.0   33.333333333333336
400.0   90.0   50.0
450.0   90.0   33.333333333333336
450.0   120.0   33.333333333333336
400.0   120.0   33.333333333333336
450.0   120.0   50.0
400.0   90.0   50.0
400.0   120.0   50.0
450.0   120.0   50.0
400.0   120.0   33.333333333333336
400.0   90.0   50.0
450.0   120.0   50.0
450.0   90.0   50.0
450.0   90.0   33.333333333333336
400.0   90.0   50.0
450.0   120.0   50.0
450.0   90.0   33.333333333333336
400.0   120.0   33.333333333333336
400.0   120.0   0.0
450.0   120.0   0.0
400.0   150.0   0.0
400.0   120.0   16.666666666666668
450.0   120.0   0.0
450.0   150.0   0.0
400.0   150.0   0.0
450.0   150.0   16.666666666666668
400.0   120.0   16.666666666666668
400.0   150.0   16.666666666666668
450.0   150.0   16.666666666666668
400.0   150.0   0.0
400.0   120.0   16.666666666666668
450.0   150.0   16.666666666666668
450.0   120.0   16.666666666666668
450.0   120.0   0.0
400.0   120.0   16.666666666666668
450.0   150.0   16.666666666666668
450.0   120.0   0.0
400.0   150.0   0.0
400.0   120.0   16.666666666666668
450.0   120.0   16.666666666666668
400.0   150.0   16.666666666666668
400.0   120.0   33.333333333333336
450.0   120.0   16.666666666666668
450.0   150.0   16.666666666666668
400.0   150.0   16.666666666666668
450.0   150.0   33.333333333333336
400.0   120.0   33.333333333333336
400.0   150.0   33.333333333333336
450.0   150.0   33.333333333333336
400.0   150.0   16.666666666666668
400.0   120.0   33.333333333333336
450.0   150.0   33.333333333333336
450.0   120.0   33.333333333333336
450.0   120.0   16.666666666666668
400.0   120.0   33.333333333333336
450.0   150.0   33.333333333333336
450.0   120.0   16.666666666666668
400.0   150.0   16.666666666666668
400.0   120.0   33.333333333333336
450.0   120.0   33.333333333333336
400.0   150.0   33.333333333333336
400.0   120.0   50.0
450.0   120.0   33.333333333333336
450.0   150.0   33.333333333333336
400.0   150.0   33.333333333333336
450.0   150.0   50.0
400.0   120.0   50.0
400.0   150.0   50.0
450.0   150.0   50.0
400.0   150.0   33.333333333333336
400.0   120.0   50.0
450.0   150.0   50.0
450.0   120.0   50.0
450.0   120.0   33.333333333333336
400.0   120.0   50.0
450.0   150.0   50.0
450.0   120.0   33.333333333333336
400.0   150.0   33.333333333333336
450.0   0.0   0.0
500.0   0.0   0.0
450.0   30.0   0.0
450.0   0.0   16.666666666666668
500.0   0.0   0.0
500.0   30.0   0.0
450.0   30.0   0.0
500.0   30.0   16.666666666666668
450.0   0.0   16.666666666666668
450.0   30.0   16.666666666666668
500.0   30.0   16.666666666666668
450.0   30.0   0.0
450.0   0.0   16.666666666666668
500.0   30.0   16.666666666666668
500.0   0.0   16.666666666666668
500.0   0.0   0.0
450.0   0.0   16.666666666666668
500.0   30.0   16.666666666666668
500.0   0.0   0.0
450.0   30.0   0.0
450.0   0.0   16.666666666666668
500.0   0.0   16.666666666666668
450.0   30.0   16.666666666666668
450.0   0.0   33.333333333333336
500.0   0.0   16.666666666666668
500.0   30.0   16.666666666666668
450.0   30.0   16.666666666666668
500.0   30.0   33.333333333333336
450.0   0.0   33.333333333333336
450.0   30.0   33.333333333333336
500.0   30.0   33.333333333333336
450.0   30.0   16.666666666666668
450.0   0.0   33.333333333333336
500.0   30.0   33.333333333333336
500.0   0.0   33.333333333333336
500.0   0.0   16.666666666666668
450.0   0.0   33.333333333333336
500.0   30.0   33.333333333333336
500.0   0.0   16.666666666666668
450.0   30.0   16.666666666666668
450.0   0.0   33.333333333333336
500.0   0.0   33.333333333333336
450.0   30.0   33.333333333333336
450.0   0.0   50.0
500.0   0.0   33.333333333333336
500.0   30.0   33.333333333333336
450.0   30.0   33.333333333333336
500.0   30.0   50.0
450.0   0.0   50.0
450.0   30.0   50.0
500.0   30.0   50.0
450.0   30.0   33.333333333333336
450.0   0.0   50.0
500.0   30.0   50.0
500.0   0.0   50.0
500.0   0.0   33.333333333333336
450.0   0.0   50.0
500.0   30.0   50.0
500.0   0.0   33.333333333333336
450.0   30.0   33.333333333333336
450.0   30.0   0.0
500.0   30.0   0.0
450.0   60.0   0.0
450.0   30.0   16.666666666666668
500.0   30.0   0.0
500.0   60.0   0.0
450.0   60.0   0.0
500.0   60.0   16.666666666666668
450.0   30.0   16.666666666666668
450.0   60.0   16.666666666666668
500.0   60.0   16.666666666666668
450.0   60.0   0.0
450.0   30.0   16.666666666666668
500.0   60.0   16.666666666666668
500.0   30.0   16.666666666666668
500.0   30.0   0.0
450.0   30.0   16.666666666666668
500.0   60.0   16.666666666666668
500.0   30.0   0.0
450.0   60.0   0.0
450.0   30.0   16.666666666666668
500.0   30.0   16.666666666666668
450.0   60.0   16.666666666666668
450.0   30.0   33.333333333333336
500.0   30.0   16.666666666666668
500.0   60.0   16.666666666666668
450.0   60.0   16.666666666666668
500.0   60.0   33.333333333333336
450.0   30.0   33.333333333333336
450.0   60.0   33.333333333333336
500.0   60.0   33.333333333333336
450.0   60.0   16.666666666666668
450.0   30.0   33.333333333333336
500.0   60.0   33.333333333333336
500.0   30.0   33.333333333333336
500.0   30.0   16.666666666666668
450.0   30.0   33.333333333333336
500.0   60.0   33.333333333333336
500.0   30.0   16.666666666666668
450.0   60.0   16.666666666666668
450.0   30.0   33.333333333333336
500.0   30.0   33.333333333333336
450.0   60.0   33.333333333333336
450.0   30.0   50.0
500.0   30.0   33.333333333333336
500.0   60.0   33.333333333333336
450.0   60.0   33.333333333333336
500.0   60.0   50.0
450.0   30.0   50.0
450.0   60.0   50.0
500.0   60.0   50.0
450.0   60.0   33.333333333333336
450.0   30.0   50.0
500.0   60.0   50.0
500.0   30.0   50.0
500.0   30.0   33.333333333333336
450.0   30.0   50.0
500.0   60.0   50.0
500.0   30.0   33.333333333333336
450.0   60.0   33.333333333333336
450.0   60.0   0.0
500.0   60.0   0.0
450.0   90.0   0.0
450.0   60.0   16.666666666666668
500.0   60.0   0.0
500.0   90.0   0.0
450.0   90.0   0.0
500.0   90.0   16.666666666666668
450.0   60.0   16.666666666666668
450.0   90.0   16.666666666666668
500.0   90.0   16.666666666666668
450.0   90.0   0.0
450.0   60.0   16.666666666666668
500.0   90.0   16.666666666666668
500.0   60.0   16.666666666666668
500.0   60.0   0.0
450.0   60.0   16.666666666666668
500.0   90.0   16.666666666666668
500.0   60.0   0.0
450.0   90.0   0.0
450.0   60.0   16.666666666666668
500.0   60.0   16.666666666666668
450.0   90.0   16.666666666666668
450.0   60.0   33.333333333333336
500.0   60.0   16.666666666666668
500.0   90.0   16.666666666666668
450.0   90.0   16.666666666666668
500.0   90.0   33.333333333333336
450.0   60.0   33.333333333333336
450.0   90.0   33.333333333333336
500.0   90.0   33.333333333333336
450.0   90.0   16.666666666666668
450.0   60.0   33.333333333333336
500.0   90.0   33.333333333333336
500.0   60.0   33.333333333333336
500.0   60.0   16.666666666666668
450.0   60.0   33.333333333333336
500.0   90.0   33.333333333333336
500.0   60.0   16.666666666666668
450.0   90.0   16.666666666666668
450.0   60.0   33.333333333333336
500.0   60.0   33.333333333333336
450.0   90.0   33.333333333333336
450.0   60.0   50.0
500.0   60.0   33.333333333333336
500.0   90.0   33.333333333333336
450.0   90.0   33.333333333333336
500.0   90.0   50.0
450.0   60.0   50.0
450.0   90.0   50.0
500.0   90.0   50.0
450.0   90.0   33.333333333333336
450.0   60.0   50.0
500.0   90.0   50.0
500.0   60.0   50.0
500.0   60.0   33.333333333333336
450.0   60.0   50.0
500.0   90.0   50.0
500.0   60.0   33.333333333333336
450.0   90.0   33.333333333333336
450.0   90.0   0.0
500.0   90.0   0.0
450.0   120.0   0.0
450.0   90.0   16.666666666666668
500.0   90.0   0.0
500.0   120.0   0.0
450.0   120.0   0.0
500.0   120.0   16.666666666666668
450.0   90.0   16.666666666666668
450.0   120.0   16.666666666666668
500.0   120.0   16.666666666666668
450.0   120.0   0.0
450.0   90.0   16.666666666666668
500.0   120.0   16.666666666666668
500.0   90.0   16.666666666666668
500.0   90.0   0.0
450.0   90.0   16.666666666666668
500.0   120.0   16.666666666666668
500.0   90.0   0.0
450.0   120.0   0.0
450.0   90.0   16.666666666666668
500.0   90.0   16.666666666666668
450.0   120.0   16.666666666666668
450.0   90.0   33.333333333333336
500.0   90.0   16.666666666666668
500.0   120.0   16.666666666666668
450.0   120.0   16.666666666666668
500.0   120.0   33.333333333333336
450.0   90.0   33.333333333333336
450.0   120.0   33.333333333333336
500.0   120.0   33.333333333333336
450.0   120.0   16.666666666666668
450.0   90.0   33.333333333333336
500.0   120.0   33.333333333333336
500.0   90.0   33.333333333333336
500.0   90.0   16.666666666666668
450.0   90.0   33.333333333333336
500.0   120.0   33.333333333333336
500.0   90.0   16.666666666666668
450.0   120.0   16.666666666666668
450.0   90.0   33.333333333333336
500.0   90.0   33.333333333333336
450.0   120.0   33.333333333333336
450.0   90.0   50.0
500.0   90.0   33.333333333333336
500.0   120.0   33.333333333333336
450.0   120.0   33.333333333333336
500.0   120.0   50.0
450.0   90.0   50.0
450.0   120.0   50.0
500.0   120.0   50.0
450.0   120.0   33.333333333333336
450.0   90.0   50.0
500.0   120.0   50.0
500.0   90.0   50.0
500.0   90.0   33.333333333333336
450.0   90.0   50.0
500.0   120.0   50.0
500.0   90.0   33.333333333333336
450.0   120.0   33.333333333333336
450.0   120.0   0.0
500.0   120.0   0.0
450.0   150.0   0.0
450.0   120.0   16.666666666666668
500.0   120.0   0.0
500.0   150.0   0.0
450.0   150.0   0.0
500.0   150.0   16.666666666666668
450.0   120.0   16.666666666666668
450.0   150.0   16.666666666666668
500.0   150.0   16.666666666666668
450.0   150.0   0.0
450.0   120.0   16.666666666666668
500.0   150.0   16.666666666666668
500.0   120.0   16.666666666666668
500.0   120.0   0.0
450.0   120.0   16.666666666666668
500.0   150.0   16.666666666666668
500.0   120.0   0.0
450.0   150.0   0.0
450.0   120.0   16.666666666666668
500.0   120.0   16.666666666666668
450.0   150.0   16.666666666666668
450.0   120.0   33.333333333333336
500.0   120.0   16.666666666666668
500.0   150.0   16.666666666666668
450.0   150.0   16.666666666666668
500.0   150.0   33.333333333333336
450.0   120.0   33.333333333333336
450.0   150.0   33.333333333333336
500.0   150.0   33.333333333333336
450.0   150.0   16.666666666666668
450.0   120.0   33.333333333333336
500.0   150.0   33.333333333333336
500.0   120.0   33.333333333333336
500.0   120.0   16.666666666666668
450.0   120.0   33.333333333333336
500.0   150.0   33.333333333333336
500.0   120.0   16.666666666666668
450.0   150.0   16.666666666666668
450.0   120.0   33.333333333333336
500.0   120.0   33.333333333333336
450.0   150.0   33.333333333333336
450.0   120.0   50.0
500.0   120.0   33.333333333333336
500.0   150.0   33.333333333333336
450.0   150.0   33.333333333333336
500.0   150.0   50.0
450.0   120.0   50.0
450.0   150.0   50.0
500.0   150.0   50.0
450.0   150.0   33.333333333333336
450.0   120.0   50.0
500.0   150.0   50.0
500.0   120.0   50.0
500.0   120.0   33.333333333333336
450.0   120.0   50.0
500.0   150.0   50.0
500.0   120.0   33.333333333333336
450.0   150.0   33.333333333333336
             </DataArray>   
          </Points>  
          <Cells>  
             <DataArray type="Int32" Name="connectivity" format="ascii">   
0   1   2   3
4   5   6   7
8   9   10   11
12   13   14   15
16   17   18   19
20   21   22   23
24   25   26   27
28   29   30   31
32   33   34   35
36   37   38   39
40   41   42   43
44   45   46   47
48   49   50   51
52   53   54   55
56   57   58   59
60   61   62   63
64   65   66   67
68   69   70   71
72   73   74   75
76   77   78   79
80   81   82   83
84   85   86   87
88   89   90   91
92   93   94   95
96   97   98   99
100   101   102   103
104   105   106   107
108   109   110   111
112   113   114   115
116   117   118   119
120   121   122   123
124   125   126   127
128   129   130   131
132   133   134   135
136   137   138   139
140   141   142   143
144   145   146   147
148   149   150   151
152   153   154   155
156   157   158   159
160   161   162   163
164   165   166   167
168   169   170   171
172   173   174   175
176   177   178   179
180   181   182   183
184   185   186   187
188   189   190   191
192   193   194   195
196   197   198   199
200   201   202   203
204   205   206   207
208   209   210   211
212   213   214   215
216   217   218   219
220   221   222   223
224   225   226   227
228   229   230   231
232   233   234   235
236   237   238   239
240   241   242   243
244   245   246   247
248   249   250   251
252   253   254   255
256   257   258   259
260   261   262   263
264   265   266   267
268   269   270   271
272   273   274   275
276   277   278   279
280   281   282   283
284   285   286   287
288   289   290   291
292   293   294   295
296   297   298   299
300   301   302   303
304   305   306   307
308   309   310   311
312   313   314   315
316   317   318   319
320   321   322   323
324   325   326   327
328   329   330   331
332   333   334   335
336   337   338   339
340   341   342   343
344   345   346   347
348   349   350   351
352   353   354   355
356   357   358   359
360   361   362   363
364   365   366   367
368   369   370   371
372   373   374   375
376   377   378   379
380   381   382   383
384   385   386   387
388   389   390   391
392   393   394   395
396   397   398   399
400   401   402   403
404   405   406   407
408   409   410   411
412   413   414   415
416   417   418   419
420   421   422   423
424   425   426   427
428   429   430   431
432   433   434   435
436   437   438   439
440   441   442   443
444   445   446   447
448   449   450   451
452   453   454   455
456   457   458   459
460   461   462   463
464   465   466   467
468   469   470   471
472   473   474   475
476   477   478   479
480   481   482   483
484   485   486   487
488   489   490   491
492   493   494   495
496   497   498   499
500   501   502   503
504   505   506   507
508   509   510   511
512   513   514   515
516   517   518   519
520   521   522   523
524   525   526   527
528   529   530   531
532   533   534   535
536   537   538   539
540   541   542   543
544   545   546   547
548   549   550   551
552   553   554   555
556   557   558   559
560   561   562   563
564   565   566   567
568   569   570   571
572   573   574   575
576   577   578   579
580   581   582   583
584   585   586   587
588   589   590   591
592   593   594   595
596   597   598   599
600   601   602   603
604   605   606   607
608   609   610   611
612   613   614   615
616   617   618   619
620   621   622   623
624   625   626   627
628   629   630   631
632   633   634   635
636   637   638   639
640   641   642   643
644   645   646   647
648   649   650   651
652   653   654   655
656   657   658   659
660   661   662   663
664   665   666   667
668   669   670   671
672   673   674   675
676   677   678   679
680   681   682   683
684   685   686   687
688   689   690   691
692   693   694   695
696   697   698   699
700   701   702   703
704   705   706   707
708   709   710   711
712   713   714   715
716   717   718   719
720   721   722   723
724   725   726   727
728   729   730   731
732   733   734   735
736   737   738   739
740   741   742   743
744   745   746   747
748   749   750   751
752   753   754   755
756   757   758   759
760   761   762   763
764   765   766   767
768   769   770   771
772   773   774   775
776   777   778   779
780   781   782   783
784   785   786   787
788   789   790   791
792   793   794   795
796   797   798   799
800   801   802   803
804   805   806   807
808   809   810   811
812   813   814   815
816   817   818   819
820   821   822   823
824   825   826   827
828   829   830   831
832   833   834   835
836   837   838   839
840   841   842   843
844   845   846   847
848   849   850   851
852   853   854   855
856   857   858   859
860   861   862   863
864   865   866   867
868   869   870   871
872   873   874   875
876   877   878   879
880   881   882   883
884   885   886   887
888   889   890   891
892   893   894   895
896   897   898   899
900   901   902   903
904   905   906   907
908   909   910   911
912   913   914   915
916   917   918   919
920   921   922   923
924   925   926   927
928   929   930   931
932   933   934   935
936   937   938   939
940   941   942   943
944   945   946   947
948   949   950   951
952   953   954   955
956   957   958   959
960   961   962   963
964   965   966   967
968   969   970   971
972   973   974   975
976   977   978   979
980   981   982   983
984   985   986   987
988   989   990   991
992   993   994   995
996   997   998   999
1000   1001   1002   1003
1004   1005   1006   1007
1008   1009   1010   1011
1012   1013   1014   1015
1016   1017   1018   1019
1020   1021   1022   1023
1024   1025   1026   1027
1028   1029   1030   1031
1032   1033   1034   1035
1036   1037   1038   1039
1040   1041   1042   1043
1044   1045   1046   1047
1048   1049   1050   1051
1052   1053   1054   1055
1056   1057   1058   1059
1060   1061   1062   1063
1064   1065   1066   1067
1068   1069   1070   1071
1072   1073   1074   1075
1076   1077   1078   1079
1080   1081   1082   1083
1084   1085   1086   1087
1088   1089   1090   1091
1092   1093   1094   1095
1096   1097   1098   1099
1100   1101   1102   1103
1104   1105   1106   1107
1108   1109   1110   1111
1112   1113   1114   1115
1116   1117   1118   1119
1120   1121   1122   1123
1124   1125   1126   1127
1128   1129   1130   1131
1132   1133   1134   1135
1136   1137   1138   1139
1140   1141   1142   1143
1144   1145   1146   1147
1148   1149   1150   1151
1152   1153   1154   1155
1156   1157   1158   1159
1160   1161   1162   1163
1164   1165   1166   1167
1168   1169   1170   1171
1172   1173   1174   1175
1176   1177   1178   1179
1180   1181   1182   1183
1184   1185   1186   1187
1188   1189   1190   1191
1192   1193   1194   1195
1196   1197   1198   1199
1200   1201   1202   1203
1204   1205   1206   1207
1208   1209   1210   1211
1212   1213   1214   1215
1216   1217   1218   1219
1220   1221   1222   1223
1224   1225   1226   1227
1228   1229   1230   1231
1232   1233   1234   1235
1236   1237   1238   1239
1240   1241   1242   1243
1244   1245   1246   1247
1248   1249   1250   1251
1252   1253   1254   1255
1256   1257   1258   1259
1260   1261   1262   1263
1264   1265   1266   1267
1268   1269   1270   1271
1272   1273   1274   1275
1276   1277   1278   1279
1280   1281   1282   1283
1284   1285   1286   1287
1288   1289   1290   1291
1292   1293   1294   1295
1296   1297   1298   1299
1300   1301   1302   1303
1304   1305   1306   1307
1308   1309   1310   1311
1312   1313   1314   1315
1316   1317   1318   1319
1320   1321   1322   1323
1324   1325   1326   1327
1328   1329   1330   1331
1332   1333   1334   1335
1336   1337   1338   1339
1340   1341   1342   1343
1344   1345   1346   1347
1348   1349   1350   1351
1352   1353   1354   1355
1356   1357   1358   1359
1360   1361   1362   1363
1364   1365   1366   1367
1368   1369   1370   1371
1372   1373   1374   1375
1376   1377   1378   1379
1380   1381   1382   1383
1384   1385   1386   1387
1388   1389   1390   1391
1392   1393   1394   1395
1396   1397   1398   1399
1400   1401   1402   1403
1404   1405   1406   1407
1408   1409   1410   1411
1412   1413   1414   1415
1416   1417   1418   1419
1420   1421   1422   1423
1424   1425   1426   1427
1428   1429   1430   1431
1432   1433   1434   1435
1436   1437   1438   1439
1440   1441   1442   1443
1444   1445   1446   1447
1448   1449   1450   1451
1452   1453   1454   1455
1456   1457   1458   1459
1460   1461   1462   1463
1464   1465   1466   1467
1468   1469   1470   1471
1472   1473   1474   1475
1476   1477   1478   1479
1480   1481   1482   1483
1484   1485   1486   1487
1488   1489   1490   1491
1492   1493   1494   1495
1496   1497   1498   1499
1500   1501   1502   1503
1504   1505   1506   1507
1508   1509   1510   1511
1512   1513   1514   1515
1516   1517   1518   1519
1520   1521   1522   1523
1524   1525   1526   1527
1528   1529   1530   1531
1532   1533   1534   1535
1536   1537   1538   1539
1540   1541   1542   1543
1544   1545   1546   1547
1548   1549   1550   1551
1552   1553   1554   1555
1556   1557   1558   1559
1560   1561   1562   1563
1564   1565   1566   1567
1568   1569   1570   1571
1572   1573   1574   1575
1576   1577   1578   1579
1580   1581   1582   1583
1584   1585   1586   1587
1588   1589   1590   1591
1592   1593   1594   1595
1596   1597   1598   1599
1600   1601   1602   1603
1604   1605   1606   1607
1608   1609   1610   1611
1612   1613   1614   1615
1616   1617   1618   1619
1620   1621   1622   1623
1624   1625   1626   1627
1628   1629   1630   1631
1632   1633   1634   1635
1636   1637   1638   1639
1640   1641   1642   1643
1644   1645   1646   1647
1648   1649   1650   1651
1652   1653   1654   1655
1656   1657   1658   1659
1660   1661   1662   1663
1664   1665   1666   1667
1668   1669   1670   1671
1672   1673   1674   1675
1676   1677   1678   1679
1680   1681   1682   1683
1684   1685   1686   1687
1688   1689   1690   1691
1692   1693   1694   1695
1696   1697   1698   1699
1700   1701   1702   1703
1704   1705   1706   1707
1708   1709   1710   1711
1712   1713   1714   1715
1716   1717   1718   1719
1720   1721   1722   1723
1724   1725   1726   1727
1728   1729   1730   1731
1732   1733   1734   1735
1736   1737   1738   1739
1740   1741   1742   1743
1744   1745   1746   1747
1748   1749   1750   1751
1752   1753   1754   1755
1756   1757   1758   1759
1760   1761   1762   1763
1764   1765   1766   1767
1768   1769   1770   1771
1772   1773   1774   1775
1776   1777   1778   1779
1780   1781   1782   1783
1784   1785   1786   1787
1788   1789   1790   1791
1792   1793   1794   1795
1796   1797   1798   1799
1800   1801   1802   1803
1804   1805   1806   1807
1808   1809   1810   1811
1812   1813   1814   1815
1816   1817   1818   1819
1820   1821   1822   1823
1824   1825   1826   1827
1828   1829   1830   1831
1832   1833   1834   1835
1836   1837   1838   1839
1840   1841   1842   1843
1844   1845   1846   1847
1848   1849   1850   1851
1852   1853   1854   1855
1856   1857   1858   1859
1860   1861   1862   1863
1864   1865   1866   1867
1868   1869   1870   1871
1872   1873   1874   1875
1876   1877   1878   1879
1880   1881   1882   1883
1884   1885   1886   1887
1888   1889   1890   1891
1892   1893   1894   1895
1896   1897   1898   1899
1900   1901   1902   1903
1904   1905   1906   1907
1908   1909   1910   1911
1912   1913   1914   1915
1916   1917   1918   1919
1920   1921   1922   1923
1924   1925   1926   1927
1928   1929   1930   1931
1932   1933   1934   1935
1936   1937   1938   1939
1940   1941   1942   1943
1944   1945   1946   1947
1948   1949   1950   1951
1952   1953   1954   1955
1956   1957   1958   1959
1960   1961   1962   1963
1964   1965   1966   1967
1968   1969   1970   1971
1972   1973   1974   1975
1976   1977   1978   1979
1980   1981   1982   1983
1984   1985   1986   1987
1988   1989   1990   1991
1992   1993   1994   1995
1996   1997   1998   1999
2000   2001   2002   2003
2004   2005   2006   2007
2008   2009   2010   2011
2012   2013   2014   2015
2016   2017   2018   2019
2020   2021   2022   2023
2024   2025   2026   2027
2028   2029   2030   2031
2032   2033   2034   2035
2036   2037   2038   2039
2040   2041   2042   2043
2044   2045   2046   2047
2048   2049   2050   2051
2052   2053   2054   2055
2056   2057   2058   2059
2060   2061   2062   2063
2064   2065   2066   2067
2068   2069   2070   2071
2072   2073   2074   2075
2076   2077   2078   2079
2080   2081   2082   2083
2084   2085   2086   2087
2088   2089   2090   2091
2092   2093   2094   2095
2096   2097   2098   2099
2100   2101   2102   2103
2104   2105   2106   2107
2108   2109   2110   2111
2112   2113   2114   2115
2116   2117   2118   2119
2120   2121   2122   2123
2124   2125   2126   2127
2128   2129   2130   2131
2132   2133   2134   2135
2136   2137   2138   2139
2140   2141   2142   2143
2144   2145   2146   2147
2148   2149   2150   2151
2152   2153   2154   2155
2156   2157   2158   2159
2160   2161   2162   2163
2164   2165   2166   2167
2168   2169   2170   2171
2172   2173   2174   2175
2176   2177   2178   2179
2180   2181   2182   2183
2184   2185   2186   2187
2188   2189   2190   2191
2192   2193   2194   2195
2196   2197   2198   2199
2200   2201   2202   2203
2204   2205   2206   2207
2208   2209   2210   2211
2212   2213   2214   2215
2216   2217   2218   2219
2220   2221   2222   2223
2224   2225   2226   2227
2228   2229   2230   2231
2232   2233   2234   2235
2236   2237   2238   2239
2240   2241   2242   2243
2244   2245   2246   2247
2248   2249   2250   2251
2252   2253   2254   2255
2256   2257   2258   2259
2260   2261   2262   2263
2264   2265   2266   2267
2268   2269   2270   2271
2272   2273   2274   2275
2276   2277   2278   2279
2280   2281   2282   2283
2284   2285   2286   2287
2288   2289   2290   2291
2292   2293   2294   2295
2296   2297   2298   2299
2300   2301   2302   2303
2304   2305   2306   2307
2308   2309   2310   2311
2312   2313   2314   2315
2316   2317   2318   2319
2320   2321   2322   2323
2324   2325   2326   2327
2328   2329   2330   2331
2332   2333   2334   2335
2336   2337   2338   2339
2340   2341   2342   2343
2344   2345   2346   2347
2348   2349   2350   2351
2352   2353   2354   2355
2356   2357   2358   2359
2360   2361   2362   2363
2364   2365   2366   2367
2368   2369   2370   2371
2372   2373   2374   2375
2376   2377   2378   2379
2380   2381   2382   2383
2384   2385   2386   2387
2388   2389   2390   2391
2392   2393   2394   2395
2396   2397   2398   2399
2400   2401   2402   2403
2404   2405   2406   2407
2408   2409   2410   2411
2412   2413   2414   2415
2416   2417   2418   2419
2420   2421   2422   2423
2424   2425   2426   2427
2428   2429   2430   2431
2432   2433   2434   2435
2436   2437   2438   2439
2440   2441   2442   2443
2444   2445   2446   2447
2448   2449   2450   2451
2452   2453   2454   2455
2456   2457   2458   2459
2460   2461   2462   2463
2464   2465   2466   2467
2468   2469   2470   2471
2472   2473   2474   2475
2476   2477   2478   2479
2480   2481   2482   2483
2484   2485   2486   2487
2488   2489   2490   2491
2492   2493   2494   2495
2496   2497   2498   2499
2500   2501   2502   2503
2504   2505   2506   2507
2508   2509   2510   2511
2512   2513   2514   2515
2516   2517   2518   2519
2520   2521   2522   2523
2524   2525   2526   2527
2528   2529   2530   2531
2532   2533   2534   2535
2536   2537   2538   2539
2540   2541   2542   2543
2544   2545   2546   2547
2548   2549   2550   2551
2552   2553   2554   2555
2556   2557   2558   2559
2560   2561   2562   2563
2564   2565   2566   2567
2568   2569   2570   2571
2572   2573   2574   2575
2576   2577   2578   2579
2580   2581   2582   2583
2584   2585   2586   2587
2588   2589   2590   2591
2592   2593   2594   2595
2596   2597   2598   2599
2600   2601   2602   2603
2604   2605   2606   2607
2608   2609   2610   2611
2612   2613   2614   2615
2616   2617   2618   2619
2620   2621   2622   2623
2624   2625   2626   2627
2628   2629   2630   2631
2632   2633   2634   2635
2636   2637   2638   2639
2640   2641   2642   2643
2644   2645   2646   2647
2648   2649   2650   2651
2652   2653   2654   2655
2656   2657   2658   2659
2660   2661   2662   2663
2664   2665   2666   2667
2668   2669   2670   2671
2672   2673   2674   2675
2676   2677   2678   2679
2680   2681   2682   2683
2684   2685   2686   2687
2688   2689   2690   2691
2692   2693   2694   2695
2696   2697   2698   2699
2700   2701   2702   2703
2704   2705   2706   2707
2708   2709   2710   2711
2712   2713   2714   2715
2716   2717   2718   2719
2720   2721   2722   2723
2724   2725   2726   2727
2728   2729   2730   2731
2732   2733   2734   2735
2736   2737   2738   2739
2740   2741   2742   2743
2744   2745   2746   2747
2748   2749   2750   2751
2752   2753   2754   2755
2756   2757   2758   2759
2760   2761   2762   2763
2764   2765   2766   2767
2768   2769   2770   2771
2772   2773   2774   2775
2776   2777   2778   2779
2780   2781   2782   2783
2784   2785   2786   2787
2788   2789   2790   2791
2792   2793   2794   2795
2796   2797   2798   2799
2800   2801   2802   2803
2804   2805   2806   2807
2808   2809   2810   2811
2812   2813   2814   2815
2816   2817   2818   2819
2820   2821   2822   2823
2824   2825   2826   2827
2828   2829   2830   2831
2832   2833   2834   2835
2836   2837   2838   2839
2840   2841   2842   2843
2844   2845   2846   2847
2848   2849   2850   2851
2852   2853   2854   2855
2856   2857   2858   2859
2860   2861   2862   2863
2864   2865   2866   2867
2868   2869   2870   2871
2872   2873   2874   2875
2876   2877   2878   2879
2880   2881   2882   2883
2884   2885   2886   2887
2888   2889   2890   2891
2892   2893   2894   2895
2896   2897   2898   2899
2900   2901   2902   2903
2904   2905   2906   2907
2908   2909   2910   2911
2912   2913   2914   2915
2916   2917   2918   2919
2920   2921   2922   2923
2924   2925   2926   2927
2928   2929   2930   2931
2932   2933   2934   2935
2936   2937   2938   2939
2940   2941   2942   2943
2944   2945   2946   2947
2948   2949   2950   2951
2952   2953   2954   2955
2956   2957   2958   2959
2960   2961   2962   2963
2964   2965   2966   2967
2968   2969   2970   2971
2972   2973   2974   2975
2976   2977   2978   2979
2980   2981   2982   2983
2984   2985   2986   2987
2988   2989   2990   2991
2992   2993   2994   2995
2996   2997   2998   2999
3000   3001   3002   3003
3004   3005   3006   3007
3008   3009   3010   3011
3012   3013   3014   3015
3016   3017   3018   3019
3020   3021   3022   3023
3024   3025   3026   3027
3028   3029   3030   3031
3032   3033   3034   3035
3036   3037   3038   3039
3040   3041   3042   3043
3044   3045   3046   3047
3048   3049   3050   3051
3052   3053   3054   3055
3056   3057   3058   3059
3060   3061   3062   3063
3064   3065   3066   3067
3068   3069   3070   3071
3072   3073   3074   3075
3076   3077   3078   3079
3080   3081   3082   3083
3084   3085   3086   3087
3088   3089   3090   3091
3092   3093   3094   3095
3096   3097   3098   3099
3100   3101   3102   3103
3104   3105   3106   3107
3108   3109   3110   3111
3112   3113   3114   3115
3116   3117   3118   3119
3120   3121   3122   3123
3124   3125   3126   3127
3128   3129   3130   3131
3132   3133   3134   3135
3136   3137   3138   3139
3140   3141   3142   3143
3144   3145   3146   3147
3148   3149   3150   3151
3152   3153   3154   3155
3156   3157   3158   3159
3160   3161   3162   3163
3164   3165   3166   3167
3168   3169   3170   3171
3172   3173   3174   3175
3176   3177   3178   3179
3180   3181   3182   3183
3184   3185   3186   3187
3188   3189   3190   3191
3192   3193   3194   3195
3196   3197   3198   3199
3200   3201   3202   3203
3204   3205   3206   3207
3208   3209   3210   3211
3212   3213   3214   3215
3216   3217   3218   3219
3220   3221   3222   3223
3224   3225   3226   3227
3228   3229   3230   3231
3232   3233   3234   3235
3236   3237   3238   3239
3240   3241   3242   3243
3244   3245   3246   3247
3248   3249   3250   3251
3252   3253   3254   3255
3256   3257   3258   3259
3260   3261   3262   3263
3264   3265   3266   3267
3268   3269   3270   3271
3272   3273   3274   3275
3276   3277   3278   3279
3280   3281   3282   3283
3284   3285   3286   3287
3288   3289   3290   3291
3292   3293   3294   3295
3296   3297   3298   3299
3300   3301   3302   3303
3304   3305   3306   3307
3308   3309   3310   3311
3312   3313   3314   3315
3316   3317   3318   3319
3320   3321   3322   3323
3324   3325   3326   3327
3328   3329   3330   3331
3332   3333   3334   3335
3336   3337   3338   3339
3340   3341   3342   3343
3344   3345   3346   3347
3348   3349   3350   3351
3352   3353   3354   3355
3356   3357   3358   3359
3360   3361   3362   3363
3364   3365   3366   3367
3368   3369   3370   3371
3372   3373   3374   3375
3376   3377   3378   3379
3380   3381   3382   3383
3384   3385   3386   3387
3388   3389   3390   3391
3392   3393   3394   3395
3396   3397   3398   3399
3400   3401   3402   3403
3404   3405   3406   3407
3408   3409   3410   3411
3412   3413   3414   3415
3416   3417   3418   3419
3420   3421   3422   3423
3424   3425   3426   3427
3428   3429   3430   3431
3432   3433   3434   3435
3436   3437   3438   3439
3440   3441   3442   3443
3444   3445   3446   3447
3448   3449   3450   3451
3452   3453   3454   3455
3456   3457   3458   3459
3460   3461   3462   3463
3464   3465   3466   3467
3468   3469   3470   3471
3472   3473   3474   3475
3476   3477   3478   3479
3480   3481   3482   3483
3484   3485   3486   3487
3488   3489   3490   3491
3492   3493   3494   3495
3496   3497   3498   3499
3500   3501   3502   3503
3504   3505   3506   3507
3508   3509   3510   3511
3512   3513   3514   3515
3516   3517   3518   3519
3520   3521   3522   3523
3524   3525   3526   3527
3528   3529   3530   3531
3532   3533   3534   3535
3536   3537   3538   3539
3540   3541   3542   3543
3544   3545   3546   3547
3548   3549   3550   3551
3552   3553   3554   3555
3556   3557   3558   3559
3560   3561   3562   3563
3564   3565   3566   3567
3568   3569   3570   3571
3572   3573   3574   3575
3576   3577   3578   3579
3580   3581   3582   3583
3584   3585   3586   3587
3588   3589   3590   3591
3592   3593   3594   3595
3596   3597   3598   3599
3600   3601   3602   3603
3604   3605   3606   3607
3608   3609   3610   3611
3612   3613   3614   3615
3616   3617   3618   3619
3620   3621   3622   3623
3624   3625   3626   3627
3628   3629   3630   3631
3632   3633   3634   3635
3636   3637   3638   3639
3640   3641   3642   3643
3644   3645   3646   3647
3648   3649   3650   3651
3652   3653   3654   3655
3656   3657   3658   3659
3660   3661   3662   3663
3664   3665   3666   3667
3668   3669   3670   3671
3672   3673   3674   3675
3676   3677   3678   3679
3680   3681   3682   3683
3684   3685   3686   3687
3688   3689   3690   3691
3692   3693   3694   3695
3696   3697   3698   3699
3700   3701   3702   3703
3704   3705   3706   3707
3708   3709   3710   3711
3712   3713   3714   3715
3716   3717   3718   3719
3720   3721   3722   3723
3724   3725   3726   3727
3728   3729   3730   3731
3732   3733   3734   3735
3736   3737   3738   3739
3740   3741   3742   3743
3744   3745   3746   3747
3748   3749   3750   3751
3752   3753   3754   3755
3756   3757   3758   3759
3760   3761   3762   3763
3764   3765   3766   3767
3768   3769   3770   3771
3772   3773   3774   3775
3776   3777   3778   3779
3780   3781   3782   3783
3784   3785   3786   3787
3788   3789   3790   3791
3792   3793   3794   3795
3796   3797   3798   3799
3800   3801   3802   3803
3804   3805   3806   3807
3808   3809   3810   3811
3812   3813   3814   3815
3816   3817   3818   3819
3820   3821   3822   3823
3824   3825   3826   3827
3828   3829   3830   3831
3832   3833   3834   3835
3836   3837   3838   3839
3840   3841   3842   3843
3844   3845   3846   3847
3848   3849   3850   3851
3852   3853   3854   3855
3856   3857   3858   3859
3860   3861   3862   3863
3864   3865   3866   3867
3868   3869   3870   3871
3872   3873   3874   3875
3876   3877   3878   3879
3880   3881   3882   3883
3884   3885   3886   3887
3888   3889   3890   3891
3892   3893   3894   3895
3896   3897   3898   3899
3900   3901   3902   3903
3904   3905   3906   3907
3908   3909   3910   3911
3912   3913   3914   3915
3916   3917   3918   3919
3920   3921   3922   3923
3924   3925   3926   3927
3928   3929   3930   3931
3932   3933   3934   3935
3936   3937   3938   3939
3940   3941   3942   3943
3944   3945   3946   3947
3948   3949   3950   3951
3952   3953   3954   3955
3956   3957   3958   3959
3960   3961   3962   3963
3964   3965   3966   3967
3968   3969   3970   3971
3972   3973   3974   3975
3976   3977   3978   3979
3980   3981   3982   3983
3984   3985   3986   3987
3988   3989   3990   3991
3992   3993   3994   3995
3996   3997   3998   3999
4000   4001   4002   4003
4004   4005   4006   4007
4008   4009   4010   4011
4012   4013   4014   4015
4016   4017   4018   4019
4020   4021   4022   4023
4024   4025   4026   4027
4028   4029   4030   4031
4032   4033   4034   4035
4036   4037   4038   4039
4040   4041   4042   4043
4044   4045   4046   4047
4048   4049   4050   4051
4052   4053   4054   4055
4056   4057   4058   4059
4060   4061   4062   4063
4064   4065   4066   4067
4068   4069   4070   4071
4072   4073   4074   4075
4076   4077   4078   4079
4080   4081   4082   4083
4084   4085   4086   4087
4088   4089   4090   4091
4092   4093   4094   4095
4096   4097   4098   4099
4100   4101   4102   4103
4104   4105   4106   4107
4108   4109   4110   4111
4112   4113   4114   4115
4116   4117   4118   4119
4120   4121   4122   4123
4124   4125   4126   4127
4128   4129   4130   4131
4132   4133   4134   4135
4136   4137   4138   4139
4140   4141   4142   4143
4144   4145   4146   4147
4148   4149   4150   4151
4152   4153   4154   4155
4156   4157   4158   4159
4160   4161   4162   4163
4164   4165   4166   4167
4168   4169   4170   4171
4172   4173   4174   4175
4176   4177   4178   4179
4180   4181   4182   4183
4184   4185   4186   4187
4188   4189   4190   4191
4192   4193   4194   4195
4196   4197   4198   4199
4200   4201   4202   4203
4204   4205   4206   4207
4208   4209   4210   4211
4212   4213   4214   4215
4216   4217   4218   4219
4220   4221   4222   4223
4224   4225   4226   4227
4228   4229   4230   4231
4232   4233   4234   4235
4236   4237   4238   4239
4240   4241   4242   4243
4244   4245   4246   4247
4248   4249   4250   4251
4252   4253   4254   4255
4256   4257   4258   4259
4260   4261   4262   4263
4264   4265   4266   4267
4268   4269   4270   4271
4272   4273   4274   4275
4276   4277   4278   4279
4280   4281   4282   4283
4284   4285   4286   4287
4288   4289   4290   4291
4292   4293   4294   4295
4296   4297   4298   4299
4300   4301   4302   4303
4304   4305   4306   4307
4308   4309   4310   4311
4312   4313   4314   4315
4316   4317   4318   4319
4320   4321   4322   4323
4324   4325   4326   4327
4328   4329   4330   4331
4332   4333   4334   4335
4336   4337   4338   4339
4340   4341   4342   4343
4344   4345   4346   4347
4348   4349   4350   4351
4352   4353   4354   4355
4356   4357   4358   4359
4360   4361   4362   4363
4364   4365   4366   4367
4368   4369   4370   4371
4372   4373   4374   4375
4376   4377   4378   4379
4380   4381   4382   4383
4384   4385   4386   4387
4388   4389   4390   4391
4392   4393   4394   4395
4396   4397   4398   4399
4400   4401   4402   4403
4404   4405   4406   4407
4408   4409   4410   4411
4412   4413   4414   4415
4416   4417   4418   4419
4420   4421   4422   4423
4424   4425   4426   4427
4428   4429   4430   4431
4432   4433   4434   4435
4436   4437   4438   4439
4440   4441   4442   4443
4444   4445   4446   4447
4448   4449   4450   4451
4452   4453   4454   4455
4456   4457   4458   4459
4460   4461   4462   4463
4464   4465   4466   4467
4468   4469   4470   4471
4472   4473   4474   4475
4476   4477   4478   4479
4480   4481   4482   4483
4484   4485   4486   4487
4488   4489   4490   4491
4492   4493   4494   4495
4496   4497   4498   4499
4500   4501   4502   4503
4504   4505   4506   4507
4508   4509   4510   4511
4512   4513   4514   4515
4516   4517   4518   4519
4520   4521   4522   4523
4524   4525   4526   4527
4528   4529   4530   4531
4532   4533   4534   4535
4536   4537   4538   4539
4540   4541   4542   4543
4544   4545   4546   4547
4548   4549   4550   4551
4552   4553   4554   4555
4556   4557   4558   4559
4560   4561   4562   4563
4564   4565   4566   4567
4568   4569   4570   4571
4572   4573   4574   4575
4576   4577   4578   4579
4580   4581   4582   4583
4584   4585   4586   4587
4588   4589   4590   4591
4592   4593   4594   4595
4596   4597   4598   4599
4600   4601   4602   4603
4604   4605   4606   4607
4608   4609   4610   4611
4612   4613   4614   4615
4616   4617   4618   4619
4620   4621   4622   4623
4624   4625   4626   4627
4628   4629   4630   4631
4632   4633   4634   4635
4636   4637   4638   4639
4640   4641   4642   4643
4644   4645   4646   4647
4648   4649   4650   4651
4652   4653   4654   4655
4656   4657   4658   4659
4660   4661   4662   4663
4664   4665   4666   4667
4668   4669   4670   4671
4672   4673   4674   4675
4676   4677   4678   4679
4680   4681   4682   4683
4684   4685   4686   4687
4688   4689   4690   4691
4692   4693   4694   4695
4696   4697   4698   4699
4700   4701   4702   4703
4704   4705   4706   4707
4708   4709   4710   4711
4712   4713   4714   4715
4716   4717   4718   4719
4720   4721   4722   4723
4724   4725   4726   4727
4728   4729   4730   4731
4732   4733   4734   4735
4736   4737   4738   4739
4740   4741   4742   4743
4744   4745   4746   4747
4748   4749   4750   4751
4752   4753   4754   4755
4756   4757   4758   4759
4760   4761   4762   4763
4764   4765   4766   4767
4768   4769   4770   4771
4772   4773   4774   4775
4776   4777   4778   4779
4780   4781   4782   4783
4784   4785   4786   4787
4788   4789   4790   4791
4792   4793   4794   4795
4796   4797   4798   4799
4800   4801   4802   4803
4804   4805   4806   4807
4808   4809   4810   4811
4812   4813   4814   4815
4816   4817   4818   4819
4820   4821   4822   4823
4824   4825   4826   4827
4828   4829   4830   4831
4832   4833   4834   4835
4836   4837   4838   4839
4840   4841   4842   4843
4844   4845   4846   4847
4848   4849   4850   4851
4852   4853   4854   4855
4856   4857   4858   4859
4860   4861   4862   4863
4864   4865   4866   4867
4868   4869   4870   4871
4872   4873   4874   4875
4876   4877   4878   4879
4880   4881   4882   4883
4884   4885   4886   4887
4888   4889   4890   4891
4892   4893   4894   4895
4896   4897   4898   4899
4900   4901   4902   4903
4904   4905   4906   4907
4908   4909   4910   4911
4912   4913   4914   4915
4916   4917   4918   4919
4920   4921   4922   4923
4924   4925   4926   4927
4928   4929   4930   4931
4932   4933   4934   4935
4936   4937   4938   4939
4940   4941   4942   4943
4944   4945   4946   4947
4948   4949   4950   4951
4952   4953   4954   4955
4956   4957   4958   4959
4960   4961   4962   4963
4964   4965   4966   4967
4968   4969   4970   4971
4972   4973   4974   4975
4976   4977   4978   4979
4980   4981   4982   4983
4984   4985   4986   4987
4988   4989   4990   4991
4992   4993   4994   4995
4996   4997   4998   4999
5000   5001   5002   5003
5004   5005   5006   5007
5008   5009   5010   5011
5012   5013   5014   5015
5016   5017   5018   5019
5020   5021   5022   5023
5024   5025   5026   5027
5028   5029   5030   5031
5032   5033   5034   5035
5036   5037   5038   5039
5040   5041   5042   5043
5044   5045   5046   5047
5048   5049   5050   5051
5052   5053   5054   5055
5056   5057   5058   5059
5060   5061   5062   5063
5064   5065   5066   5067
5068   5069   5070   5071
5072   5073   5074   5075
5076   5077   5078   5079
5080   5081   5082   5083
5084   5085   5086   5087
5088   5089   5090   5091
5092   5093   5094   5095
5096   5097   5098   5099
5100   5101   5102   5103
5104   5105   5106   5107
5108   5109   5110   5111
5112   5113   5114   5115
5116   5117   5118   5119
5120   5121   5122   5123
5124   5125   5126   5127
5128   5129   5130   5131
5132   5133   5134   5135
5136   5137   5138   5139
5140   5141   5142   5143
5144   5145   5146   5147
5148   5149   5150   5151
5152   5153   5154   5155
5156   5157   5158   5159
5160   5161   5162   5163
5164   5165   5166   5167
5168   5169   5170   5171
5172   5173   5174   5175
5176   5177   5178   5179
5180   5181   5182   5183
5184   5185   5186   5187
5188   5189   5190   5191
5192   5193   5194   5195
5196   5197   5198   5199
5200   5201   5202   5203
5204   5205   5206   5207
5208   5209   5210   5211
5212   5213   5214   5215
5216   5217   5218   5219
5220   5221   5222   5223
5224   5225   5226   5227
5228   5229   5230   5231
5232   5233   5234   5235
5236   5237   5238   5239
5240   5241   5242   5243
5244   5245   5246   5247
5248   5249   5250   5251
5252   5253   5254   5255
5256   5257   5258   5259
5260   5261   5262   5263
5264   5265   5266   5267
5268   5269   5270   5271
5272   5273   5274   5275
5276   5277   5278   5279
5280   5281   5282   5283
5284   5285   5286   5287
5288   5289   5290   5291
5292   5293   5294   5295
5296   5297   5298   5299
5300   5301   5302   5303
5304   5305   5306   5307
5308   5309   5310   5311
5312   5313   5314   5315
5316   5317   5318   5319
5320   5321   5322   5323
5324   5325   5326   5327
5328   5329   5330   5331
5332   5333   5334   5335
5336   5337   5338   5339
5340   5341   5342   5343
5344   5345   5346   5347
5348   5349   5350   5351
5352   5353   5354   5355
5356   5357   5358   5359
5360   5361   5362   5363
5364   5365   5366   5367
5368   5369   5370   5371
5372   5373   5374   5375
5376   5377   5378   5379
5380   5381   5382   5383
5384   5385   5386   5387
5388   5389   5390   5391
5392   5393   5394   5395
5396   5397   5398   5399
5400   5401   5402   5403
5404   5405   5406   5407
5408   5409   5410   5411
5412   5413   5414   5415
5416   5417   5418   5419
5420   5421   5422   5423
5424   5425   5426   5427
5428   5429   5430   5431
5432   5433   5434   5435
5436   5437   5438   5439
5440   5441   5442   5443
5444   5445   5446   5447
5448   5449   5450   5451
5452   5453   5454   5455
5456   5457   5458   5459
5460   5461   5462   5463
5464   5465   5466   5467
5468   5469   5470   5471
5472   5473   5474   5475
5476   5477   5478   5479
5480   5481   5482   5483
5484   5485   5486   5487
5488   5489   5490   5491
5492   5493   5494   5495
5496   5497   5498   5499
5500   5501   5502   5503
5504   5505   5506   5507
5508   5509   5510   5511
5512   5513   5514   5515
5516   5517   5518   5519
5520   5521   5522   5523
5524   5525   5526   5527
5528   5529   5530   5531
5532   5533   5534   5535
5536   5537   5538   5539
5540   5541   5542   5543
5544   5545   5546   5547
5548   5549   5550   5551
5552   5553   5554   5555
5556   5557   5558   5559
5560   5561   5562   5563
5564   5565   5566   5567
5568   5569   5570   5571
5572   5573   5574   5575
5576   5577   5578   5579
5580   5581   5582   5583
5584   5585   5586   5587
5588   5589   5590   5591
5592   5593   5594   5595
5596   5597   5598   5599
5600   5601   5602   5603
5604   5605   5606   5607
5608   5609   5610   5611
5612   5613   5614   5615
5616   5617   5618   5619
5620   5621   5622   5623
5624   5625   5626   5627
5628   5629   5630   5631
5632   5633   5634   5635
5636   5637   5638   5639
5640   5641   5642   5643
5644   5645   5646   5647
5648   5649   5650   5651
5652   5653   5654   5655
5656   5657   5658   5659
5660   5661   5662   5663
5664   5665   5666   5667
5668   5669   5670   5671
5672   5673   5674   5675
5676   5677   5678   5679
5680   5681   5682   5683
5684   5685   5686   5687
5688   5689   5690   5691
5692   5693   5694   5695
5696   5697   5698   5699
5700   5701   5702   5703
5704   5705   5706   5707
5708   5709   5710   5711
5712   5713   5714   5715
5716   5717   5718   5719
5720   5721   5722   5723
5724   5725   5726   5727
5728   5729   5730   5731
5732   5733   5734   5735
5736   5737   5738   5739
5740   5741   5742   5743
5744   5745   5746   5747
5748   5749   5750   5751
5752   5753   5754   5755
5756   5757   5758   5759
5760   5761   5762   5763
5764   5765   5766   5767
5768   5769   5770   5771
5772   5773   5774   5775
5776   5777   5778   5779
5780   5781   5782   5783
5784   5785   5786   5787
5788   5789   5790   5791
5792   5793   5794   5795
5796   5797   5798   5799
5800   5801   5802   5803
5804   5805   5806   5807
5808   5809   5810   5811
5812   5813   5814   5815
5816   5817   5818   5819
5820   5821   5822   5823
5824   5825   5826   5827
5828   5829   5830   5831
5832   5833   5834   5835
5836   5837   5838   5839
5840   5841   5842   5843
5844   5845   5846   5847
5848   5849   5850   5851
5852   5853   5854   5855
5856   5857   5858   5859
5860   5861   5862   5863
5864   5865   5866   5867
5868   5869   5870   5871
5872   5873   5874   5875
5876   5877   5878   5879
5880   5881   5882   5883
5884   5885   5886   5887
5888   5889   5890   5891
5892   5893   5894   5895
5896   5897   5898   5899
5900   5901   5902   5903
5904   5905   5906   5907
5908   5909   5910   5911
5912   5913   5914   5915
5916   5917   5918   5919
5920   5921   5922   5923
5924   5925   5926   5927
5928   5929   5930   5931
5932   5933   5934   5935
5936   5937   5938   5939
5940   5941   5942   5943
5944   5945   5946   5947
5948   5949   5950   5951
5952   5953   5954   5955
5956   5957   5958   5959
5960   5961   5962   5963
5964   5965   5966   5967
5968   5969   5970   5971
5972   5973   5974   5975
5976   5977   5978   5979
5980   5981   5982   5983
5984   5985   5986   5987
5988   5989   5990   5991
5992   5993   5994   5995
5996   5997   5998   5999
              </DataArray>   
              <DataArray type="Int32" Name="offsets" format="ascii">   
4
8
12
16
20
24
28
32
36
40
44
48
52
56
60
64
68
72
76
80
84
88
92
96
100
104
108
112
116
120
124
128
132
136
140
144
148
152
156
160
164
168
172
176
180
184
188
192
196
200
204
208
212
216
220
224
228
232
236
240
244
248
252
256
260
264
268
272
276
280
284
288
292
296
300
304
308
312
316
320
324
328
332
336
340
344
348
352
356
360
364
368
372
376
380
384
388
392
396
400
404
408
412
416
420
424
428
432
436
440
444
448
452
456
460
464
468
472
476
480
484
488
492
496
500
504
508
512
516
520
524
528
532
536
540
544
548
552
556
560
564
568
572
576
580
584
588
592
596
600
604
608
612
616
620
624
628
632
636
640
644
648
652
656
660
664
668
672
676
680
684
688
692
696
700
704
708
712
716
720
724
728
732
736
740
744
748
752
756
760
764
768
772
776
780
784
788
792
796
800
804
808
812
816
820
824
828
832
836
840
844
848
852
856
860
864
868
872
876
880
884
888
892
896
900
904
908
912
916
920
924
928
932
936
940
944
948
952
956
960
964
968
972
976
980
984
988
992
996
1000
1004
1008
1012
1016
1020
1024
1028
1032
1036
1040
1044
1048
1052
1056
1060
1064
1068
1072
1076
1080
1084
1088
1092
1096
1100
1104
1108
1112
1116
1120
1124
1128
1132
1136
1140
1144
1148
1152
1156
1160
1164
1168
1172
1176
1180
1184
1188
1192
1196
1200
1204
1208
1212
1216
1220
1224
1228
1232
1236
1240
1244
1248
1252
1256
1260
1264
1268
1272
1276
1280
1284
1288
1292
1296
1300
1304
1308
1312
1316
1320
1324
1328
1332
1336
1340
1344
1348
1352
1356
1360
1364
1368
1372
1376
1380
1384
1388
1392
1396
1400
1404
1408
1412
1416
1420
1424
1428
1432
1436
1440
1444
1448
1452
1456
1460
1464
1468
1472
1476
1480
1484
1488
1492
1496
1500
1504
1508
1512
1516
1520
1524
1528
1532
1536
1540
1544
1548
1552
1556
1560
1564
1568
1572
1576
1580
1584
1588
1592
1596
1600
1604
1608
1612
1616
1620
1624
1628
1632
1636
1640
1644
1648
1652
1656
1660
1664
1668
1672
1676
1680
1684
1688
1692
1696
1700
1704
1708
1712
1716
1720
1724
1728
1732
1736
1740
1744
1748
1752
1756
1760
1764
1768
1772
1776
1780
1784
1788
1792
1796
1800
1804
1808
1812
1816
1820
1824
1828
1832
1836
1840
1844
1848
1852
1856
1860
1864
1868
1872
1876
1880
1884
1888
1892
1896
1900
1904
1908
1912
1916
1920
1924
1928
1932
1936
1940
1944
1948
1952
1956
1960
1964
1968
1972
1976
1980
1984
1988
1992
1996
2000
2004
2008
2012
2016
2020
2024
2028
2032
2036
2040
2044
2048
2052
2056
2060
2064
2068
2072
2076
2080
2084
2088
2092
2096
2100
2104
2108
2112
2116
2120
2124
2128
2132
2136
2140
2144
2148
2152
2156
2160
2164
2168
2172
2176
2180
2184
2188
2192
2196
2200
2204
2208
2212
2216
2220
2224
2228
2232
2236
2240
2244
2248
2252
2256
2260
2264
2268
2272
2276
2280
2284
2288
2292
2296
2300
2304
2308
2312
2316
2320
2324
2328
2332
2336
2340
2344
2348
2352
2356
2360
2364
2368
2372
2376
2380
2384
2388
2392
2396
2400
2404
2408
2412
2416
2420
2424
2428
2432
2436
2440
2444
2448
2452
2456
2460
2464
2468
2472
2476
2480
2484
2488
2492
2496
2500
2504
2508
2512
2516
2520
2524
2528
2532
2536
2540
2544
2548
2552
2556
2560
2564
2568
2572
2576
2580
2584
2588
2592
2596
2600
2604
2608
2612
2616
2620
2624
2628
2632
2636
2640
2644
2648
2652
2656
2660
2664
2668
2672
2676
2680
2684
2688
2692
2696
2700
2704
2708
2712
2716
2720
2724
2728
2732
2736
2740
2744
2748
2752
2756
2760
2764
2768
2772
2776
2780
2784
2788
2792
2796
2800
2804
2808
2812
2816
2820
2824
2828
2832
2836
2840
2844
2848
2852
2856
2860
2864
2868
2872
2876
2880
2884
2888
2892
2896
2900
2904
2908
2912
2916
2920
2924
2928
2932
2936
2940
2944
2948
2952
2956
2960
2964
2968
2972
2976
2980
2984
2988
2992
2996
3000
3004
3008
3012
3016
3020
3024
3028
3032
3036
3040
3044
3048
3052
3056
3060
3064
3068
3072
3076
3080
3084
3088
3092
3096
3100
3104
3108
3112
3116
3120
3124
3128
3132
3136
3140
3144
3148
3152
3156
3160
3164
3168
3172
3176
3180
3184
3188
3192
3196
3200
3204
3208
3212
3216
3220
3224
3228
3232
3236
3240
3244
3248
3252
3256
3260
3264
3268
3272
3276
3280
3284
3288
3292
3296
3300
3304
3308
3312
3316
3320
3324
3328
3332
3336
3340
3344
3348
3352
3356
3360
3364
3368
3372
3376
3380
3384
3388
3392
3396
3400
3404
3408
3412
3416
3420
3424
3428
3432
3436
3440
3444
3448
3452
3456
3460
3464
3468
3472
3476
3480
3484
3488
3492
3496
3500
3504
3508
3512
3516
3520
3524
3528
3532
3536
3540
3544
3548
3552
3556
3560
3564
3568
3572
3576
3580
3584
3588
3592
3596
3600
3604
3608
3612
3616
3620
3624
3628
3632
3636
3640
3644
3648
3652
3656
3660
3664
3668
3672
3676
3680
3684
3688
3692
3696
3700
3704
3708
3712
3716
3720
3724
3728
3732
3736
3740
3744
3748
3752
3756
3760
3764
3768
3772
3776
3780
3784
3788
3792
3796
3800
3804
3808
3812
3816
3820
3824
3828
3832
3836
3840
3844
3848
3852
3856
3860
3864
3868
3872
3876
3880
3884
3888
3892
3896
3900
3904
3908
3912
3916
3920
3924
3928
3932
3936
3940
3944
3948
3952
3956
3960
3964
3968
3972
3976
3980
3984
3988
3992
3996
4000
4004
4008
4012
4016
4020
4024
4028
4032
4036
4040
4044
4048
4052
4056
4060
4064
4068
4072
4076
4080
4084
4088
4092
4096
4100
4104
4108
4112
4116
4120
4124
4128
4132
4136
4140
4144
4148
4152
4156
4160
4164
4168
4172
4176
4180
4184
4188
4192
4196
4200
4204
4208
4212
4216
4220
4224
4228
4232
4236
4240
4244
4248
4252
4256
4260
4264
4268
4272
4276
4280
4284
4288
4292
4296
4300
4304
4308
4312
4316
4320
4324
4328
4332
4336
4340
4344
4348
4352
4356
4360
4364
4368
4372
4376
4380
4384
4388
4392
4396
4400
4404
4408
4412
4416
4420
4424
4428
4432
4436
4440
4444
4448
4452
4456
4460
4464
4468
4472
4476
4480
4484
4488
4492
4496
4500
4504
4508
4512
4516
4520
4524
4528
4532
4536
4540
4544
4548
4552
4556
4560
4564
4568
4572
4576
4580
4584
4588
4592
4596
4600
4604
4608
4612
4616
4620
4624
4628
4632
4636
4640
4644
4648
4652
4656
4660
4664
4668
4672
4676
4680
4684
4688
4692
4696
4700
4704
4708
4712
4716
4720
4724
4728
4732
4736
4740
4744
4748
4752
4756
4760
4764
4768
4772
4776
4780
4784
4788
4792
4796
4800
4804
4808
4812
4816
4820
4824
4828
4832
4836
4840
4844
4848
4852
4856
4860
4864
4868
4872
4876
4880
4884
4888
4892
4896
4900
4904
4908
4912
4916
4920
4924
4928
4932
4936
4940
4944
4948
4952
4956
4960
4964
4968
4972
4976
4980
4984
4988
4992
4996
5000
5004
5008
5012
5016
5020
5024
5028
5032
5036
5040
5044
5048
5052
5056
5060
5064
5068
5072
5076
5080
5084
5088
5092
5096
5100
5104
5108
5112
5116
5120
5124
5128
5132
5136
5140
5144
5148
5152
5156
5160
5164
5168
5172
5176
5180
5184
5188
5192
5196
5200
5204
5208
5212
5216
5220
5224
5228
5232
5236
5240
5244
5248
5252
5256
5260
5264
5268
5272
5276
5280
5284
5288
5292
5296
5300
5304
5308
5312
5316
5320
5324
5328
5332
5336
5340
5344
5348
5352
5356
5360
5364
5368
5372
5376
5380
5384
5388
5392
5396
5400
5404
5408
5412
5416
5420
5424
5428
5432
5436
5440
5444
5448
5452
5456
5460
5464
5468
5472
5476
5480
5484
5488
5492
5496
5500
5504
5508
5512
5516
5520
5524
5528
5532
5536
5540
5544
5548
5552
5556
5560
5564
5568
5572
5576
5580
5584
5588
5592
5596
5600
5604
5608
5612
5616
5620
5624
5628
5632
5636
5640
5644
5648
5652
5656
5660
5664
5668
5672
5676
5680
5684
5688
5692
5696
5700
5704
5708
5712
5716
5720
5724
5728
5732
5736
5740
5744
5748
5752
5756
5760
5764
5768
5772
5776
5780
5784
5788
5792
5796
5800
5804
5808
5812
5816
5820
5824
5828
5832
5836
5840
5844
5848
5852
5856
5860
5864
5868
5872
5876
5880
5884
5888
5892
5896
5900
5904
5908
5912
5916
5920
5924
5928
5932
5936
5940
5944
5948
5952
5956
5960
5964
5968
5972
5976
5980
5984
5988
5992
5996
6000
              </DataArray>   
              <DataArray type="UInt8" Name="types" format="ascii">   
10
10
10
10
10
10
10
10
10
10
10
10
10
10
10
10
10
10
10
10
10
10
10
10
10
10
10
10
10
10
10
10
10
10
10
10
10
10
10
10
10
10
10
10
10
10
10
10
10
10
10
10
10
10
10
10
10
10
10
10
10
10
10
10
10
10
10
10
10
10
10
10
10
10
10
10
10
10
10
10
10
10
10
10
10
10
10
10
10
10
10
10
10
10
10
10
10
10
10
10
10
10
10
10
10
10
10
10
10
10
10
10
10
10
10
10
10
10
10
10
10
10
10
10
10
10
10
10
10
10
10
10
10
10
10
10
10
10
10
10
10
10
10
10
10
10
10
10
10
10
10
10
10
10
10
10
10
10
10
10
10
10
10
10
10
10
10
10
10
10
10
10
10
10
10
10
10
10
10
10
10
10
10
10
10
10
10
10
10
10
10
10
10
10
10
10
10
10
10
10
10
10
10
10
10
10
10
10
10
10
10
10
10
10
10
10
10
10
10
10
10
10
10
10
10
10
10
10
10
10
10
10
10
10
10
10
10
10
10
10
10
10
10
10
10
10
10
10
10
10
10
10
10
10
10
10
10
10
10
10
10
10
10
10
10
10
10
10
10
10
10
10
10
10
10
10
10
10
10
10
10
10
10
10
10
10
10
10
10
10
10
10
10
10
10
10
10
10
10
10
10
10
10
10
10
10
10
10
10
10
10
10
10
10
10
10
10
10
10
10
10
10
10
10
10
10
10
10
10
10
10
10
10
10
10
10
10
10
10
10
10
10
10
10
10
10
10
10
10
10
10
10
10
10
10
10
10
10
10
10
10
10
10
10
10
10
10
10
10
10
10
10
10
10
10
10
10
10
10
10
10
10
10
10
10
10
10
10
10
10
10
10
10
10
10
10
10
10
10
10
10
10
10
10
10
10
10
10
10
10
10
10
10
10
10
10
10
10
10
10
10
10
10
10
10
10
10
10
10
10
10
10
10
10
10
10
10
10
10
10
10
10
10
10
10
10
10
10
10
10
10
10
10
10
10
10
10
10
10
10
10
10
10
10
10
10
10
10
10
10
10
10
10
10
10
10
10
10
10
10
10
10
10
10
10
10
10
10
10
10
10
10
10
10
10
10
10
10
10
10
10
10
10
10
10
10
10
10
10
10
10
10
10
10
10
10
10
10
10
10
10
10
10
10
10
10
10
10
10
10
10
10
10
10
10
10
10
10
10
10
10
10
10
10
10
10
10
10
10
10
10
10
10
10
10
10
10
10
10
10
10
10
10
10
10
10
10
10
10
10
10
10
10
10
10
10
10
10
10
10
10
10
10
10
10
10
10
10
10
10
10
10
10
10
10
10
10
10
10
10
10
10
10
10
10
10
10
10
10
10
10
10
10
10
10
10
10
10
10
10
10
10
10
10
10
10
10
10
10
10
10
10
10
10
10
10
10
10
10
10
10
10
10
10
10
10
10
10
10
10
10
10
10
10
10
10
10
10
10
10
10
10
10
10
10
10
10
10
10
10
10
10
10
10
10
10
10
10
10
10
10
10
10
10
10
10
10
10
10
10
10
10
10
10
10
10
10
10
10
10
10
10
10
10
10
10
10
10
10
10
10
10
10
10
10
10
10
10
10
10
10
10
10
10
10
10
10
10
10
10
10
10
10
10
10
10
10
10
10
10
10
10
10
10
10
10
10
10
10
10
10
10
10
10
10
10
10
10
10
10
10
10
10
10
10
10
10
10
10
10
10
10
10
10
10
10
10
10
10
10
10
10
10
10
10
10
10
10
10
10
10
10
10
10
10
10
10
10
10
10
10
10
10
10
10
10
10
10
10
10
10
10
10
10
10
10
10
10
10
10
10
10
10
10
10
10
10
10
10
10
10
10
10
10
10
10
10
10
10
10
10
10
10
10
10
10
10
10
10
10
10
10
10
10
10
10
10
10
10
10
10
10
10
10
10
10
10
10
10
10
10
10
10
10
10
10
10
10
10
10
10
10
10
10
10
10
10
10
10
10
10
10
10
10
10
10
10
10
10
10
10
10
10
10
10
10
10
10
10
10
10
10
10
10
10
10
10
10
10
10
10
10
10
10
10
10
10
10
10
10
10
10
10
10
10
10
10
10
10
10
10
10
10
10
10
10
10
10
10
10
10
10
10
10
10
10
10
10
10
10
10
10
10
10
10
10
10
10
10
10
10
10
10
10
10
10
10
10
10
10
10
10
10
10
10
10
10
10
10
10
10
10
10
10
10
10
10
10
10
10
10
10
10
10
10
10
10
10
10
10
10
10
10
10
10
10
10
10
10
10
10
10
10
10
10
10
10
10
10
10
10
10
10
10
10
10
10
10
10
10
10
10
10
10
10
10
10
10
10
10
10
10
10
10
10
10
10
10
10
10
10
10
10
10
10
10
10
10
10
10
10
10
10
10
10
10
10
10
10
10
10
10
10
10
10
10
10
10
10
10
10
10
10
10
10
10
10
10
10
10
10
10
10
10
10
10
10
10
10
10
10
10
10
10
10
10
10
10
10
10
10
10
10
10
10
10
10
10
10
10
10
10
10
10
10
10
10
10
10
10
10
10
10
10
10
10
10
10
10
10
10
10
10
10
10
10
10
10
10
10
10
10
10
10
10
10
10
10
10
10
10
10
10
10
10
10
10
10
10
10
10
10
10
10
10
10
10
10
10
10
10
10
10
10
10
10
10
10
10
10
10
10
10
10
10
10
10
10
10
10
10
10
10
10
10
10
10
10
10
10
10
10
10
10
10
10
10
10
10
10
10
10
10
10
10
10
10
10
10
10
10
10
10
10
10
10
10
10
10
10
10
10
10
10
10
10
10
10
10
10
10
10
10
10
10
10
10
10
10
10
10
10
10
10
10
10
10
10
10
10
10
10
10
10
10
10
10
10
10
10
10
10
10
10
10
10
10
10
10
10
10
10
10
10
10
10
10
10
10
10
10
10
10
10
10
10
10
10
10
10
10
10
10
10
10
10
10
10
10
10
10
10
10
10
10
10
10
10
10
10
10
10
10
10
10
10
10
10
10
10
10
10
10
10
10
10
10
10
10
10
10
10
10
10
10
10
10
10
10
10
10
10
10
10
10
10
10
10
10
10
10
10
10
10
10
10
10
10
10
10
10
10
10
10
10
10
10
10
10
10
10
10
10
10
10
10
10
10
10
10
10
10
10
10
10
10
10
10
10
10
10
10
10
10
10
10
10
10
10
10
10
10
10
10
10
10
10
10
10
10
10
10
10
10
10
10
10
10
10
10
10
10
10
10
10
10
10
10
10
10
10
10
10
10
10
10
10
10
10
10
10
10
10
10
10
10
10
10
10
10
10
10
10
10
10
10
10
10
10
10
10
10
10
10
10
10
10
10
10
10
              </DataArray>   
          </Cells>  
          <PointData>  
             <DataArray type="Float64" NumberOfComponents="3" Name="Strains" format="ascii">   
-7.559751794597349e-05   0.0   -4.9667250200050664e-05
-7.559751794597349e-05   0.0   -4.9667250200050664e-05
-7.559751794597349e-05   0.0   -4.9667250200050664e-05
-7.559751794597349e-05   0.0   -4.9667250200050664e-05
-4.8098975547872125e-05   8.36779369523483e-06   1.1843300139257538e-06
-4.8098975547872125e-05   8.36779369523483e-06   1.1843300139257538e-06
-4.8098975547872125e-05   8.36779369523483e-06   1.1843300139257538e-06
-4.8098975547872125e-05   8.36779369523483e-06   1.1843300139257538e-06
-4.714428092673233e-05   0.0   -4.688299571180947e-05
-4.714428092673233e-05   0.0   -4.688299571180947e-05
-4.714428092673233e-05   0.0   -4.688299571180947e-05
-4.714428092673233e-05   0.0   -4.688299571180947e-05
-7.911211086391813e-05   1.0045100136217802e-05   3.6966076843639563e-07
-7.911211086391813e-05   1.0045100136217802e-05   3.6966076843639563e-07
-7.911211086391813e-05   1.0045100136217802e-05   3.6966076843639563e-07
-7.911211086391813e-05   1.0045100136217802e-05   3.6966076843639563e-07
-6.13708994363528e-05   2.320212073534323e-06   -2.456409210656237e-05
-6.13708994363528e-05   2.320212073534323e-06   -2.456409210656237e-05
-6.13708994363528e-05   2.320212073534323e-06   -2.456409210656237e-05
-6.13708994363528e-05   2.320212073534323e-06   -2.456409210656237e-05
-7.911211086391826e-05   0.0   -5.2910055793540164e-05
-7.911211086391826e-05   0.0   -5.2910055793540164e-05
-7.911211086391826e-05   0.0   -5.2910055793540164e-05
-7.911211086391826e-05   0.0   -5.2910055793540164e-05
-4.714428092673233e-05   1.004510013621783e-05   6.396720850167085e-06
-4.714428092673233e-05   1.004510013621783e-05   6.396720850167085e-06
-4.714428092673233e-05   1.004510013621783e-05   6.396720850167085e-06
-4.714428092673233e-05   1.004510013621783e-05   6.396720850167085e-06
-4.727350281216274e-05   0.0   -4.802952184765865e-05
-4.727350281216274e-05   0.0   -4.802952184765865e-05
-4.727350281216274e-05   0.0   -4.802952184765865e-05
-4.727350281216274e-05   0.0   -4.802952184765865e-05
-8.157866113598215e-05   1.0762715138609737e-05   2.6881129422080612e-06
-8.157866113598215e-05   1.0762715138609737e-05   2.6881129422080612e-06
-8.157866113598215e-05   1.0762715138609737e-05   2.6881129422080612e-06
-8.157866113598215e-05   1.0762715138609737e-05   2.6881129422080612e-06
-6.319280683804039e-05   4.0671116215679255e-06   -2.3937615444136407e-05
-6.319280683804039e-05   4.0671116215679255e-06   -2.3937615444136407e-05
-6.319280683804039e-05   4.0671116215679255e-06   -2.3937615444136407e-05
-6.319280683804039e-05   4.0671116215679255e-06   -2.3937615444136407e-05
-8.157866113598229e-05   0.0   -5.44871509308245e-05
-8.157866113598229e-05   0.0   -5.44871509308245e-05
-8.157866113598229e-05   0.0   -5.44871509308245e-05
-8.157866113598229e-05   0.0   -5.44871509308245e-05
-4.727350281216274e-05   1.0762715138609751e-05   9.14574202537392e-06
-4.727350281216274e-05   1.0762715138609751e-05   9.14574202537392e-06
-4.727350281216274e-05   1.0762715138609751e-05   9.14574202537392e-06
-4.727350281216274e-05   1.0762715138609751e-05   9.14574202537392e-06
-4.7244446310247776e-05   0.0   -4.8324722044891244e-05
-4.7244446310247776e-05   0.0   -4.8324722044891244e-05
-4.7244446310247776e-05   0.0   -4.8324722044891244e-05
-4.7244446310247776e-05   0.0   -4.8324722044891244e-05
-8.68959948599232e-05   1.226376230679973e-05   1.0402934820488203e-05
-8.68959948599232e-05   1.226376230679973e-05   1.0402934820488203e-05
-8.68959948599232e-05   1.226376230679973e-05   1.0402934820488203e-05
-8.68959948599232e-05   1.226376230679973e-05   1.0402934820488203e-05
-6.441155372311492e-05   5.135357404944376e-06   -2.2794090799745725e-05
-6.441155372311492e-05   5.135357404944376e-06   -2.2794090799745725e-05
-6.441155372311492e-05   5.135357404944376e-06   -2.2794090799745725e-05
-6.441155372311492e-05   5.135357404944376e-06   -2.2794090799745725e-05
-4.8098975547872206e-05   0.0   -4.464657398290975e-05
-4.8098975547872206e-05   0.0   -4.464657398290975e-05
-4.8098975547872206e-05   0.0   -4.464657398290975e-05
-4.8098975547872206e-05   0.0   -4.464657398290975e-05
-2.1908850886841493e-05   3.067634500051786e-06   8.442144855058136e-07
-2.1908850886841493e-05   3.067634500051786e-06   8.442144855058136e-07
-2.1908850886841493e-05   3.067634500051786e-06   8.442144855058136e-07
-2.1908850886841493e-05   3.067634500051786e-06   8.442144855058136e-07
-2.1067984187189753e-05   0.0   -4.4261202942352554e-05
-2.1067984187189753e-05   0.0   -4.4261202942352554e-05
-2.1067984187189753e-05   0.0   -4.4261202942352554e-05
-2.1067984187189753e-05   0.0   -4.4261202942352554e-05
-4.714428092673233e-05   4.3696546157615115e-06   -3.4225011459051784e-06
-4.714428092673233e-05   4.3696546157615115e-06   -3.4225011459051784e-06
-4.714428092673233e-05   4.3696546157615115e-06   -3.4225011459051784e-06
-4.714428092673233e-05   4.3696546157615115e-06   -3.4225011459051784e-06
-3.458347986753092e-05   3.211425337976706e-07   -2.1928062328729052e-05
-3.458347986753092e-05   3.211425337976706e-07   -2.1928062328729052e-05
-3.458347986753092e-05   3.211425337976706e-07   -2.1928062328729052e-05
-3.458347986753092e-05   3.211425337976706e-07   -2.1928062328729052e-05
-4.714428092673229e-05   0.0   -4.688299571180943e-05
-4.714428092673229e-05   0.0   -4.688299571180943e-05
-4.714428092673229e-05   0.0   -4.688299571180943e-05
-4.714428092673229e-05   0.0   -4.688299571180943e-05
-2.1067984187189753e-05   4.3696546157615115e-06   -8.007083764482648e-07
-2.1067984187189753e-05   4.3696546157615115e-06   -8.007083764482648e-07
-2.1067984187189753e-05   4.3696546157615115e-06   -8.007083764482648e-07
-2.1067984187189753e-05   4.3696546157615115e-06   -8.007083764482648e-07
-2.0594201467592758e-05   0.0   -4.481602839126727e-05
-2.0594201467592758e-05   0.0   -4.481602839126727e-05
-2.0594201467592758e-05   0.0   -4.481602839126727e-05
-2.0594201467592758e-05   0.0   -4.481602839126727e-05
-4.727350281216274e-05   5.355822427318961e-06   -3.5640196067086806e-06
-4.727350281216274e-05   5.355822427318961e-06   -3.5640196067086806e-06
-4.727350281216274e-05   5.355822427318961e-06   -3.5640196067086806e-06
-4.727350281216274e-05   5.355822427318961e-06   -3.5640196067086806e-06
-3.386924119716247e-05   1.7224727671184982e-06   -2.372444583558865e-05
-3.386924119716247e-05   1.7224727671184982e-06   -2.372444583558865e-05
-3.386924119716247e-05   1.7224727671184982e-06   -2.372444583558865e-05
-3.386924119716247e-05   1.7224727671184982e-06   -2.372444583558865e-05
-4.727350281216274e-05   0.0   -4.802952184765865e-05
-4.727350281216274e-05   0.0   -4.802952184765865e-05
-4.727350281216274e-05   0.0   -4.802952184765865e-05
-4.727350281216274e-05   0.0   -4.802952184765865e-05
-2.0594201467592758e-05   5.355822427318961e-06   -3.505261503172999e-07
-2.0594201467592758e-05   5.355822427318961e-06   -3.505261503172999e-07
-2.0594201467592758e-05   5.355822427318961e-06   -3.505261503172999e-07
-2.0594201467592758e-05   5.355822427318961e-06   -3.505261503172999e-07
-2.0162168465861728e-05   0.0   -4.4584916035511854e-05
-2.0162168465861728e-05   0.0   -4.4584916035511854e-05
-2.0162168465861728e-05   0.0   -4.4584916035511854e-05
-2.0162168465861728e-05   0.0   -4.4584916035511854e-05
-4.7244446310247654e-05   6.233010015632237e-06   -3.187592304247812e-06
-4.7244446310247654e-05   6.233010015632237e-06   -3.187592304247812e-06
-4.7244446310247654e-05   6.233010015632237e-06   -3.187592304247812e-06
-4.7244446310247654e-05   6.233010015632237e-06   -3.187592304247812e-06
-3.3717835639012226e-05   2.8705048434556323e-06   -2.3714440319667748e-05
-3.3717835639012226e-05   2.8705048434556323e-06   -2.3714440319667748e-05
-3.3717835639012226e-05   2.8705048434556323e-06   -2.3714440319667748e-05
-3.3717835639012226e-05   2.8705048434556323e-06   -2.3714440319667748e-05
-2.190885088684153e-05   0.0   -4.2805993282878685e-05
-2.190885088684153e-05   0.0   -4.2805993282878685e-05
-2.190885088684153e-05   0.0   -4.2805993282878685e-05
-2.190885088684153e-05   0.0   -4.2805993282878685e-05
2.8327063272846736e-06   -3.940200081488886e-07   -1.8064765975576375e-06
2.8327063272846736e-06   -3.940200081488886e-07   -1.8064765975576375e-06
2.8327063272846736e-06   -3.940200081488886e-07   -1.8064765975576375e-06
2.8327063272846736e-06   -3.940200081488886e-07   -1.8064765975576375e-06
3.3711607618811195e-06   0.0   -4.379613021914045e-05
3.3711607618811195e-06   0.0   -4.379613021914045e-05
3.3711607618811195e-06   0.0   -4.379613021914045e-05
3.3711607618811195e-06   0.0   -4.379613021914045e-05
-2.1067984187189753e-05   7.751212053532544e-07   -3.52929469390109e-06
-2.1067984187189753e-05   7.751212053532544e-07   -3.52929469390109e-06
-2.1067984187189753e-05   7.751212053532544e-07   -3.52929469390109e-06
-2.1067984187189753e-05   7.751212053532544e-07   -3.52929469390109e-06
-9.268845062480184e-06   -8.251141135515953e-07   -2.2234385377074037e-05
-9.268845062480184e-06   -8.251141135515953e-07   -2.2234385377074037e-05
-9.268845062480184e-06   -8.251141135515953e-07   -2.2234385377074037e-05
-9.268845062480184e-06   -8.251141135515953e-07   -2.2234385377074037e-05
-2.1067984187189753e-05   0.0   -4.4261202942352554e-05
-2.1067984187189753e-05   0.0   -4.4261202942352554e-05
-2.1067984187189753e-05   0.0   -4.4261202942352554e-05
-2.1067984187189753e-05   0.0   -4.4261202942352554e-05
3.3711607618811255e-06   7.751212053532544e-07   -3.0642219706891224e-06
3.3711607618811255e-06   7.751212053532544e-07   -3.0642219706891224e-06
3.3711607618811255e-06   7.751212053532544e-07   -3.0642219706891224e-06
3.3711607618811255e-06   7.751212053532544e-07   -3.0642219706891224e-06
3.7966365835905353e-06   0.0   -4.3733186554344045e-05
3.7966365835905353e-06   0.0   -4.3733186554344045e-05
3.7966365835905353e-06   0.0   -4.3733186554344045e-05
3.7966365835905353e-06   0.0   -4.3733186554344045e-05
-2.0594201467592724e-05   1.8047363948719047e-06   -4.164631639295104e-06
-2.0594201467592724e-05   1.8047363948719047e-06   -4.164631639295104e-06
-2.0594201467592724e-05   1.8047363948719047e-06   -4.164631639295104e-06
-2.0594201467592724e-05   1.8047363948719047e-06   -4.164631639295104e-06
-8.635673801799606e-06   4.4001365667370164e-07   -2.3276677439364742e-05
-8.635673801799606e-06   4.4001365667370164e-07   -2.3276677439364742e-05
-8.635673801799606e-06   4.4001365667370164e-07   -2.3276677439364742e-05
-8.635673801799606e-06   4.4001365667370164e-07   -2.3276677439364742e-05
-2.0594201467592758e-05   0.0   -4.481602839126727e-05
-2.0594201467592758e-05   0.0   -4.481602839126727e-05
-2.0594201467592758e-05   0.0   -4.481602839126727e-05
-2.0594201467592758e-05   0.0   -4.481602839126727e-05
3.796636583590542e-06   1.8047363948719183e-06   -3.081789802371961e-06
3.796636583590542e-06   1.8047363948719183e-06   -3.081789802371961e-06
3.796636583590542e-06   1.8047363948719183e-06   -3.081789802371961e-06
3.796636583590542e-06   1.8047363948719183e-06   -3.081789802371961e-06
4.36787703309348e-06   0.0   -4.278667330203481e-05
4.36787703309348e-06   0.0   -4.278667330203481e-05
4.36787703309348e-06   0.0   -4.278667330203481e-05
4.36787703309348e-06   0.0   -4.278667330203481e-05
-2.016216846586171e-05   2.99707122246167e-06   -3.7015068705865023e-06
-2.016216846586171e-05   2.99707122246167e-06   -3.7015068705865023e-06
-2.016216846586171e-05   2.99707122246167e-06   -3.7015068705865023e-06
-2.016216846586171e-05   2.99707122246167e-06   -3.7015068705865023e-06
-8.11316221724962e-06   1.6911292410269868e-06   -2.299961876274582e-05
-8.11316221724962e-06   1.6911292410269868e-06   -2.299961876274582e-05
-8.11316221724962e-06   1.6911292410269868e-06   -2.299961876274582e-05
-8.11316221724962e-06   1.6911292410269868e-06   -2.299961876274582e-05
2.8327063272846786e-06   0.0   -4.304240528776802e-05
2.8327063272846786e-06   0.0   -4.304240528776802e-05
2.8327063272846786e-06   0.0   -4.304240528776802e-05
2.8327063272846786e-06   0.0   -4.304240528776802e-05
2.969246854813989e-05   -3.482642950290981e-06   -3.65720689850558e-07
2.969246854813989e-05   -3.482642950290981e-06   -3.65720689850558e-07
2.969246854813989e-05   -3.482642950290981e-06   -3.65720689850558e-07
2.969246854813989e-05   -3.482642950290981e-06   -3.65720689850558e-07
2.9749502752519055e-05   0.0   -4.537076997999131e-05
2.9749502752519055e-05   0.0   -4.537076997999131e-05
2.9749502752519055e-05   0.0   -4.537076997999131e-05
2.9749502752519055e-05   0.0   -4.537076997999131e-05
3.3711607618811314e-06   -2.62439960141784e-06   1.677730985892562e-07
3.3711607618811314e-06   -2.62439960141784e-06   1.677730985892562e-07
3.3711607618811314e-06   -2.62439960141784e-06   1.677730985892562e-07
3.3711607618811314e-06   -2.62439960141784e-06   1.677730985892562e-07
1.629110453990187e-05   -1.9403039101860778e-06   -2.1775923946184333e-05
1.629110453990187e-05   -1.9403039101860778e-06   -2.1775923946184333e-05
1.629110453990187e-05   -1.9403039101860778e-06   -2.1775923946184333e-05
1.629110453990187e-05   -1.9403039101860778e-06   -2.1775923946184333e-05
3.3711607618811314e-06   0.0   -4.3796130219140604e-05
3.3711607618811314e-06   0.0   -4.3796130219140604e-05
3.3711607618811314e-06   0.0   -4.3796130219140604e-05
3.3711607618811314e-06   0.0   -4.3796130219140604e-05
2.9749502752519055e-05   -2.62439960141784e-06   -1.4068666622614465e-06
2.9749502752519055e-05   -2.62439960141784e-06   -1.4068666622614465e-06
2.9749502752519055e-05   -2.62439960141784e-06   -1.4068666622614465e-06
2.9749502752519055e-05   -2.62439960141784e-06   -1.4068666622614465e-06
2.962574045080771e-05   0.0   -4.4722922862452686e-05
2.962574045080771e-05   0.0   -4.4722922862452686e-05
2.962574045080771e-05   0.0   -4.4722922862452686e-05
2.962574045080771e-05   0.0   -4.4722922862452686e-05
3.796636583590542e-06   -1.6495605135142621e-06   -6.84680108982182e-07
3.796636583590542e-06   -1.6495605135142621e-06   -6.84680108982182e-07
3.796636583590542e-06   -1.6495605135142621e-06   -6.84680108982182e-07
3.796636583590542e-06   -1.6495605135142621e-06   -6.84680108982182e-07
1.649845060634442e-05   -7.723272027600702e-07   -2.2380710133357817e-05
1.649845060634442e-05   -7.723272027600702e-07   -2.2380710133357817e-05
1.649845060634442e-05   -7.723272027600702e-07   -2.2380710133357817e-05
1.649845060634442e-05   -7.723272027600702e-07   -2.2380710133357817e-05
3.7966365835905387e-06   0.0   -4.373318655434408e-05
3.7966365835905387e-06   0.0   -4.373318655434408e-05
3.7966365835905387e-06   0.0   -4.373318655434408e-05
3.7966365835905387e-06   0.0   -4.373318655434408e-05
2.962574045080771e-05   -1.6495605135142621e-06   -1.6744164170907487e-06
2.962574045080771e-05   -1.6495605135142621e-06   -1.6744164170907487e-06
2.962574045080771e-05   -1.6495605135142621e-06   -1.6744164170907487e-06
2.962574045080771e-05   -1.6495605135142621e-06   -1.6744164170907487e-06
3.0203009547991936e-05   0.0   -4.2990563441196016e-05
3.0203009547991936e-05   0.0   -4.2990563441196016e-05
3.0203009547991936e-05   0.0   -4.2990563441196016e-05
3.0203009547991936e-05   0.0   -4.2990563441196016e-05
4.367877033093488e-06   -3.398168986018887e-07   2.718808894625227e-07
4.367877033093488e-06   -3.398168986018887e-07   2.718808894625227e-07
4.367877033093488e-06   -3.398168986018887e-07   2.718808894625227e-07
4.367877033093488e-06   -3.398168986018887e-07   2.718808894625227e-07
1.6999823065791227e-05   6.188525942900833e-07   -2.1356564194102204e-05
1.6999823065791227e-05   6.188525942900833e-07   -2.1356564194102204e-05
1.6999823065791227e-05   6.188525942900833e-07   -2.1356564194102204e-05
1.6999823065791227e-05   6.188525942900833e-07   -2.1356564194102204e-05
2.969246854813989e-05   0.0   -4.5131991057942606e-05
2.969246854813989e-05   0.0   -4.5131991057942606e-05
2.969246854813989e-05   0.0   -4.5131991057942606e-05
2.969246854813989e-05   0.0   -4.5131991057942606e-05
6.705738513659854e-05   -8.831333522782279e-06   1.1844069809152806e-05
6.705738513659854e-05   -8.831333522782279e-06   1.1844069809152806e-05
6.705738513659854e-05   -8.831333522782279e-06   1.1844069809152806e-05
6.705738513659854e-05   -8.831333522782279e-06   1.1844069809152806e-05
6.298320852315552e-05   0.0   -4.9877863288270124e-05
6.298320852315552e-05   0.0   -4.9877863288270124e-05
6.298320852315552e-05   0.0   -4.9877863288270124e-05
6.298320852315552e-05   0.0   -4.9877863288270124e-05
2.9749502752519055e-05   -7.511822180464691e-06   1.0018739637736133e-05
2.9749502752519055e-05   -7.511822180464691e-06   1.0018739637736133e-05
2.9749502752519055e-05   -7.511822180464691e-06   1.0018739637736133e-05
2.9749502752519055e-05   -7.511822180464691e-06   1.0018739637736133e-05
4.6337838535647704e-05   -3.95489352527294e-06   -1.976264386059332e-05
4.6337838535647704e-05   -3.95489352527294e-06   -1.976264386059332e-05
4.6337838535647704e-05   -3.95489352527294e-06   -1.976264386059332e-05
4.6337838535647704e-05   -3.95489352527294e-06   -1.976264386059332e-05
2.9749502752519028e-05   0.0   -4.5370769979991266e-05
2.9749502752519028e-05   0.0   -4.5370769979991266e-05
2.9749502752519028e-05   0.0   -4.5370769979991266e-05
2.9749502752519028e-05   0.0   -4.5370769979991266e-05
6.29832085231553e-05   -7.511822180464677e-06   5.5116463294572755e-06
6.29832085231553e-05   -7.511822180464677e-06   5.5116463294572755e-06
6.29832085231553e-05   -7.511822180464677e-06   5.5116463294572755e-06
6.29832085231553e-05   -7.511822180464677e-06   5.5116463294572755e-06
6.110609167844113e-05   0.0   -4.8840915231180136e-05
6.110609167844113e-05   0.0   -4.8840915231180136e-05
6.110609167844113e-05   0.0   -4.8840915231180136e-05
6.110609167844113e-05   0.0   -4.8840915231180136e-05
2.962574045080771e-05   -6.863320614545755e-06   7.74432918360301e-06
2.962574045080771e-05   -6.863320614545755e-06   7.74432918360301e-06
2.962574045080771e-05   -6.863320614545755e-06   7.74432918360301e-06
2.962574045080771e-05   -6.863320614545755e-06   7.74432918360301e-06
4.542779721548007e-05   -2.891787709324021e-06   -2.097535183398395e-05
4.542779721548007e-05   -2.891787709324021e-06   -2.097535183398395e-05
4.542779721548007e-05   -2.891787709324021e-06   -2.097535183398395e-05
4.542779721548007e-05   -2.891787709324021e-06   -2.097535183398395e-05
2.962574045080771e-05   0.0   -4.4722922862452686e-05
2.962574045080771e-05   0.0   -4.4722922862452686e-05
2.962574045080771e-05   0.0   -4.4722922862452686e-05
2.962574045080771e-05   0.0   -4.4722922862452686e-05
6.110609167844092e-05   -6.863320614545728e-06   3.626336814875546e-06
6.110609167844092e-05   -6.863320614545728e-06   3.626336814875546e-06
6.110609167844092e-05   -6.863320614545728e-06   3.626336814875546e-06
6.110609167844092e-05   -6.863320614545728e-06   3.626336814875546e-06
5.830904119642672e-05   0.0   -4.618958848646362e-05
5.830904119642672e-05   0.0   -4.618958848646362e-05
5.830904119642672e-05   0.0   -4.618958848646362e-05
5.830904119642672e-05   0.0   -4.618958848646362e-05
3.0203009547991936e-05   -5.33170840877948e-06   3.8528226395287724e-06
3.0203009547991936e-05   -5.33170840877948e-06   3.8528226395287724e-06
3.0203009547991936e-05   -5.33170840877948e-06   3.8528226395287724e-06
3.0203009547991936e-05   -5.33170840877948e-06   3.8528226395287724e-06
4.3967390823617265e-05   -1.222221353342512e-06   -2.155350505310892e-05
4.3967390823617265e-05   -1.222221353342512e-06   -2.155350505310892e-05
4.3967390823617265e-05   -1.222221353342512e-06   -2.155350505310892e-05
4.3967390823617265e-05   -1.222221353342512e-06   -2.155350505310892e-05
-6.555275043412571e-05   8.36779369523483e-06   -4.3045964212350315e-05
-6.555275043412571e-05   8.36779369523483e-06   -4.3045964212350315e-05
-6.555275043412571e-05   8.36779369523483e-06   -4.3045964212350315e-05
-6.555275043412571e-05   8.36779369523483e-06   -4.3045964212350315e-05
-4.1989494194992824e-05   7.522661766480143e-06   -4.28094963771492e-06
-4.1989494194992824e-05   7.522661766480143e-06   -4.28094963771492e-06
-4.1989494194992824e-05   7.522661766480143e-06   -4.28094963771492e-06
-4.1989494194992824e-05   7.522661766480143e-06   -4.28094963771492e-06
-4.304410396756486e-05   1.0045100136217789e-05   -3.615500753587731e-05
-4.304410396756486e-05   1.0045100136217789e-05   -3.615500753587731e-05
-4.304410396756486e-05   1.0045100136217789e-05   -3.615500753587731e-05
-4.304410396756486e-05   1.0045100136217789e-05   -3.615500753587731e-05
-6.625846277543051e-05   9.031043934157177e-06   3.144024198468569e-06
-6.625846277543051e-05   9.031043934157177e-06   3.144024198468569e-06
-6.625846277543051e-05   9.031043934157177e-06   3.144024198468569e-06
-6.625846277543051e-05   9.031043934157177e-06   3.144024198468569e-06
-5.2063783431303066e-05   8.74156700850291e-06   -2.0340088553018283e-05
-5.2063783431303066e-05   8.74156700850291e-06   -2.0340088553018283e-05
-5.2063783431303066e-05   8.74156700850291e-06   -2.0340088553018283e-05
-5.2063783431303066e-05   8.74156700850291e-06   -2.0340088553018283e-05
-6.625846277543051e-05   1.0045100136217789e-05   -3.554657381464095e-05
-6.625846277543051e-05   1.0045100136217789e-05   -3.554657381464095e-05
-6.625846277543051e-05   1.0045100136217789e-05   -3.554657381464095e-05
-6.625846277543051e-05   1.0045100136217789e-05   -3.554657381464095e-05
-4.304410396756501e-05   9.031043934157204e-06   2.5355904772322022e-06
-4.304410396756501e-05   9.031043934157204e-06   2.5355904772322022e-06
-4.304410396756501e-05   9.031043934157204e-06   2.5355904772322022e-06
-4.304410396756501e-05   9.031043934157204e-06   2.5355904772322022e-06
-4.32630757695268e-05   1.0762715138609724e-05   -3.2507833066392514e-05
-4.32630757695268e-05   1.0762715138609724e-05   -3.2507833066392514e-05
-4.32630757695268e-05   1.0762715138609724e-05   -3.2507833066392514e-05
-4.32630757695268e-05   1.0762715138609724e-05   -3.2507833066392514e-05
-6.672139760512452e-05   9.711900971845852e-06   7.219858492995131e-06
-6.672139760512452e-05   9.711900971845852e-06   7.219858492995131e-06
-6.672139760512452e-05   9.711900971845852e-06   7.219858492995131e-06
-6.672139760512452e-05   9.711900971845852e-06   7.219858492995131e-06
-5.3592105079161936e-05   9.689902168407533e-06   -1.4649096434879303e-05
-5.3592105079161936e-05   9.689902168407533e-06   -1.4649096434879303e-05
-5.3592105079161936e-05   9.689902168407533e-06   -1.4649096434879303e-05
-5.3592105079161936e-05   9.689902168407533e-06   -1.4649096434879303e-05
-6.672139760512443e-05   1.0762715138609724e-05   -3.1877344566334185e-05
-6.672139760512443e-05   1.0762715138609724e-05   -3.1877344566334185e-05
-6.672139760512443e-05   1.0762715138609724e-05   -3.1877344566334185e-05
-6.672139760512443e-05   1.0762715138609724e-05   -3.1877344566334185e-05
-4.326307576952687e-05   9.711900971845852e-06   6.589369992936802e-06
-4.326307576952687e-05   9.711900971845852e-06   6.589369992936802e-06
-4.326307576952687e-05   9.711900971845852e-06   6.589369992936802e-06
-4.326307576952687e-05   9.711900971845852e-06   6.589369992936802e-06
-4.301513301232356e-05   1.2263762306799716e-05   -2.402684667751845e-05
-4.301513301232356e-05   1.2263762306799716e-05   -2.402684667751845e-05
-4.301513301232356e-05   1.2263762306799716e-05   -2.402684667751845e-05
-4.301513301232356e-05   1.2263762306799716e-05   -2.402684667751845e-05
-6.486629999496166e-05   1.0254447128944262e-05   1.3597354066924799e-05
-6.486629999496166e-05   1.0254447128944262e-05   1.3597354066924799e-05
-6.486629999496166e-05   1.0254447128944262e-05   1.3597354066924799e-05
-6.486629999496166e-05   1.0254447128944262e-05   1.3597354066924799e-05
-5.219507019579607e-05   1.0629778316362297e-05   -7.746560977468623e-06
-5.219507019579607e-05   1.0629778316362297e-05   -7.746560977468623e-06
-5.219507019579607e-05   1.0629778316362297e-05   -7.746560977468623e-06
-5.219507019579607e-05   1.0629778316362297e-05   -7.746560977468623e-06
-4.1989494194992824e-05   3.0676345000517726e-06   -4.573373959805412e-05
-4.1989494194992824e-05   3.0676345000517726e-06   -4.573373959805412e-05
-4.1989494194992824e-05   3.0676345000517726e-06   -4.573373959805412e-05
-4.1989494194992824e-05   3.0676345000517726e-06   -4.573373959805412e-05
-1.9903235544184464e-05   3.500484184035778e-06   -8.663598702983039e-06
-1.9903235544184464e-05   3.500484184035778e-06   -8.663598702983039e-06
-1.9903235544184464e-05   3.500484184035778e-06   -8.663598702983039e-06
-1.9903235544184464e-05   3.500484184035778e-06   -8.663598702983039e-06
-2.03767766148264e-05   4.3696546157615115e-06   -4.566352877441302e-05
-2.03767766148264e-05   4.3696546157615115e-06   -4.566352877441302e-05
-2.03767766148264e-05   4.3696546157615115e-06   -4.566352877441302e-05
-2.03767766148264e-05   4.3696546157615115e-06   -4.566352877441302e-05
-4.304410396756486e-05   4.887489211655692e-06   -8.195350610718666e-06
-4.304410396756486e-05   4.887489211655692e-06   -8.195350610718666e-06
-4.304410396756486e-05   4.887489211655692e-06   -8.195350610718666e-06
-4.304410396756486e-05   4.887489211655692e-06   -8.195350610718666e-06
-3.1240049365653715e-05   3.935247913007664e-06   -2.7297430168048703e-05
-3.1240049365653715e-05   3.935247913007664e-06   -2.7297430168048703e-05
-3.1240049365653715e-05   3.935247913007664e-06   -2.7297430168048703e-05
-3.1240049365653715e-05   3.935247913007664e-06   -2.7297430168048703e-05
-4.304410396756483e-05   4.3696546157615115e-06   -4.5974229531949475e-05
-4.304410396756483e-05   4.3696546157615115e-06   -4.5974229531949475e-05
-4.304410396756483e-05   4.3696546157615115e-06   -4.5974229531949475e-05
-4.304410396756483e-05   4.3696546157615115e-06   -4.5974229531949475e-05
-2.0376776614826436e-05   4.887489211655719e-06   -7.884649853182186e-06
-2.0376776614826436e-05   4.887489211655719e-06   -7.884649853182186e-06
-2.0376776614826436e-05   4.887489211655719e-06   -7.884649853182186e-06
-2.0376776614826436e-05   4.887489211655719e-06   -7.884649853182186e-06
-2.052430624477214e-05   5.3558224273189475e-06   -4.4809600549806076e-05
-2.052430624477214e-05   5.3558224273189475e-06   -4.4809600549806076e-05
-2.052430624477214e-05   5.3558224273189475e-06   -4.4809600549806076e-05
-2.052430624477214e-05   5.3558224273189475e-06   -4.4809600549806076e-05
-4.32630757695268e-05   6.035812675100628e-06   -7.319645490550729e-06
-4.32630757695268e-05   6.035812675100628e-06   -7.319645490550729e-06
-4.32630757695268e-05   6.035812675100628e-06   -7.319645490550729e-06
-4.32630757695268e-05   6.035812675100628e-06   -7.319645490550729e-06
-3.148270280365484e-05   4.995756277455119e-06   -2.632956659508324e-05
-3.148270280365484e-05   4.995756277455119e-06   -2.632956659508324e-05
-3.148270280365484e-05   4.995756277455119e-06   -2.632956659508324e-05
-3.148270280365484e-05   4.995756277455119e-06   -2.632956659508324e-05
-4.32630757695268e-05   5.3558224273189475e-06   -4.5217594698475073e-05
-4.32630757695268e-05   5.3558224273189475e-06   -4.5217594698475073e-05
-4.32630757695268e-05   5.3558224273189475e-06   -4.5217594698475073e-05
-4.32630757695268e-05   5.3558224273189475e-06   -4.5217594698475073e-05
-2.052430624477222e-05   6.035812675100628e-06   -6.9116513418817315e-06
-2.052430624477222e-05   6.035812675100628e-06   -6.9116513418817315e-06
-2.052430624477222e-05   6.035812675100628e-06   -6.9116513418817315e-06
-2.052430624477222e-05   6.035812675100628e-06   -6.9116513418817315e-06
-2.0472550502337756e-05   6.233010015632224e-06   -4.435249168583468e-05
-2.0472550502337756e-05   6.233010015632224e-06   -4.435249168583468e-05
-2.0472550502337756e-05   6.233010015632224e-06   -4.435249168583468e-05
-2.0472550502337756e-05   6.233010015632224e-06   -4.435249168583468e-05
-4.301513301232352e-05   7.271575849798149e-06   -7.404660336357967e-06
-4.301513301232352e-05   7.271575849798149e-06   -7.404660336357967e-06
-4.301513301232352e-05   7.271575849798149e-06   -7.404660336357967e-06
-4.301513301232352e-05   7.271575849798149e-06   -7.404660336357967e-06
-3.1666324886024284e-05   5.955645815598027e-06   -2.552978252633677e-05
-3.1666324886024284e-05   5.955645815598027e-06   -2.552978252633677e-05
-3.1666324886024284e-05   5.955645815598027e-06   -2.552978252633677e-05
-3.1666324886024284e-05   5.955645815598027e-06   -2.552978252633677e-05
-1.9903235544184427e-05   -3.940200081488886e-07   -4.788830886583784e-05
-1.9903235544184427e-05   -3.940200081488886e-07   -4.788830886583784e-05
-1.9903235544184427e-05   -3.940200081488886e-07   -4.788830886583784e-05
-1.9903235544184427e-05   -3.940200081488886e-07   -4.788830886583784e-05
1.9040803651900242e-06   -1.0488253995453913e-07   -1.136929986929711e-05
1.9040803651900242e-06   -1.0488253995453913e-07   -1.136929986929711e-05
1.9040803651900242e-06   -1.0488253995453913e-07   -1.136929986929711e-05
1.9040803651900242e-06   -1.0488253995453913e-07   -1.136929986929711e-05
1.815973104757e-06   7.751212053532544e-07   -4.815329156524498e-05
1.815973104757e-06   7.751212053532544e-07   -4.815329156524498e-05
1.815973104757e-06   7.751212053532544e-07   -4.815329156524498e-05
1.815973104757e-06   7.751212053532544e-07   -4.815329156524498e-05
-2.03767766148264e-05   1.1731604163881914e-06   -1.1404198892560083e-05
-2.03767766148264e-05   1.1731604163881914e-06   -1.1404198892560083e-05
-2.03767766148264e-05   1.1731604163881914e-06   -1.1404198892560083e-05
-2.03767766148264e-05   1.1731604163881914e-06   -1.1404198892560083e-05
-9.194837352241379e-06   3.8974871722867715e-07   -2.9570717310706194e-05
-9.194837352241379e-06   3.8974871722867715e-07   -2.9570717310706194e-05
-9.194837352241379e-06   3.8974871722867715e-07   -2.9570717310706194e-05
-9.194837352241379e-06   3.8974871722867715e-07   -2.9570717310706194e-05
-2.03767766148264e-05   7.751212053532544e-07   -4.8392115091865854e-05
-2.03767766148264e-05   7.751212053532544e-07   -4.8392115091865854e-05
-2.03767766148264e-05   7.751212053532544e-07   -4.8392115091865854e-05
-2.03767766148264e-05   7.751212053532544e-07   -4.8392115091865854e-05
1.815973104757e-06   1.1731604163881914e-06   -1.116537536593917e-05
1.815973104757e-06   1.1731604163881914e-06   -1.116537536593917e-05
1.815973104757e-06   1.1731604163881914e-06   -1.116537536593917e-05
1.815973104757e-06   1.1731604163881914e-06   -1.116537536593917e-05
1.6956100947135413e-06   1.8047363948719183e-06   -4.825336287458654e-05
1.6956100947135413e-06   1.8047363948719183e-06   -4.825336287458654e-05
1.6956100947135413e-06   1.8047363948719183e-06   -4.825336287458654e-05
1.6956100947135413e-06   1.8047363948719183e-06   -4.825336287458654e-05
-2.052430624477214e-05   2.4219750018675008e-06   -1.1590512139641096e-05
-2.052430624477214e-05   2.4219750018675008e-06   -1.1590512139641096e-05
-2.052430624477214e-05   2.4219750018675008e-06   -1.1590512139641096e-05
-2.052430624477214e-05   2.4219750018675008e-06   -1.1590512139641096e-05
-9.36473670900022e-06   1.472648561578197e-06   -2.9620198835087285e-05
-9.36473670900022e-06   1.472648561578197e-06   -2.9620198835087285e-05
-9.36473670900022e-06   1.472648561578197e-06   -2.9620198835087285e-05
-9.36473670900022e-06   1.472648561578197e-06   -2.9620198835087285e-05
-2.052430624477214e-05   1.8047363948719183e-06   -4.8623706038783866e-05
-2.052430624477214e-05   1.8047363948719183e-06   -4.8623706038783866e-05
-2.052430624477214e-05   1.8047363948719183e-06   -4.8623706038783866e-05
-2.052430624477214e-05   1.8047363948719183e-06   -4.8623706038783866e-05
1.6956100947135443e-06   2.421975001867528e-06   -1.1220168975443763e-05
1.6956100947135443e-06   2.421975001867528e-06   -1.1220168975443763e-05
1.6956100947135443e-06   2.421975001867528e-06   -1.1220168975443763e-05
1.6956100947135443e-06   2.421975001867528e-06   -1.1220168975443763e-05
1.4512185198262727e-06   2.9970712224616834e-06   -4.8170634957598376e-05
1.4512185198262727e-06   2.9970712224616834e-06   -4.8170634957598376e-05
1.4512185198262727e-06   2.9970712224616834e-06   -4.8170634957598376e-05
1.4512185198262727e-06   2.9970712224616834e-06   -4.8170634957598376e-05
-2.047255050233777e-05   3.7230333957189072e-06   -1.2066597224612703e-05
-2.047255050233777e-05   3.7230333957189072e-06   -1.2066597224612703e-05
-2.047255050233777e-05   3.7230333957189072e-06   -1.2066597224612703e-05
-2.047255050233777e-05   3.7230333957189072e-06   -1.2066597224612703e-05
-9.466940138586967e-06   2.585119365527028e-06   -2.972653274608219e-05
-9.466940138586967e-06   2.585119365527028e-06   -2.972653274608219e-05
-9.466940138586967e-06   2.585119365527028e-06   -2.972653274608219e-05
-9.466940138586967e-06   2.585119365527028e-06   -2.972653274608219e-05
1.9040803651900242e-06   -3.4826429502909673e-06   -4.4184484707039536e-05
1.9040803651900242e-06   -3.4826429502909673e-06   -4.4184484707039536e-05
1.9040803651900242e-06   -3.4826429502909673e-06   -4.4184484707039536e-05
1.9040803651900242e-06   -3.4826429502909673e-06   -4.4184484707039536e-05
2.4376758342128044e-05   -3.580325526752868e-06   -6.788630958019993e-06
2.4376758342128044e-05   -3.580325526752868e-06   -6.788630958019993e-06
2.4376758342128044e-05   -3.580325526752868e-06   -6.788630958019993e-06
2.4376758342128044e-05   -3.580325526752868e-06   -6.788630958019993e-06
2.457852853359583e-05   -2.62439960141784e-06   -4.479784481212838e-05
2.457852853359583e-05   -2.62439960141784e-06   -4.479784481212838e-05
2.457852853359583e-05   -2.62439960141784e-06   -4.479784481212838e-05
2.457852853359583e-05   -2.62439960141784e-06   -4.479784481212838e-05
1.815973104757e-06   -2.418646795021096e-06   -6.983704114568284e-06
1.815973104757e-06   -2.418646795021096e-06   -6.983704114568284e-06
1.815973104757e-06   -2.418646795021096e-06   -6.983704114568284e-06
1.815973104757e-06   -2.418646795021096e-06   -6.983704114568284e-06
1.3000594334284306e-05   -2.896015488126712e-06   -2.5338318281250477e-05
1.3000594334284306e-05   -2.896015488126712e-06   -2.5338318281250477e-05
1.3000594334284306e-05   -2.896015488126712e-06   -2.5338318281250477e-05
1.3000594334284306e-05   -2.896015488126712e-06   -2.5338318281250477e-05
1.8159731047569966e-06   -2.62439960141784e-06   -4.49212964959665e-05
1.8159731047569966e-06   -2.62439960141784e-06   -4.49212964959665e-05
1.8159731047569966e-06   -2.62439960141784e-06   -4.49212964959665e-05
1.8159731047569966e-06   -2.62439960141784e-06   -4.49212964959665e-05
2.4578528533595874e-05   -2.4186467950210687e-06   -6.86025243073018e-06
2.4578528533595874e-05   -2.4186467950210687e-06   -6.86025243073018e-06
2.4578528533595874e-05   -2.4186467950210687e-06   -6.86025243073018e-06
2.4578528533595874e-05   -2.4186467950210687e-06   -6.86025243073018e-06
2.4459080374044623e-05   -1.6495605135142621e-06   -4.563512085100931e-05
2.4459080374044623e-05   -1.6495605135142621e-06   -4.563512085100931e-05
2.4459080374044623e-05   -1.6495605135142621e-06   -4.563512085100931e-05
2.4459080374044623e-05   -1.6495605135142621e-06   -4.563512085100931e-05
1.6956100947135413e-06   -1.2810066298686682e-06   -7.917136048978248e-06
1.6956100947135413e-06   -1.2810066298686682e-06   -7.917136048978248e-06
1.6956100947135413e-06   -1.2810066298686682e-06   -7.917136048978248e-06
1.6956100947135413e-06   -1.2810066298686682e-06   -7.917136048978248e-06
1.2862907677690455e-05   -1.969002959695119e-06   -2.6116500889377174e-05
1.2862907677690455e-05   -1.969002959695119e-06   -2.6116500889377174e-05
1.2862907677690455e-05   -1.969002959695119e-06   -2.6116500889377174e-05
1.2862907677690455e-05   -1.969002959695119e-06   -2.6116500889377174e-05
1.6956100947135396e-06   -1.6495605135142621e-06   -4.585625318119665e-05
1.6956100947135396e-06   -1.6495605135142621e-06   -4.585625318119665e-05
1.6956100947135396e-06   -1.6495605135142621e-06   -4.585625318119665e-05
1.6956100947135396e-06   -1.6495605135142621e-06   -4.585625318119665e-05
2.445908037404471e-05   -1.2810066298686682e-06   -7.696003718790889e-06
2.445908037404471e-05   -1.2810066298686682e-06   -7.696003718790889e-06
2.445908037404471e-05   -1.2810066298686682e-06   -7.696003718790889e-06
2.445908037404471e-05   -1.2810066298686682e-06   -7.696003718790889e-06
2.3745279737532262e-05   -3.398168986018887e-07   -4.571614220879737e-05
2.3745279737532262e-05   -3.398168986018887e-07   -4.571614220879737e-05
2.3745279737532262e-05   -3.398168986018887e-07   -4.571614220879737e-05
2.3745279737532262e-05   -3.398168986018887e-07   -4.571614220879737e-05
1.4512185198262727e-06   1.257626384463075e-07   -8.838721234849674e-06
1.4512185198262727e-06   1.257626384463075e-07   -8.838721234849674e-06
1.4512185198262727e-06   1.257626384463075e-07   -8.838721234849674e-06
1.4512185198262727e-06   1.257626384463075e-07   -8.838721234849674e-06
1.2723459239963562e-05   -8.86302684171555e-07   -2.7018549908174387e-05
1.2723459239963562e-05   -8.86302684171555e-07   -2.7018549908174387e-05
1.2723459239963562e-05   -8.86302684171555e-07   -2.7018549908174387e-05
1.2723459239963562e-05   -8.86302684171555e-07   -2.7018549908174387e-05
2.4376758342128044e-05   -8.831333522782279e-06   -2.6734503640243996e-05
2.4376758342128044e-05   -8.831333522782279e-06   -2.6734503640243996e-05
2.4376758342128044e-05   -8.831333522782279e-06   -2.6734503640243996e-05
2.4376758342128044e-05   -8.831333522782279e-06   -2.6734503640243996e-05
4.6552211015745605e-05   -6.652621116498108e-06   1.153181159288904e-05
4.6552211015745605e-05   -6.652621116498108e-06   1.153181159288904e-05
4.6552211015745605e-05   -6.652621116498108e-06   1.153181159288904e-05
4.6552211015745605e-05   -6.652621116498108e-06   1.153181159288904e-05
4.8326835891241544e-05   -7.511822180464691e-06   -3.248511092819443e-05
4.8326835891241544e-05   -7.511822180464691e-06   -3.248511092819443e-05
4.8326835891241544e-05   -7.511822180464691e-06   -3.248511092819443e-05
4.8326835891241544e-05   -7.511822180464691e-06   -3.248511092819443e-05
2.457852853359592e-05   -6.033276207237137e-06   6.208273750611838e-06
2.457852853359592e-05   -6.033276207237137e-06   6.208273750611838e-06
2.457852853359592e-05   -6.033276207237137e-06   6.208273750611838e-06
2.457852853359592e-05   -6.033276207237137e-06   6.208273750611838e-06
3.4286191707773615e-05   -7.225957789051086e-06   -9.255555923929319e-06
3.4286191707773615e-05   -7.225957789051086e-06   -9.255555923929319e-06
3.4286191707773615e-05   -7.225957789051086e-06   -9.255555923929319e-06
3.4286191707773615e-05   -7.225957789051086e-06   -9.255555923929319e-06
2.457852853359585e-05   -7.511822180464677e-06   -3.337223851213084e-05
2.457852853359585e-05   -7.511822180464677e-06   -3.337223851213084e-05
2.457852853359585e-05   -7.511822180464677e-06   -3.337223851213084e-05
2.457852853359585e-05   -7.511822180464677e-06   -3.337223851213084e-05
4.8326835891241544e-05   -6.033276207237137e-06   7.095401334548371e-06
4.8326835891241544e-05   -6.033276207237137e-06   7.095401334548371e-06
4.8326835891241544e-05   -6.033276207237137e-06   7.095401334548371e-06
4.8326835891241544e-05   -6.033276207237137e-06   7.095401334548371e-06
4.814787701439513e-05   -6.863320614545741e-06   -3.5325571354519874e-05
4.814787701439513e-05   -6.863320614545741e-06   -3.5325571354519874e-05
4.814787701439513e-05   -6.863320614545741e-06   -3.5325571354519874e-05
4.814787701439513e-05   -6.863320614545741e-06   -3.5325571354519874e-05
2.445908037404471e-05   -5.378647454886012e-06   3.264952483601622e-06
2.445908037404471e-05   -5.378647454886012e-06   3.264952483601622e-06
2.445908037404471e-05   -5.378647454886012e-06   3.264952483601622e-06
2.445908037404471e-05   -5.378647454886012e-06   3.264952483601622e-06
3.5486525502493956e-05   -6.380134123102791e-06   -1.4513230729550376e-05
3.5486525502493956e-05   -6.380134123102791e-06   -1.4513230729550376e-05
3.5486525502493956e-05   -6.380134123102791e-06   -1.4513230729550376e-05
3.5486525502493956e-05   -6.380134123102791e-06   -1.4513230729550376e-05
2.4459080374044667e-05   -6.863320614545741e-06   -3.6216375250315684e-05
2.4459080374044667e-05   -6.863320614545741e-06   -3.6216375250315684e-05
2.4459080374044667e-05   -6.863320614545741e-06   -3.6216375250315684e-05
2.4459080374044667e-05   -6.863320614545741e-06   -3.6216375250315684e-05
4.814787701439513e-05   -5.378647454886012e-06   4.155756379397446e-06
4.814787701439513e-05   -5.378647454886012e-06   4.155756379397446e-06
4.814787701439513e-05   -5.378647454886012e-06   4.155756379397446e-06
4.814787701439513e-05   -5.378647454886012e-06   4.155756379397446e-06
4.7858953639289025e-05   -5.331708408779466e-06   -4.111433982099699e-05
4.7858953639289025e-05   -5.331708408779466e-06   -4.111433982099699e-05
4.7858953639289025e-05   -5.331708408779466e-06   -4.111433982099699e-05
4.7858953639289025e-05   -5.331708408779466e-06   -4.111433982099699e-05
2.3745279737532347e-05   -3.970090911157567e-06   -1.7418538166423699e-06
2.3745279737532347e-05   -3.970090911157567e-06   -1.7418538166423699e-06
2.3745279737532347e-05   -3.970090911157567e-06   -1.7418538166423699e-06
2.3745279737532347e-05   -3.970090911157567e-06   -1.7418538166423699e-06
3.44718572170676e-05   -5.4925966827879306e-06   -1.8705979486222915e-05
3.44718572170676e-05   -5.4925966827879306e-06   -1.8705979486222915e-05
3.44718572170676e-05   -5.4925966827879306e-06   -1.8705979486222915e-05
3.44718572170676e-05   -5.4925966827879306e-06   -1.8705979486222915e-05
-5.2186754695754666e-05   7.522661766480143e-06   -3.6045099163048064e-05
-5.2186754695754666e-05   7.522661766480143e-06   -3.6045099163048064e-05
-5.2186754695754666e-05   7.522661766480143e-06   -3.6045099163048064e-05
-5.2186754695754666e-05   7.522661766480143e-06   -3.6045099163048064e-05
-3.422090207380913e-05   5.745292388467096e-06   -7.168433086613362e-06
-3.422090207380913e-05   5.745292388467096e-06   -7.168433086613362e-06
-3.422090207380913e-05   5.745292388467096e-06   -7.168433086613362e-06
-3.422090207380913e-05   5.745292388467096e-06   -7.168433086613362e-06
-3.438536784765611e-05   9.031043934157177e-06   -2.9929771476098978e-05
-3.438536784765611e-05   9.031043934157177e-06   -2.9929771476098978e-05
-3.438536784765611e-05   9.031043934157177e-06   -2.9929771476098978e-05
-3.438536784765611e-05   9.031043934157177e-06   -2.9929771476098978e-05
-5.1393145251855087e-05   6.951663086679743e-06   -3.358472939474764e-07
-5.1393145251855087e-05   6.951663086679743e-06   -3.358472939474764e-07
-5.1393145251855087e-05   6.951663086679743e-06   -3.358472939474764e-07
-5.1393145251855087e-05   6.951663086679743e-06   -3.358472939474764e-07
-4.122586621779676e-05   7.650195217474398e-06   -1.7700431629188307e-05
-4.122586621779676e-05   7.650195217474398e-06   -1.7700431629188307e-05
-4.122586621779676e-05   7.650195217474398e-06   -1.7700431629188307e-05
-4.122586621779676e-05   7.650195217474398e-06   -1.7700431629188307e-05
-5.1393145251855087e-05   9.031043934157177e-06   -2.8682142967612474e-05
-5.1393145251855087e-05   9.031043934157177e-06   -2.8682142967612474e-05
-5.1393145251855087e-05   9.031043934157177e-06   -2.8682142967612474e-05
-5.1393145251855087e-05   9.031043934157177e-06   -2.8682142967612474e-05
-3.438536784765611e-05   6.951663086679689e-06   -1.5834758024338717e-06
-3.438536784765611e-05   6.951663086679689e-06   -1.5834758024338717e-06
-3.438536784765611e-05   6.951663086679689e-06   -1.5834758024338717e-06
-3.438536784765611e-05   6.951663086679689e-06   -1.5834758024338717e-06
-3.434950064201898e-05   9.711900971845852e-06   -2.5606340815693116e-05
-3.434950064201898e-05   9.711900971845852e-06   -2.5606340815693116e-05
-3.434950064201898e-05   9.711900971845852e-06   -2.5606340815693116e-05
-3.434950064201898e-05   9.711900971845852e-06   -2.5606340815693116e-05
-5.0620139709330476e-05   7.481957244972462e-06   2.849357199283362e-06
-5.0620139709330476e-05   7.481957244972462e-06   2.849357199283362e-06
-5.0620139709330476e-05   7.481957244972462e-06   2.849357199283362e-06
-5.0620139709330476e-05   7.481957244972462e-06   2.849357199283362e-06
-4.158067723975424e-05   8.349513948537914e-06   -1.2736947605482588e-05
-4.158067723975424e-05   8.349513948537914e-06   -1.2736947605482588e-05
-4.158067723975424e-05   8.349513948537914e-06   -1.2736947605482588e-05
-4.158067723975424e-05   8.349513948537914e-06   -1.2736947605482588e-05
-5.0620139709330476e-05   9.711900971845852e-06   -2.4268374579569082e-05
-5.0620139709330476e-05   9.711900971845852e-06   -2.4268374579569082e-05
-5.0620139709330476e-05   9.711900971845852e-06   -2.4268374579569082e-05
-5.0620139709330476e-05   9.711900971845852e-06   -2.4268374579569082e-05
-3.4349500642019045e-05   7.481957244972462e-06   1.5113909631594904e-06
-3.4349500642019045e-05   7.481957244972462e-06   1.5113909631594904e-06
-3.4349500642019045e-05   7.481957244972462e-06   1.5113909631594904e-06
-3.4349500642019045e-05   7.481957244972462e-06   1.5113909631594904e-06
-3.438374624797407e-05   1.0254447128944262e-05   -1.955428159383085e-05
-3.438374624797407e-05   1.0254447128944262e-05   -1.955428159383085e-05
-3.438374624797407e-05   1.0254447128944262e-05   -1.955428159383085e-05
-3.438374624797407e-05   1.0254447128944262e-05   -1.955428159383085e-05
-4.9611533734121566e-05   8.004801392753197e-06   7.175151658129304e-06
-4.9611533734121566e-05   8.004801392753197e-06   7.175151658129304e-06
-4.9611533734121566e-05   8.004801392753197e-06   7.175151658129304e-06
-4.9611533734121566e-05   8.004801392753197e-06   7.175151658129304e-06
-4.0632325292204075e-05   8.718202409487724e-06   -8.218236355106597e-06
-4.0632325292204075e-05   8.718202409487724e-06   -8.218236355106597e-06
-4.0632325292204075e-05   8.718202409487724e-06   -8.218236355106597e-06
-4.0632325292204075e-05   8.718202409487724e-06   -8.218236355106597e-06
-3.422090207380913e-05   3.500484184035778e-06   -4.1753879665514453e-05
-3.422090207380913e-05   3.500484184035778e-06   -4.1753879665514453e-05
-3.422090207380913e-05   3.500484184035778e-06   -4.1753879665514453e-05
-3.422090207380913e-05   3.500484184035778e-06   -4.1753879665514453e-05
-1.74255981155498e-05   2.8658327219176325e-06   -1.4142497279019775e-05
-1.74255981155498e-05   2.8658327219176325e-06   -1.4142497279019775e-05
-1.74255981155498e-05   2.8658327219176325e-06   -1.4142497279019775e-05
-1.74255981155498e-05   2.8658327219176325e-06   -1.4142497279019775e-05
-1.763648685911397e-05   4.887489211655692e-06   -4.1161698198961165e-05
-1.763648685911397e-05   4.887489211655692e-06   -4.1161698198961165e-05
-1.763648685911397e-05   4.887489211655692e-06   -4.1161698198961165e-05
-1.763648685911397e-05   4.887489211655692e-06   -4.1161698198961165e-05
-3.438536784765605e-05   4.052513153470123e-06   -1.274591091647963e-05
-3.438536784765605e-05   4.052513153470123e-06   -1.274591091647963e-05
-3.438536784765605e-05   4.052513153470123e-06   -1.274591091647963e-05
-3.438536784765605e-05   4.052513153470123e-06   -1.274591091647963e-05
-2.569507407624056e-05   4.038525724915198e-06   -2.722134141170589e-05
-2.569507407624056e-05   4.038525724915198e-06   -2.722134141170589e-05
-2.569507407624056e-05   4.038525724915198e-06   -2.722134141170589e-05
-2.569507407624056e-05   4.038525724915198e-06   -2.722134141170589e-05
-3.438536784765608e-05   4.887489211655692e-06   -4.066071256404971e-05
-3.438536784765608e-05   4.887489211655692e-06   -4.066071256404971e-05
-3.438536784765608e-05   4.887489211655692e-06   -4.066071256404971e-05
-3.438536784765608e-05   4.887489211655692e-06   -4.066071256404971e-05
-1.7636486859114003e-05   4.052513153470123e-06   -1.3246896551390868e-05
-1.7636486859114003e-05   4.052513153470123e-06   -1.3246896551390868e-05
-1.7636486859114003e-05   4.052513153470123e-06   -1.3246896551390868e-05
-1.7636486859114003e-05   4.052513153470123e-06   -1.3246896551390868e-05
-1.777298255921096e-05   6.035812675100628e-06   -4.0072572873881517e-05
-1.777298255921096e-05   6.035812675100628e-06   -4.0072572873881517e-05
-1.777298255921096e-05   6.035812675100628e-06   -4.0072572873881517e-05
-1.777298255921096e-05   6.035812675100628e-06   -4.0072572873881517e-05
-3.434950064201898e-05   5.1071183839323945e-06   -1.1887826161167476e-05
-3.434950064201898e-05   5.1071183839323945e-06   -1.1887826161167476e-05
-3.434950064201898e-05   5.1071183839323945e-06   -1.1887826161167476e-05
-3.434950064201898e-05   5.1071183839323945e-06   -1.1887826161167476e-05
-2.5741951814911728e-05   5.015035717069146e-06   -2.617849127289444e-05
-2.5741951814911728e-05   5.015035717069146e-06   -2.617849127289444e-05
-2.5741951814911728e-05   5.015035717069146e-06   -2.617849127289444e-05
-2.5741951814911728e-05   5.015035717069146e-06   -2.617849127289444e-05
-3.434950064201898e-05   6.035812675100628e-06   -3.951535629918065e-05
-3.434950064201898e-05   6.035812675100628e-06   -3.951535629918065e-05
-3.434950064201898e-05   6.035812675100628e-06   -3.951535629918065e-05
-3.434950064201898e-05   6.035812675100628e-06   -3.951535629918065e-05
-1.7772982559211014e-05   5.1071183839323945e-06   -1.2445042735868237e-05
-1.7772982559211014e-05   5.1071183839323945e-06   -1.2445042735868237e-05
-1.7772982559211014e-05   5.1071183839323945e-06   -1.2445042735868237e-05
-1.7772982559211014e-05   5.1071183839323945e-06   -1.2445042735868237e-05
-1.794988764858138e-05   7.271575849798176e-06   -3.997606426548773e-05
-1.794988764858138e-05   7.271575849798176e-06   -3.997606426548773e-05
-1.794988764858138e-05   7.271575849798176e-06   -3.997606426548773e-05
-1.794988764858138e-05   7.271575849798176e-06   -3.997606426548773e-05
-3.4383746247974045e-05   6.229313557985956e-06   -1.196094255807929e-05
-3.4383746247974045e-05   6.229313557985956e-06   -1.196094255807929e-05
-3.4383746247974045e-05   6.229313557985956e-06   -1.196094255807929e-05
-3.4383746247974045e-05   6.229313557985956e-06   -1.196094255807929e-05
-2.6046299402776546e-05   5.982563339072572e-06   -2.5708637168726748e-05
-2.6046299402776546e-05   5.982563339072572e-06   -2.5708637168726748e-05
-2.6046299402776546e-05   5.982563339072572e-06   -2.5708637168726748e-05
-2.6046299402776546e-05   5.982563339072572e-06   -2.5708637168726748e-05
-1.7425598115549767e-05   -1.0488253995451203e-07   -4.501385419001605e-05
-1.7425598115549767e-05   -1.0488253995451203e-07   -4.501385419001605e-05
-1.7425598115549767e-05   -1.0488253995451203e-07   -4.501385419001605e-05
-1.7425598115549767e-05   -1.0488253995451203e-07   -4.501385419001605e-05
-8.173670624274706e-07   1.5278380578834802e-07   -1.7178869294033123e-05
-8.173670624274706e-07   1.5278380578834802e-07   -1.7178869294033123e-05
-8.173670624274706e-07   1.5278380578834802e-07   -1.7178869294033123e-05
-8.173670624274706e-07   1.5278380578834802e-07   -1.7178869294033123e-05
-9.864814028476444e-07   1.1731604163881914e-06   -4.459241757556265e-05
-9.864814028476444e-07   1.1731604163881914e-06   -4.459241757556265e-05
-9.864814028476444e-07   1.1731604163881914e-06   -4.459241757556265e-05
-9.864814028476444e-07   1.1731604163881914e-06   -4.459241757556265e-05
-1.763648685911397e-05   1.3212098543488333e-06   -1.693123814456191e-05
-1.763648685911397e-05   1.3212098543488333e-06   -1.693123814456191e-05
-1.763648685911397e-05   1.3212098543488333e-06   -1.693123814456191e-05
-1.763648685911397e-05   1.3212098543488333e-06   -1.693123814456191e-05
-9.164528986621897e-06   7.70028415325683e-07   -3.0720459068634795e-05
-9.164528986621897e-06   7.70028415325683e-07   -3.0720459068634795e-05
-9.164528986621897e-06   7.70028415325683e-07   -3.0720459068634795e-05
-9.164528986621897e-06   7.70028415325683e-07   -3.0720459068634795e-05
-1.763648685911397e-05   1.1731604163881914e-06   -4.4681247238339124e-05
-1.763648685911397e-05   1.1731604163881914e-06   -4.4681247238339124e-05
-1.763648685911397e-05   1.1731604163881914e-06   -4.4681247238339124e-05
-1.763648685911397e-05   1.1731604163881914e-06   -4.4681247238339124e-05
-9.86481402847647e-07   1.3212098543488875e-06   -1.6842408481785383e-05
-9.86481402847647e-07   1.3212098543488875e-06   -1.6842408481785383e-05
-9.86481402847647e-07   1.3212098543488875e-06   -1.6842408481785383e-05
-9.86481402847647e-07   1.3212098543488875e-06   -1.6842408481785383e-05
-1.1084171304365476e-06   2.4219750018675008e-06   -4.471290724411629e-05
-1.1084171304365476e-06   2.4219750018675008e-06   -4.471290724411629e-05
-1.1084171304365476e-06   2.4219750018675008e-06   -4.471290724411629e-05
-1.1084171304365476e-06   2.4219750018675008e-06   -4.471290724411629e-05
-1.7772982559210987e-05   2.4861857144085897e-06   -1.6977157957017038e-05
-1.7772982559210987e-05   2.4861857144085897e-06   -1.6977157957017038e-05
-1.7772982559210987e-05   2.4861857144085897e-06   -1.6977157957017038e-05
-1.7772982559210987e-05   2.4861857144085897e-06   -1.6977157957017038e-05
-9.383022133767907e-06   1.8005458681821882e-06   -3.0549041425019375e-05
-9.383022133767907e-06   1.8005458681821882e-06   -3.0549041425019375e-05
-9.383022133767907e-06   1.8005458681821882e-06   -3.0549041425019375e-05
-9.383022133767907e-06   1.8005458681821882e-06   -3.0549041425019375e-05
-1.7772982559210987e-05   2.421975001867528e-06   -4.475143367164099e-05
-1.7772982559210987e-05   2.421975001867528e-06   -4.475143367164099e-05
-1.7772982559210987e-05   2.421975001867528e-06   -4.475143367164099e-05
-1.7772982559210987e-05   2.421975001867528e-06   -4.475143367164099e-05
-1.1084171304365493e-06   2.4861857144085897e-06   -1.69386315294922e-05
-1.1084171304365493e-06   2.4861857144085897e-06   -1.69386315294922e-05
-1.1084171304365493e-06   2.4861857144085897e-06   -1.69386315294922e-05
-1.1084171304365493e-06   2.4861857144085897e-06   -1.69386315294922e-05
-1.3004347186404986e-06   3.7230333957189072e-06   -4.528803535673405e-05
-1.3004347186404986e-06   3.7230333957189072e-06   -4.528803535673405e-05
-1.3004347186404986e-06   3.7230333957189072e-06   -4.528803535673405e-05
-1.3004347186404986e-06   3.7230333957189072e-06   -4.528803535673405e-05
-1.794988764858136e-05   3.678208891565193e-06   -1.7512052437673918e-05
-1.794988764858136e-05   3.678208891565193e-06   -1.7512052437673918e-05
-1.794988764858136e-05   3.678208891565193e-06   -1.7512052437673918e-05
-1.794988764858136e-05   3.678208891565193e-06   -1.7512052437673918e-05
-9.615178573700596e-06   2.843308168923688e-06   -3.090229379555673e-05
-9.615178573700596e-06   2.843308168923688e-06   -3.090229379555673e-05
-9.615178573700596e-06   2.843308168923688e-06   -3.090229379555673e-05
-9.615178573700596e-06   2.843308168923688e-06   -3.090229379555673e-05
-8.173670624274723e-07   -3.5803255267528953e-06   -4.021997592541603e-05
-8.173670624274723e-07   -3.5803255267528953e-06   -4.021997592541603e-05
-8.173670624274723e-07   -3.5803255267528953e-06   -4.021997592541603e-05
-8.173670624274723e-07   -3.5803255267528953e-06   -4.021997592541603e-05
1.570520677301978e-05   -2.3988715372843714e-06   -1.1973480472656211e-05
1.570520677301978e-05   -2.3988715372843714e-06   -1.1973480472656211e-05
1.570520677301978e-05   -2.3988715372843714e-06   -1.1973480472656211e-05
1.570520677301978e-05   -2.3988715372843714e-06   -1.1973480472656211e-05
1.5693909895806934e-05   -2.418646795021096e-06   -3.975600408253428e-05
1.5693909895806934e-05   -2.418646795021096e-06   -3.975600408253428e-05
1.5693909895806934e-05   -2.418646795021096e-06   -3.975600408253428e-05
1.5693909895806934e-05   -2.418646795021096e-06   -3.975600408253428e-05
-9.86481402847647e-07   -1.3274097255916938e-06   -1.2610094159767565e-05
-9.86481402847647e-07   -1.3274097255916938e-06   -1.2610094159767565e-05
-9.86481402847647e-07   -1.3274097255916938e-06   -1.2610094159767565e-05
-9.86481402847647e-07   -1.3274097255916938e-06   -1.2610094159767565e-05
7.342500027531502e-06   -2.346811321934895e-06   -2.588008891926025e-05
7.342500027531502e-06   -2.346811321934895e-06   -2.588008891926025e-05
7.342500027531502e-06   -2.346811321934895e-06   -2.588008891926025e-05
7.342500027531502e-06   -2.346811321934895e-06   -2.588008891926025e-05
-9.86481402847647e-07   -2.4186467950210687e-06   -4.041074632419179e-05
-9.86481402847647e-07   -2.4186467950210687e-06   -4.041074632419179e-05
-9.86481402847647e-07   -2.4186467950210687e-06   -4.041074632419179e-05
-9.86481402847647e-07   -2.4186467950210687e-06   -4.041074632419179e-05
1.5693909895806934e-05   -1.3274097255916938e-06   -1.1955351918109904e-05
1.5693909895806934e-05   -1.3274097255916938e-06   -1.1955351918109904e-05
1.5693909895806934e-05   -1.3274097255916938e-06   -1.1955351918109904e-05
1.5693909895806934e-05   -1.3274097255916938e-06   -1.1955351918109904e-05
1.5769290745408168e-05   -1.2810066298686682e-06   -4.080623928575454e-05
1.5769290745408168e-05   -1.2810066298686682e-06   -4.080623928575454e-05
1.5769290745408168e-05   -1.2810066298686682e-06   -4.080623928575454e-05
1.5769290745408168e-05   -1.2810066298686682e-06   -4.080623928575454e-05
-1.108417130436551e-06   -2.7494824337469465e-07   -1.3280361191243159e-05
-1.108417130436551e-06   -2.7494824337469465e-07   -1.3280361191243159e-05
-1.108417130436551e-06   -2.7494824337469465e-07   -1.3280361191243159e-05
-1.108417130436551e-06   -2.7494824337469465e-07   -1.3280361191243159e-05
7.117243034815991e-06   -1.4178440791239011e-06   -2.6304057298547686e-05
7.117243034815991e-06   -1.4178440791239011e-06   -2.6304057298547686e-05
7.117243034815991e-06   -1.4178440791239011e-06   -2.6304057298547686e-05
7.117243034815991e-06   -1.4178440791239011e-06   -2.6304057298547686e-05
-1.1084171304365484e-06   -1.2810066298686682e-06   -4.140987431765076e-05
-1.1084171304365484e-06   -1.2810066298686682e-06   -4.140987431765076e-05
-1.1084171304365484e-06   -1.2810066298686682e-06   -4.140987431765076e-05
-1.1084171304365484e-06   -1.2810066298686682e-06   -4.140987431765076e-05
1.5769290745408168e-05   -2.7494824337474886e-07   -1.267672615934656e-05
1.5769290745408168e-05   -2.7494824337474886e-07   -1.267672615934656e-05
1.5769290745408168e-05   -2.7494824337474886e-07   -1.267672615934656e-05
1.5769290745408168e-05   -2.7494824337474886e-07   -1.267672615934656e-05
1.5649089185654134e-05   1.257626384462804e-07   -4.199806687179276e-05
1.5649089185654134e-05   1.257626384462804e-07   -4.199806687179276e-05
1.5649089185654134e-05   1.257626384462804e-07   -4.199806687179276e-05
1.5649089185654134e-05   1.257626384462804e-07   -4.199806687179276e-05
-1.3004347186405011e-06   9.55212303667722e-07   -1.4246530163767944e-05
-1.3004347186405011e-06   9.55212303667722e-07   -1.4246530163767944e-05
-1.3004347186405011e-06   9.55212303667722e-07   -1.4246530163767944e-05
-1.3004347186405011e-06   9.55212303667722e-07   -1.4246530163767944e-05
7.038645820636861e-06   -4.2419854924053346e-07   -2.7317351217485023e-05
7.038645820636861e-06   -4.2419854924053346e-07   -2.7317351217485023e-05
7.038645820636861e-06   -4.2419854924053346e-07   -2.7317351217485023e-05
7.038645820636861e-06   -4.2419854924053346e-07   -2.7317351217485023e-05
1.5705206773019754e-05   -6.652621116498108e-06   -2.2497888424596407e-05
1.5705206773019754e-05   -6.652621116498108e-06   -2.2497888424596407e-05
1.5705206773019754e-05   -6.652621116498108e-06   -2.2497888424596407e-05
1.5705206773019754e-05   -6.652621116498108e-06   -2.2497888424596407e-05
3.116877759954484e-05   -4.347846621528286e-06   4.6575943165940185e-06
3.116877759954484e-05   -4.347846621528286e-06   4.6575943165940185e-06
3.116877759954484e-05   -4.347846621528286e-06   4.6575943165940185e-06
3.116877759954484e-05   -4.347846621528286e-06   4.6575943165940185e-06
3.222322289036722e-05   -6.03327620723711e-06   -2.530532493871053e-05
3.222322289036722e-05   -6.03327620723711e-06   -2.530532493871053e-05
3.222322289036722e-05   -6.03327620723711e-06   -2.530532493871053e-05
3.222322289036722e-05   -6.03327620723711e-06   -2.530532493871053e-05
1.5693909895806907e-05   -3.7296879364344393e-06   8.61377089741774e-07
1.5693909895806907e-05   -3.7296879364344393e-06   8.61377089741774e-07
1.5693909895806907e-05   -3.7296879364344393e-06   8.61377089741774e-07
1.5693909895806907e-05   -3.7296879364344393e-06   8.61377089741774e-07
2.268503676479633e-05   -5.129206682248449e-06   -9.950789777752255e-06
2.268503676479633e-05   -5.129206682248449e-06   -9.950789777752255e-06
2.268503676479633e-05   -5.129206682248449e-06   -9.950789777752255e-06
2.268503676479633e-05   -5.129206682248449e-06   -9.950789777752255e-06
1.56939098958069e-05   -6.033276207237137e-06   -2.6687477901192073e-05
1.56939098958069e-05   -6.033276207237137e-06   -2.6687477901192073e-05
1.56939098958069e-05   -6.033276207237137e-06   -2.6687477901192073e-05
1.56939098958069e-05   -6.033276207237137e-06   -2.6687477901192073e-05
3.222322289036722e-05   -3.7296879364344393e-06   2.2435300522234388e-06
3.222322289036722e-05   -3.7296879364344393e-06   2.2435300522234388e-06
3.222322289036722e-05   -3.7296879364344393e-06   2.2435300522234388e-06
3.222322289036722e-05   -3.7296879364344393e-06   2.2435300522234388e-06
3.303440325529322e-05   -5.378647454886012e-06   -2.8538313382993075e-05
3.303440325529322e-05   -5.378647454886012e-06   -2.8538313382993075e-05
3.303440325529322e-05   -5.378647454886012e-06   -2.8538313382993075e-05
3.303440325529322e-05   -5.378647454886012e-06   -2.8538313382993075e-05
1.5769290745408107e-05   -3.200364620937904e-06   -1.070095566886898e-06
1.5769290745408107e-05   -3.200364620937904e-06   -1.070095566886898e-06
1.5769290745408107e-05   -3.200364620937904e-06   -1.070095566886898e-06
1.5769290745408107e-05   -3.200364620937904e-06   -1.070095566886898e-06
2.3457723945400886e-05   -4.730456315481268e-06   -1.2966095883482033e-05
2.3457723945400886e-05   -4.730456315481268e-06   -1.2966095883482033e-05
2.3457723945400886e-05   -4.730456315481268e-06   -1.2966095883482033e-05
2.3457723945400886e-05   -4.730456315481268e-06   -1.2966095883482033e-05
1.5769290745408134e-05   -5.378647454886012e-06   -2.9845283083361978e-05
1.5769290745408134e-05   -5.378647454886012e-06   -2.9845283083361978e-05
1.5769290745408134e-05   -5.378647454886012e-06   -2.9845283083361978e-05
1.5769290745408134e-05   -5.378647454886012e-06   -2.9845283083361978e-05
3.303440325529317e-05   -3.2003646209379584e-06   2.3687413348215348e-07
3.303440325529317e-05   -3.2003646209379584e-06   2.3687413348215348e-07
3.303440325529317e-05   -3.2003646209379584e-06   2.3687413348215348e-07
3.303440325529317e-05   -3.2003646209379584e-06   2.3687413348215348e-07
3.3899440230416664e-05   -3.970090911157567e-06   -3.404068951822506e-05
3.3899440230416664e-05   -3.970090911157567e-06   -3.404068951822506e-05
3.3899440230416664e-05   -3.970090911157567e-06   -3.404068951822506e-05
3.3899440230416664e-05   -3.970090911157567e-06   -3.404068951822506e-05
1.564908918565408e-05   -2.0703281485089206e-06   -4.763295434543442e-06
1.564908918565408e-05   -2.0703281485089206e-06   -4.763295434543442e-06
1.564908918565408e-05   -2.0703281485089206e-06   -4.763295434543442e-06
1.564908918565408e-05   -2.0703281485089206e-06   -4.763295434543442e-06
2.3359644329016263e-05   -4.074093548473779e-06   -1.641196143350131e-05
2.3359644329016263e-05   -4.074093548473779e-06   -1.641196143350131e-05
2.3359644329016263e-05   -4.074093548473779e-06   -1.641196143350131e-05
2.3359644329016263e-05   -4.074093548473779e-06   -1.641196143350131e-05
-3.747384069807818e-05   5.745292388467096e-06   -2.852835855253992e-05
-3.747384069807818e-05   5.745292388467096e-06   -2.852835855253992e-05
-3.747384069807818e-05   5.745292388467096e-06   -2.852835855253992e-05
-3.747384069807818e-05   5.745292388467096e-06   -2.852835855253992e-05
-2.5527062245115544e-05   3.652075703355082e-06   -9.872991142002743e-06
-2.5527062245115544e-05   3.652075703355082e-06   -9.872991142002743e-06
-2.5527062245115544e-05   3.652075703355082e-06   -9.872991142002743e-06
-2.5527062245115544e-05   3.652075703355082e-06   -9.872991142002743e-06
-2.543392121398297e-05   6.951663086679743e-06   -2.4236556516393152e-05
-2.543392121398297e-05   6.951663086679743e-06   -2.4236556516393152e-05
-2.543392121398297e-05   6.951663086679743e-06   -2.4236556516393152e-05
-2.543392121398297e-05   6.951663086679743e-06   -2.4236556516393152e-05
-3.635032337489578e-05   4.650013582769056e-06   -4.661563212525379e-06
-3.635032337489578e-05   4.650013582769056e-06   -4.661563212525379e-06
-3.635032337489578e-05   4.650013582769056e-06   -4.661563212525379e-06
-3.635032337489578e-05   4.650013582769056e-06   -4.661563212525379e-06
-2.9872723510995162e-05   5.532875420375121e-06   -1.59872800882567e-05
-2.9872723510995162e-05   5.532875420375121e-06   -1.59872800882567e-05
-2.9872723510995162e-05   5.532875420375121e-06   -1.59872800882567e-05
-2.9872723510995162e-05   5.532875420375121e-06   -1.59872800882567e-05
-3.635032337489578e-05   6.951663086679743e-06   -2.285556681404672e-05
-3.635032337489578e-05   6.951663086679743e-06   -2.285556681404672e-05
-3.635032337489578e-05   6.951663086679743e-06   -2.285556681404672e-05
-3.635032337489578e-05   6.951663086679743e-06   -2.285556681404672e-05
-2.5433921213982997e-05   4.650013582769056e-06   -6.042552914871868e-06
-2.5433921213982997e-05   4.650013582769056e-06   -6.042552914871868e-06
-2.5433921213982997e-05   4.650013582769056e-06   -6.042552914871868e-06
-2.5433921213982997e-05   4.650013582769056e-06   -6.042552914871868e-06
-2.524088685575002e-05   7.481957244972462e-06   -2.1134383339620048e-05
-2.524088685575002e-05   7.481957244972462e-06   -2.1134383339620048e-05
-2.524088685575002e-05   7.481957244972462e-06   -2.1134383339620048e-05
-2.524088685575002e-05   7.481957244972462e-06   -2.1134383339620048e-05
-3.551094300599807e-05   5.115386373707098e-06   -2.597680566447506e-06
-3.551094300599807e-05   5.115386373707098e-06   -2.597680566447506e-06
-3.551094300599807e-05   5.115386373707098e-06   -2.597680566447506e-06
-3.551094300599807e-05   5.115386373707098e-06   -2.597680566447506e-06
-2.9873528576583887e-05   6.089806009128718e-06   -1.2578023063390892e-05
-2.9873528576583887e-05   6.089806009128718e-06   -1.2578023063390892e-05
-2.9873528576583887e-05   6.089806009128718e-06   -1.2578023063390892e-05
-2.9873528576583887e-05   6.089806009128718e-06   -1.2578023063390892e-05
-3.551094300599807e-05   7.481957244972462e-06   -1.9714440816860873e-05
-3.551094300599807e-05   7.481957244972462e-06   -1.9714440816860873e-05
-3.551094300599807e-05   7.481957244972462e-06   -1.9714440816860873e-05
-3.551094300599807e-05   7.481957244972462e-06   -1.9714440816860873e-05
-2.5240886855750074e-05   5.115386373707098e-06   -4.017623089206572e-06
-2.5240886855750074e-05   5.115386373707098e-06   -4.017623089206572e-06
-2.5240886855750074e-05   5.115386373707098e-06   -4.017623089206572e-06
-2.5240886855750074e-05   5.115386373707098e-06   -4.017623089206572e-06
-2.5163927431260942e-05   8.004801392753197e-06   -1.6841691847185522e-05
-2.5163927431260942e-05   8.004801392753197e-06   -1.6841691847185522e-05
-2.5163927431260942e-05   8.004801392753197e-06   -1.6841691847185522e-05
-2.5163927431260942e-05   8.004801392753197e-06   -1.6841691847185522e-05
-3.441324030600227e-05   5.701211357011745e-06   -4.401636783838781e-08
-3.441324030600227e-05   5.701211357011745e-06   -4.401636783838781e-08
-3.441324030600227e-05   5.701211357011745e-06   -4.401636783838781e-08
-3.441324030600227e-05   5.701211357011745e-06   -4.401636783838781e-08
-2.8989243322763363e-05   6.392359305075197e-06   -9.498700108741308e-06
-2.8989243322763363e-05   6.392359305075197e-06   -9.498700108741308e-06
-2.8989243322763363e-05   6.392359305075197e-06   -9.498700108741308e-06
-2.8989243322763363e-05   6.392359305075197e-06   -9.498700108741308e-06
-2.5527062245115517e-05   2.8658327219176325e-06   -3.6377561878742624e-05
-2.5527062245115517e-05   2.8658327219176325e-06   -3.6377561878742624e-05
-2.5527062245115517e-05   2.8658327219176325e-06   -3.6377561878742624e-05
-2.5527062245115517e-05   2.8658327219176325e-06   -3.6377561878742624e-05
-1.4694912779073807e-05   1.8899969625821864e-06   -1.8909480890941005e-05
-1.4694912779073807e-05   1.8899969625821864e-06   -1.8909480890941005e-05
-1.4694912779073807e-05   1.8899969625821864e-06   -1.8909480890941005e-05
-1.4694912779073807e-05   1.8899969625821864e-06   -1.8909480890941005e-05
-1.4702159557884045e-05   4.052513153470123e-06   -3.60642025178993e-05
-1.4702159557884045e-05   4.052513153470123e-06   -3.60642025178993e-05
-1.4702159557884045e-05   4.052513153470123e-06   -3.60642025178993e-05
-1.4702159557884045e-05   4.052513153470123e-06   -3.60642025178993e-05
-2.543392121398297e-05   2.943828341036214e-06   -1.751272220360721e-05
-2.543392121398297e-05   2.943828341036214e-06   -1.751272220360721e-05
-2.543392121398297e-05   2.943828341036214e-06   -1.751272220360721e-05
-2.543392121398297e-05   2.943828341036214e-06   -1.751272220360721e-05
-1.990420199613742e-05   3.1358365568346855e-06   -2.6844125829495602e-05
-1.990420199613742e-05   3.1358365568346855e-06   -2.6844125829495602e-05
-1.990420199613742e-05   3.1358365568346855e-06   -2.6844125829495602e-05
-1.990420199613742e-05   3.1358365568346855e-06   -2.6844125829495602e-05
-2.5433921213982943e-05   4.052513153470123e-06   -3.539899163043864e-05
-2.5433921213982943e-05   4.052513153470123e-06   -3.539899163043864e-05
-2.5433921213982943e-05   4.052513153470123e-06   -3.539899163043864e-05
-2.5433921213982943e-05   4.052513153470123e-06   -3.539899163043864e-05
-1.4702159557884045e-05   2.943828341036214e-06   -1.81779330910676e-05
-1.4702159557884045e-05   2.943828341036214e-06   -1.81779330910676e-05
-1.4702159557884045e-05   2.943828341036214e-06   -1.81779330910676e-05
-1.4702159557884045e-05   2.943828341036214e-06   -1.81779330910676e-05
-1.4691435363490117e-05   5.1071183839323945e-06   -3.525598046996063e-05
-1.4691435363490117e-05   5.1071183839323945e-06   -3.525598046996063e-05
-1.4691435363490117e-05   5.1071183839323945e-06   -3.525598046996063e-05
-1.4691435363490117e-05   5.1071183839323945e-06   -3.525598046996063e-05
-2.524088685575002e-05   3.903151707242885e-06   -1.695118131018027e-05
-2.524088685575002e-05   3.903151707242885e-06   -1.695118131018027e-05
-2.524088685575002e-05   3.903151707242885e-06   -1.695118131018027e-05
-2.524088685575002e-05   3.903151707242885e-06   -1.695118131018027e-05
-1.9811636353081788e-05   4.001653025614382e-06   -2.6059032938983398e-05
-1.9811636353081788e-05   4.001653025614382e-06   -2.6059032938983398e-05
-1.9811636353081788e-05   4.001653025614382e-06   -2.6059032938983398e-05
-1.9811636353081788e-05   4.001653025614382e-06   -2.6059032938983398e-05
-2.524088685575002e-05   5.1071183839323945e-06   -3.45336004639468e-05
-2.524088685575002e-05   5.1071183839323945e-06   -3.45336004639468e-05
-2.524088685575002e-05   5.1071183839323945e-06   -3.45336004639468e-05
-2.524088685575002e-05   5.1071183839323945e-06   -3.45336004639468e-05
-1.4691435363490137e-05   3.903151707242776e-06   -1.7673561316193997e-05
-1.4691435363490137e-05   3.903151707242776e-06   -1.7673561316193997e-05
-1.4691435363490137e-05   3.903151707242776e-06   -1.7673561316193997e-05
-1.4691435363490137e-05   3.903151707242776e-06   -1.7673561316193997e-05
-1.4703404965153931e-05   6.229313557985956e-06   -3.539822772737479e-05
-1.4703404965153931e-05   6.229313557985956e-06   -3.539822772737479e-05
-1.4703404965153931e-05   6.229313557985956e-06   -3.539822772737479e-05
-1.4703404965153931e-05   6.229313557985956e-06   -3.539822772737479e-05
-2.5163927431260942e-05   4.945598381827176e-06   -1.7193794511501006e-05
-2.5163927431260942e-05   4.945598381827176e-06   -1.7193794511501006e-05
-2.5163927431260942e-05   4.945598381827176e-06   -1.7193794511501006e-05
-2.5163927431260942e-05   4.945598381827176e-06   -1.7193794511501006e-05
-1.9940080909635978e-05   4.858623804724835e-06   -2.584802063461454e-05
-1.9940080909635978e-05   4.858623804724835e-06   -2.584802063461454e-05
-1.9940080909635978e-05   4.858623804724835e-06   -2.584802063461454e-05
-1.9940080909635978e-05   4.858623804724835e-06   -2.584802063461454e-05
-1.4694912779073773e-05   1.5278380578834802e-07   -4.015403515680296e-05
-1.4694912779073773e-05   1.5278380578834802e-07   -4.015403515680296e-05
-1.4694912779073773e-05   1.5278380578834802e-07   -4.015403515680296e-05
-1.4694912779073773e-05   1.5278380578834802e-07   -4.015403515680296e-05
-4.011562768596853e-06   3.2655182585490487e-07   -2.224419099396824e-05
-4.011562768596853e-06   3.2655182585490487e-07   -2.224419099396824e-05
-4.011562768596853e-06   3.2655182585490487e-07   -2.224419099396824e-05
-4.011562768596853e-06   3.2655182585490487e-07   -2.224419099396824e-05
-4.019362172255826e-06   1.3212098543488333e-06   -3.9709353587017815e-05
-4.019362172255826e-06   1.3212098543488333e-06   -3.9709353587017815e-05
-4.019362172255826e-06   1.3212098543488333e-06   -3.9709353587017815e-05
-4.019362172255826e-06   1.3212098543488333e-06   -3.9709353587017815e-05
-1.4702159557884011e-05   1.3865273944358792e-06   -2.1943881801689762e-05
-1.4702159557884011e-05   1.3865273944358792e-06   -2.1943881801689762e-05
-1.4702159557884011e-05   1.3865273944358792e-06   -2.1943881801689762e-05
-1.4702159557884011e-05   1.3865273944358792e-06   -2.1943881801689762e-05
-9.294739501515976e-06   9.342370989205359e-07   -3.068487438499394e-05
-9.294739501515976e-06   9.342370989205359e-07   -3.068487438499394e-05
-9.294739501515976e-06   9.342370989205359e-07   -3.068487438499394e-05
-9.294739501515976e-06   9.342370989205359e-07   -3.068487438499394e-05
-1.4702159557884011e-05   1.3212098543488333e-06   -3.974854411107004e-05
-1.4702159557884011e-05   1.3212098543488333e-06   -3.974854411107004e-05
-1.4702159557884011e-05   1.3212098543488333e-06   -3.974854411107004e-05
-1.4702159557884011e-05   1.3212098543488333e-06   -3.974854411107004e-05
-4.019362172255826e-06   1.3865273944358792e-06   -2.1904691277637508e-05
-4.019362172255826e-06   1.3865273944358792e-06   -2.1904691277637508e-05
-4.019362172255826e-06   1.3865273944358792e-06   -2.1904691277637508e-05
-4.019362172255826e-06   1.3865273944358792e-06   -2.1904691277637508e-05
-4.005403813454383e-06   2.4861857144085897e-06   -3.9809868160261966e-05
-4.005403813454383e-06   2.4861857144085897e-06   -3.9809868160261966e-05
-4.005403813454383e-06   2.4861857144085897e-06   -3.9809868160261966e-05
-4.005403813454383e-06   2.4861857144085897e-06   -3.9809868160261966e-05
-1.4691435363490117e-05   2.4498982658204124e-06   -2.197804310771629e-05
-1.4691435363490117e-05   2.4498982658204124e-06   -2.197804310771629e-05
-1.4691435363490117e-05   2.4498982658204124e-06   -2.197804310771629e-05
-1.4691435363490117e-05   2.4498982658204124e-06   -2.197804310771629e-05
-9.35707183840779e-06   1.8617337232148092e-06   -3.0515750257290134e-05
-9.35707183840779e-06   1.8617337232148092e-06   -3.0515750257290134e-05
-9.35707183840779e-06   1.8617337232148092e-06   -3.0515750257290134e-05
-9.35707183840779e-06   1.8617337232148092e-06   -3.0515750257290134e-05
-1.4691435363490117e-05   2.4861857144085897e-06   -3.978809569110919e-05
-1.4691435363490117e-05   2.4861857144085897e-06   -3.978809569110919e-05
-1.4691435363490117e-05   2.4861857144085897e-06   -3.978809569110919e-05
-1.4691435363490117e-05   2.4861857144085897e-06   -3.978809569110919e-05
-4.00540381345439e-06   2.4498982658204124e-06   -2.1999815576869092e-05
-4.00540381345439e-06   2.4498982658204124e-06   -2.1999815576869092e-05
-4.00540381345439e-06   2.4498982658204124e-06   -2.1999815576869092e-05
-4.00540381345439e-06   2.4498982658204124e-06   -2.1999815576869092e-05
-4.011749798852531e-06   3.678208891565247e-06   -4.041178904049892e-05
-4.011749798852531e-06   3.678208891565247e-06   -4.041178904049892e-05
-4.011749798852531e-06   3.678208891565247e-06   -4.041178904049892e-05
-4.011749798852531e-06   3.678208891565247e-06   -4.041178904049892e-05
-1.4703404965153918e-05   3.531860877204027e-06   -2.250455495471303e-05
-1.4703404965153918e-05   3.531860877204027e-06   -2.250455495471303e-05
-1.4703404965153918e-05   3.531860877204027e-06   -2.250455495471303e-05
-1.4703404965153918e-05   3.531860877204027e-06   -2.250455495471303e-05
-9.43761876536296e-06   2.801414467916777e-06   -3.084259744212565e-05
-9.43761876536296e-06   2.801414467916777e-06   -3.084259744212565e-05
-9.43761876536296e-06   2.801414467916777e-06   -3.084259744212565e-05
-9.43761876536296e-06   2.801414467916777e-06   -3.084259744212565e-05
-4.011562768596846e-06   -2.3988715372843714e-06   -3.555325791706722e-05
-4.011562768596846e-06   -2.3988715372843714e-06   -3.555325791706722e-05
-4.011562768596846e-06   -2.3988715372843714e-06   -3.555325791706722e-05
-4.011562768596846e-06   -2.3988715372843714e-06   -3.555325791706722e-05
6.513619861618872e-06   -1.1029633944232686e-06   -1.723374198099115e-05
6.513619861618872e-06   -1.1029633944232686e-06   -1.723374198099115e-05
6.513619861618872e-06   -1.1029633944232686e-06   -1.723374198099115e-05
6.513619861618872e-06   -1.1029633944232686e-06   -1.723374198099115e-05
6.5994607763029186e-06   -1.3274097255916938e-06   -3.474307941485317e-05
6.5994607763029186e-06   -1.3274097255916938e-06   -3.474307941485317e-05
6.5994607763029186e-06   -1.3274097255916938e-06   -3.474307941485317e-05
6.5994607763029186e-06   -1.3274097255916938e-06   -3.474307941485317e-05
-4.019362172255826e-06   -1.0414330868047193e-07   -1.7779001017402024e-05
-4.019362172255826e-06   -1.0414330868047193e-07   -1.7779001017402024e-05
-4.019362172255826e-06   -1.0414330868047193e-07   -1.7779001017402024e-05
-4.019362172255826e-06   -1.0414330868047193e-07   -1.7779001017402024e-05
1.2770863462984917e-06   -1.1411511641636193e-06   -2.5984210501702665e-05
1.2770863462984917e-06   -1.1411511641636193e-06   -2.5984210501702665e-05
1.2770863462984917e-06   -1.1411511641636193e-06   -2.5984210501702665e-05
1.2770863462984917e-06   -1.1411511641636193e-06   -2.5984210501702665e-05
-4.019362172255826e-06   -1.3274097255916938e-06   -3.5477039264999956e-05
-4.019362172255826e-06   -1.3274097255916938e-06   -3.5477039264999956e-05
-4.019362172255826e-06   -1.3274097255916938e-06   -3.5477039264999956e-05
-4.019362172255826e-06   -1.3274097255916938e-06   -3.5477039264999956e-05
6.599460776302946e-06   -1.0414330868047193e-07   -1.7045041167255352e-05
6.599460776302946e-06   -1.0414330868047193e-07   -1.7045041167255352e-05
6.599460776302946e-06   -1.0414330868047193e-07   -1.7045041167255352e-05
6.599460776302946e-06   -1.0414330868047193e-07   -1.7045041167255352e-05
6.802456706307396e-06   -2.7494824337474886e-07   -3.5472813012303464e-05
6.802456706307396e-06   -2.7494824337474886e-07   -3.5472813012303464e-05
6.802456706307396e-06   -2.7494824337474886e-07   -3.5472813012303464e-05
6.802456706307396e-06   -2.7494824337474886e-07   -3.5472813012303464e-05
-4.00540381345439e-06   8.563597728077164e-07   -1.8138496955743146e-05
-4.00540381345439e-06   8.563597728077164e-07   -1.8138496955743146e-05
-4.00540381345439e-06   8.563597728077164e-07   -1.8138496955743146e-05
-4.00540381345439e-06   8.563597728077164e-07   -1.8138496955743146e-05
1.216043919156597e-06   -3.101478075994953e-07   -2.61410052951839e-05
1.216043919156597e-06   -3.101478075994953e-07   -2.61410052951839e-05
1.216043919156597e-06   -3.101478075994953e-07   -2.61410052951839e-05
1.216043919156597e-06   -3.101478075994953e-07   -2.61410052951839e-05
-4.005403813454386e-06   -2.7494824337469465e-07   -3.6151597822012705e-05
-4.005403813454386e-06   -2.7494824337469465e-07   -3.6151597822012705e-05
-4.005403813454386e-06   -2.7494824337469465e-07   -3.6151597822012705e-05
-4.005403813454386e-06   -2.7494824337469465e-07   -3.6151597822012705e-05
6.802456706307409e-06   8.56359772807608e-07   -1.745971214603371e-05
6.802456706307409e-06   8.56359772807608e-07   -1.745971214603371e-05
6.802456706307409e-06   8.56359772807608e-07   -1.745971214603371e-05
6.802456706307409e-06   8.56359772807608e-07   -1.745971214603371e-05
6.9019803084497934e-06   9.552123036676678e-07   -3.6518427410553976e-05
6.9019803084497934e-06   9.552123036676678e-07   -3.6518427410553976e-05
6.9019803084497934e-06   9.552123036676678e-07   -3.6518427410553976e-05
6.9019803084497934e-06   9.552123036676678e-07   -3.6518427410553976e-05
-4.011749798852523e-06   1.9567867262454625e-06   -1.8929821885263278e-05
-4.011749798852523e-06   1.9567867262454625e-06   -1.8929821885263278e-05
-4.011749798852523e-06   1.9567867262454625e-06   -1.8929821885263278e-05
-4.011749798852523e-06   1.9567867262454625e-06   -1.8929821885263278e-05
1.2525060547507304e-06   5.78280130659331e-07   -2.6876477683916936e-05
1.2525060547507304e-06   5.78280130659331e-07   -2.6876477683916936e-05
1.2525060547507304e-06   5.78280130659331e-07   -2.6876477683916936e-05
1.2525060547507304e-06   5.78280130659331e-07   -2.6876477683916936e-05
6.513619861618858e-06   -4.347846621528286e-06   -1.952750293908223e-05
6.513619861618858e-06   -4.347846621528286e-06   -1.952750293908223e-05
6.513619861618858e-06   -4.347846621528286e-06   -1.952750293908223e-05
6.513619861618858e-06   -4.347846621528286e-06   -1.952750293908223e-05
1.585127806512314e-05   -2.02431541270517e-06   -2.570620541281145e-06
1.585127806512314e-05   -2.02431541270517e-06   -2.570620541281145e-06
1.585127806512314e-05   -2.02431541270517e-06   -2.570620541281145e-06
1.585127806512314e-05   -2.02431541270517e-06   -2.570620541281145e-06
1.696399838207308e-05   -3.7296879364344393e-06   -2.0496880804967077e-05
1.696399838207308e-05   -3.7296879364344393e-06   -2.0496880804967077e-05
1.696399838207308e-05   -3.7296879364344393e-06   -2.0496880804967077e-05
1.696399838207308e-05   -3.7296879364344393e-06   -2.0496880804967077e-05
6.599460776302932e-06   -1.3472385997102604e-06   -4.652121064051317e-06
6.599460776302932e-06   -1.3472385997102604e-06   -4.652121064051317e-06
6.599460776302932e-06   -1.3472385997102604e-06   -4.652121064051317e-06
6.599460776302932e-06   -1.3472385997102604e-06   -4.652121064051317e-06
1.0992502138966427e-05   -2.7735072147755738e-06   -1.1118095499451321e-05
1.0992502138966427e-05   -2.7735072147755738e-06   -1.1118095499451321e-05
1.0992502138966427e-05   -2.7735072147755738e-06   -1.1118095499451321e-05
1.0992502138966427e-05   -2.7735072147755738e-06   -1.1118095499451321e-05
6.5994607763029186e-06   -3.7296879364344393e-06   -2.192635040700134e-05
6.5994607763029186e-06   -3.7296879364344393e-06   -2.192635040700134e-05
6.5994607763029186e-06   -3.7296879364344393e-06   -2.192635040700134e-05
6.5994607763029186e-06   -3.7296879364344393e-06   -2.192635040700134e-05
1.6963998382072998e-05   -1.3472385997102604e-06   -3.2226514620168093e-06
1.6963998382072998e-05   -1.3472385997102604e-06   -3.2226514620168093e-06
1.6963998382072998e-05   -1.3472385997102604e-06   -3.2226514620168093e-06
1.6963998382072998e-05   -1.3472385997102604e-06   -3.2226514620168093e-06
1.782093599182196e-05   -3.200364620937904e-06   -2.247414388452886e-05
1.782093599182196e-05   -3.200364620937904e-06   -2.247414388452886e-05
1.782093599182196e-05   -3.200364620937904e-06   -2.247414388452886e-05
1.782093599182196e-05   -3.200364620937904e-06   -2.247414388452886e-05
6.802456706307409e-06   -8.803003954133831e-07   -5.502050277319338e-06
6.802456706307409e-06   -8.803003954133831e-07   -5.502050277319338e-06
6.802456706307409e-06   -8.803003954133831e-07   -5.502050277319338e-06
6.802456706307409e-06   -8.803003954133831e-07   -5.502050277319338e-06
1.16716655115756e-05   -2.425596197495796e-06   -1.2690220804850195e-05
1.16716655115756e-05   -2.425596197495796e-06   -1.2690220804850195e-05
1.16716655115756e-05   -2.425596197495796e-06   -1.2690220804850195e-05
1.16716655115756e-05   -2.425596197495796e-06   -1.2690220804850195e-05
6.802456706307396e-06   -3.2003646209379584e-06   -2.38661824198436e-05
6.802456706307396e-06   -3.2003646209379584e-06   -2.38661824198436e-05
6.802456706307396e-06   -3.2003646209379584e-06   -2.38661824198436e-05
6.802456706307396e-06   -3.2003646209379584e-06   -2.38661824198436e-05
1.7820935991821906e-05   -8.803003954133831e-07   -4.110011742004599e-06
1.7820935991821906e-05   -8.803003954133831e-07   -4.110011742004599e-06
1.7820935991821906e-05   -8.803003954133831e-07   -4.110011742004599e-06
1.7820935991821906e-05   -8.803003954133831e-07   -4.110011742004599e-06
1.896041064819082e-05   -2.0703281485088664e-06   -2.626864900713143e-05
1.896041064819082e-05   -2.0703281485088664e-06   -2.626864900713143e-05
1.896041064819082e-05   -2.0703281485088664e-06   -2.626864900713143e-05
1.896041064819082e-05   -2.0703281485088664e-06   -2.626864900713143e-05
6.9019803084497934e-06   3.669430704265637e-08   -7.4354785808938536e-06
6.9019803084497934e-06   3.669430704265637e-08   -7.4354785808938536e-06
6.9019803084497934e-06   3.669430704265637e-08   -7.4354785808938536e-06
6.9019803084497934e-06   3.669430704265637e-08   -7.4354785808938536e-06
1.1899331785791714e-05   -1.909341064526039e-06   -1.4596776486855981e-05
1.1899331785791714e-05   -1.909341064526039e-06   -1.4596776486855981e-05
1.1899331785791714e-05   -1.909341064526039e-06   -1.4596776486855981e-05
1.1899331785791714e-05   -1.909341064526039e-06   -1.4596776486855981e-05
-2.2657656065813638e-05   3.652075703355082e-06   -2.1251571457885966e-05
-2.2657656065813638e-05   3.652075703355082e-06   -2.1251571457885966e-05
-2.2657656065813638e-05   3.652075703355082e-06   -2.1251571457885966e-05
-2.2657656065813638e-05   3.652075703355082e-06   -2.1251571457885966e-05
-1.674642571904215e-05   1.4852214736203306e-06   -1.2699633417774417e-05
-1.674642571904215e-05   1.4852214736203306e-06   -1.2699633417774417e-05
-1.674642571904215e-05   1.4852214736203306e-06   -1.2699633417774417e-05
-1.674642571904215e-05   1.4852214736203306e-06   -1.2699633417774417e-05
-1.6501035239429223e-05   4.650013582769056e-06   -1.8747833443682506e-05
-1.6501035239429223e-05   4.650013582769056e-06   -1.8747833443682506e-05
-1.6501035239429223e-05   4.650013582769056e-06   -1.8747833443682506e-05
-1.6501035239429223e-05   4.650013582769056e-06   -1.8747833443682506e-05
-2.1424470162128363e-05   2.3150191627635194e-06   -9.141111920513817e-06
-2.1424470162128363e-05   2.3150191627635194e-06   -9.141111920513817e-06
-2.1424470162128363e-05   2.3150191627635194e-06   -9.141111920513817e-06
-2.1424470162128363e-05   2.3150191627635194e-06   -9.141111920513817e-06
-1.8513376353610972e-05   3.2764671576463074e-06   -1.4569803731640028e-05
-1.8513376353610972e-05   3.2764671576463074e-06   -1.4569803731640028e-05
-1.8513376353610972e-05   3.2764671576463074e-06   -1.4569803731640028e-05
-1.8513376353610972e-05   3.2764671576463074e-06   -1.4569803731640028e-05
-2.1424470162128363e-05   4.650013582769056e-06   -1.7346836791679303e-05
-2.1424470162128363e-05   4.650013582769056e-06   -1.7346836791679303e-05
-2.1424470162128363e-05   4.650013582769056e-06   -1.7346836791679303e-05
-2.1424470162128363e-05   4.650013582769056e-06   -1.7346836791679303e-05
-1.650103523942925e-05   2.315019162763628e-06   -1.0542108572517183e-05
-1.650103523942925e-05   2.315019162763628e-06   -1.0542108572517183e-05
-1.650103523942925e-05   2.315019162763628e-06   -1.0542108572517183e-05
-1.650103523942925e-05   2.315019162763628e-06   -1.0542108572517183e-05
-1.615052416099598e-05   5.115386373707098e-06   -1.6740412691741355e-05
-1.615052416099598e-05   5.115386373707098e-06   -1.6740412691741355e-05
-1.615052416099598e-05   5.115386373707098e-06   -1.6740412691741355e-05
-1.615052416099598e-05   5.115386373707098e-06   -1.6740412691741355e-05
-2.0441624334317104e-05   2.7347975887077576e-06   -8.160225798539754e-06
-2.0441624334317104e-05   2.7347975887077576e-06   -8.160225798539754e-06
-2.0441624334317104e-05   2.7347975887077576e-06   -8.160225798539754e-06
-2.0441624334317104e-05   2.7347975887077576e-06   -8.160225798539754e-06
-1.8188593628155512e-05   3.724432468723356e-06   -1.2509057903485241e-05
-1.8188593628155512e-05   3.724432468723356e-06   -1.2509057903485241e-05
-1.8188593628155512e-05   3.724432468723356e-06   -1.2509057903485241e-05
-1.8188593628155512e-05   3.724432468723356e-06   -1.2509057903485241e-05
-2.0441624334317077e-05   5.115386373707098e-06   -1.5312059420741783e-05
-2.0441624334317077e-05   5.115386373707098e-06   -1.5312059420741783e-05
-2.0441624334317077e-05   5.115386373707098e-06   -1.5312059420741783e-05
-2.0441624334317077e-05   5.115386373707098e-06   -1.5312059420741783e-05
-1.615052416099598e-05   2.7347975887077576e-06   -9.588579069539326e-06
-1.615052416099598e-05   2.7347975887077576e-06   -9.588579069539326e-06
-1.615052416099598e-05   2.7347975887077576e-06   -9.588579069539326e-06
-1.615052416099598e-05   2.7347975887077576e-06   -9.588579069539326e-06
-1.5912464668026366e-05   5.701211357011745e-06   -1.416629123742884e-05
-1.5912464668026366e-05   5.701211357011745e-06   -1.416629123742884e-05
-1.5912464668026366e-05   5.701211357011745e-06   -1.416629123742884e-05
-1.5912464668026366e-05   5.701211357011745e-06   -1.416629123742884e-05
-1.9190311919657052e-05   3.400002893832175e-06   -7.322487406802997e-06
-1.9190311919657052e-05   3.400002893832175e-06   -7.322487406802997e-06
-1.9190311919657052e-05   3.400002893832175e-06   -7.322487406802997e-06
-1.9190311919657052e-05   3.400002893832175e-06   -7.322487406802997e-06
-1.7339224243058954e-05   4.035827190028928e-06   -1.0789128112184958e-05
-1.7339224243058954e-05   4.035827190028928e-06   -1.0789128112184958e-05
-1.7339224243058954e-05   4.035827190028928e-06   -1.0789128112184958e-05
-1.7339224243058954e-05   4.035827190028928e-06   -1.0789128112184958e-05
-1.674642571904215e-05   1.8899969625821864e-06   -3.1002672289063855e-05
-1.674642571904215e-05   1.8899969625821864e-06   -3.1002672289063855e-05
-1.674642571904215e-05   1.8899969625821864e-06   -3.1002672289063855e-05
-1.674642571904215e-05   1.8899969625821864e-06   -3.1002672289063855e-05
-1.1941431565354335e-05   8.55512395532272e-07   -2.3615039439814313e-05
-1.1941431565354335e-05   8.55512395532272e-07   -2.3615039439814313e-05
-1.1941431565354335e-05   8.55512395532272e-07   -2.3615039439814313e-05
-1.1941431565354335e-05   8.55512395532272e-07   -2.3615039439814313e-05
-1.1781393085529216e-05   2.943828341036214e-06   -3.089992561481161e-05
-1.1781393085529216e-05   2.943828341036214e-06   -3.089992561481161e-05
-1.1781393085529216e-05   2.943828341036214e-06   -3.089992561481161e-05
-1.1781393085529216e-05   2.943828341036214e-06   -3.089992561481161e-05
-1.6501035239429278e-05   1.8072902037134277e-06   -2.2351932475917706e-05
-1.6501035239429278e-05   1.8072902037134277e-06   -2.2351932475917706e-05
-1.6501035239429278e-05   1.8072902037134277e-06   -2.2351932475917706e-05
-1.6501035239429278e-05   1.8072902037134277e-06   -2.2351932475917706e-05
-1.4103694401894713e-05   2.0574932125994212e-06   -2.6497622343807565e-05
-1.4103694401894713e-05   2.0574932125994212e-06   -2.6497622343807565e-05
-1.4103694401894713e-05   2.0574932125994212e-06   -2.6497622343807565e-05
-1.4103694401894713e-05   2.0574932125994212e-06   -2.6497622343807565e-05
-1.6501035239429223e-05   2.943828341036214e-06   -3.0218002732417687e-05
-1.6501035239429223e-05   2.943828341036214e-06   -3.0218002732417687e-05
-1.6501035239429223e-05   2.943828341036214e-06   -3.0218002732417687e-05
-1.6501035239429223e-05   2.943828341036214e-06   -3.0218002732417687e-05
-1.1781393085529216e-05   1.8072902037134277e-06   -2.3033855358311356e-05
-1.1781393085529216e-05   1.8072902037134277e-06   -2.3033855358311356e-05
-1.1781393085529216e-05   1.8072902037134277e-06   -2.3033855358311356e-05
-1.1781393085529216e-05   1.8072902037134277e-06   -2.3033855358311356e-05
-1.1604558480267287e-05   3.903151707242885e-06   -3.040022203562858e-05
-1.1604558480267287e-05   3.903151707242885e-06   -3.040022203562858e-05
-1.1604558480267287e-05   3.903151707242885e-06   -3.040022203562858e-05
-1.1604558480267287e-05   3.903151707242885e-06   -3.040022203562858e-05
-1.6150524160996006e-05   2.6927331690537824e-06   -2.20973614448337e-05
-1.6150524160996006e-05   2.6927331690537824e-06   -2.20973614448337e-05
-1.6150524160996006e-05   2.6927331690537824e-06   -2.20973614448337e-05
-1.6150524160996006e-05   2.6927331690537824e-06   -2.20973614448337e-05
-1.3892910006113035e-05   2.8275104555328286e-06   -2.594091807485934e-05
-1.3892910006113035e-05   2.8275104555328286e-06   -2.594091807485934e-05
-1.3892910006113035e-05   2.8275104555328286e-06   -2.594091807485934e-05
-1.3892910006113035e-05   2.8275104555328286e-06   -2.594091807485934e-05
-1.615052416099598e-05   3.903151707242776e-06   -2.9673970912714944e-05
-1.615052416099598e-05   3.903151707242776e-06   -2.9673970912714944e-05
-1.615052416099598e-05   3.903151707242776e-06   -2.9673970912714944e-05
-1.615052416099598e-05   3.903151707242776e-06   -2.9673970912714944e-05
-1.160455848026726e-05   2.692733169053674e-06   -2.2823612567747227e-05
-1.160455848026726e-05   2.692733169053674e-06   -2.2823612567747227e-05
-1.160455848026726e-05   2.692733169053674e-06   -2.2823612567747227e-05
-1.160455848026726e-05   2.692733169053674e-06   -2.2823612567747227e-05
-1.1447543588387398e-05   4.945598381827067e-06   -3.0695048999791275e-05
-1.1447543588387398e-05   4.945598381827067e-06   -3.0695048999791275e-05
-1.1447543588387398e-05   4.945598381827067e-06   -3.0695048999791275e-05
-1.1447543588387398e-05   4.945598381827067e-06   -3.0695048999791275e-05
-1.591246466802642e-05   3.677042314919471e-06   -2.249238022691472e-05
-1.591246466802642e-05   3.677042314919471e-06   -2.249238022691472e-05
-1.591246466802642e-05   3.677042314919471e-06   -2.249238022691472e-05
-1.591246466802642e-05   3.677042314919471e-06   -2.249238022691472e-05
-1.381143338695214e-05   3.6079197282503543e-06   -2.595262547670397e-05
-1.381143338695214e-05   3.6079197282503543e-06   -2.595262547670397e-05
-1.381143338695214e-05   3.6079197282503543e-06   -2.595262547670397e-05
-1.381143338695214e-05   3.6079197282503543e-06   -2.595262547670397e-05
-1.1941431565354294e-05   3.2655182585479645e-07   -3.506233394436108e-05
-1.1941431565354294e-05   3.2655182585479645e-07   -3.506233394436108e-05
-1.1941431565354294e-05   3.2655182585479645e-07   -3.506233394436108e-05
-1.1941431565354294e-05   3.2655182585479645e-07   -3.506233394436108e-05
-7.257454461033882e-06   4.921825622720977e-07   -2.7156326995310084e-05
-7.257454461033882e-06   4.921825622720977e-07   -2.7156326995310084e-05
-7.257454461033882e-06   4.921825622720977e-07   -2.7156326995310084e-05
-7.257454461033882e-06   4.921825622720977e-07   -2.7156326995310084e-05
-7.101637603068502e-06   1.3865273944358792e-06   -3.462054367062682e-05
-7.101637603068502e-06   1.3865273944358792e-06   -3.462054367062682e-05
-7.101637603068502e-06   1.3865273944358792e-06   -3.462054367062682e-05
-7.101637603068502e-06   1.3865273944358792e-06   -3.462054367062682e-05
-1.1781393085529216e-05   1.4620784857807346e-06   -2.6866281854665648e-05
-1.1781393085529216e-05   1.4620784857807346e-06   -2.6866281854665648e-05
-1.1781393085529216e-05   1.4620784857807346e-06   -2.6866281854665648e-05
-1.1781393085529216e-05   1.4620784857807346e-06   -2.6866281854665648e-05
-9.459412922486967e-06   1.0521380001331064e-06   -3.0490284501681505e-05
-9.459412922486967e-06   1.0521380001331064e-06   -3.0490284501681505e-05
-9.459412922486967e-06   1.0521380001331064e-06   -3.0490284501681505e-05
-9.459412922486967e-06   1.0521380001331064e-06   -3.0490284501681505e-05
-1.1781393085529189e-05   1.3865273944358792e-06   -3.466587432543369e-05
-1.1781393085529189e-05   1.3865273944358792e-06   -3.466587432543369e-05
-1.1781393085529189e-05   1.3865273944358792e-06   -3.466587432543369e-05
-1.1781393085529189e-05   1.3865273944358792e-06   -3.466587432543369e-05
-7.101637603068502e-06   1.462078485780843e-06   -2.6820951199858832e-05
-7.101637603068502e-06   1.462078485780843e-06   -2.6820951199858832e-05
-7.101637603068502e-06   1.462078485780843e-06   -2.6820951199858832e-05
-7.101637603068502e-06   1.462078485780843e-06   -2.6820951199858832e-05
-6.926051195118886e-06   2.449898265820521e-06   -3.471037363198448e-05
-6.926051195118886e-06   2.449898265820521e-06   -3.471037363198448e-05
-6.926051195118886e-06   2.449898265820521e-06   -3.471037363198448e-05
-6.926051195118886e-06   2.449898265820521e-06   -3.471037363198448e-05
-1.160455848026726e-05   2.440448591097791e-06   -2.690719168523678e-05
-1.160455848026726e-05   2.440448591097791e-06   -2.690719168523678e-05
-1.160455848026726e-05   2.440448591097791e-06   -2.690719168523678e-05
-1.160455848026726e-05   2.440448591097791e-06   -2.690719168523678e-05
-9.355395210858869e-06   1.885777492821616e-06   -3.032299447528505e-05
-9.355395210858869e-06   1.885777492821616e-06   -3.032299447528505e-05
-9.355395210858869e-06   1.885777492821616e-06   -3.032299447528505e-05
-9.355395210858869e-06   1.885777492821616e-06   -3.032299447528505e-05
-1.1604558480267233e-05   2.449898265820521e-06   -3.470470382715079e-05
-1.1604558480267233e-05   2.449898265820521e-06   -3.470470382715079e-05
-1.1604558480267233e-05   2.449898265820521e-06   -3.470470382715079e-05
-1.1604558480267233e-05   2.449898265820521e-06   -3.470470382715079e-05
-6.926051195118898e-06   2.440448591097791e-06   -2.691286149007039e-05
-6.926051195118898e-06   2.440448591097791e-06   -2.691286149007039e-05
-6.926051195118898e-06   2.440448591097791e-06   -2.691286149007039e-05
-6.926051195118898e-06   2.440448591097791e-06   -2.691286149007039e-05
-6.768381117821392e-06   3.531860877204027e-06   -3.5294530852272355e-05
-6.768381117821392e-06   3.531860877204027e-06   -3.5294530852272355e-05
-6.768381117821392e-06   3.531860877204027e-06   -3.5294530852272355e-05
-6.768381117821392e-06   3.531860877204027e-06   -3.5294530852272355e-05
-1.1447543588387398e-05   3.4336100189300695e-06   -2.7436976219697784e-05
-1.1447543588387398e-05   3.4336100189300695e-06   -2.7436976219697784e-05
-1.1447543588387398e-05   3.4336100189300695e-06   -2.7436976219697784e-05
-1.1447543588387398e-05   3.4336100189300695e-06   -2.7436976219697784e-05
-9.269684175103128e-06   2.7305080951851163e-06   -3.064488075425825e-05
-9.269684175103128e-06   2.7305080951851163e-06   -3.064488075425825e-05
-9.269684175103128e-06   2.7305080951851163e-06   -3.064488075425825e-05
-9.269684175103128e-06   2.7305080951851163e-06   -3.064488075425825e-05
-7.257454461033856e-06   -1.1029633944231601e-06   -3.073005137525022e-05
-7.257454461033856e-06   -1.1029633944231601e-06   -3.073005137525022e-05
-7.257454461033856e-06   -1.1029633944231601e-06   -3.073005137525022e-05
-7.257454461033856e-06   -1.1029633944231601e-06   -3.073005137525022e-05
-2.7183351021054848e-06   2.13750418343343e-07   -2.2374824156043025e-05
-2.7183351021054848e-06   2.13750418343343e-07   -2.2374824156043025e-05
-2.7183351021054848e-06   2.13750418343343e-07   -2.2374824156043025e-05
-2.7183351021054848e-06   2.13750418343343e-07   -2.2374824156043025e-05
-2.4848486337138506e-06   -1.0414330868058035e-07   -2.9740186906778733e-05
-2.4848486337138506e-06   -1.0414330868058035e-07   -2.9740186906778733e-05
-2.4848486337138506e-06   -1.0414330868058035e-07   -2.9740186906778733e-05
-2.4848486337138506e-06   -1.0414330868058035e-07   -2.9740186906778733e-05
-7.10163760306849e-06   1.1536341973404163e-06   -2.2800205128133357e-05
-7.10163760306849e-06   1.1536341973404163e-06   -2.2800205128133357e-05
-7.10163760306849e-06   1.1536341973404163e-06   -2.2800205128133357e-05
-7.10163760306849e-06   1.1536341973404163e-06   -2.2800205128133357e-05
-4.841194045756884e-06   1.3811842323780028e-07   -2.595830159252489e-05
-4.841194045756884e-06   1.3811842323780028e-07   -2.595830159252489e-05
-4.841194045756884e-06   1.3811842323780028e-07   -2.595830159252489e-05
-4.841194045756884e-06   1.3811842323780028e-07   -2.595830159252489e-05
-7.1016376030684776e-06   -1.0414330868058035e-07   -3.0494853410391288e-05
-7.1016376030684776e-06   -1.0414330868058035e-07   -3.0494853410391288e-05
-7.1016376030684776e-06   -1.0414330868058035e-07   -3.0494853410391288e-05
-7.1016376030684776e-06   -1.0414330868058035e-07   -3.0494853410391288e-05
-2.4848486337138506e-06   1.1536341973404163e-06   -2.2045538624520904e-05
-2.4848486337138506e-06   1.1536341973404163e-06   -2.2045538624520904e-05
-2.4848486337138506e-06   1.1536341973404163e-06   -2.2045538624520904e-05
-2.4848486337138506e-06   1.1536341973404163e-06   -2.2045538624520904e-05
-2.1370920628677425e-06   8.56359772807608e-07   -3.0139496542905904e-05
-2.1370920628677425e-06   8.56359772807608e-07   -3.0139496542905904e-05
-2.1370920628677425e-06   8.56359772807608e-07   -3.0139496542905904e-05
-2.1370920628677425e-06   8.56359772807608e-07   -3.0139496542905904e-05
-6.926051195118886e-06   2.038957219394999e-06   -2.286745645710641e-05
-6.926051195118886e-06   2.038957219394999e-06   -2.286745645710641e-05
-6.926051195118886e-06   2.038957219394999e-06   -2.286745645710641e-05
-6.926051195118886e-06   2.038957219394999e-06   -2.286745645710641e-05
-4.700349395235784e-06   8.97196072378089e-07   -2.5891902768701482e-05
-4.700349395235784e-06   8.97196072378089e-07   -2.5891902768701482e-05
-4.700349395235784e-06   8.97196072378089e-07   -2.5891902768701482e-05
-4.700349395235784e-06   8.97196072378089e-07   -2.5891902768701482e-05
-6.926051195118868e-06   8.56359772807608e-07   -3.084905501085812e-05
-6.926051195118868e-06   8.56359772807608e-07   -3.084905501085812e-05
-6.926051195118868e-06   8.56359772807608e-07   -3.084905501085812e-05
-6.926051195118868e-06   8.56359772807608e-07   -3.084905501085812e-05
-2.1370920628677425e-06   2.038957219394999e-06   -2.2157897989153927e-05
-2.1370920628677425e-06   2.038957219394999e-06   -2.2157897989153927e-05
-2.1370920628677425e-06   2.038957219394999e-06   -2.2157897989153927e-05
-2.1370920628677425e-06   2.038957219394999e-06   -2.2157897989153927e-05
-1.8944749591612536e-06   1.9567867262454625e-06   -3.098233541444815e-05
-1.8944749591612536e-06   1.9567867262454625e-06   -3.098233541444815e-05
-1.8944749591612536e-06   1.9567867262454625e-06   -3.098233541444815e-05
-1.8944749591612536e-06   1.9567867262454625e-06   -3.098233541444815e-05
-6.768381117821392e-06   3.0395426591749023e-06   -2.3508812043105473e-05
-6.768381117821392e-06   3.0395426591749023e-06   -2.3508812043105473e-05
-6.768381117821392e-06   3.0395426591749023e-06   -2.3508812043105473e-05
-6.768381117821392e-06   3.0395426591749023e-06   -2.3508812043105473e-05
-4.553110476116775e-06   1.692304577025571e-06   -2.639258692999022e-05
-4.553110476116775e-06   1.692304577025571e-06   -2.639258692999022e-05
-4.553110476116775e-06   1.692304577025571e-06   -2.639258692999022e-05
-4.553110476116775e-06   1.692304577025571e-06   -2.639258692999022e-05
-2.7183351021054712e-06   -2.02431541270517e-06   -1.6671020373174288e-05
-2.7183351021054712e-06   -2.02431541270517e-06   -1.6671020373174288e-05
-2.7183351021054712e-06   -2.02431541270517e-06   -1.6671020373174288e-05
-2.7183351021054712e-06   -2.02431541270517e-06   -1.6671020373174288e-05
6.250994997073845e-07   3.0016988090985665e-07   -9.703938193983885e-06
6.250994997073845e-07   3.0016988090985665e-07   -9.703938193983885e-06
6.250994997073845e-07   3.0016988090985665e-07   -9.703938193983885e-06
6.250994997073845e-07   3.0016988090985665e-07   -9.703938193983885e-06
1.8641990861799362e-06   -1.3472385997102604e-06   -1.591281398898996e-05
1.8641990861799362e-06   -1.3472385997102604e-06   -1.591281398898996e-05
1.8641990861799362e-06   -1.3472385997102604e-06   -1.591281398898996e-05
1.8641990861799362e-06   -1.3472385997102604e-06   -1.591281398898996e-05
-2.4848486337138506e-06   1.0435160912642847e-06   -1.009885393708486e-05
-2.4848486337138506e-06   1.0435160912642847e-06   -1.009885393708486e-05
-2.4848486337138506e-06   1.0435160912642847e-06   -1.009885393708486e-05
-2.4848486337138506e-06   1.0435160912642847e-06   -1.009885393708486e-05
-6.599352897093908e-07   -4.070847923140237e-07   -1.2270015646945561e-05
-6.599352897093908e-07   -4.070847923140237e-07   -1.2270015646945561e-05
-6.599352897093908e-07   -4.070847923140237e-07   -1.2270015646945561e-05
-6.599352897093908e-07   -4.070847923140237e-07   -1.2270015646945561e-05
-2.484848633713837e-06   -1.3472385997102604e-06   -1.734726680357459e-05
-2.484848633713837e-06   -1.3472385997102604e-06   -1.734726680357459e-05
-2.484848633713837e-06   -1.3472385997102604e-06   -1.734726680357459e-05
-2.484848633713837e-06   -1.3472385997102604e-06   -1.734726680357459e-05
1.8641990861799362e-06   1.0435160912642847e-06   -8.664401122500148e-06
1.8641990861799362e-06   1.0435160912642847e-06   -8.664401122500148e-06
1.8641990861799362e-06   1.0435160912642847e-06   -8.664401122500148e-06
1.8641990861799362e-06   1.0435160912642847e-06   -8.664401122500148e-06
2.8427523403721545e-06   -8.803003954133831e-07   -1.6776855214351678e-05
2.8427523403721545e-06   -8.803003954133831e-07   -1.6776855214351678e-05
2.8427523403721545e-06   -8.803003954133831e-07   -1.6776855214351678e-05
2.8427523403721545e-06   -8.803003954133831e-07   -1.6776855214351678e-05
-2.137092062867729e-06   1.4613320376529251e-06   -9.882094002124862e-06
-2.137092062867729e-06   1.4613320376529251e-06   -9.882094002124862e-06
-2.137092062867729e-06   1.4613320376529251e-06   -9.882094002124862e-06
-2.137092062867729e-06   1.4613320376529251e-06   -9.882094002124862e-06
-3.261017928545782e-08   -5.075419372442807e-08   -1.2482312069268857e-05
-3.261017928545782e-08   -5.075419372442807e-08   -1.2482312069268857e-05
-3.261017928545782e-08   -5.075419372442807e-08   -1.2482312069268857e-05
-3.261017928545782e-08   -5.075419372442807e-08   -1.2482312069268857e-05
-2.1370920628677425e-06   -8.803003954133831e-07   -1.818183467419156e-05
-2.1370920628677425e-06   -8.803003954133831e-07   -1.818183467419156e-05
-2.1370920628677425e-06   -8.803003954133831e-07   -1.818183467419156e-05
-2.1370920628677425e-06   -8.803003954133831e-07   -1.818183467419156e-05
2.8427523403721545e-06   1.4613320376529251e-06   -8.47711454228506e-06
2.8427523403721545e-06   1.4613320376529251e-06   -8.47711454228506e-06
2.8427523403721545e-06   1.4613320376529251e-06   -8.47711454228506e-06
2.8427523403721545e-06   1.4613320376529251e-06   -8.47711454228506e-06
4.078490325894657e-06   3.669430704265637e-08   -1.8790261617960668e-05
4.078490325894657e-06   3.669430704265637e-08   -1.8790261617960668e-05
4.078490325894657e-06   3.669430704265637e-08   -1.8790261617960668e-05
4.078490325894657e-06   3.669430704265637e-08   -1.8790261617960668e-05
-1.89447495916124e-06   2.2011528831505445e-06   -1.0133994621865263e-05
-1.89447495916124e-06   2.2011528831505445e-06   -1.0133994621865263e-05
-1.89447495916124e-06   2.2011528831505445e-06   -1.0133994621865263e-05
-1.89447495916124e-06   2.2011528831505445e-06   -1.0133994621865263e-05
5.085727671692809e-07   3.5485884807386677e-07   -1.3031297744703883e-05
5.085727671692809e-07   3.5485884807386677e-07   -1.3031297744703883e-05
5.085727671692809e-07   3.5485884807386677e-07   -1.3031297744703883e-05
5.085727671692809e-07   3.5485884807386677e-07   -1.3031297744703883e-05
-7.86415855429394e-06   1.4852214736203306e-06   -1.414292833563902e-05
-7.86415855429394e-06   1.4852214736203306e-06   -1.414292833563902e-05
-7.86415855429394e-06   1.4852214736203306e-06   -1.414292833563902e-05
-7.86415855429394e-06   1.4852214736203306e-06   -1.414292833563902e-05
-7.99810374353728e-06   -6.950650458391501e-07   -1.5674342229386837e-05
-7.99810374353728e-06   -6.950650458391501e-07   -1.5674342229386837e-05
-7.99810374353728e-06   -6.950650458391501e-07   -1.5674342229386837e-05
-7.99810374353728e-06   -6.950650458391501e-07   -1.5674342229386837e-05
-7.599135840067228e-06   2.315019162763628e-06   -1.3289005529330778e-05
-7.599135840067228e-06   2.315019162763628e-06   -1.3289005529330778e-05
-7.599135840067228e-06   2.315019162763628e-06   -1.3289005529330778e-05
-7.599135840067228e-06   2.315019162763628e-06   -1.3289005529330778e-05
-6.485345444788256e-06   -2.43465209902316e-08   -1.3741703444543286e-05
-6.485345444788256e-06   -2.43465209902316e-08   -1.3741703444543286e-05
-6.485345444788256e-06   -2.43465209902316e-08   -1.3741703444543286e-05
-6.485345444788256e-06   -2.43465209902316e-08   -1.3741703444543286e-05
-7.159575610206286e-06   1.0226349151862268e-06   -1.3246175363886459e-05
-7.159575610206286e-06   1.0226349151862268e-06   -1.3246175363886459e-05
-7.159575610206286e-06   1.0226349151862268e-06   -1.3246175363886459e-05
-7.159575610206286e-06   1.0226349151862268e-06   -1.3246175363886459e-05
-6.485345444788202e-06   2.315019162763628e-06   -1.1885386119078441e-05
-6.485345444788202e-06   2.315019162763628e-06   -1.1885386119078441e-05
-6.485345444788202e-06   2.315019162763628e-06   -1.1885386119078441e-05
-6.485345444788202e-06   2.315019162763628e-06   -1.1885386119078441e-05
-7.5991358400672555e-06   -2.43465209902316e-08   -1.5145322854795732e-05
-7.5991358400672555e-06   -2.43465209902316e-08   -1.5145322854795732e-05
-7.5991358400672555e-06   -2.43465209902316e-08   -1.5145322854795732e-05
-7.5991358400672555e-06   -2.43465209902316e-08   -1.5145322854795732e-05
-7.095519414543805e-06   2.7347975887077576e-06   -1.2332036173305335e-05
-7.095519414543805e-06   2.7347975887077576e-06   -1.2332036173305335e-05
-7.095519414543805e-06   2.7347975887077576e-06   -1.2332036173305335e-05
-7.095519414543805e-06   2.7347975887077576e-06   -1.2332036173305335e-05
-5.34609573552442e-06   3.5567258236876564e-07   -1.3820267301200976e-05
-5.34609573552442e-06   3.5567258236876564e-07   -1.3820267301200976e-05
-5.34609573552442e-06   3.5567258236876564e-07   -1.3820267301200976e-05
-5.34609573552442e-06   3.5567258236876564e-07   -1.3820267301200976e-05
-6.5076962709483785e-06   1.367321778552753e-06   -1.2491255926538425e-05
-6.5076962709483785e-06   1.367321778552753e-06   -1.2491255926538425e-05
-6.5076962709483785e-06   1.367321778552753e-06   -1.2491255926538425e-05
-6.5076962709483785e-06   1.367321778552753e-06   -1.2491255926538425e-05
-5.346095735524366e-06   2.7347975887077576e-06   -1.0904561169501983e-05
-5.346095735524366e-06   2.7347975887077576e-06   -1.0904561169501983e-05
-5.346095735524366e-06   2.7347975887077576e-06   -1.0904561169501983e-05
-5.346095735524366e-06   2.7347975887077576e-06   -1.0904561169501983e-05
-7.095519414543832e-06   3.5567258236876564e-07   -1.5247742305004328e-05
-7.095519414543832e-06   3.5567258236876564e-07   -1.5247742305004328e-05
-7.095519414543832e-06   3.5567258236876564e-07   -1.5247742305004328e-05
-7.095519414543832e-06   3.5567258236876564e-07   -1.5247742305004328e-05
-6.7035099350780435e-06   3.4000028938322834e-06   -1.1443377367739574e-05
-6.7035099350780435e-06   3.4000028938322834e-06   -1.1443377367739574e-05
-6.7035099350780435e-06   3.4000028938322834e-06   -1.1443377367739574e-05
-6.7035099350780435e-06   3.4000028938322834e-06   -1.1443377367739574e-05
-3.9394869520893326e-06   1.1133867770733285e-06   -1.4678112669331883e-05
-3.9394869520893326e-06   1.1133867770733285e-06   -1.4678112669331883e-05
-3.9394869520893326e-06   1.1133867770733285e-06   -1.4678112669331883e-05
-3.9394869520893326e-06   1.1133867770733285e-06   -1.4678112669331883e-05
-5.693609038033657e-06   1.6984039725510044e-06   -1.2105586176711439e-05
-5.693609038033657e-06   1.6984039725510044e-06   -1.2105586176711439e-05
-5.693609038033657e-06   1.6984039725510044e-06   -1.2105586176711439e-05
-5.693609038033657e-06   1.6984039725510044e-06   -1.2105586176711439e-05
-7.998103743537253e-06   8.555123955321636e-07   -2.5745815529124353e-05
-7.998103743537253e-06   8.555123955321636e-07   -2.5745815529124353e-05
-7.998103743537253e-06   8.555123955321636e-07   -2.5745815529124353e-05
-7.998103743537253e-06   8.555123955321636e-07   -2.5745815529124353e-05
-9.237319285649778e-06   -1.4860071194128938e-07   -2.8413642630462598e-05
-9.237319285649778e-06   -1.4860071194128938e-07   -2.8413642630462598e-05
-9.237319285649778e-06   -1.4860071194128938e-07   -2.8413642630462598e-05
-9.237319285649778e-06   -1.4860071194128938e-07   -2.8413642630462598e-05
-8.915600680469156e-06   1.8072902037134277e-06   -2.5764362666828703e-05
-8.915600680469156e-06   1.8072902037134277e-06   -2.5764362666828703e-05
-8.915600680469156e-06   1.8072902037134277e-06   -2.5764362666828703e-05
-8.915600680469156e-06   1.8072902037134277e-06   -2.5764362666828703e-05
-7.599135840067283e-06   6.98068146884551e-07   -2.7292937500067536e-05
-7.599135840067283e-06   6.98068146884551e-07   -2.7292937500067536e-05
-7.599135840067283e-06   6.98068146884551e-07   -2.7292937500067536e-05
-7.599135840067283e-06   6.98068146884551e-07   -2.7292937500067536e-05
-8.339313211506138e-06   9.894481279323995e-07   -2.6234136536298767e-05
-8.339313211506138e-06   9.894481279323995e-07   -2.6234136536298767e-05
-8.339313211506138e-06   9.894481279323995e-07   -2.6234136536298767e-05
-8.339313211506138e-06   9.894481279323995e-07   -2.6234136536298767e-05
-7.599135840067228e-06   1.8072902037134277e-06   -2.509882943273114e-05
-7.599135840067228e-06   1.8072902037134277e-06   -2.509882943273114e-05
-7.599135840067228e-06   1.8072902037134277e-06   -2.509882943273114e-05
-7.599135840067228e-06   1.8072902037134277e-06   -2.509882943273114e-05
-8.915600680469115e-06   6.98068146884551e-07   -2.7958470734165046e-05
-8.915600680469115e-06   6.98068146884551e-07   -2.7958470734165046e-05
-8.915600680469115e-06   6.98068146884551e-07   -2.7958470734165046e-05
-8.915600680469115e-06   6.98068146884551e-07   -2.7958470734165046e-05
-8.580942343226254e-06   2.6927331690537824e-06   -2.5548287315834122e-05
-8.580942343226254e-06   2.6927331690537824e-06   -2.5548287315834122e-05
-8.580942343226254e-06   2.6927331690537824e-06   -2.5548287315834122e-05
-8.580942343226254e-06   2.6927331690537824e-06   -2.5548287315834122e-05
-7.095519414543832e-06   1.5136185569960669e-06   -2.731652342973683e-05
-7.095519414543832e-06   1.5136185569960669e-06   -2.731652342973683e-05
-7.095519414543832e-06   1.5136185569960669e-06   -2.731652342973683e-05
-7.095519414543832e-06   1.5136185569960669e-06   -2.731652342973683e-05
-8.016990474497185e-06   1.672550625048683e-06   -2.587609757064626e-05
-8.016990474497185e-06   1.672550625048683e-06   -2.587609757064626e-05
-8.016990474497185e-06   1.672550625048683e-06   -2.587609757064626e-05
-8.016990474497185e-06   1.672550625048683e-06   -2.587609757064626e-05
-7.095519414543805e-06   2.692733169053674e-06   -2.4840818548599493e-05
-7.095519414543805e-06   2.692733169053674e-06   -2.4840818548599493e-05
-7.095519414543805e-06   2.692733169053674e-06   -2.4840818548599493e-05
-7.095519414543805e-06   2.692733169053674e-06   -2.4840818548599493e-05
-8.580942343226227e-06   1.5136185569960669e-06   -2.8023992196971298e-05
-8.580942343226227e-06   1.5136185569960669e-06   -2.8023992196971298e-05
-8.580942343226227e-06   1.5136185569960669e-06   -2.8023992196971298e-05
-8.580942343226227e-06   1.5136185569960669e-06   -2.8023992196971298e-05
-8.26597818138213e-06   3.677042314919471e-06   -2.5971592023009242e-05
-8.26597818138213e-06   3.677042314919471e-06   -2.5971592023009242e-05
-8.26597818138213e-06   3.677042314919471e-06   -2.5971592023009242e-05
-8.26597818138213e-06   3.677042314919471e-06   -2.5971592023009242e-05
-6.703509935078071e-06   2.445297459809613e-06   -2.7836658853783375e-05
-6.703509935078071e-06   2.445297459809613e-06   -2.7836658853783375e-05
-6.703509935078071e-06   2.445297459809613e-06   -2.7836658853783375e-05
-6.703509935078071e-06   2.445297459809613e-06   -2.7836658853783375e-05
-7.733670610768314e-06   2.3895815488821776e-06   -2.608629484774326e-05
-7.733670610768314e-06   2.3895815488821776e-06   -2.608629484774326e-05
-7.733670610768314e-06   2.3895815488821776e-06   -2.608629484774326e-05
-7.733670610768314e-06   2.3895815488821776e-06   -2.608629484774326e-05
-9.237319285649751e-06   4.921825622720977e-07   -2.9988949390954414e-05
-9.237319285649751e-06   4.921825622720977e-07   -2.9988949390954414e-05
-9.237319285649751e-06   4.921825622720977e-07   -2.9988949390954414e-05
-9.237319285649751e-06   4.921825622720977e-07   -2.9988949390954414e-05
-1.0539238238452773e-05   7.048604609160864e-07   -3.203120757310656e-05
-1.0539238238452773e-05   7.048604609160864e-07   -3.203120757310656e-05
-1.0539238238452773e-05   7.048604609160864e-07   -3.203120757310656e-05
-1.0539238238452773e-05   7.048604609160864e-07   -3.203120757310656e-05
-1.0223216874911047e-05   1.462078485780843e-06   -2.952575103138419e-05
-1.0223216874911047e-05   1.462078485780843e-06   -2.952575103138419e-05
-1.0223216874911047e-05   1.462078485780843e-06   -2.952575103138419e-05
-1.0223216874911047e-05   1.462078485780843e-06   -2.952575103138419e-05
-8.915600680469156e-06   1.5804753721122746e-06   -3.177614948725283e-05
-8.915600680469156e-06   1.5804753721122746e-06   -3.177614948725283e-05
-8.915600680469156e-06   1.5804753721122746e-06   -3.177614948725283e-05
-8.915600680469156e-06   1.5804753721122746e-06   -3.177614948725283e-05
-9.670257229485817e-06   1.1964323492381912e-06   -3.0287962758501153e-05
-9.670257229485817e-06   1.1964323492381912e-06   -3.0287962758501153e-05
-9.670257229485817e-06   1.1964323492381912e-06   -3.0287962758501153e-05
-9.670257229485817e-06   1.1964323492381912e-06   -3.0287962758501153e-05
-8.915600680469102e-06   1.462078485780843e-06   -2.959678916318305e-05
-8.915600680469102e-06   1.462078485780843e-06   -2.959678916318305e-05
-8.915600680469102e-06   1.462078485780843e-06   -2.959678916318305e-05
-8.915600680469102e-06   1.462078485780843e-06   -2.959678916318305e-05
-1.0223216874911066e-05   1.5804753721120578e-06   -3.170511135545419e-05
-1.0223216874911066e-05   1.5804753721120578e-06   -3.170511135545419e-05
-1.0223216874911066e-05   1.5804753721120578e-06   -3.170511135545419e-05
-1.0223216874911066e-05   1.5804753721120578e-06   -3.170511135545419e-05
-9.890603817515707e-06   2.440448591097791e-06   -2.961098091482431e-05
-9.890603817515707e-06   2.440448591097791e-06   -2.961098091482431e-05
-9.890603817515707e-06   2.440448591097791e-06   -2.961098091482431e-05
-9.890603817515707e-06   2.440448591097791e-06   -2.961098091482431e-05
-8.580942343226254e-06   2.4752577885969393e-06   -3.181463555713927e-05
-8.580942343226254e-06   2.4752577885969393e-06   -3.181463555713927e-05
-8.580942343226254e-06   2.4752577885969393e-06   -3.181463555713927e-05
-8.580942343226254e-06   2.4752577885969393e-06   -3.181463555713927e-05
-9.405399418183419e-06   1.9458181042680822e-06   -3.012287662161408e-05
-9.405399418183419e-06   1.9458181042680822e-06   -3.012287662161408e-05
-9.405399418183419e-06   1.9458181042680822e-06   -3.012287662161408e-05
-9.405399418183419e-06   1.9458181042680822e-06   -3.012287662161408e-05
-8.580942343226227e-06   2.440448591097791e-06   -2.963186643332354e-05
-8.580942343226227e-06   2.440448591097791e-06   -2.963186643332354e-05
-8.580942343226227e-06   2.440448591097791e-06   -2.963186643332354e-05
-8.580942343226227e-06   2.440448591097791e-06   -2.963186643332354e-05
-9.890603817515707e-06   2.4752577885969393e-06   -3.1793750038639824e-05
-9.890603817515707e-06   2.4752577885969393e-06   -3.1793750038639824e-05
-9.890603817515707e-06   2.4752577885969393e-06   -3.1793750038639824e-05
-9.890603817515707e-06   2.4752577885969393e-06   -3.1793750038639824e-05
-9.576964608068452e-06   3.4336100189300695e-06   -3.0185742591698375e-05
-9.576964608068452e-06   3.4336100189300695e-06   -3.0185742591698375e-05
-9.576964608068452e-06   3.4336100189300695e-06   -3.0185742591698375e-05
-9.576964608068452e-06   3.4336100189300695e-06   -3.0185742591698375e-05
-8.265978181382143e-06   3.3824629921790084e-06   -3.234003175345808e-05
-8.265978181382143e-06   3.3824629921790084e-06   -3.234003175345808e-05
-8.265978181382143e-06   3.3824629921790084e-06   -3.234003175345808e-05
-8.265978181382143e-06   3.3824629921790084e-06   -3.234003175345808e-05
-9.161840258997346e-06   2.7057069045630794e-06   -3.0440874638196477e-05
-9.161840258997346e-06   2.7057069045630794e-06   -3.0440874638196477e-05
-9.161840258997346e-06   2.7057069045630794e-06   -3.0440874638196477e-05
-9.161840258997346e-06   2.7057069045630794e-06   -3.0440874638196477e-05
-1.0539238238452737e-05   2.13750418343343e-07   -2.586986810016107e-05
-1.0539238238452737e-05   2.13750418343343e-07   -2.586986810016107e-05
-1.0539238238452737e-05   2.13750418343343e-07   -2.586986810016107e-05
-1.0539238238452737e-05   2.13750418343343e-07   -2.586986810016107e-05
-1.1916106667702244e-05   1.5655425615475858e-06   -2.735357352965436e-05
-1.1916106667702244e-05   1.5655425615475858e-06   -2.735357352965436e-05
-1.1916106667702244e-05   1.5655425615475858e-06   -2.735357352965436e-05
-1.1916106667702244e-05   1.5655425615475858e-06   -2.735357352965436e-05
-1.1533275545789527e-05   1.1536341973404163e-06   -2.4730554718790368e-05
-1.1533275545789527e-05   1.1536341973404163e-06   -2.4730554718790368e-05
-1.1533275545789527e-05   1.1536341973404163e-06   -2.4730554718790368e-05
-1.1533275545789527e-05   1.1536341973404163e-06   -2.4730554718790368e-05
-1.0223216874911047e-05   2.4443845987880304e-06   -2.768843607778934e-05
-1.0223216874911047e-05   2.4443845987880304e-06   -2.768843607778934e-05
-1.0223216874911047e-05   2.4443845987880304e-06   -2.768843607778934e-05
-1.0223216874911047e-05   2.4443845987880304e-06   -2.768843607778934e-05
-1.0967464585291047e-05   1.4420303844557385e-06   -2.584661069855726e-05
-1.0967464585291047e-05   1.4420303844557385e-06   -2.584661069855726e-05
-1.0967464585291047e-05   1.4420303844557385e-06   -2.584661069855726e-05
-1.0967464585291047e-05   1.4420303844557385e-06   -2.584661069855726e-05
-1.0223216874911029e-05   1.1536341973404163e-06   -2.5505004959658763e-05
-1.0223216874911029e-05   1.1536341973404163e-06   -2.5505004959658763e-05
-1.0223216874911029e-05   1.1536341973404163e-06   -2.5505004959658763e-05
-1.0223216874911029e-05   1.1536341973404163e-06   -2.5505004959658763e-05
-1.1533275545789527e-05   2.4443845987880304e-06   -2.691398583692115e-05
-1.1533275545789527e-05   2.4443845987880304e-06   -2.691398583692115e-05
-1.1533275545789527e-05   2.4443845987880304e-06   -2.691398583692115e-05
-1.1533275545789527e-05   2.4443845987880304e-06   -2.691398583692115e-05
-1.1037500275796114e-05   2.038957219394999e-06   -2.483606851802554e-05
-1.1037500275796114e-05   2.038957219394999e-06   -2.483606851802554e-05
-1.1037500275796114e-05   2.038957219394999e-06   -2.483606851802554e-05
-1.1037500275796114e-05   2.038957219394999e-06   -2.483606851802554e-05
-9.89060381751569e-06   3.2548028257863796e-06   -2.74770699789942e-05
-9.89060381751569e-06   3.2548028257863796e-06   -2.74770699789942e-05
-9.89060381751569e-06   3.2548028257863796e-06   -2.74770699789942e-05
-9.89060381751569e-06   3.2548028257863796e-06   -2.74770699789942e-05
-1.0625258056172996e-05   2.1395746342266642e-06   -2.5583509332963232e-05
-1.0625258056172996e-05   2.1395746342266642e-06   -2.5583509332963232e-05
-1.0625258056172996e-05   2.1395746342266642e-06   -2.5583509332963232e-05
-1.0625258056172996e-05   2.1395746342266642e-06   -2.5583509332963232e-05
-9.890603817515663e-06   2.038957219394999e-06   -2.5565575881860065e-05
-9.890603817515663e-06   2.038957219394999e-06   -2.5565575881860065e-05
-9.890603817515663e-06   2.038957219394999e-06   -2.5565575881860065e-05
-9.890603817515663e-06   2.038957219394999e-06   -2.5565575881860065e-05
-1.1037500275796114e-05   3.2548028257863796e-06   -2.6747562615159464e-05
-1.1037500275796114e-05   3.2548028257863796e-06   -2.6747562615159464e-05
-1.1037500275796114e-05   3.2548028257863796e-06   -2.6747562615159464e-05
-1.1037500275796114e-05   3.2548028257863796e-06   -2.6747562615159464e-05
-1.0648286121602102e-05   3.0395426591749023e-06   -2.5524842641976562e-05
-1.0648286121602102e-05   3.0395426591749023e-06   -2.5524842641976562e-05
-1.0648286121602102e-05   3.0395426591749023e-06   -2.5524842641976562e-05
-1.0648286121602102e-05   3.0395426591749023e-06   -2.5524842641976562e-05
-9.576964608068452e-06   4.16251808945051e-06   -2.7984163756030995e-05
-9.576964608068452e-06   4.16251808945051e-06   -2.7984163756030995e-05
-9.576964608068452e-06   4.16251808945051e-06   -2.7984163756030995e-05
-9.576964608068452e-06   4.16251808945051e-06   -2.7984163756030995e-05
-1.0369818855331105e-05   2.8520106552221668e-06   -2.5876435550055977e-05
-1.0369818855331105e-05   2.8520106552221668e-06   -2.5876435550055977e-05
-1.0369818855331105e-05   2.8520106552221668e-06   -2.5876435550055977e-05
-1.0369818855331105e-05   2.8520106552221668e-06   -2.5876435550055977e-05
-1.1916106667702204e-05   3.0016988090985665e-07   -1.3782598028348465e-05
-1.1916106667702204e-05   3.0016988090985665e-07   -1.3782598028348465e-05
-1.1916106667702204e-05   3.0016988090985665e-07   -1.3782598028348465e-05
-1.1916106667702204e-05   3.0016988090985665e-07   -1.3782598028348465e-05
-1.4451044042442559e-05   2.6328081202484782e-06   -1.6607910709312405e-05
-1.4451044042442559e-05   2.6328081202484782e-06   -1.6607910709312405e-05
-1.4451044042442559e-05   2.6328081202484782e-06   -1.6607910709312405e-05
-1.4451044042442559e-05   2.6328081202484782e-06   -1.6607910709312405e-05
-1.3084642973456282e-05   1.0435160912642847e-06   -1.1351970551950542e-05
-1.3084642973456282e-05   1.0435160912642847e-06   -1.1351970551950542e-05
-1.3084642973456282e-05   1.0435160912642847e-06   -1.1351970551950542e-05
-1.3084642973456282e-05   1.0435160912642847e-06   -1.1351970551950542e-05
-1.15332755457895e-05   3.4300152236038575e-06   -1.536948241079887e-05
-1.15332755457895e-05   3.4300152236038575e-06   -1.536948241079887e-05
-1.15332755457895e-05   3.4300152236038575e-06   -1.536948241079887e-05
-1.15332755457895e-05   3.4300152236038575e-06   -1.536948241079887e-05
-1.2230435543285414e-05   1.9475345572686487e-06   -1.3318060681838037e-05
-1.2230435543285414e-05   1.9475345572686487e-06   -1.3318060681838037e-05
-1.2230435543285414e-05   1.9475345572686487e-06   -1.3318060681838037e-05
-1.2230435543285414e-05   1.9475345572686487e-06   -1.3318060681838037e-05
-1.1533275545789473e-05   1.0435160912642847e-06   -1.2783870031354188e-05
-1.1533275545789473e-05   1.0435160912642847e-06   -1.2783870031354188e-05
-1.1533275545789473e-05   1.0435160912642847e-06   -1.2783870031354188e-05
-1.1533275545789473e-05   1.0435160912642847e-06   -1.2783870031354188e-05
-1.3084642973456255e-05   3.4300152236038575e-06   -1.393758293139521e-05
-1.3084642973456255e-05   3.4300152236038575e-06   -1.393758293139521e-05
-1.3084642973456255e-05   3.4300152236038575e-06   -1.393758293139521e-05
-1.3084642973456255e-05   3.4300152236038575e-06   -1.393758293139521e-05
-1.1973267590145682e-05   1.4613320376530336e-06   -1.1160068603969044e-05
-1.1973267590145682e-05   1.4613320376530336e-06   -1.1160068603969044e-05
-1.1973267590145682e-05   1.4613320376530336e-06   -1.1160068603969044e-05
-1.1973267590145682e-05   1.4613320376530336e-06   -1.1160068603969044e-05
-1.1037500275796114e-05   3.794991916032057e-06   -1.4119876721578885e-05
-1.1037500275796114e-05   3.794991916032057e-06   -1.4119876721578885e-05
-1.1037500275796114e-05   3.794991916032057e-06   -1.4119876721578885e-05
-1.1037500275796114e-05   3.794991916032057e-06   -1.4119876721578885e-05
-1.1649435258909166e-05   2.3171577287833204e-06   -1.2213284570708211e-05
-1.1649435258909166e-05   2.3171577287833204e-06   -1.2213284570708211e-05
-1.1649435258909166e-05   2.3171577287833204e-06   -1.2213284570708211e-05
-1.1649435258909166e-05   2.3171577287833204e-06   -1.2213284570708211e-05
-1.1037500275796086e-05   1.4613320376530336e-06   -1.2560264530996502e-05
-1.1037500275796086e-05   1.4613320376530336e-06   -1.2560264530996502e-05
-1.1037500275796086e-05   1.4613320376530336e-06   -1.2560264530996502e-05
-1.1037500275796086e-05   1.4613320376530336e-06   -1.2560264530996502e-05
-1.1973267590145682e-05   3.79499191603184e-06   -1.2719680794551495e-05
-1.1973267590145682e-05   3.79499191603184e-06   -1.2719680794551495e-05
-1.1973267590145682e-05   3.79499191603184e-06   -1.2719680794551495e-05
-1.1973267590145682e-05   3.79499191603184e-06   -1.2719680794551495e-05
-1.0612865529883726e-05   2.2011528831505445e-06   -1.1504806500566597e-05
-1.0612865529883726e-05   2.2011528831505445e-06   -1.1504806500566597e-05
-1.0612865529883726e-05   2.2011528831505445e-06   -1.1504806500566597e-05
-1.0612865529883726e-05   2.2011528831505445e-06   -1.1504806500566597e-05
-1.0648286121602089e-05   4.35927334969618e-06   -1.274064446096329e-05
-1.0648286121602089e-05   4.35927334969618e-06   -1.274064446096329e-05
-1.0648286121602089e-05   4.35927334969618e-06   -1.274064446096329e-05
-1.0648286121602089e-05   4.35927334969618e-06   -1.274064446096329e-05
-1.079074882627611e-05   2.6151406064161328e-06   -1.1456726973871909e-05
-1.079074882627611e-05   2.6151406064161328e-06   -1.1456726973871909e-05
-1.079074882627611e-05   2.6151406064161328e-06   -1.1456726973871909e-05
-1.079074882627611e-05   2.6151406064161328e-06   -1.1456726973871909e-05
7.03190357911784e-06   -6.950650458391501e-07   -7.134578260283952e-06
7.03190357911784e-06   -6.950650458391501e-07   -7.134578260283952e-06
7.03190357911784e-06   -6.950650458391501e-07   -7.134578260283952e-06
7.03190357911784e-06   -6.950650458391501e-07   -7.134578260283952e-06
7.26708991662735e-07   -2.9116004788358983e-06   -1.897315716584049e-05
7.26708991662735e-07   -2.9116004788358983e-06   -1.897315716584049e-05
7.26708991662735e-07   -2.9116004788358983e-06   -1.897315716584049e-05
7.26708991662735e-07   -2.9116004788358983e-06   -1.897315716584049e-05
1.2732914085481026e-06   -2.43465209902316e-08   -7.888401538940285e-06
1.2732914085481026e-06   -2.43465209902316e-08   -7.888401538940285e-06
1.2732914085481026e-06   -2.43465209902316e-08   -7.888401538940285e-06
1.2732914085481026e-06   -2.43465209902316e-08   -7.888401538940285e-06
8.564211952147207e-06   -2.393404897258356e-06   -1.8618500752511373e-05
8.564211952147207e-06   -2.393404897258356e-06   -1.8618500752511373e-05
8.564211952147207e-06   -2.393404897258356e-06   -1.8618500752511373e-05
8.564211952147207e-06   -2.393404897258356e-06   -1.8618500752511373e-05
4.234746477789413e-06   -1.2160834710630251e-06   -1.2109117817632226e-05
4.234746477789413e-06   -1.2160834710630251e-06   -1.2109117817632226e-05
4.234746477789413e-06   -1.2160834710630251e-06   -1.2109117817632226e-05
4.234746477789413e-06   -1.2160834710630251e-06   -1.2109117817632226e-05
8.564211952147207e-06   -2.43465209902316e-08   -6.466966513179388e-06
8.564211952147207e-06   -2.43465209902316e-08   -6.466966513179388e-06
8.564211952147207e-06   -2.43465209902316e-08   -6.466966513179388e-06
8.564211952147207e-06   -2.43465209902316e-08   -6.466966513179388e-06
1.2732914085481026e-06   -2.393404897258356e-06   -2.003993577827227e-05
1.2732914085481026e-06   -2.393404897258356e-06   -2.003993577827227e-05
1.2732914085481026e-06   -2.393404897258356e-06   -2.003993577827227e-05
1.2732914085481026e-06   -2.393404897258356e-06   -2.003993577827227e-05
1.917925767526673e-06   3.5567258236876564e-07   -7.95091511848864e-06
1.917925767526673e-06   3.5567258236876564e-07   -7.95091511848864e-06
1.917925767526673e-06   3.5567258236876564e-07   -7.95091511848864e-06
1.917925767526673e-06   3.5567258236876564e-07   -7.95091511848864e-06
9.858393855888671e-06   -2.0472398785428402e-06   -1.974328112254491e-05
9.858393855888671e-06   -2.0472398785428402e-06   -1.974328112254491e-05
9.858393855888671e-06   -2.0472398785428402e-06   -1.974328112254491e-05
9.858393855888671e-06   -2.0472398785428402e-06   -1.974328112254491e-05
5.205988376684372e-06   -9.735150205340652e-07   -1.2633506905343668e-05
5.205988376684372e-06   -9.735150205340652e-07   -1.2633506905343668e-05
5.205988376684372e-06   -9.735150205340652e-07   -1.2633506905343668e-05
5.205988376684372e-06   -9.735150205340652e-07   -1.2633506905343668e-05
9.858393855888725e-06   3.5567258236876564e-07   -6.50916764194159e-06
9.858393855888725e-06   3.5567258236876564e-07   -6.50916764194159e-06
9.858393855888725e-06   3.5567258236876564e-07   -6.50916764194159e-06
9.858393855888725e-06   3.5567258236876564e-07   -6.50916764194159e-06
1.917925767526646e-06   -2.0472398785428402e-06   -2.1185028599092124e-05
1.917925767526646e-06   -2.0472398785428402e-06   -2.1185028599092124e-05
1.917925767526646e-06   -2.0472398785428402e-06   -2.1185028599092124e-05
1.917925767526646e-06   -2.0472398785428402e-06   -2.1185028599092124e-05
2.44780134311346e-06   1.1133867770733285e-06   -8.717663456352023e-06
2.44780134311346e-06   1.1133867770733285e-06   -8.717663456352023e-06
2.44780134311346e-06   1.1133867770733285e-06   -8.717663456352023e-06
2.44780134311346e-06   1.1133867770733285e-06   -8.717663456352023e-06
1.1413119542868762e-05   -1.1756670501969404e-06   -2.2286428159582058e-05
1.1413119542868762e-05   -1.1756670501969404e-06   -2.2286428159582058e-05
1.1413119542868762e-05   -1.1756670501969404e-06   -2.2286428159582058e-05
1.1413119542868762e-05   -1.1756670501969404e-06   -2.2286428159582058e-05
5.976991744783991e-06   -6.16700569185287e-07   -1.3561595051381692e-05
5.976991744783991e-06   -6.16700569185287e-07   -1.3561595051381692e-05
5.976991744783991e-06   -6.16700569185287e-07   -1.3561595051381692e-05
5.976991744783991e-06   -6.16700569185287e-07   -1.3561595051381692e-05
7.267089916627079e-07   -1.4860071194107254e-07   -2.06013320566738e-05
7.267089916627079e-07   -1.4860071194107254e-07   -2.06013320566738e-05
7.267089916627079e-07   -1.4860071194107254e-07   -2.06013320566738e-05
7.267089916627079e-07   -1.4860071194107254e-07   -2.06013320566738e-05
-6.618623261769597e-06   -1.1488324829880044e-06   -3.344369154168923e-05
-6.618623261769597e-06   -1.1488324829880044e-06   -3.344369154168923e-05
-6.618623261769597e-06   -1.1488324829880044e-06   -3.344369154168923e-05
-6.618623261769597e-06   -1.1488324829880044e-06   -3.344369154168923e-05
-6.1397680456444075e-06   6.98068146884551e-07   -2.071742735489275e-05
-6.1397680456444075e-06   6.98068146884551e-07   -2.071742735489275e-05
-6.1397680456444075e-06   6.98068146884551e-07   -2.071742735489275e-05
-6.1397680456444075e-06   6.98068146884551e-07   -2.071742735489275e-05
1.2732914085481026e-06   -4.3761713758262363e-07   -3.239111527453308e-05
1.2732914085481026e-06   -4.3761713758262363e-07   -3.239111527453308e-05
1.2732914085481026e-06   -4.3761713758262363e-07   -3.239111527453308e-05
1.2732914085481026e-06   -4.3761713758262363e-07   -3.239111527453308e-05
-2.6276151756384373e-06   -4.1218895911483006e-08   -2.6127443245891436e-05
-2.6276151756384373e-06   -4.1218895911483006e-08   -2.6127443245891436e-05
-2.6276151756384373e-06   -4.1218895911483006e-08   -2.6127443245891436e-05
-2.6276151756384373e-06   -4.1218895911483006e-08   -2.6127443245891436e-05
1.2732914085481026e-06   6.98068146884551e-07   -2.0036016184212142e-05
1.2732914085481026e-06   6.98068146884551e-07   -2.0036016184212142e-05
1.2732914085481026e-06   6.98068146884551e-07   -2.0036016184212142e-05
1.2732914085481026e-06   6.98068146884551e-07   -2.0036016184212142e-05
-6.1397680456444075e-06   -4.3761713758262363e-07   -3.307252644521358e-05
-6.1397680456444075e-06   -4.3761713758262363e-07   -3.307252644521358e-05
-6.1397680456444075e-06   -4.3761713758262363e-07   -3.307252644521358e-05
-6.1397680456444075e-06   -4.3761713758262363e-07   -3.307252644521358e-05
-5.658156739757504e-06   1.5136185569962837e-06   -2.0749044031398347e-05
-5.658156739757504e-06   1.5136185569962837e-06   -2.0749044031398347e-05
-5.658156739757504e-06   1.5136185569962837e-06   -2.0749044031398347e-05
-5.658156739757504e-06   1.5136185569962837e-06   -2.0749044031398347e-05
1.917925767526673e-06   2.980389100339705e-07   -3.2646500422028196e-05
1.917925767526673e-06   2.980389100339705e-07   -3.2646500422028196e-05
1.917925767526673e-06   2.980389100339705e-07   -3.2646500422028196e-05
1.917925767526673e-06   2.980389100339705e-07   -3.2646500422028196e-05
-2.2038630925953987e-06   5.43404665369774e-07   -2.5924071775026357e-05
-2.2038630925953987e-06   5.43404665369774e-07   -2.5924071775026357e-05
-2.2038630925953987e-06   5.43404665369774e-07   -2.5924071775026357e-05
-2.2038630925953987e-06   5.43404665369774e-07   -2.5924071775026357e-05
1.917925767526673e-06   1.5136185569960669e-06   -2.0019696243221198e-05
1.917925767526673e-06   1.5136185569960669e-06   -2.0019696243221198e-05
1.917925767526673e-06   1.5136185569960669e-06   -2.0019696243221198e-05
1.917925767526673e-06   1.5136185569960669e-06   -2.0019696243221198e-05
-5.658156739757504e-06   2.980389100337537e-07   -3.337584821020551e-05
-5.658156739757504e-06   2.980389100337537e-07   -3.337584821020551e-05
-5.658156739757504e-06   2.980389100337537e-07   -3.337584821020551e-05
-5.658156739757504e-06   2.980389100337537e-07   -3.337584821020551e-05
-5.198197971158076e-06   2.44529745980983e-06   -2.126964809183278e-05
-5.198197971158076e-06   2.44529745980983e-06   -2.126964809183278e-05
-5.198197971158076e-06   2.44529745980983e-06   -2.126964809183278e-05
-5.198197971158076e-06   2.44529745980983e-06   -2.126964809183278e-05
2.44780134311346e-06   1.1696172580017393e-06   -3.324757216120072e-05
2.44780134311346e-06   1.1696172580017393e-06   -3.324757216120072e-05
2.44780134311346e-06   1.1696172580017393e-06   -3.324757216120072e-05
2.44780134311346e-06   1.1696172580017393e-06   -3.324757216120072e-05
-1.7315805734318667e-06   1.1918438890486972e-06   -2.629527161225362e-05
-1.7315805734318667e-06   1.1918438890486972e-06   -2.629527161225362e-05
-1.7315805734318667e-06   1.1918438890486972e-06   -2.629527161225362e-05
-1.7315805734318667e-06   1.1918438890486972e-06   -2.629527161225362e-05
-6.618623261769611e-06   7.048604609158696e-07   -2.4946642801132284e-05
-6.618623261769611e-06   7.048604609158696e-07   -2.4946642801132284e-05
-6.618623261769611e-06   7.048604609158696e-07   -2.4946642801132284e-05
-6.618623261769611e-06   7.048604609158696e-07   -2.4946642801132284e-05
-1.389907878940416e-05   8.883545884841131e-07   -3.697063887064876e-05
-1.389907878940416e-05   8.883545884841131e-07   -3.697063887064876e-05
-1.389907878940416e-05   8.883545884841131e-07   -3.697063887064876e-05
-1.389907878940416e-05   8.883545884841131e-07   -3.697063887064876e-05
-1.3416955320622483e-05   1.5804753721122746e-06   -2.4498597628191694e-05
-1.3416955320622483e-05   1.5804753721122746e-06   -2.4498597628191694e-05
-1.3416955320622483e-05   1.5804753721122746e-06   -2.4498597628191694e-05
-1.3416955320622483e-05   1.5804753721122746e-06   -2.4498597628191694e-05
-6.1397680456444075e-06   1.641322838426924e-06   -3.6663751566277404e-05
-6.1397680456444075e-06   1.641322838426924e-06   -3.6663751566277404e-05
-6.1397680456444075e-06   1.641322838426924e-06   -3.6663751566277404e-05
-6.1397680456444075e-06   1.641322838426924e-06   -3.6663751566277404e-05
-9.960627061220934e-06   1.3572549218113152e-06   -3.012521245701387e-05
-9.960627061220934e-06   1.3572549218113152e-06   -3.012521245701387e-05
-9.960627061220934e-06   1.3572549218113152e-06   -3.012521245701387e-05
-9.960627061220934e-06   1.3572549218113152e-06   -3.012521245701387e-05
-6.1397680456444075e-06   1.5804753721122746e-06   -2.4535106107980483e-05
-6.1397680456444075e-06   1.5804753721122746e-06   -2.4535106107980483e-05
-6.1397680456444075e-06   1.5804753721122746e-06   -2.4535106107980483e-05
-6.1397680456444075e-06   1.5804753721122746e-06   -2.4535106107980483e-05
-1.3416955320622483e-05   1.641322838426924e-06   -3.662724308648856e-05
-1.3416955320622483e-05   1.641322838426924e-06   -3.662724308648856e-05
-1.3416955320622483e-05   1.641322838426924e-06   -3.662724308648856e-05
-1.3416955320622483e-05   1.641322838426924e-06   -3.662724308648856e-05
-1.2926894025466418e-05   2.4752577885969393e-06   -2.4561870336973156e-05
-1.2926894025466418e-05   2.4752577885969393e-06   -2.4561870336973156e-05
-1.2926894025466418e-05   2.4752577885969393e-06   -2.4561870336973156e-05
-1.2926894025466418e-05   2.4752577885969393e-06   -2.4561870336973156e-05
-5.658156739757518e-06   2.4382862129188228e-06   -3.665424953441454e-05
-5.658156739757518e-06   2.4382862129188228e-06   -3.665424953441454e-05
-5.658156739757518e-06   2.4382862129188228e-06   -3.665424953441454e-05
-5.658156739757518e-06   2.4382862129188228e-06   -3.665424953441454e-05
-9.536650844670172e-06   2.014784748178818e-06   -2.9935991814049825e-05
-9.536650844670172e-06   2.014784748178818e-06   -2.9935991814049825e-05
-9.536650844670172e-06   2.014784748178818e-06   -2.9935991814049825e-05
-9.536650844670172e-06   2.014784748178818e-06   -2.9935991814049825e-05
-5.658156739757518e-06   2.4752577885969393e-06   -2.4539687391566373e-05
-5.658156739757518e-06   2.4752577885969393e-06   -2.4539687391566373e-05
-5.658156739757518e-06   2.4752577885969393e-06   -2.4539687391566373e-05
-5.658156739757518e-06   2.4752577885969393e-06   -2.4539687391566373e-05
-1.2926894025466395e-05   2.4382862129190396e-06   -3.6676432479821404e-05
-1.2926894025466395e-05   2.4382862129190396e-06   -3.6676432479821404e-05
-1.2926894025466395e-05   2.4382862129190396e-06   -3.6676432479821404e-05
-1.2926894025466395e-05   2.4382862129190396e-06   -3.6676432479821404e-05
-1.245962787465216e-05   3.3824629921790084e-06   -2.511402207331639e-05
-1.245962787465216e-05   3.3824629921790084e-06   -2.511402207331639e-05
-1.245962787465216e-05   3.3824629921790084e-06   -2.511402207331639e-05
-1.245962787465216e-05   3.3824629921790084e-06   -2.511402207331639e-05
-5.198197971158103e-06   3.2490496673879144e-06   -3.713635725093186e-05
-5.198197971158103e-06   3.2490496673879144e-06   -3.713635725093186e-05
-5.198197971158103e-06   3.2490496673879144e-06   -3.713635725093186e-05
-5.198197971158103e-06   3.2490496673879144e-06   -3.713635725093186e-05
-9.14244156675326e-06   2.6823294321191155e-06   -3.0222585783779037e-05
-9.14244156675326e-06   2.6823294321191155e-06   -3.0222585783779037e-05
-9.14244156675326e-06   2.6823294321191155e-06   -3.0222585783779037e-05
-9.14244156675326e-06   2.6823294321191155e-06   -3.0222585783779037e-05
-1.3899078789404183e-05   1.5655425615475858e-06   -2.096998756706168e-05
-1.3899078789404183e-05   1.5655425615475858e-06   -2.096998756706168e-05
-1.3899078789404183e-05   1.5655425615475858e-06   -2.096998756706168e-05
-1.3899078789404183e-05   1.5655425615475858e-06   -2.096998756706168e-05
-2.1097164398702318e-05   2.8668663623345435e-06   -3.218600263541979e-05
-2.1097164398702318e-05   2.8668663623345435e-06   -3.218600263541979e-05
-2.1097164398702318e-05   2.8668663623345435e-06   -3.218600263541979e-05
-2.1097164398702318e-05   2.8668663623345435e-06   -3.218600263541979e-05
-2.054595318332955e-05   2.4443845987880304e-06   -1.974617761698889e-05
-2.054595318332955e-05   2.4443845987880304e-06   -1.974617761698889e-05
-2.054595318332955e-05   2.4443845987880304e-06   -1.974617761698889e-05
-2.054595318332955e-05   2.4443845987880304e-06   -1.974617761698889e-05
-1.3416955320622483e-05   3.6706258213514437e-06   -3.236358545503885e-05
-1.3416955320622483e-05   3.6706258213514437e-06   -3.236358545503885e-05
-1.3416955320622483e-05   3.6706258213514437e-06   -3.236358545503885e-05
-1.3416955320622483e-05   3.6706258213514437e-06   -3.236358545503885e-05
-1.7120318800351246e-05   2.740924132962853e-06   -2.5633491975791e-05
-1.7120318800351246e-05   2.740924132962853e-06   -2.5633491975791e-05
-1.7120318800351246e-05   2.740924132962853e-06   -2.5633491975791e-05
-1.7120318800351246e-05   2.740924132962853e-06   -2.5633491975791e-05
-1.3416955320622507e-05   2.4443845987880304e-06   -2.0481922350527155e-05
-1.3416955320622507e-05   2.4443845987880304e-06   -2.0481922350527155e-05
-1.3416955320622507e-05   2.4443845987880304e-06   -2.0481922350527155e-05
-1.3416955320622507e-05   2.4443845987880304e-06   -2.0481922350527155e-05
-2.0545953183329583e-05   3.6706258213514437e-06   -3.162784072150088e-05
-2.0545953183329583e-05   3.6706258213514437e-06   -3.162784072150088e-05
-2.0545953183329583e-05   3.6706258213514437e-06   -3.162784072150088e-05
-2.0545953183329583e-05   3.6706258213514437e-06   -3.162784072150088e-05
-1.988503879075999e-05   3.2548028257863796e-06   -1.9561459692301122e-05
-1.988503879075999e-05   3.2548028257863796e-06   -1.9561459692301122e-05
-1.988503879075999e-05   3.2548028257863796e-06   -1.9561459692301122e-05
-1.988503879075999e-05   3.2548028257863796e-06   -1.9561459692301122e-05
-1.2926894025466418e-05   4.394353800830659e-06   -3.184209821948341e-05
-1.2926894025466418e-05   4.394353800830659e-06   -3.184209821948341e-05
-1.2926894025466418e-05   4.394353800830659e-06   -3.184209821948341e-05
-1.2926894025466418e-05   4.394353800830659e-06   -3.184209821948341e-05
-1.6564315430211643e-05   3.3758636344761225e-06   -2.516863511176254e-05
-1.6564315430211643e-05   3.3758636344761225e-06   -2.516863511176254e-05
-1.6564315430211643e-05   3.3758636344761225e-06   -2.516863511176254e-05
-1.6564315430211643e-05   3.3758636344761225e-06   -2.516863511176254e-05
-1.2926894025466405e-05   3.2548028257863796e-06   -2.024519027732743e-05
-1.2926894025466405e-05   3.2548028257863796e-06   -2.024519027732743e-05
-1.2926894025466405e-05   3.2548028257863796e-06   -2.024519027732743e-05
-1.2926894025466405e-05   3.2548028257863796e-06   -2.024519027732743e-05
-1.988503879075999e-05   4.394353800830659e-06   -3.1158367634457154e-05
-1.988503879075999e-05   4.394353800830659e-06   -3.1158367634457154e-05
-1.988503879075999e-05   4.394353800830659e-06   -3.1158367634457154e-05
-1.988503879075999e-05   4.394353800830659e-06   -3.1158367634457154e-05
-1.933465682872196e-05   4.16251808945051e-06   -2.010286395354025e-05
-1.933465682872196e-05   4.16251808945051e-06   -2.010286395354025e-05
-1.933465682872196e-05   4.16251808945051e-06   -2.010286395354025e-05
-1.933465682872196e-05   4.16251808945051e-06   -2.010286395354025e-05
-1.245962787465216e-05   5.2035212666143565e-06   -3.218584744995489e-05
-1.245962787465216e-05   5.2035212666143565e-06   -3.218584744995489e-05
-1.245962787465216e-05   5.2035212666143565e-06   -3.218584744995489e-05
-1.245962787465216e-05   5.2035212666143565e-06   -3.218584744995489e-05
-1.6193361840492985e-05   4.001116875770568e-06   -2.5241514872380507e-05
-1.6193361840492985e-05   4.001116875770568e-06   -2.5241514872380507e-05
-1.6193361840492985e-05   4.001116875770568e-06   -2.5241514872380507e-05
-1.6193361840492985e-05   4.001116875770568e-06   -2.5241514872380507e-05
-2.1097164398702318e-05   2.6328081202484782e-06   -1.0843113409850919e-05
-2.1097164398702318e-05   2.6328081202484782e-06   -1.0843113409850919e-05
-2.1097164398702318e-05   2.6328081202484782e-06   -1.0843113409850919e-05
-2.1097164398702318e-05   2.6328081202484782e-06   -1.0843113409850919e-05
-2.9305469223663767e-05   4.929660216465787e-06   -2.314551019372312e-05
-2.9305469223663767e-05   4.929660216465787e-06   -2.314551019372312e-05
-2.9305469223663767e-05   4.929660216465787e-06   -2.314551019372312e-05
-2.9305469223663767e-05   4.929660216465787e-06   -2.314551019372312e-05
-2.7784750692455006e-05   3.4300152236038575e-06   -6.800922311970886e-06
-2.7784750692455006e-05   3.4300152236038575e-06   -6.800922311970886e-06
-2.7784750692455006e-05   3.4300152236038575e-06   -6.800922311970886e-06
-2.7784750692455006e-05   3.4300152236038575e-06   -6.800922311970886e-06
-2.054595318332955e-05   5.7646016884305325e-06   -2.0266336706075983e-05
-2.054595318332955e-05   5.7646016884305325e-06   -2.0266336706075983e-05
-2.054595318332955e-05   5.7646016884305325e-06   -2.0266336706075983e-05
-2.054595318332955e-05   5.7646016884305325e-06   -2.0266336706075983e-05
-2.3679233294748047e-05   4.284003556741071e-06   -1.4155844308031383e-05
-2.3679233294748047e-05   4.284003556741071e-06   -1.4155844308031383e-05
-2.3679233294748047e-05   4.284003556741071e-06   -1.4155844308031383e-05
-2.3679233294748047e-05   4.284003556741071e-06   -1.4155844308031383e-05
-2.054595318332957e-05   3.4300152236038575e-06   -8.20167419086676e-06
-2.054595318332957e-05   3.4300152236038575e-06   -8.20167419086676e-06
-2.054595318332957e-05   3.4300152236038575e-06   -8.20167419086676e-06
-2.054595318332957e-05   3.4300152236038575e-06   -8.20167419086676e-06
-2.778475069245491e-05   5.7646016884305325e-06   -1.8865584827180027e-05
-2.778475069245491e-05   5.7646016884305325e-06   -1.8865584827180027e-05
-2.778475069245491e-05   5.7646016884305325e-06   -1.8865584827180027e-05
-2.778475069245491e-05   5.7646016884305325e-06   -1.8865584827180027e-05
-2.6527902805771776e-05   3.794991916032057e-06   -5.572414133772543e-06
-2.6527902805771776e-05   3.794991916032057e-06   -5.572414133772543e-06
-2.6527902805771776e-05   3.794991916032057e-06   -5.572414133772543e-06
-2.6527902805771776e-05   3.794991916032057e-06   -5.572414133772543e-06
-1.988503879075994e-05   6.063924690945504e-06   -1.8005213823740453e-05
-1.988503879075994e-05   6.063924690945504e-06   -1.8005213823740453e-05
-1.988503879075994e-05   6.063924690945504e-06   -1.8005213823740453e-05
-1.988503879075994e-05   6.063924690945504e-06   -1.8005213823740453e-05
-2.3125291628833617e-05   4.660119268182e-06   -1.1762509173292708e-05
-2.3125291628833617e-05   4.660119268182e-06   -1.1762509173292708e-05
-2.3125291628833617e-05   4.660119268182e-06   -1.1762509173292708e-05
-2.3125291628833617e-05   4.660119268182e-06   -1.1762509173292708e-05
-1.988503879075999e-05   3.794991916032057e-06   -6.933773798720611e-06
-1.988503879075999e-05   3.794991916032057e-06   -6.933773798720611e-06
-1.988503879075999e-05   3.794991916032057e-06   -6.933773798720611e-06
-1.988503879075999e-05   3.794991916032057e-06   -6.933773798720611e-06
-2.6527902805771722e-05   6.063924690945504e-06   -1.6643854158792412e-05
-2.6527902805771722e-05   6.063924690945504e-06   -1.6643854158792412e-05
-2.6527902805771722e-05   6.063924690945504e-06   -1.6643854158792412e-05
-2.6527902805771722e-05   6.063924690945504e-06   -1.6643854158792412e-05
-2.504032737119728e-05   4.35927334969618e-06   -4.283395534151763e-06
-2.504032737119728e-05   4.35927334969618e-06   -4.283395534151763e-06
-2.504032737119728e-05   4.35927334969618e-06   -4.283395534151763e-06
-2.504032737119728e-05   4.35927334969618e-06   -4.283395534151763e-06
-1.933465682872196e-05   6.442163987172749e-06   -1.5042580820763375e-05
-1.933465682872196e-05   6.442163987172749e-06   -1.5042580820763375e-05
-1.933465682872196e-05   6.442163987172749e-06   -1.5042580820763375e-05
-1.933465682872196e-05   6.442163987172749e-06   -1.5042580820763375e-05
-2.1942655051380794e-05   4.8412588822327116e-06   -9.735374053367925e-06
-2.1942655051380794e-05   4.8412588822327116e-06   -9.735374053367925e-06
-2.1942655051380794e-05   4.8412588822327116e-06   -9.735374053367925e-06
-2.1942655051380794e-05   4.8412588822327116e-06   -9.735374053367925e-06
2.221038322702682e-05   -2.9116004788358983e-06   -1.2359324102931106e-07
2.221038322702682e-05   -2.9116004788358983e-06   -1.2359324102931106e-07
2.221038322702682e-05   -2.9116004788358983e-06   -1.2359324102931106e-07
2.221038322702682e-05   -2.9116004788358983e-06   -1.2359324102931106e-07
9.457988046563634e-06   -5.246298500350506e-06   -2.2778404021376567e-05
9.457988046563634e-06   -5.246298500350506e-06   -2.2778404021376567e-05
9.457988046563634e-06   -5.246298500350506e-06   -2.2778404021376567e-05
9.457988046563634e-06   -5.246298500350506e-06   -2.2778404021376567e-05
1.0124362999761489e-05   -2.393404897258573e-06   -2.461014574944159e-06
1.0124362999761489e-05   -2.393404897258573e-06   -2.461014574944159e-06
1.0124362999761489e-05   -2.393404897258573e-06   -2.461014574944159e-06
1.0124362999761489e-05   -2.393404897258573e-06   -2.461014574944159e-06
2.388394380290916e-05   -4.879751046054943e-06   -2.3901841557578886e-05
2.388394380290916e-05   -4.879751046054943e-06   -2.3901841557578886e-05
2.388394380290916e-05   -4.879751046054943e-06   -2.3901841557578886e-05
2.388394380290916e-05   -4.879751046054943e-06   -2.3901841557578886e-05
1.575665911927857e-05   -3.4594815937663125e-06   -1.1208528756234508e-05
1.575665911927857e-05   -3.4594815937663125e-06   -1.1208528756234508e-05
1.575665911927857e-05   -3.4594815937663125e-06   -1.1208528756234508e-05
1.575665911927857e-05   -3.4594815937663125e-06   -1.1208528756234508e-05
2.3883943802909186e-05   -2.393404897258573e-06   -9.69206885666229e-07
2.3883943802909186e-05   -2.393404897258573e-06   -9.69206885666229e-07
2.3883943802909186e-05   -2.393404897258573e-06   -9.69206885666229e-07
2.3883943802909186e-05   -2.393404897258573e-06   -9.69206885666229e-07
1.0124362999761434e-05   -4.879751046054943e-06   -2.539364924685698e-05
1.0124362999761434e-05   -4.879751046054943e-06   -2.539364924685698e-05
1.0124362999761434e-05   -4.879751046054943e-06   -2.539364924685698e-05
1.0124362999761434e-05   -4.879751046054943e-06   -2.539364924685698e-05
1.0862767623108434e-05   -2.047239878543057e-06   -3.486949198332808e-06
1.0862767623108434e-05   -2.047239878543057e-06   -3.486949198332808e-06
1.0862767623108434e-05   -2.047239878543057e-06   -3.486949198332808e-06
1.0862767623108434e-05   -2.047239878543057e-06   -3.486949198332808e-06
2.528900324259465e-05   -4.563921379168237e-06   -2.6020666330434593e-05
2.528900324259465e-05   -4.563921379168237e-06   -2.6020666330434593e-05
2.528900324259465e-05   -4.563921379168237e-06   -2.6020666330434593e-05
2.528900324259465e-05   -4.563921379168237e-06   -2.6020666330434593e-05
1.7013501457474768e-05   -3.318845827528444e-06   -1.2975208686218835e-05
1.7013501457474768e-05   -3.318845827528444e-06   -1.2975208686218835e-05
1.7013501457474768e-05   -3.318845827528444e-06   -1.2975208686218835e-05
1.7013501457474768e-05   -3.318845827528444e-06   -1.2975208686218835e-05
2.5289003242594705e-05   -2.047239878543057e-06   -1.9769402979575483e-06
2.5289003242594705e-05   -2.047239878543057e-06   -1.9769402979575483e-06
2.5289003242594705e-05   -2.047239878543057e-06   -1.9769402979575483e-06
2.5289003242594705e-05   -2.047239878543057e-06   -1.9769402979575483e-06
1.0862767623108407e-05   -4.563921379168237e-06   -2.753067523080996e-05
1.0862767623108407e-05   -4.563921379168237e-06   -2.753067523080996e-05
1.0862767623108407e-05   -4.563921379168237e-06   -2.753067523080996e-05
1.0862767623108407e-05   -4.563921379168237e-06   -2.753067523080996e-05
1.1472487073284403e-05   -1.1756670501969404e-06   -5.852113677247504e-06
1.1472487073284403e-05   -1.1756670501969404e-06   -5.852113677247504e-06
1.1472487073284403e-05   -1.1756670501969404e-06   -5.852113677247504e-06
1.1472487073284403e-05   -1.1756670501969404e-06   -5.852113677247504e-06
2.692055171657113e-05   -3.5660541900322217e-06   -3.0164655798824212e-05
2.692055171657113e-05   -3.5660541900322217e-06   -3.0164655798824212e-05
2.692055171657113e-05   -3.5660541900322217e-06   -3.0164655798824212e-05
2.692055171657113e-05   -3.5660541900322217e-06   -3.0164655798824212e-05
1.7692214247525787e-05   -2.92817875151871e-06   -1.5166818613524186e-05
1.7692214247525787e-05   -2.92817875151871e-06   -1.5166818613524186e-05
1.7692214247525787e-05   -2.92817875151871e-06   -1.5166818613524186e-05
1.7692214247525787e-05   -2.92817875151871e-06   -1.5166818613524186e-05
9.457988046563661e-06   -1.1488324829880044e-06   -1.539480736715865e-05
9.457988046563661e-06   -1.1488324829880044e-06   -1.539480736715865e-05
9.457988046563661e-06   -1.1488324829880044e-06   -1.539480736715865e-05
9.457988046563661e-06   -1.1488324829880044e-06   -1.539480736715865e-05
-4.0328652311093525e-06   -2.4526484664829946e-06   -3.866185242004357e-05
-4.0328652311093525e-06   -2.4526484664829946e-06   -3.866185242004357e-05
-4.0328652311093525e-06   -2.4526484664829946e-06   -3.866185242004357e-05
-4.0328652311093525e-06   -2.4526484664829946e-06   -3.866185242004357e-05
-3.413318608166613e-06   -4.376171375824068e-07   -1.5714947759093868e-05
-3.413318608166613e-06   -4.376171375824068e-07   -1.5714947759093868e-05
-3.413318608166613e-06   -4.376171375824068e-07   -1.5714947759093868e-05
-3.413318608166613e-06   -4.376171375824068e-07   -1.5714947759093868e-05
1.0124362999761462e-05   -1.9422066173972394e-06   -3.737499675108527e-05
1.0124362999761462e-05   -1.9422066173972394e-06   -3.737499675108527e-05
1.0124362999761462e-05   -1.9422066173972394e-06   -3.737499675108527e-05
1.0124362999761462e-05   -1.9422066173972394e-06   -3.737499675108527e-05
3.067385470170821e-06   -1.1851494451545035e-06   -2.606760183844638e-05
3.067385470170821e-06   -1.1851494451545035e-06   -2.606760183844638e-05
3.067385470170821e-06   -1.1851494451545035e-06   -2.606760183844638e-05
3.067385470170821e-06   -1.1851494451545035e-06   -2.606760183844638e-05
1.0124362999761462e-05   -4.376171375824068e-07   -1.4812194071205076e-05
1.0124362999761462e-05   -4.376171375824068e-07   -1.4812194071205076e-05
1.0124362999761462e-05   -4.376171375824068e-07   -1.4812194071205076e-05
1.0124362999761462e-05   -4.376171375824068e-07   -1.4812194071205076e-05
-3.413318608166613e-06   -1.9422066173972394e-06   -3.827775043897374e-05
-3.413318608166613e-06   -1.9422066173972394e-06   -3.827775043897374e-05
-3.413318608166613e-06   -1.9422066173972394e-06   -3.827775043897374e-05
-3.413318608166613e-06   -1.9422066173972394e-06   -3.827775043897374e-05
-2.821796252035734e-06   2.980389100337537e-07   -1.59182752172539e-05
-2.821796252035734e-06   2.980389100337537e-07   -1.59182752172539e-05
-2.821796252035734e-06   2.980389100337537e-07   -1.59182752172539e-05
-2.821796252035734e-06   2.980389100337537e-07   -1.59182752172539e-05
1.0862767623108407e-05   -1.3183847499410439e-06   -3.7756027479842575e-05
1.0862767623108407e-05   -1.3183847499410439e-06   -3.7756027479842575e-05
1.0862767623108407e-05   -1.3183847499410439e-06   -3.7756027479842575e-05
1.0862767623108407e-05   -1.3183847499410439e-06   -3.7756027479842575e-05
3.5583414203263324e-06   -7.333513089911696e-07   -2.5933003873108388e-05
3.5583414203263324e-06   -7.333513089911696e-07   -2.5933003873108388e-05
3.5583414203263324e-06   -7.333513089911696e-07   -2.5933003873108388e-05
3.5583414203263324e-06   -7.333513089911696e-07   -2.5933003873108388e-05
1.0862767623108434e-05   2.980389100339705e-07   -1.4948421021269043e-05
1.0862767623108434e-05   2.980389100339705e-07   -1.4948421021269043e-05
1.0862767623108434e-05   2.980389100339705e-07   -1.4948421021269043e-05
1.0862767623108434e-05   2.980389100339705e-07   -1.4948421021269043e-05
-2.821796252035734e-06   -1.3183847499410439e-06   -3.8725881675827486e-05
-2.821796252035734e-06   -1.3183847499410439e-06   -3.8725881675827486e-05
-2.821796252035734e-06   -1.3183847499410439e-06   -3.8725881675827486e-05
-2.821796252035734e-06   -1.3183847499410439e-06   -3.8725881675827486e-05
-2.2663459123928135e-06   1.1696172580017393e-06   -1.6461509209042286e-05
-2.2663459123928135e-06   1.1696172580017393e-06   -1.6461509209042286e-05
-2.2663459123928135e-06   1.1696172580017393e-06   -1.6461509209042286e-05
-2.2663459123928135e-06   1.1696172580017393e-06   -1.6461509209042286e-05
1.1472487073284403e-05   -5.331891195618516e-07   -3.8337880358632886e-05
1.1472487073284403e-05   -5.331891195618516e-07   -3.8337880358632886e-05
1.1472487073284403e-05   -5.331891195618516e-07   -3.8337880358632886e-05
1.1472487073284403e-05   -5.331891195618516e-07   -3.8337880358632886e-05
4.171807980247966e-06   -1.7595964160038724e-07   -2.6384419557016553e-05
4.171807980247966e-06   -1.7595964160038724e-07   -2.6384419557016553e-05
4.171807980247966e-06   -1.7595964160038724e-07   -2.6384419557016553e-05
4.171807980247966e-06   -1.7595964160038724e-07   -2.6384419557016553e-05
-4.032865231109366e-06   8.883545884841131e-07   -1.9814140762755886e-05
-4.032865231109366e-06   8.883545884841131e-07   -1.9814140762755886e-05
-4.032865231109366e-06   8.883545884841131e-07   -1.9814140762755886e-05
-4.032865231109366e-06   8.883545884841131e-07   -1.9814140762755886e-05
-1.7286060662086767e-05   4.5477368719416475e-07   -4.2162948355159045e-05
-1.7286060662086767e-05   4.5477368719416475e-07   -4.2162948355159045e-05
-1.7286060662086767e-05   4.5477368719416475e-07   -4.2162948355159045e-05
-1.7286060662086767e-05   4.5477368719416475e-07   -4.2162948355159045e-05
-1.6619272397822937e-05   1.641322838426924e-06   -1.9673922003729657e-05
-1.6619272397822937e-05   1.641322838426924e-06   -1.9673922003729657e-05
-1.6619272397822937e-05   1.641322838426924e-06   -1.9673922003729657e-05
-1.6619272397822937e-05   1.641322838426924e-06   -1.9673922003729657e-05
-3.413318608166613e-06   1.0284076324730551e-06   -4.1316095862918036e-05
-3.413318608166613e-06   1.0284076324730551e-06   -4.1316095862918036e-05
-3.413318608166613e-06   1.0284076324730551e-06   -4.1316095862918036e-05
-3.413318608166613e-06   1.0284076324730551e-06   -4.1316095862918036e-05
-1.0267272458162783e-05   1.2183644673569981e-06   -3.0006813547188015e-05
-1.0267272458162783e-05   1.2183644673569981e-06   -3.0006813547188015e-05
-1.0267272458162783e-05   1.2183644673569981e-06   -3.0006813547188015e-05
-1.0267272458162783e-05   1.2183644673569981e-06   -3.0006813547188015e-05
-3.413318608166613e-06   1.641322838426924e-06   -1.930617288015753e-05
-3.413318608166613e-06   1.641322838426924e-06   -1.930617288015753e-05
-3.413318608166613e-06   1.641322838426924e-06   -1.930617288015753e-05
-3.413318608166613e-06   1.641322838426924e-06   -1.930617288015753e-05
-1.6619272397822937e-05   1.0284076324730551e-06   -4.1683844986490325e-05
-1.6619272397822937e-05   1.0284076324730551e-06   -4.1683844986490325e-05
-1.6619272397822937e-05   1.0284076324730551e-06   -4.1683844986490325e-05
-1.6619272397822937e-05   1.0284076324730551e-06   -4.1683844986490325e-05
-1.5976030451158533e-05   2.4382862129190396e-06   -1.9644325727578675e-05
-1.5976030451158533e-05   2.4382862129190396e-06   -1.9644325727578675e-05
-1.5976030451158533e-05   2.4382862129190396e-06   -1.9644325727578675e-05
-1.5976030451158533e-05   2.4382862129190396e-06   -1.9644325727578675e-05
-2.821796252035734e-06   1.6922042360594577e-06   -4.112040020666773e-05
-2.821796252035734e-06   1.6922042360594577e-06   -4.112040020666773e-05
-2.821796252035734e-06   1.6922042360594577e-06   -4.112040020666773e-05
-2.821796252035734e-06   1.6922042360594577e-06   -4.112040020666773e-05
-9.693769344142734e-06   1.7554960819333304e-06   -2.9705086827347166e-05
-9.693769344142734e-06   1.7554960819333304e-06   -2.9705086827347166e-05
-9.693769344142734e-06   1.7554960819333304e-06   -2.9705086827347166e-05
-9.693769344142734e-06   1.7554960819333304e-06   -2.9705086827347166e-05
-2.821796252035734e-06   2.4382862129188228e-06   -1.9196676541463013e-05
-2.821796252035734e-06   2.4382862129188228e-06   -1.9196676541463013e-05
-2.821796252035734e-06   2.4382862129188228e-06   -1.9196676541463013e-05
-2.821796252035734e-06   2.4382862129188228e-06   -1.9196676541463013e-05
-1.5976030451158533e-05   1.6922042360594577e-06   -4.156804939278356e-05
-1.5976030451158533e-05   1.6922042360594577e-06   -4.156804939278356e-05
-1.5976030451158533e-05   1.6922042360594577e-06   -4.156804939278356e-05
-1.5976030451158533e-05   1.6922042360594577e-06   -4.156804939278356e-05
-1.5381659576903227e-05   3.2490496673879144e-06   -2.0107441238502877e-05
-1.5381659576903227e-05   3.2490496673879144e-06   -2.0107441238502877e-05
-1.5381659576903227e-05   3.2490496673879144e-06   -2.0107441238502877e-05
-1.5381659576903227e-05   3.2490496673879144e-06   -2.0107441238502877e-05
-2.2663459123928135e-06   2.378124566030813e-06   -4.144374228520623e-05
-2.2663459123928135e-06   2.378124566030813e-06   -4.144374228520623e-05
-2.2663459123928135e-06   2.378124566030813e-06   -4.144374228520623e-05
-2.2663459123928135e-06   2.378124566030813e-06   -4.144374228520623e-05
-9.181623482910481e-06   2.3066294938445166e-06   -2.9875382624365197e-05
-9.181623482910481e-06   2.3066294938445166e-06   -2.9875382624365197e-05
-9.181623482910481e-06   2.3066294938445166e-06   -2.9875382624365197e-05
-9.181623482910481e-06   2.3066294938445166e-06   -2.9875382624365197e-05
-1.72860606620868e-05   2.8668663623345435e-06   -1.6070447348773016e-05
-1.72860606620868e-05   2.8668663623345435e-06   -1.6070447348773016e-05
-1.72860606620868e-05   2.8668663623345435e-06   -1.6070447348773016e-05
-1.72860606620868e-05   2.8668663623345435e-06   -1.6070447348773016e-05
-3.0298626947174948e-05   3.466395697477318e-06   -3.739834022283451e-05
-3.0298626947174948e-05   3.466395697477318e-06   -3.739834022283451e-05
-3.0298626947174948e-05   3.466395697477318e-06   -3.739834022283451e-05
-3.0298626947174948e-05   3.466395697477318e-06   -3.739834022283451e-05
-2.9494629796746898e-05   3.6706258213514437e-06   -1.5096094761943984e-05
-2.9494629796746898e-05   3.6706258213514437e-06   -1.5096094761943984e-05
-2.9494629796746898e-05   3.6706258213514437e-06   -1.5096094761943984e-05
-2.9494629796746898e-05   3.6706258213514437e-06   -1.5096094761943984e-05
-1.6619272397822964e-05   4.19424183857901e-06   -3.686919337048693e-05
-1.6619272397822964e-05   4.19424183857901e-06   -3.686919337048693e-05
-1.6619272397822964e-05   4.19424183857901e-06   -3.686919337048693e-05
-1.6619272397822964e-05   4.19424183857901e-06   -3.686919337048693e-05
-2.325360417010574e-05   3.700870305003122e-06   -2.5515950829870184e-05
-2.325360417010574e-05   3.700870305003122e-06   -2.5515950829870184e-05
-2.325360417010574e-05   3.700870305003122e-06   -2.5515950829870184e-05
-2.325360417010574e-05   3.700870305003122e-06   -2.5515950829870184e-05
-1.6619272397822964e-05   3.6706258213514437e-06   -1.5410264372280242e-05
-1.6619272397822964e-05   3.6706258213514437e-06   -1.5410264372280242e-05
-1.6619272397822964e-05   3.6706258213514437e-06   -1.5410264372280242e-05
-1.6619272397822964e-05   3.6706258213514437e-06   -1.5410264372280242e-05
-2.9494629796746952e-05   4.19424183857901e-06   -3.655502376015071e-05
-2.9494629796746952e-05   4.19424183857901e-06   -3.655502376015071e-05
-2.9494629796746952e-05   4.19424183857901e-06   -3.655502376015071e-05
-2.9494629796746952e-05   4.19424183857901e-06   -3.655502376015071e-05
-2.8604288507800996e-05   4.394353800830659e-06   -1.4554021575637825e-05
-2.8604288507800996e-05   4.394353800830659e-06   -1.4554021575637825e-05
-2.8604288507800996e-05   4.394353800830659e-06   -1.4554021575637825e-05
-2.8604288507800996e-05   4.394353800830659e-06   -1.4554021575637825e-05
-1.5976030451158563e-05   4.820970286835034e-06   -3.585708822831156e-05
-1.5976030451158563e-05   4.820970286835034e-06   -3.585708822831156e-05
-1.5976030451158563e-05   4.820970286835034e-06   -3.585708822831156e-05
-1.5976030451158563e-05   4.820970286835034e-06   -3.585708822831156e-05
-2.2439672278625625e-05   4.267947213331064e-06   -2.47525380050972e-05
-2.2439672278625625e-05   4.267947213331064e-06   -2.47525380050972e-05
-2.2439672278625625e-05   4.267947213331064e-06   -2.47525380050972e-05
-2.2439672278625625e-05   4.267947213331064e-06   -2.47525380050972e-05
-1.597603045115855e-05   4.394353800830659e-06   -1.4809991467240624e-05
-1.597603045115855e-05   4.394353800830659e-06   -1.4809991467240624e-05
-1.597603045115855e-05   4.394353800830659e-06   -1.4809991467240624e-05
-1.597603045115855e-05   4.394353800830659e-06   -1.4809991467240624e-05
-2.8604288507800996e-05   4.820970286835034e-06   -3.560111833670872e-05
-2.8604288507800996e-05   4.820970286835034e-06   -3.560111833670872e-05
-2.8604288507800996e-05   4.820970286835034e-06   -3.560111833670872e-05
-2.8604288507800996e-05   4.820970286835034e-06   -3.560111833670872e-05
-2.7852130734929532e-05   5.2035212666143565e-06   -1.489069846622663e-05
-2.7852130734929532e-05   5.2035212666143565e-06   -1.489069846622663e-05
-2.7852130734929532e-05   5.2035212666143565e-06   -1.489069846622663e-05
-2.7852130734929532e-05   5.2035212666143565e-06   -1.489069846622663e-05
-1.5381659576903254e-05   5.513829560655371e-06   -3.5861002039361966e-05
-1.5381659576903254e-05   5.513829560655371e-06   -3.5861002039361966e-05
-1.5381659576903254e-05   5.513829560655371e-06   -3.5861002039361966e-05
-1.5381659576903254e-05   5.513829560655371e-06   -3.5861002039361966e-05
-2.1935109100830982e-05   4.7900942228636285e-06   -2.450434496347398e-05
-2.1935109100830982e-05   4.7900942228636285e-06   -2.450434496347398e-05
-2.1935109100830982e-05   4.7900942228636285e-06   -2.450434496347398e-05
-2.1935109100830982e-05   4.7900942228636285e-06   -2.450434496347398e-05
-3.0298626947174948e-05   4.929660216465787e-06   -8.048348563721155e-06
-3.0298626947174948e-05   4.929660216465787e-06   -8.048348563721155e-06
-3.0298626947174948e-05   4.929660216465787e-06   -8.048348563721155e-06
-3.0298626947174948e-05   4.929660216465787e-06   -8.048348563721155e-06
-4.401166270053415e-05   6.80600819912198e-06   -2.9777599363059546e-05
-4.401166270053415e-05   6.80600819912198e-06   -2.9777599363059546e-05
-4.401166270053415e-05   6.80600819912198e-06   -2.9777599363059546e-05
-4.401166270053415e-05   6.80600819912198e-06   -2.9777599363059546e-05
-4.216021024733376e-05   5.7646016884305325e-06   -2.5294487058207926e-06
-4.216021024733376e-05   5.7646016884305325e-06   -2.5294487058207926e-06
-4.216021024733376e-05   5.7646016884305325e-06   -2.5294487058207926e-06
-4.216021024733376e-05   5.7646016884305325e-06   -2.5294487058207926e-06
-2.9494629796746898e-05   7.773171756261105e-06   -2.4843891497497378e-05
-2.9494629796746898e-05   7.773171756261105e-06   -2.4843891497497378e-05
-2.9494629796746898e-05   7.773171756261105e-06   -2.4843891497497378e-05
-2.9494629796746898e-05   7.773171756261105e-06   -2.4843891497497378e-05
-3.4982940688505645e-05   6.483775531952295e-06   -1.4923068943314022e-05
-3.4982940688505645e-05   6.483775531952295e-06   -1.4923068943314022e-05
-3.4982940688505645e-05   6.483775531952295e-06   -1.4923068943314022e-05
-3.4982940688505645e-05   6.483775531952295e-06   -1.4923068943314022e-05
-2.949462979674692e-05   5.7646016884305325e-06   -3.7345907465190058e-06
-2.949462979674692e-05   5.7646016884305325e-06   -3.7345907465190058e-06
-2.949462979674692e-05   5.7646016884305325e-06   -3.7345907465190058e-06
-2.949462979674692e-05   5.7646016884305325e-06   -3.7345907465190058e-06
-4.216021024733368e-05   7.773171756261105e-06   -2.3638749456798792e-05
-4.216021024733368e-05   7.773171756261105e-06   -2.3638749456798792e-05
-4.216021024733368e-05   7.773171756261105e-06   -2.3638749456798792e-05
-4.216021024733368e-05   7.773171756261105e-06   -2.3638749456798792e-05
-4.063676192783804e-05   6.063924690945287e-06   -2.2251713590216039e-07
-4.063676192783804e-05   6.063924690945287e-06   -2.2251713590216039e-07
-4.063676192783804e-05   6.063924690945287e-06   -2.2251713590216039e-07
-4.063676192783804e-05   6.063924690945287e-06   -2.2251713590216039e-07
-2.8604288507800996e-05   8.027842405977734e-06   -2.1454990131649733e-05
-2.8604288507800996e-05   8.027842405977734e-06   -2.1454990131649733e-05
-2.8604288507800996e-05   8.027842405977734e-06   -2.1454990131649733e-05
-2.8604288507800996e-05   8.027842405977734e-06   -2.1454990131649733e-05
-3.435609274951863e-05   6.869871440830363e-06   -1.1173867149698316e-05
-3.435609274951863e-05   6.869871440830363e-06   -1.1173867149698316e-05
-3.435609274951863e-05   6.869871440830363e-06   -1.1173867149698316e-05
-3.435609274951863e-05   6.869871440830363e-06   -1.1173867149698316e-05
-2.8604288507800996e-05   6.063924690945287e-06   -1.40086776492126e-06
-2.8604288507800996e-05   6.063924690945287e-06   -1.40086776492126e-06
-2.8604288507800996e-05   6.063924690945287e-06   -1.40086776492126e-06
-2.8604288507800996e-05   6.063924690945287e-06   -1.40086776492126e-06
-4.063676192783789e-05   8.027842405977734e-06   -2.02766395026306e-05
-4.063676192783789e-05   8.027842405977734e-06   -2.02766395026306e-05
-4.063676192783789e-05   8.027842405977734e-06   -2.02766395026306e-05
-4.063676192783789e-05   8.027842405977734e-06   -2.02766395026306e-05
-3.8992003711776406e-05   6.442163987172749e-06   2.7101103134250133e-06
-3.8992003711776406e-05   6.442163987172749e-06   2.7101103134250133e-06
-3.8992003711776406e-05   6.442163987172749e-06   2.7101103134250133e-06
-3.8992003711776406e-05   6.442163987172749e-06   2.7101103134250133e-06
-2.7852130734929532e-05   8.245737415103847e-06   -1.693848870474484e-05
-2.7852130734929532e-05   8.245737415103847e-06   -1.693848870474484e-05
-2.7852130734929532e-05   8.245737415103847e-06   -1.693848870474484e-05
-2.7852130734929532e-05   8.245737415103847e-06   -1.693848870474484e-05
-3.2809521343922586e-05   6.932679499163609e-06   -7.888336273525942e-06
-3.2809521343922586e-05   6.932679499163609e-06   -7.888336273525942e-06
-3.2809521343922586e-05   6.932679499163609e-06   -7.888336273525942e-06
-3.2809521343922586e-05   6.932679499163609e-06   -7.888336273525942e-06
3.7641342489177766e-05   -5.246298500350506e-06   7.505112222022789e-06
3.7641342489177766e-05   -5.246298500350506e-06   7.505112222022789e-06
3.7641342489177766e-05   -5.246298500350506e-06   7.505112222022789e-06
3.7641342489177766e-05   -5.246298500350506e-06   7.505112222022789e-06
1.8130422154630173e-05   -7.761813294625015e-06   -2.652239721212101e-05
1.8130422154630173e-05   -7.761813294625015e-06   -2.652239721212101e-05
1.8130422154630173e-05   -7.761813294625015e-06   -2.652239721212101e-05
1.8130422154630173e-05   -7.761813294625015e-06   -2.652239721212101e-05
1.8868673430054867e-05   -4.879751046054943e-06   3.6416270711707877e-06
1.8868673430054867e-05   -4.879751046054943e-06   3.6416270711707877e-06
1.8868673430054867e-05   -4.879751046054943e-06   3.6416270711707877e-06
1.8868673430054867e-05   -4.879751046054943e-06   3.6416270711707877e-06
3.935898540920326e-05   -7.5813026418013706e-06   -2.8887961936628723e-05
3.935898540920326e-05   -7.5813026418013706e-06   -2.8887961936628723e-05
3.935898540920326e-05   -7.5813026418013706e-06   -2.8887961936628723e-05
3.935898540920326e-05   -7.5813026418013706e-06   -2.8887961936628723e-05
2.734070115415846e-05   -5.742854605974516e-06   -9.960556999716904e-06
2.734070115415846e-05   -5.742854605974516e-06   -9.960556999716904e-06
2.734070115415846e-05   -5.742854605974516e-06   -9.960556999716904e-06
2.734070115415846e-05   -5.742854605974516e-06   -9.960556999716904e-06
3.935898540920332e-05   -4.879751046054943e-06   5.262558028618558e-06
3.935898540920332e-05   -4.879751046054943e-06   5.262558028618558e-06
3.935898540920332e-05   -4.879751046054943e-06   5.262558028618558e-06
3.935898540920332e-05   -4.879751046054943e-06   5.262558028618558e-06
1.886867343005484e-05   -7.5813026418013706e-06   -3.050889289407644e-05
1.886867343005484e-05   -7.5813026418013706e-06   -3.050889289407644e-05
1.886867343005484e-05   -7.5813026418013706e-06   -3.050889289407644e-05
1.886867343005484e-05   -7.5813026418013706e-06   -3.050889289407644e-05
1.9603175252396615e-05   -4.563921379168454e-06   1.7496877110340613e-06
1.9603175252396615e-05   -4.563921379168454e-06   1.7496877110340613e-06
1.9603175252396615e-05   -4.563921379168454e-06   1.7496877110340613e-06
1.9603175252396615e-05   -4.563921379168454e-06   1.7496877110340613e-06
4.067683509532339e-05   -7.317847076653353e-06   -3.1720723275353076e-05
4.067683509532339e-05   -7.317847076653353e-06   -3.1720723275353076e-05
4.067683509532339e-05   -7.317847076653353e-06   -3.1720723275353076e-05
4.067683509532339e-05   -7.317847076653353e-06   -3.1720723275353076e-05
2.8787898667096678e-05   -5.7237235225342156e-06   -1.2862303360780005e-05
2.8787898667096678e-05   -5.7237235225342156e-06   -1.2862303360780005e-05
2.8787898667096678e-05   -5.7237235225342156e-06   -1.2862303360780005e-05
2.8787898667096678e-05   -5.7237235225342156e-06   -1.2862303360780005e-05
4.067683509532339e-05   -4.563921379168454e-06   3.402043129524914e-06
4.067683509532339e-05   -4.563921379168454e-06   3.402043129524914e-06
4.067683509532339e-05   -4.563921379168454e-06   3.402043129524914e-06
4.067683509532339e-05   -4.563921379168454e-06   3.402043129524914e-06
1.9603175252396615e-05   -7.317847076653136e-06   -3.337307869384393e-05
1.9603175252396615e-05   -7.317847076653136e-06   -3.337307869384393e-05
1.9603175252396615e-05   -7.317847076653136e-06   -3.337307869384393e-05
1.9603175252396615e-05   -7.317847076653136e-06   -3.337307869384393e-05
2.0101408383023703e-05   -3.5660541900322217e-06   -2.05810438670055e-06
2.0101408383023703e-05   -3.5660541900322217e-06   -2.05810438670055e-06
2.0101408383023703e-05   -3.5660541900322217e-06   -2.05810438670055e-06
2.0101408383023703e-05   -3.5660541900322217e-06   -2.05810438670055e-06
4.2070586806948284e-05   -6.291168725714672e-06   -3.7038333038498994e-05
4.2070586806948284e-05   -6.291168725714672e-06   -3.7038333038498994e-05
4.2070586806948284e-05   -6.291168725714672e-06   -3.7038333038498994e-05
4.2070586806948284e-05   -6.291168725714672e-06   -3.7038333038498994e-05
2.9189676316859607e-05   -5.283317875027973e-06   -1.617485939876351e-05
2.9189676316859607e-05   -5.283317875027973e-06   -1.617485939876351e-05
2.9189676316859607e-05   -5.283317875027973e-06   -1.617485939876351e-05
2.9189676316859607e-05   -5.283317875027973e-06   -1.617485939876351e-05
1.81304221546302e-05   -2.4526484664827777e-06   -9.10535546311199e-06
1.81304221546302e-05   -2.4526484664827777e-06   -9.10535546311199e-06
1.81304221546302e-05   -2.4526484664827777e-06   -9.10535546311199e-06
1.81304221546302e-05   -2.4526484664827777e-06   -9.10535546311199e-06
-1.1139770755479395e-06   -5.0200918815638835e-06   -4.271982022912451e-05
-1.1139770755479395e-06   -5.0200918815638835e-06   -4.271982022912451e-05
-1.1139770755479395e-06   -5.0200918815638835e-06   -4.271982022912451e-05
-1.1139770755479395e-06   -5.0200918815638835e-06   -4.271982022912451e-05
-3.5652989588534384e-07   -1.9422066173972394e-06   -1.004142693674737e-05
-3.5652989588534384e-07   -1.9422066173972394e-06   -1.004142693674737e-05
-3.5652989588534384e-07   -1.9422066173972394e-06   -1.004142693674737e-05
-3.5652989588534384e-07   -1.9422066173972394e-06   -1.004142693674737e-05
1.8868673430054867e-05   -4.778384123546543e-06   -4.0381725976291186e-05
1.8868673430054867e-05   -4.778384123546543e-06   -4.0381725976291186e-05
1.8868673430054867e-05   -4.778384123546543e-06   -4.0381725976291186e-05
1.8868673430054867e-05   -4.778384123546543e-06   -4.0381725976291186e-05
8.908582715217194e-06   -3.037588730648872e-06   -2.482605202063355e-05
8.908582715217194e-06   -3.037588730648872e-06   -2.482605202063355e-05
8.908582715217194e-06   -3.037588730648872e-06   -2.482605202063355e-05
8.908582715217194e-06   -3.037588730648872e-06   -2.482605202063355e-05
1.8868673430054867e-05   -1.9422066173972394e-06   -8.339720433057397e-06
1.8868673430054867e-05   -1.9422066173972394e-06   -8.339720433057397e-06
1.8868673430054867e-05   -1.9422066173972394e-06   -8.339720433057397e-06
1.8868673430054867e-05   -1.9422066173972394e-06   -8.339720433057397e-06
-3.5652989588534384e-07   -4.778384123546543e-06   -4.2083432479980915e-05
-3.5652989588534384e-07   -4.778384123546543e-06   -4.2083432479980915e-05
-3.5652989588534384e-07   -4.778384123546543e-06   -4.2083432479980915e-05
-3.5652989588534384e-07   -4.778384123546543e-06   -4.2083432479980915e-05
3.107437735515528e-07   -1.3183847499410439e-06   -1.0282265561306798e-05
3.107437735515528e-07   -1.3183847499410439e-06   -1.0282265561306798e-05
3.107437735515528e-07   -1.3183847499410439e-06   -1.0282265561306798e-05
3.107437735515528e-07   -1.3183847499410439e-06   -1.0282265561306798e-05
1.9603175252396615e-05   -4.329386455454191e-06   -4.0629717002740526e-05
1.9603175252396615e-05   -4.329386455454191e-06   -4.0629717002740526e-05
1.9603175252396615e-05   -4.329386455454191e-06   -4.0629717002740526e-05
1.9603175252396615e-05   -4.329386455454191e-06   -4.0629717002740526e-05
9.423325514658645e-06   -2.7869080484750185e-06   -2.4588787817364272e-05
9.423325514658645e-06   -2.7869080484750185e-06   -2.4588787817364272e-05
9.423325514658645e-06   -2.7869080484750185e-06   -2.4588787817364272e-05
9.423325514658645e-06   -2.7869080484750185e-06   -2.4588787817364272e-05
1.9603175252396615e-05   -1.3183847499410439e-06   -8.475664537998823e-06
1.9603175252396615e-05   -1.3183847499410439e-06   -8.475664537998823e-06
1.9603175252396615e-05   -1.3183847499410439e-06   -8.475664537998823e-06
1.9603175252396615e-05   -1.3183847499410439e-06   -8.475664537998823e-06
3.107437735515528e-07   -4.329386455454408e-06   -4.243631802604872e-05
3.107437735515528e-07   -4.329386455454408e-06   -4.243631802604872e-05
3.107437735515528e-07   -4.329386455454408e-06   -4.243631802604872e-05
3.107437735515528e-07   -4.329386455454408e-06   -4.243631802604872e-05
7.855280158963057e-07   -5.331891195618516e-07   -1.0691474772235154e-05
7.855280158963057e-07   -5.331891195618516e-07   -1.0691474772235154e-05
7.855280158963057e-07   -5.331891195618516e-07   -1.0691474772235154e-05
7.855280158963057e-07   -5.331891195618516e-07   -1.0691474772235154e-05
2.010140838302373e-05   -3.6904859689410735e-06   -4.0990230607820544e-05
2.010140838302373e-05   -3.6904859689410735e-06   -4.0990230607820544e-05
2.010140838302373e-05   -3.6904859689410735e-06   -4.0990230607820544e-05
2.010140838302373e-05   -3.6904859689410735e-06   -4.0990230607820544e-05
1.0040814203770091e-05   -2.345802601126136e-06   -2.5029383663087174e-05
1.0040814203770091e-05   -2.345802601126136e-06   -2.5029383663087174e-05
1.0040814203770091e-05   -2.345802601126136e-06   -2.5029383663087174e-05
1.0040814203770091e-05   -2.345802601126136e-06   -2.5029383663087174e-05
-1.1139770755479395e-06   4.5477368719416475e-07   -1.3886768906502334e-05
-1.1139770755479395e-06   4.5477368719416475e-07   -1.3886768906502334e-05
-1.1139770755479395e-06   4.5477368719416475e-07   -1.3886768906502334e-05
-1.1139770755479395e-06   4.5477368719416475e-07   -1.3886768906502334e-05
-2.0074140151717873e-05   -2.6207710012780654e-06   -4.7332367513202135e-05
-2.0074140151717873e-05   -2.6207710012780654e-06   -4.7332367513202135e-05
-2.0074140151717873e-05   -2.6207710012780654e-06   -4.7332367513202135e-05
-2.0074140151717873e-05   -2.6207710012780654e-06   -4.7332367513202135e-05
-1.9165211709150743e-05   1.0284076324730551e-06   -1.5098146060085749e-05
-1.9165211709150743e-05   1.0284076324730551e-06   -1.5098146060085749e-05
-1.9165211709150743e-05   1.0284076324730551e-06   -1.5098146060085749e-05
-1.9165211709150743e-05   1.0284076324730551e-06   -1.5098146060085749e-05
-3.5652989588534384e-07   -2.3355485331841633e-06   -4.442757538280042e-05
-3.5652989588534384e-07   -2.3355485331841633e-06   -4.442757538280042e-05
-3.5652989588534384e-07   -2.3355485331841633e-06   -4.442757538280042e-05
-3.5652989588534384e-07   -2.3355485331841633e-06   -4.442757538280042e-05
-1.0057177215385414e-05   -4.968269041636351e-07   -2.936306282771262e-05
-1.0057177215385414e-05   -4.968269041636351e-07   -2.936306282771262e-05
-1.0057177215385414e-05   -4.968269041636351e-07   -2.936306282771262e-05
-1.0057177215385414e-05   -4.968269041636351e-07   -2.936306282771262e-05
-3.5652989588534384e-07   1.0284076324730551e-06   -1.3079772360691504e-05
-3.5652989588534384e-07   1.0284076324730551e-06   -1.3079772360691504e-05
-3.5652989588534384e-07   1.0284076324730551e-06   -1.3079772360691504e-05
-3.5652989588534384e-07   1.0284076324730551e-06   -1.3079772360691504e-05
-1.9165211709150743e-05   -2.33554853318438e-06   -4.644594908219477e-05
-1.9165211709150743e-05   -2.33554853318438e-06   -4.644594908219477e-05
-1.9165211709150743e-05   -2.33554853318438e-06   -4.644594908219477e-05
-1.9165211709150743e-05   -2.33554853318438e-06   -4.644594908219477e-05
-1.8331332554916802e-05   1.6922042360594577e-06   -1.4827893131369235e-05
-1.8331332554916802e-05   1.6922042360594577e-06   -1.4827893131369235e-05
-1.8331332554916802e-05   1.6922042360594577e-06   -1.4827893131369235e-05
-1.8331332554916802e-05   1.6922042360594577e-06   -1.4827893131369235e-05
3.107437735515528e-07   -1.8929774959781237e-06   -4.3746911306261055e-05
3.107437735515528e-07   -1.8929774959781237e-06   -4.3746911306261055e-05
3.107437735515528e-07   -1.8929774959781237e-06   -4.3746911306261055e-05
3.107437735515528e-07   -1.8929774959781237e-06   -4.3746911306261055e-05
-9.317166244614472e-06   -1.7080854348375946e-07   -2.873369598081413e-05
-9.317166244614472e-06   -1.7080854348375946e-07   -2.873369598081413e-05
-9.317166244614472e-06   -1.7080854348375946e-07   -2.873369598081413e-05
-9.317166244614472e-06   -1.7080854348375946e-07   -2.873369598081413e-05
3.107437735515528e-07   1.6922042360594577e-06   -1.267678409214699e-05
3.107437735515528e-07   1.6922042360594577e-06   -1.267678409214699e-05
3.107437735515528e-07   1.6922042360594577e-06   -1.267678409214699e-05
3.107437735515528e-07   1.6922042360594577e-06   -1.267678409214699e-05
-1.833133255491683e-05   -1.8929774959781237e-06   -4.589802034548338e-05
-1.833133255491683e-05   -1.8929774959781237e-06   -4.589802034548338e-05
-1.833133255491683e-05   -1.8929774959781237e-06   -4.589802034548338e-05
-1.833133255491683e-05   -1.8929774959781237e-06   -4.589802034548338e-05
-1.7769208468906822e-05   2.37812456603103e-06   -1.508637940730406e-05
-1.7769208468906822e-05   2.37812456603103e-06   -1.508637940730406e-05
-1.7769208468906822e-05   2.37812456603103e-06   -1.508637940730406e-05
-1.7769208468906822e-05   2.37812456603103e-06   -1.508637940730406e-05
7.855280158963057e-07   -1.473086325691703e-06   -4.370021368027582e-05
7.855280158963057e-07   -1.473086325691703e-06   -4.370021368027582e-05
7.855280158963057e-07   -1.473086325691703e-06   -4.370021368027582e-05
7.855280158963057e-07   -1.473086325691703e-06   -4.370021368027582e-05
-8.789667648812443e-06   1.950441415657627e-07   -2.8742432519449405e-05
-8.789667648812443e-06   1.950441415657627e-07   -2.8742432519449405e-05
-8.789667648812443e-06   1.950441415657627e-07   -2.8742432519449405e-05
-8.789667648812443e-06   1.950441415657627e-07   -2.8742432519449405e-05
-2.007414015171784e-05   3.466395697477101e-06   -1.1327205188346344e-05
-2.007414015171784e-05   3.466395697477101e-06   -1.1327205188346344e-05
-2.007414015171784e-05   3.466395697477101e-06   -1.1327205188346344e-05
-2.007414015171784e-05   3.466395697477101e-06   -1.1327205188346344e-05
-3.9300685463585876e-05   6.979402256254621e-07   -4.503252065790402e-05
-3.9300685463585876e-05   6.979402256254621e-07   -4.503252065790402e-05
-3.9300685463585876e-05   6.979402256254621e-07   -4.503252065790402e-05
-3.9300685463585876e-05   6.979402256254621e-07   -4.503252065790402e-05
-3.8006561198177625e-05   4.19424183857901e-06   -1.2066043891877359e-05
-3.8006561198177625e-05   4.19424183857901e-06   -1.2066043891877359e-05
-3.8006561198177625e-05   4.19424183857901e-06   -1.2066043891877359e-05
-3.8006561198177625e-05   4.19424183857901e-06   -1.2066043891877359e-05
-1.9165211709150702e-05   1.2233260922535263e-06   -4.168574359246044e-05
-1.9165211709150702e-05   1.2233260922535263e-06   -4.168574359246044e-05
-1.9165211709150702e-05   1.2233260922535263e-06   -4.168574359246044e-05
-1.9165211709150702e-05   1.2233260922535263e-06   -4.168574359246044e-05
-2.883500517255451e-05   2.644215675104509e-06   -2.6421954903164553e-05
-2.883500517255451e-05   2.644215675104509e-06   -2.6421954903164553e-05
-2.883500517255451e-05   2.644215675104509e-06   -2.6421954903164553e-05
-2.883500517255451e-05   2.644215675104509e-06   -2.6421954903164553e-05
-1.9165211709150702e-05   4.19424183857901e-06   -1.0283494444082285e-05
-1.9165211709150702e-05   4.19424183857901e-06   -1.0283494444082285e-05
-1.9165211709150702e-05   4.19424183857901e-06   -1.0283494444082285e-05
-1.9165211709150702e-05   4.19424183857901e-06   -1.0283494444082285e-05
-3.800656119817769e-05   1.2233260922537431e-06   -4.346829304025565e-05
-3.800656119817769e-05   1.2233260922537431e-06   -4.346829304025565e-05
-3.800656119817769e-05   1.2233260922537431e-06   -4.346829304025565e-05
-3.800656119817769e-05   1.2233260922537431e-06   -4.346829304025565e-05
-3.675485516104329e-05   4.820970286835251e-06   -1.0985454029978142e-05
-3.675485516104329e-05   4.820970286835251e-06   -1.0985454029978142e-05
-3.675485516104329e-05   4.820970286835251e-06   -1.0985454029978142e-05
-3.675485516104329e-05   4.820970286835251e-06   -1.0985454029978142e-05
-1.833133255491683e-05   1.7067668483673314e-06   -3.9822802977108293e-05
-1.833133255491683e-05   1.7067668483673314e-06   -3.9822802977108293e-05
-1.833133255491683e-05   1.7067668483673314e-06   -3.9822802977108293e-05
-1.833133255491683e-05   1.7067668483673314e-06   -3.9822802977108293e-05
-2.7664375589769865e-05   3.101367948551547e-06   -2.510449191246383e-05
-2.7664375589769865e-05   3.101367948551547e-06   -2.510449191246383e-05
-2.7664375589769865e-05   3.101367948551547e-06   -2.510449191246383e-05
-2.7664375589769865e-05   3.101367948551547e-06   -2.510449191246383e-05
-1.8331332554916782e-05   4.820970286835251e-06   -9.116931966897304e-06
-1.8331332554916782e-05   4.820970286835251e-06   -9.116931966897304e-06
-1.8331332554916782e-05   4.820970286835251e-06   -9.116931966897304e-06
-1.8331332554916782e-05   4.820970286835251e-06   -9.116931966897304e-06
-3.675485516104336e-05   1.7067668483673314e-06   -4.169132504018927e-05
-3.675485516104336e-05   1.7067668483673314e-06   -4.169132504018927e-05
-3.675485516104336e-05   1.7067668483673314e-06   -4.169132504018927e-05
-3.675485516104336e-05   1.7067668483673314e-06   -4.169132504018927e-05
-3.5806342378853176e-05   5.513829560655154e-06   -1.1020227859604055e-05
-3.5806342378853176e-05   5.513829560655154e-06   -1.1020227859604055e-05
-3.5806342378853176e-05   5.513829560655154e-06   -1.1020227859604055e-05
-3.5806342378853176e-05   5.513829560655154e-06   -1.1020227859604055e-05
-1.7769208468906843e-05   2.115256629058081e-06   -3.904297395055609e-05
-1.7769208468906843e-05   2.115256629058081e-06   -3.904297395055609e-05
-1.7769208468906843e-05   2.115256629058081e-06   -3.904297395055609e-05
-1.7769208468906843e-05   2.115256629058081e-06   -3.904297395055609e-05
-2.7010972525363826e-05   3.420584064485867e-06   -2.4423230317717832e-05
-2.7010972525363826e-05   3.420584064485867e-06   -2.4423230317717832e-05
-2.7010972525363826e-05   3.420584064485867e-06   -2.4423230317717832e-05
-2.7010972525363826e-05   3.420584064485867e-06   -2.4423230317717832e-05
-3.9300685463585876e-05   6.806008199121763e-06   -6.493346401276363e-06
-3.9300685463585876e-05   6.806008199121763e-06   -6.493346401276363e-06
-3.9300685463585876e-05   6.806008199121763e-06   -6.493346401276363e-06
-3.9300685463585876e-05   6.806008199121763e-06   -6.493346401276363e-06
-5.939423806385219e-05   6.431766854189842e-06   -4.020714554201312e-05
-5.939423806385219e-05   6.431766854189842e-06   -4.020714554201312e-05
-5.939423806385219e-05   6.431766854189842e-06   -4.020714554201312e-05
-5.939423806385219e-05   6.431766854189842e-06   -4.020714554201312e-05
-5.683577845513174e-05   7.773171756261105e-06   -1.3877976276629664e-07
-5.683577845513174e-05   7.773171756261105e-06   -1.3877976276629664e-07
-5.683577845513174e-05   7.773171756261105e-06   -1.3877976276629664e-07
-5.683577845513174e-05   7.773171756261105e-06   -1.3877976276629664e-07
-3.800656119817756e-05   8.133391533691114e-06   -3.173694039081441e-05
-3.800656119817756e-05   8.133391533691114e-06   -3.173694039081441e-05
-3.800656119817756e-05   8.133391533691114e-06   -3.173694039081441e-05
-3.800656119817756e-05   8.133391533691114e-06   -3.173694039081441e-05
-4.629802639922391e-05   7.667824509408495e-06   -1.7638491507834578e-05
-4.629802639922391e-05   7.667824509408495e-06   -1.7638491507834578e-05
-4.629802639922391e-05   7.667824509408495e-06   -1.7638491507834578e-05
-4.629802639922391e-05   7.667824509408495e-06   -1.7638491507834578e-05
-3.800656119817766e-05   7.773171756261105e-06   -3.5491162922408545e-07
-3.800656119817766e-05   7.773171756261105e-06   -3.5491162922408545e-07
-3.800656119817766e-05   7.773171756261105e-06   -3.5491162922408545e-07
-3.800656119817766e-05   7.773171756261105e-06   -3.5491162922408545e-07
-5.683577845513174e-05   8.133391533691114e-06   -3.1520808524356566e-05
-5.683577845513174e-05   8.133391533691114e-06   -3.1520808524356566e-05
-5.683577845513174e-05   8.133391533691114e-06   -3.1520808524356566e-05
-5.683577845513174e-05   8.133391533691114e-06   -3.1520808524356566e-05
-5.471463691261406e-05   8.027842405977518e-06   3.453695702382905e-06
-5.471463691261406e-05   8.027842405977518e-06   3.453695702382905e-06
-5.471463691261406e-05   8.027842405977518e-06   3.453695702382905e-06
-5.471463691261406e-05   8.027842405977518e-06   3.453695702382905e-06
-3.675485516104329e-05   8.51621161814778e-06   -2.6772295410870577e-05
-3.675485516104329e-05   8.51621161814778e-06   -2.6772295410870577e-05
-3.675485516104329e-05   8.51621161814778e-06   -2.6772295410870577e-05
-3.675485516104329e-05   8.51621161814778e-06   -2.6772295410870577e-05
-4.5334442427347033e-05   8.223911446211601e-06   -1.2297603197202332e-05
-4.5334442427347033e-05   8.223911446211601e-06   -1.2297603197202332e-05
-4.5334442427347033e-05   8.223911446211601e-06   -1.2297603197202332e-05
-4.5334442427347033e-05   8.223911446211601e-06   -1.2297603197202332e-05
-3.675485516104336e-05   8.027842405977734e-06   3.1606741750806605e-06
-3.675485516104336e-05   8.027842405977734e-06   3.1606741750806605e-06
-3.675485516104336e-05   8.027842405977734e-06   3.1606741750806605e-06
-3.675485516104336e-05   8.027842405977734e-06   3.1606741750806605e-06
-5.4714636912613956e-05   8.516211618147564e-06   -2.6479273883568645e-05
-5.4714636912613956e-05   8.516211618147564e-06   -2.6479273883568645e-05
-5.4714636912613956e-05   8.516211618147564e-06   -2.6479273883568645e-05
-5.4714636912613956e-05   8.516211618147564e-06   -2.6479273883568645e-05
-5.249534785482837e-05   8.245737415103847e-06   8.271289897305721e-06
-5.249534785482837e-05   8.245737415103847e-06   8.271289897305721e-06
-5.249534785482837e-05   8.245737415103847e-06   8.271289897305721e-06
-5.249534785482837e-05   8.245737415103847e-06   8.271289897305721e-06
-3.5806342378853176e-05   9.171053079633012e-06   -2.0098908628037458e-05
-3.5806342378853176e-05   9.171053079633012e-06   -2.0098908628037458e-05
-3.5806342378853176e-05   9.171053079633012e-06   -2.0098908628037458e-05
-3.5806342378853176e-05   9.171053079633012e-06   -2.0098908628037458e-05
-4.3190176520474736e-05   8.40973360277989e-06   -7.335726705889973e-06
-4.3190176520474736e-05   8.40973360277989e-06   -7.335726705889973e-06
-4.3190176520474736e-05   8.40973360277989e-06   -7.335726705889973e-06
-4.3190176520474736e-05   8.40973360277989e-06   -7.335726705889973e-06
5.170864429929748e-05   -7.761813294625232e-06   1.767385428417872e-05
5.170864429929748e-05   -7.761813294625232e-06   1.767385428417872e-05
5.170864429929748e-05   -7.761813294625232e-06   1.767385428417872e-05
5.170864429929748e-05   -7.761813294625232e-06   1.767385428417872e-05
2.598178116987051e-05   -9.811066535091433e-06   -2.643380287581311e-05
2.598178116987051e-05   -9.811066535091433e-06   -2.643380287581311e-05
2.598178116987051e-05   -9.811066535091433e-06   -2.643380287581311e-05
2.598178116987051e-05   -9.811066535091433e-06   -2.643380287581311e-05
2.66132446120001e-05   -7.5813026418013706e-06   1.2685722454780588e-05
2.66132446120001e-05   -7.5813026418013706e-06   1.2685722454780588e-05
2.66132446120001e-05   -7.5813026418013706e-06   1.2685722454780588e-05
2.66132446120001e-05   -7.5813026418013706e-06   1.2685722454780588e-05
5.299282105017487e-05   -1.005653513907502e-05   -2.9795098777146424e-05
5.299282105017487e-05   -1.005653513907502e-05   -2.9795098777146424e-05
5.299282105017487e-05   -1.005653513907502e-05   -2.9795098777146424e-05
5.299282105017487e-05   -1.005653513907502e-05   -2.9795098777146424e-05
3.775694182789052e-05   -7.928327193382993e-06   -5.678891507421226e-06
3.775694182789052e-05   -7.928327193382993e-06   -5.678891507421226e-06
3.775694182789052e-05   -7.928327193382993e-06   -5.678891507421226e-06
3.775694182789052e-05   -7.928327193382993e-06   -5.678891507421226e-06
5.299282105017487e-05   -7.5813026418013706e-06   1.4170861953144908e-05
5.299282105017487e-05   -7.5813026418013706e-06   1.4170861953144908e-05
5.299282105017487e-05   -7.5813026418013706e-06   1.4170861953144908e-05
5.299282105017487e-05   -7.5813026418013706e-06   1.4170861953144908e-05
2.66132446120001e-05   -1.005653513907502e-05   -3.128023827551072e-05
2.66132446120001e-05   -1.005653513907502e-05   -3.128023827551072e-05
2.66132446120001e-05   -1.005653513907502e-05   -3.128023827551072e-05
2.66132446120001e-05   -1.005653513907502e-05   -3.128023827551072e-05
2.714690835265843e-05   -7.317847076653136e-06   1.0013964234646894e-05
2.714690835265843e-05   -7.317847076653136e-06   1.0013964234646894e-05
2.714690835265843e-05   -7.317847076653136e-06   1.0013964234646894e-05
2.714690835265843e-05   -7.317847076653136e-06   1.0013964234646894e-05
5.379279214124828e-05   -9.96477544052592e-06   -3.2807685061345826e-05
5.379279214124828e-05   -9.96477544052592e-06   -3.2807685061345826e-05
5.379279214124828e-05   -9.96477544052592e-06   -3.2807685061345826e-05
5.379279214124828e-05   -9.96477544052592e-06   -3.2807685061345826e-05
3.90850091058242e-05   -8.177946303551849e-06   -9.366810817823383e-06
3.90850091058242e-05   -8.177946303551849e-06   -9.366810817823383e-06
3.90850091058242e-05   -8.177946303551849e-06   -9.366810817823383e-06
3.90850091058242e-05   -8.177946303551849e-06   -9.366810817823383e-06
5.379279214124828e-05   -7.317847076653136e-06   1.1602121252970651e-05
5.379279214124828e-05   -7.317847076653136e-06   1.1602121252970651e-05
5.379279214124828e-05   -7.317847076653136e-06   1.1602121252970651e-05
5.379279214124828e-05   -7.317847076653136e-06   1.1602121252970651e-05
2.714690835265843e-05   -9.96477544052592e-06   -3.4395842079669556e-05
2.714690835265843e-05   -9.96477544052592e-06   -3.4395842079669556e-05
2.714690835265843e-05   -9.96477544052592e-06   -3.4395842079669556e-05
2.714690835265843e-05   -9.96477544052592e-06   -3.4395842079669556e-05
2.770397204280706e-05   -6.291168725714672e-06   4.833641888778769e-06
2.770397204280706e-05   -6.291168725714672e-06   4.833641888778769e-06
2.770397204280706e-05   -6.291168725714672e-06   4.833641888778769e-06
2.770397204280706e-05   -6.291168725714672e-06   4.833641888778769e-06
5.4580528479192654e-05   -9.408527396761492e-06   -3.809020363590218e-05
5.4580528479192654e-05   -9.408527396761492e-06   -3.809020363590218e-05
5.4580528479192654e-05   -9.408527396761492e-06   -3.809020363590218e-05
5.4580528479192654e-05   -9.408527396761492e-06   -3.809020363590218e-05
3.910117737921476e-05   -7.869338724641193e-06   -1.321479833921147e-05
3.910117737921476e-05   -7.869338724641193e-06   -1.321479833921147e-05
3.910117737921476e-05   -7.869338724641193e-06   -1.321479833921147e-05
3.910117737921476e-05   -7.869338724641193e-06   -1.321479833921147e-05
2.598178116987051e-05   -5.0200918815638835e-06   1.7873453719439904e-06
2.598178116987051e-05   -5.0200918815638835e-06   1.7873453719439904e-06
2.598178116987051e-05   -5.0200918815638835e-06   1.7873453719439904e-06
2.598178116987051e-05   -5.0200918815638835e-06   1.7873453719439904e-06
3.0559401640443848e-06   -9.819472605963366e-06   -3.9302018072405616e-05
3.0559401640443848e-06   -9.819472605963366e-06   -3.9302018072405616e-05
3.0559401640443848e-06   -9.819472605963366e-06   -3.9302018072405616e-05
3.0559401640443848e-06   -9.819472605963366e-06   -3.9302018072405616e-05
3.791590101758871e-06   -4.778384123546543e-06   -1.8070517041751666e-07
3.791590101758871e-06   -4.778384123546543e-06   -1.8070517041751666e-07
3.791590101758871e-06   -4.778384123546543e-06   -1.8070517041751666e-07
3.791590101758871e-06   -4.778384123546543e-06   -1.8070517041751666e-07
2.661324461200014e-05   -9.767708361852617e-06   -3.52232014778362e-05
2.661324461200014e-05   -9.767708361852617e-06   -3.52232014778362e-05
2.661324461200014e-05   -9.767708361852617e-06   -3.52232014778362e-05
2.661324461200014e-05   -9.767708361852617e-06   -3.52232014778362e-05
1.4917920173778421e-05   -6.626042726644733e-06   -1.7615993461924528e-05
1.4917920173778421e-05   -6.626042726644733e-06   -1.7615993461924528e-05
1.4917920173778421e-05   -6.626042726644733e-06   -1.7615993461924528e-05
1.4917920173778421e-05   -6.626042726644733e-06   -1.7615993461924528e-05
2.661324461200006e-05   -4.778384123546543e-06   2.8128893725660846e-06
2.661324461200006e-05   -4.778384123546543e-06   2.8128893725660846e-06
2.661324461200006e-05   -4.778384123546543e-06   2.8128893725660846e-06
2.661324461200006e-05   -4.778384123546543e-06   2.8128893725660846e-06
3.791590101758871e-06   -9.767708361852184e-06   -3.821679602081956e-05
3.791590101758871e-06   -9.767708361852184e-06   -3.821679602081956e-05
3.791590101758871e-06   -9.767708361852184e-06   -3.821679602081956e-05
3.791590101758871e-06   -9.767708361852184e-06   -3.821679602081956e-05
4.455595437284559e-06   -4.329386455454191e-06   -4.2587559894910997e-07
4.455595437284559e-06   -4.329386455454191e-06   -4.2587559894910997e-07
4.455595437284559e-06   -4.329386455454191e-06   -4.2587559894910997e-07
4.455595437284559e-06   -4.329386455454191e-06   -4.2587559894910997e-07
2.714690835265843e-05   -9.634722329953348e-06   -3.5061528933206176e-05
2.714690835265843e-05   -9.634722329953348e-06   -3.5061528933206176e-05
2.714690835265843e-05   -9.634722329953348e-06   -3.5061528933206176e-05
2.714690835265843e-05   -9.634722329953348e-06   -3.5061528933206176e-05
1.5334422861045353e-05   -6.697308422437716e-06   -1.7136501458359625e-05
1.5334422861045353e-05   -6.697308422437716e-06   -1.7136501458359625e-05
1.5334422861045353e-05   -6.697308422437716e-06   -1.7136501458359625e-05
1.5334422861045353e-05   -6.697308422437716e-06   -1.7136501458359625e-05
2.714690835265843e-05   -4.329386455454408e-06   2.7573259257502973e-06
2.714690835265843e-05   -4.329386455454408e-06   2.7573259257502973e-06
2.714690835265843e-05   -4.329386455454408e-06   2.7573259257502973e-06
2.714690835265843e-05   -4.329386455454408e-06   2.7573259257502973e-06
4.4555954372845315e-06   -9.634722329953348e-06   -3.824473045790542e-05
4.4555954372845315e-06   -9.634722329953348e-06   -3.824473045790542e-05
4.4555954372845315e-06   -9.634722329953348e-06   -3.824473045790542e-05
4.4555954372845315e-06   -9.634722329953348e-06   -3.824473045790542e-05
5.446875419391601e-06   -3.6904859689408567e-06   -8.910460835677772e-07
5.446875419391601e-06   -3.6904859689408567e-06   -8.910460835677772e-07
5.446875419391601e-06   -3.6904859689408567e-06   -8.910460835677772e-07
5.446875419391601e-06   -3.6904859689408567e-06   -8.910460835677772e-07
2.7703972042807047e-05   -9.370251176332202e-06   -3.457834799815886e-05
2.7703972042807047e-05   -9.370251176332202e-06   -3.457834799815886e-05
2.7703972042807047e-05   -9.370251176332202e-06   -3.457834799815886e-05
2.7703972042807047e-05   -9.370251176332202e-06   -3.457834799815886e-05
1.6131630011507473e-05   -6.5911854574139846e-06   -1.695855071067717e-05
1.6131630011507473e-05   -6.5911854574139846e-06   -1.695855071067717e-05
1.6131630011507473e-05   -6.5911854574139846e-06   -1.695855071067717e-05
1.6131630011507473e-05   -6.5911854574139846e-06   -1.695855071067717e-05
3.0559401640443848e-06   -2.6207710012780654e-06   -3.859503533689725e-06
3.0559401640443848e-06   -2.6207710012780654e-06   -3.859503533689725e-06
3.0559401640443848e-06   -2.6207710012780654e-06   -3.859503533689725e-06
3.0559401640443848e-06   -2.6207710012780654e-06   -3.859503533689725e-06
-1.9631732817707492e-05   -1.1821193220545433e-05   -4.7192545168169876e-05
-1.9631732817707492e-05   -1.1821193220545433e-05   -4.7192545168169876e-05
-1.9631732817707492e-05   -1.1821193220545433e-05   -4.7192545168169876e-05
-1.9631732817707492e-05   -1.1821193220545433e-05   -4.7192545168169876e-05
-1.848552482032451e-05   -2.3355485331841633e-06   -8.371847109816827e-06
-1.848552482032451e-05   -2.3355485331841633e-06   -8.371847109816827e-06
-1.848552482032451e-05   -2.3355485331841633e-06   -8.371847109816827e-06
-1.848552482032451e-05   -2.3355485331841633e-06   -8.371847109816827e-06
3.791590101758871e-06   -1.2080546927484021e-05   -3.965337294337584e-05
3.791590101758871e-06   -1.2080546927484021e-05   -3.965337294337584e-05
3.791590101758871e-06   -1.2080546927484021e-05   -3.965337294337584e-05
3.791590101758871e-06   -1.2080546927484021e-05   -3.965337294337584e-05
-7.556634519723886e-06   -6.677773326270713e-06   -2.398132940163245e-05
-7.556634519723886e-06   -6.677773326270713e-06   -2.398132940163245e-05
-7.556634519723886e-06   -6.677773326270713e-06   -2.398132940163245e-05
-7.556634519723886e-06   -6.677773326270713e-06   -2.398132940163245e-05
3.791590101758871e-06   -2.3355485331841633e-06   -2.5248480732369127e-06
3.791590101758871e-06   -2.3355485331841633e-06   -2.5248480732369127e-06
3.791590101758871e-06   -2.3355485331841633e-06   -2.5248480732369127e-06
3.791590101758871e-06   -2.3355485331841633e-06   -2.5248480732369127e-06
-1.8485524820324538e-05   -1.2080546927483587e-05   -4.550037197995592e-05
-1.8485524820324538e-05   -1.2080546927483587e-05   -4.550037197995592e-05
-1.8485524820324538e-05   -1.2080546927483587e-05   -4.550037197995592e-05
-1.8485524820324538e-05   -1.2080546927483587e-05   -4.550037197995592e-05
-1.7497476214335894e-05   -1.8929774959781237e-06   -7.813599130960299e-06
-1.7497476214335894e-05   -1.8929774959781237e-06   -7.813599130960299e-06
-1.7497476214335894e-05   -1.8929774959781237e-06   -7.813599130960299e-06
-1.7497476214335894e-05   -1.8929774959781237e-06   -7.813599130960299e-06
4.4555954372845315e-06   -1.2021527915642705e-05   -3.8324921631862035e-05
4.4555954372845315e-06   -1.2021527915642705e-05   -3.8324921631862035e-05
4.4555954372845315e-06   -1.2021527915642705e-05   -3.8324921631862035e-05
4.4555954372845315e-06   -1.2021527915642705e-05   -3.8324921631862035e-05
-6.742875333103422e-06   -6.827299238198071e-06   -2.2777340887682288e-05
-6.742875333103422e-06   -6.827299238198071e-06   -2.2777340887682288e-05
-6.742875333103422e-06   -6.827299238198071e-06   -2.2777340887682288e-05
-6.742875333103422e-06   -6.827299238198071e-06   -2.2777340887682288e-05
4.4555954372845315e-06   -1.8929774959781237e-06   -1.7364688791612036e-06
4.4555954372845315e-06   -1.8929774959781237e-06   -1.7364688791612036e-06
4.4555954372845315e-06   -1.8929774959781237e-06   -1.7364688791612036e-06
4.4555954372845315e-06   -1.8929774959781237e-06   -1.7364688791612036e-06
-1.7497476214335962e-05   -1.2021527915642271e-05   -4.440205188366102e-05
-1.7497476214335962e-05   -1.2021527915642271e-05   -4.440205188366102e-05
-1.7497476214335962e-05   -1.2021527915642271e-05   -4.440205188366102e-05
-1.7497476214335962e-05   -1.2021527915642271e-05   -4.440205188366102e-05
-1.5792519696168492e-05   -1.473086325691703e-06   -7.781033203671473e-06
-1.5792519696168492e-05   -1.473086325691703e-06   -7.781033203671473e-06
-1.5792519696168492e-05   -1.473086325691703e-06   -7.781033203671473e-06
-1.5792519696168492e-05   -1.473086325691703e-06   -7.781033203671473e-06
5.446875419391601e-06   -1.1597056587817674e-05   -3.710564290566244e-05
5.446875419391601e-06   -1.1597056587817674e-05   -3.710564290566244e-05
5.446875419391601e-06   -1.1597056587817674e-05   -3.710564290566244e-05
5.446875419391601e-06   -1.1597056587817674e-05   -3.710564290566244e-05
-5.685227508744188e-06   -6.673598349864673e-06   -2.1506212968207868e-05
-5.685227508744188e-06   -6.673598349864673e-06   -2.1506212968207868e-05
-5.685227508744188e-06   -6.673598349864673e-06   -2.1506212968207868e-05
-5.685227508744188e-06   -6.673598349864673e-06   -2.1506212968207868e-05
-1.9631732817707465e-05   6.979402256256789e-07   -5.418836726840898e-06
-1.9631732817707465e-05   6.979402256256789e-07   -5.418836726840898e-06
-1.9631732817707465e-05   6.979402256256789e-07   -5.418836726840898e-06
-1.9631732817707465e-05   6.979402256256789e-07   -5.418836726840898e-06
-4.4933931420950525e-05   -1.4715286426205017e-05   -5.6837103723344704e-05
-4.4933931420950525e-05   -1.4715286426205017e-05   -5.6837103723344704e-05
-4.4933931420950525e-05   -1.4715286426205017e-05   -5.6837103723344704e-05
-4.4933931420950525e-05   -1.4715286426205017e-05   -5.6837103723344704e-05
-4.3563166758235777e-05   1.2233260922535263e-06   -1.4210159786363138e-05
-4.3563166758235777e-05   1.2233260922535263e-06   -1.4210159786363138e-05
-4.3563166758235777e-05   1.2233260922535263e-06   -1.4210159786363138e-05
-4.3563166758235777e-05   1.2233260922535263e-06   -1.4210159786363138e-05
-1.848552482032451e-05   -1.6440870851547502e-05   -4.540771151660119e-05
-1.848552482032451e-05   -1.6440870851547502e-05   -4.540771151660119e-05
-1.848552482032451e-05   -1.6440870851547502e-05   -4.540771151660119e-05
-1.848552482032451e-05   -1.6440870851547502e-05   -4.540771151660119e-05
-3.1199506374157846e-05   -7.470867762367044e-06   -2.959974411372047e-05
-3.1199506374157846e-05   -7.470867762367044e-06   -2.959974411372047e-05
-3.1199506374157846e-05   -7.470867762367044e-06   -2.959974411372047e-05
-3.1199506374157846e-05   -7.470867762367044e-06   -2.959974411372047e-05
-1.848552482032451e-05   1.2233260922535263e-06   -3.6116416200825206e-06
-1.848552482032451e-05   1.2233260922535263e-06   -3.6116416200825206e-06
-1.848552482032451e-05   1.2233260922535263e-06   -3.6116416200825206e-06
-1.848552482032451e-05   1.2233260922535263e-06   -3.6116416200825206e-06
-4.3563166758235777e-05   -1.6440870851547502e-05   -5.6006229682882026e-05
-4.3563166758235777e-05   -1.6440870851547502e-05   -5.6006229682882026e-05
-4.3563166758235777e-05   -1.6440870851547502e-05   -5.6006229682882026e-05
-4.3563166758235777e-05   -1.6440870851547502e-05   -5.6006229682882026e-05
-4.2249375806788454e-05   1.7067668483675483e-06   -1.2680483459749387e-05
-4.2249375806788454e-05   1.7067668483675483e-06   -1.2680483459749387e-05
-4.2249375806788454e-05   1.7067668483675483e-06   -1.2680483459749387e-05
-4.2249375806788454e-05   1.7067668483675483e-06   -1.2680483459749387e-05
-1.749747621433592e-05   -1.6530069313573387e-05   -4.299154775000598e-05
-1.749747621433592e-05   -1.6530069313573387e-05   -4.299154775000598e-05
-1.749747621433592e-05   -1.6530069313573387e-05   -4.299154775000598e-05
-1.749747621433592e-05   -1.6530069313573387e-05   -4.299154775000598e-05
-2.9862879026779134e-05   -7.4939086371268206e-06   -2.780423946846858e-05
-2.9862879026779134e-05   -7.4939086371268206e-06   -2.780423946846858e-05
-2.9862879026779134e-05   -7.4939086371268206e-06   -2.780423946846858e-05
-2.9862879026779134e-05   -7.4939086371268206e-06   -2.780423946846858e-05
-1.7497476214335908e-05   1.7067668483675483e-06   -1.7383817625849125e-06
-1.7497476214335908e-05   1.7067668483675483e-06   -1.7383817625849125e-06
-1.7497476214335908e-05   1.7067668483675483e-06   -1.7383817625849125e-06
-1.7497476214335908e-05   1.7067668483675483e-06   -1.7383817625849125e-06
-4.224937580678852e-05   -1.6530069313573387e-05   -5.3933649447170454e-05
-4.224937580678852e-05   -1.6530069313573387e-05   -5.3933649447170454e-05
-4.224937580678852e-05   -1.6530069313573387e-05   -5.3933649447170454e-05
-4.224937580678852e-05   -1.6530069313573387e-05   -5.3933649447170454e-05
-4.009446953130438e-05   2.115256629058081e-06   -1.1124478397583643e-05
-4.009446953130438e-05   2.115256629058081e-06   -1.1124478397583643e-05
-4.009446953130438e-05   2.115256629058081e-06   -1.1124478397583643e-05
-4.009446953130438e-05   2.115256629058081e-06   -1.1124478397583643e-05
-1.5792519696168546e-05   -1.507042913538462e-05   -4.1316316664144703e-05
-1.5792519696168546e-05   -1.507042913538462e-05   -4.1316316664144703e-05
-1.5792519696168546e-05   -1.507042913538462e-05   -4.1316316664144703e-05
-1.5792519696168546e-05   -1.507042913538462e-05   -4.1316316664144703e-05
-2.8544913583208904e-05   -6.60812237270633e-06   -2.5139710910017057e-05
-2.8544913583208904e-05   -6.60812237270633e-06   -2.5139710910017057e-05
-2.8544913583208904e-05   -6.60812237270633e-06   -2.5139710910017057e-05
-2.8544913583208904e-05   -6.60812237270633e-06   -2.5139710910017057e-05
-4.4933931420950525e-05   6.431766854190059e-06   -9.616852795089371e-06
-4.4933931420950525e-05   6.431766854190059e-06   -9.616852795089371e-06
-4.4933931420950525e-05   6.431766854190059e-06   -9.616852795089371e-06
-4.4933931420950525e-05   6.431766854190059e-06   -9.616852795089371e-06
-7.730869073421962e-05   0.0   -6.743384509638522e-05
-7.730869073421962e-05   0.0   -6.743384509638522e-05
-7.730869073421962e-05   0.0   -6.743384509638522e-05
-7.730869073421962e-05   0.0   -6.743384509638522e-05
-7.530481074161811e-05   8.133391533691114e-06   -7.358842057136536e-06
-7.530481074161811e-05   8.133391533691114e-06   -7.358842057136536e-06
-7.530481074161811e-05   8.133391533691114e-06   -7.358842057136536e-06
-7.530481074161811e-05   8.133391533691114e-06   -7.358842057136536e-06
-4.356316675823571e-05   0.0   -5.538154710922612e-05
-4.356316675823571e-05   0.0   -5.538154710922612e-05
-4.356316675823571e-05   0.0   -5.538154710922612e-05
-4.356316675823571e-05   0.0   -5.538154710922612e-05
-5.7716997849493234e-05   2.4909958317037312e-06   -3.328642612281899e-05
-5.7716997849493234e-05   2.4909958317037312e-06   -3.328642612281899e-05
-5.7716997849493234e-05   2.4909958317037312e-06   -3.328642612281899e-05
-5.7716997849493234e-05   2.4909958317037312e-06   -3.328642612281899e-05
-4.356316675823574e-05   8.133391533691114e-06   -2.4788071369219542e-06
-4.356316675823574e-05   8.133391533691114e-06   -2.4788071369219542e-06
-4.356316675823574e-05   8.133391533691114e-06   -2.4788071369219542e-06
-4.356316675823574e-05   8.133391533691114e-06   -2.4788071369219542e-06
-7.530481074161799e-05   0.0   -6.026158202944074e-05
-7.530481074161799e-05   0.0   -6.026158202944074e-05
-7.530481074161799e-05   0.0   -6.026158202944074e-05
-7.530481074161799e-05   0.0   -6.026158202944074e-05
-7.360845969290214e-05   8.516211618147564e-06   -2.8711808013196557e-06
-7.360845969290214e-05   8.516211618147564e-06   -2.8711808013196557e-06
-7.360845969290214e-05   8.516211618147564e-06   -2.8711808013196557e-06
-7.360845969290214e-05   8.516211618147564e-06   -2.8711808013196557e-06
-4.224937580678852e-05   0.0   -5.002659364062053e-05
-4.224937580678852e-05   0.0   -5.002659364062053e-05
-4.224937580678852e-05   0.0   -5.002659364062053e-05
-4.224937580678852e-05   0.0   -5.002659364062053e-05
-5.712493884482837e-05   3.939839131308605e-06   -2.7597892056005365e-05
-5.712493884482837e-05   3.939839131308605e-06   -2.7597892056005365e-05
-5.712493884482837e-05   3.939839131308605e-06   -2.7597892056005365e-05
-5.712493884482837e-05   3.939839131308605e-06   -2.7597892056005365e-05
-4.224937580678852e-05   8.51621161814778e-06   2.2385461695690993e-06
-4.224937580678852e-05   8.51621161814778e-06   2.2385461695690993e-06
-4.224937580678852e-05   8.51621161814778e-06   2.2385461695690993e-06
-4.224937580678852e-05   8.51621161814778e-06   2.2385461695690993e-06
-7.360845969290202e-05   0.0   -5.513632061150903e-05
-7.360845969290202e-05   0.0   -5.513632061150903e-05
-7.360845969290202e-05   0.0   -5.513632061150903e-05
-7.360845969290202e-05   0.0   -5.513632061150903e-05
-7.02227012400276e-05   9.171053079633012e-06   4.35609883611362e-06
-7.02227012400276e-05   9.171053079633012e-06   4.35609883611362e-06
-7.02227012400276e-05   9.171053079633012e-06   4.35609883611362e-06
-7.02227012400276e-05   9.171053079633012e-06   4.35609883611362e-06
-4.009446953130445e-05   0.0   -4.035498883064519e-05
-4.009446953130445e-05   0.0   -4.035498883064519e-05
-4.009446953130445e-05   0.0   -4.035498883064519e-05
-4.009446953130445e-05   0.0   -4.035498883064519e-05
-5.4165725398149155e-05   4.857389778624996e-06   -1.9817329586412324e-05
-5.4165725398149155e-05   4.857389778624996e-06   -1.9817329586412324e-05
-5.4165725398149155e-05   4.857389778624996e-06   -1.9817329586412324e-05
-5.4165725398149155e-05   4.857389778624996e-06   -1.9817329586412324e-05
5.7206443291084606e-05   -9.811066535091433e-06   3.412556143291305e-05
5.7206443291084606e-05   -9.811066535091433e-06   3.412556143291305e-05
5.7206443291084606e-05   -9.811066535091433e-06   3.412556143291305e-05
5.7206443291084606e-05   -9.811066535091433e-06   3.412556143291305e-05
2.9666633006920505e-05   -7.571087052828107e-06   -1.0430134684668874e-05
2.9666633006920505e-05   -7.571087052828107e-06   -1.0430134684668874e-05
2.9666633006920505e-05   -7.571087052828107e-06   -1.0430134684668874e-05
2.9666633006920505e-05   -7.571087052828107e-06   -1.0430134684668874e-05
2.8923153441951982e-05   -1.005653513907502e-05   3.01265029538666e-05
2.8923153441951982e-05   -1.005653513907502e-05   3.01265029538666e-05
2.8923153441951982e-05   -1.005653513907502e-05   3.01265029538666e-05
2.8923153441951982e-05   -1.005653513907502e-05   3.01265029538666e-05
5.6598565322304434e-05   -8.322096774500149e-06   -1.7039846532132313e-05
5.6598565322304434e-05   -8.322096774500149e-06   -1.7039846532132313e-05
5.6598565322304434e-05   -8.322096774500149e-06   -1.7039846532132313e-05
5.6598565322304434e-05   -8.322096774500149e-06   -1.7039846532132313e-05
4.133443908438613e-05   -8.459796008143672e-06   8.482983404584305e-06
4.133443908438613e-05   -8.459796008143672e-06   8.482983404584305e-06
4.133443908438613e-05   -8.459796008143672e-06   8.482983404584305e-06
4.133443908438613e-05   -8.459796008143672e-06   8.482983404584305e-06
5.6598565322304434e-05   -1.005653513907502e-05   2.9085839935121763e-05
5.6598565322304434e-05   -1.005653513907502e-05   2.9085839935121763e-05
5.6598565322304434e-05   -1.005653513907502e-05   2.9085839935121763e-05
5.6598565322304434e-05   -1.005653513907502e-05   2.9085839935121763e-05
2.8923153441951982e-05   -8.322096774500149e-06   -1.5999183513387477e-05
2.8923153441951982e-05   -8.322096774500149e-06   -1.5999183513387477e-05
2.8923153441951982e-05   -8.322096774500149e-06   -1.5999183513387477e-05
2.8923153441951982e-05   -8.322096774500149e-06   -1.5999183513387477e-05
2.825031429221978e-05   -9.96477544052592e-06   2.70420965281929e-05
2.825031429221978e-05   -9.96477544052592e-06   2.70420965281929e-05
2.825031429221978e-05   -9.96477544052592e-06   2.70420965281929e-05
2.825031429221978e-05   -9.96477544052592e-06   2.70420965281929e-05
5.589450073744065e-05   -8.39036275528636e-06   -1.997619515831876e-05
5.589450073744065e-05   -8.39036275528636e-06   -1.997619515831876e-05
5.589450073744065e-05   -8.39036275528636e-06   -1.997619515831876e-05
5.589450073744065e-05   -8.39036275528636e-06   -1.997619515831876e-05
4.1306430536462114e-05   -8.608193487796758e-06   4.4679536161515085e-06
4.1306430536462114e-05   -8.608193487796758e-06   4.4679536161515085e-06
4.1306430536462114e-05   -8.608193487796758e-06   4.4679536161515085e-06
4.1306430536462114e-05   -8.608193487796758e-06   4.4679536161515085e-06
5.589450073744073e-05   -9.964775440526137e-06   2.6097448917049033e-05
5.589450073744073e-05   -9.964775440526137e-06   2.6097448917049033e-05
5.589450073744073e-05   -9.964775440526137e-06   2.6097448917049033e-05
5.589450073744073e-05   -9.964775440526137e-06   2.6097448917049033e-05
2.825031429221978e-05   -8.39036275528636e-06   -1.9031547547175218e-05
2.825031429221978e-05   -8.39036275528636e-06   -1.9031547547175218e-05
2.825031429221978e-05   -8.39036275528636e-06   -1.9031547547175218e-05
2.825031429221978e-05   -8.39036275528636e-06   -1.9031547547175218e-05
2.7429286787869438e-05   -9.408527396761492e-06   2.2024009130624253e-05
2.7429286787869438e-05   -9.408527396761492e-06   2.2024009130624253e-05
2.7429286787869438e-05   -9.408527396761492e-06   2.2024009130624253e-05
2.7429286787869438e-05   -9.408527396761492e-06   2.2024009130624253e-05
5.479126064891854e-05   -8.212435730810003e-06   -2.4296935637361613e-05
5.479126064891854e-05   -8.212435730810003e-06   -2.4296935637361613e-05
5.479126064891854e-05   -8.212435730810003e-06   -2.4296935637361613e-05
5.479126064891854e-05   -8.212435730810003e-06   -2.4296935637361613e-05
3.98993527259443e-05   -8.185237249801365e-06   5.065918123235106e-07
3.98993527259443e-05   -8.185237249801365e-06   5.065918123235106e-07
3.98993527259443e-05   -8.185237249801365e-06   5.065918123235106e-07
3.98993527259443e-05   -8.185237249801365e-06   5.065918123235106e-07
2.9666633006920505e-05   -9.819472605963366e-06   2.5480962360318205e-05
2.9666633006920505e-05   -9.819472605963366e-06   2.5480962360318205e-05
2.9666633006920505e-05   -9.819472605963366e-06   2.5480962360318205e-05
2.9666633006920505e-05   -9.819472605963366e-06   2.5480962360318205e-05
6.279401776490535e-06   -4.6688808832307145e-06   -1.0407401323425701e-05
6.279401776490535e-06   -4.6688808832307145e-06   -1.0407401323425701e-05
6.279401776490535e-06   -4.6688808832307145e-06   -1.0407401323425701e-05
6.279401776490535e-06   -4.6688808832307145e-06   -1.0407401323425701e-05
5.102808146096097e-06   -9.767708361852184e-06   2.907348589303014e-05
5.102808146096097e-06   -9.767708361852184e-06   2.907348589303014e-05
5.102808146096097e-06   -9.767708361852184e-06   2.907348589303014e-05
5.102808146096097e-06   -9.767708361852184e-06   2.907348589303014e-05
2.8923153441951982e-05   -4.9511314593703e-06   -1.3517035741551835e-05
2.8923153441951982e-05   -4.9511314593703e-06   -1.3517035741551835e-05
2.8923153441951982e-05   -4.9511314593703e-06   -1.3517035741551835e-05
2.8923153441951982e-05   -4.9511314593703e-06   -1.3517035741551835e-05
1.746804836226448e-05   -7.031286944859157e-06   6.822899349220391e-06
1.746804836226448e-05   -7.031286944859157e-06   6.822899349220391e-06
1.746804836226448e-05   -7.031286944859157e-06   6.822899349220391e-06
1.746804836226448e-05   -7.031286944859157e-06   6.822899349220391e-06
2.892315344195201e-05   -9.767708361852617e-06   2.618353975154114e-05
2.892315344195201e-05   -9.767708361852617e-06   2.618353975154114e-05
2.892315344195201e-05   -9.767708361852617e-06   2.618353975154114e-05
2.892315344195201e-05   -9.767708361852617e-06   2.618353975154114e-05
5.102808146096097e-06   -4.9511314593703e-06   -1.0627089600062862e-05
5.102808146096097e-06   -4.9511314593703e-06   -1.0627089600062862e-05
5.102808146096097e-06   -4.9511314593703e-06   -1.0627089600062862e-05
5.102808146096097e-06   -4.9511314593703e-06   -1.0627089600062862e-05
4.263326901295323e-06   -9.634722329953348e-06   2.9111939220486174e-05
4.263326901295323e-06   -9.634722329953348e-06   2.9111939220486174e-05
4.263326901295323e-06   -9.634722329953348e-06   2.9111939220486174e-05
4.263326901295323e-06   -9.634722329953348e-06   2.9111939220486174e-05
2.825031429221978e-05   -5.075506420237127e-06   -1.360190264355099e-05
2.825031429221978e-05   -5.075506420237127e-06   -1.360190264355099e-05
2.825031429221978e-05   -5.075506420237127e-06   -1.360190264355099e-05
2.825031429221978e-05   -5.075506420237127e-06   -1.360190264355099e-05
1.6458413805460327e-05   -6.886364771328379e-06   7.137779845036606e-06
1.6458413805460327e-05   -6.886364771328379e-06   7.137779845036606e-06
1.6458413805460327e-05   -6.886364771328379e-06   7.137779845036606e-06
1.6458413805460327e-05   -6.886364771328379e-06   7.137779845036606e-06
2.8250314292219836e-05   -9.634722329953348e-06   2.6376409674656442e-05
2.8250314292219836e-05   -9.634722329953348e-06   2.6376409674656442e-05
2.8250314292219836e-05   -9.634722329953348e-06   2.6376409674656442e-05
2.8250314292219836e-05   -9.634722329953348e-06   2.6376409674656442e-05
4.263326901295323e-06   -5.075506420237127e-06   -1.0866373097721338e-05
4.263326901295323e-06   -5.075506420237127e-06   -1.0866373097721338e-05
4.263326901295323e-06   -5.075506420237127e-06   -1.0866373097721338e-05
4.263326901295323e-06   -5.075506420237127e-06   -1.0866373097721338e-05
3.3296659691417257e-06   -9.370251176332202e-06   3.0053003987619634e-05
3.3296659691417257e-06   -9.370251176332202e-06   3.0053003987619634e-05
3.3296659691417257e-06   -9.370251176332202e-06   3.0053003987619634e-05
3.3296659691417257e-06   -9.370251176332202e-06   3.0053003987619634e-05
2.7429286787869424e-05   -4.959044481958608e-06   -1.2759754726883953e-05
2.7429286787869424e-05   -4.959044481958608e-06   -1.2759754726883953e-05
2.7429286787869424e-05   -4.959044481958608e-06   -1.2759754726883953e-05
2.7429286787869424e-05   -4.959044481958608e-06   -1.2759754726883953e-05
1.5841836402142437e-05   -6.582675579733417e-06   7.526841241326134e-06
1.5841836402142437e-05   -6.582675579733417e-06   7.526841241326134e-06
1.5841836402142437e-05   -6.582675579733417e-06   7.526841241326134e-06
1.5841836402142437e-05   -6.582675579733417e-06   7.526841241326134e-06
6.279401776490548e-06   -1.1821193220545433e-05   2.6201043629753675e-05
6.279401776490548e-06   -1.1821193220545433e-05   2.6201043629753675e-05
6.279401776490548e-06   -1.1821193220545433e-05   2.6201043629753675e-05
6.279401776490548e-06   -1.1821193220545433e-05   2.6201043629753675e-05
-1.618983054588244e-05   -1.9439884093135074e-06   -5.32135402079594e-06
-1.618983054588244e-05   -1.9439884093135074e-06   -5.32135402079594e-06
-1.618983054588244e-05   -1.9439884093135074e-06   -5.32135402079594e-06
-1.618983054588244e-05   -1.9439884093135074e-06   -5.32135402079594e-06
-1.8019829048174842e-05   -1.2080546927483587e-05   3.365395736497638e-05
-1.8019829048174842e-05   -1.2080546927483587e-05   3.365395736497638e-05
-1.8019829048174842e-05   -1.2080546927483587e-05   3.365395736497638e-05
-1.8019829048174842e-05   -1.2080546927483587e-05   3.365395736497638e-05
5.1028081460961105e-06   -2.0521329366467167e-06   -1.0900819686644102e-05
5.1028081460961105e-06   -2.0521329366467167e-06   -1.0900819686644102e-05
5.1028081460961105e-06   -2.0521329366467167e-06   -1.0900819686644102e-05
5.1028081460961105e-06   -2.0521329366467167e-06   -1.0900819686644102e-05
-5.5067767975917295e-06   -6.749655400913133e-06   9.600335364728842e-06
-5.5067767975917295e-06   -6.749655400913133e-06   9.600335364728842e-06
-5.5067767975917295e-06   -6.749655400913133e-06   9.600335364728842e-06
-5.5067767975917295e-06   -6.749655400913133e-06   9.600335364728842e-06
5.102808146096097e-06   -1.2080546927484021e-05   2.7636908970473913e-05
5.102808146096097e-06   -1.2080546927484021e-05   2.7636908970473913e-05
5.102808146096097e-06   -1.2080546927484021e-05   2.7636908970473913e-05
5.102808146096097e-06   -1.2080546927484021e-05   2.7636908970473913e-05
-1.8019829048174815e-05   -2.0521329366467167e-06   -4.883771292141931e-06
-1.8019829048174815e-05   -2.0521329366467167e-06   -4.883771292141931e-06
-1.8019829048174815e-05   -2.0521329366467167e-06   -4.883771292141931e-06
-1.8019829048174815e-05   -2.0521329366467167e-06   -4.883771292141931e-06
-1.9139068301913314e-05   -1.2021527915642271e-05   3.493372741067186e-05
-1.9139068301913314e-05   -1.2021527915642271e-05   3.493372741067186e-05
-1.9139068301913314e-05   -1.2021527915642271e-05   3.493372741067186e-05
-1.9139068301913314e-05   -1.2021527915642271e-05   3.493372741067186e-05
4.263326901295323e-06   -2.184895642071919e-06   -9.972243958818172e-06
4.263326901295323e-06   -2.184895642071919e-06   -9.972243958818172e-06
4.263326901295323e-06   -2.184895642071919e-06   -9.972243958818172e-06
4.263326901295323e-06   -2.184895642071919e-06   -9.972243958818172e-06
-6.746040719492027e-06   -6.726159161444308e-06   1.110146018745066e-05
-6.746040719492027e-06   -6.726159161444308e-06   1.110146018745066e-05
-6.746040719492027e-06   -6.726159161444308e-06   1.110146018745066e-05
-6.746040719492027e-06   -6.726159161444308e-06   1.110146018745066e-05
4.263326901295309e-06   -1.2021527915642271e-05   2.9031748046529342e-05
4.263326901295309e-06   -1.2021527915642271e-05   2.9031748046529342e-05
4.263326901295309e-06   -1.2021527915642271e-05   2.9031748046529342e-05
4.263326901295309e-06   -1.2021527915642271e-05   2.9031748046529342e-05
-1.9139068301913287e-05   -2.184895642071919e-06   -4.070264594675929e-06
-1.9139068301913287e-05   -2.184895642071919e-06   -4.070264594675929e-06
-1.9139068301913287e-05   -2.184895642071919e-06   -4.070264594675929e-06
-1.9139068301913287e-05   -2.184895642071919e-06   -4.070264594675929e-06
-2.0454579542347452e-05   -1.1597056587817674e-05   3.658956860636128e-05
-2.0454579542347452e-05   -1.1597056587817674e-05   3.658956860636128e-05
-2.0454579542347452e-05   -1.1597056587817674e-05   3.658956860636128e-05
-2.0454579542347452e-05   -1.1597056587817674e-05   3.658956860636128e-05
3.3296659691417257e-06   -2.1703892514671197e-06   -8.706840981264317e-06
3.3296659691417257e-06   -2.1703892514671197e-06   -8.706840981264317e-06
3.3296659691417257e-06   -2.1703892514671197e-06   -8.706840981264317e-06
3.3296659691417257e-06   -2.1703892514671197e-06   -8.706840981264317e-06
-7.755553431798066e-06   -6.455755365003448e-06   1.233974435509036e-05
-7.755553431798066e-06   -6.455755365003448e-06   1.233974435509036e-05
-7.755553431798066e-06   -6.455755365003448e-06   1.233974435509036e-05
-7.755553431798066e-06   -6.455755365003448e-06   1.233974435509036e-05
-1.618983054588248e-05   -1.4715286426205017e-05   3.173074395241638e-05
-1.618983054588248e-05   -1.4715286426205017e-05   3.173074395241638e-05
-1.618983054588248e-05   -1.4715286426205017e-05   3.173074395241638e-05
-1.618983054588248e-05   -1.4715286426205017e-05   3.173074395241638e-05
-4.175456269902353e-05   2.1456233340886102e-06   -7.605971133091416e-07
-4.175456269902353e-05   2.1456233340886102e-06   -7.605971133091416e-07
-4.175456269902353e-05   2.1456233340886102e-06   -7.605971133091416e-07
-4.175456269902353e-05   2.1456233340886102e-06   -7.605971133091416e-07
-4.395638075883707e-05   -1.6440870851547502e-05   4.482465554596902e-05
-4.395638075883707e-05   -1.6440870851547502e-05   4.482465554596902e-05
-4.395638075883707e-05   -1.6440870851547502e-05   4.482465554596902e-05
-4.395638075883707e-05   -1.6440870851547502e-05   4.482465554596902e-05
-1.8019829048174815e-05   2.0225253445161143e-06   -9.480968356106155e-06
-1.8019829048174815e-05   2.0225253445161143e-06   -9.480968356106155e-06
-1.8019829048174815e-05   2.0225253445161143e-06   -9.480968356106155e-06
-1.8019829048174815e-05   2.0225253445161143e-06   -9.480968356106155e-06
-2.956288390588013e-05   -6.083768273359037e-06   1.4621232577461285e-05
-2.956288390588013e-05   -6.083768273359037e-06   1.4621232577461285e-05
-2.956288390588013e-05   -6.083768273359037e-06   1.4621232577461285e-05
-2.956288390588013e-05   -6.083768273359037e-06   1.4621232577461285e-05
-1.8019829048174842e-05   -1.6440870851547502e-05   3.374661782833089e-05
-1.8019829048174842e-05   -1.6440870851547502e-05   3.374661782833089e-05
-1.8019829048174842e-05   -1.6440870851547502e-05   3.374661782833089e-05
-1.8019829048174842e-05   -1.6440870851547502e-05   3.374661782833089e-05
-4.395638075883707e-05   2.0225253445161143e-06   1.5970693615320261e-06
-4.395638075883707e-05   2.0225253445161143e-06   1.5970693615320261e-06
-4.395638075883707e-05   2.0225253445161143e-06   1.5970693615320261e-06
-4.395638075883707e-05   2.0225253445161143e-06   1.5970693615320261e-06
-4.529786843320307e-05   -1.6530069313573387e-05   4.733755655433143e-05
-4.529786843320307e-05   -1.6530069313573387e-05   4.733755655433143e-05
-4.529786843320307e-05   -1.6530069313573387e-05   4.733755655433143e-05
-4.529786843320307e-05   -1.6530069313573387e-05   4.733755655433143e-05
-1.9139068301913287e-05   1.7921390364343016e-06   -7.253768674489518e-06
-1.9139068301913287e-05   1.7921390364343016e-06   -7.253768674489518e-06
-1.9139068301913287e-05   1.7921390364343016e-06   -7.253768674489518e-06
-1.9139068301913287e-05   1.7921390364343016e-06   -7.253768674489518e-06
-3.099140628118222e-05   -7.013694642856415e-06   1.778362816519979e-05
-3.099140628118222e-05   -7.013694642856415e-06   1.778362816519979e-05
-3.099140628118222e-05   -7.013694642856415e-06   1.778362816519979e-05
-3.099140628118222e-05   -7.013694642856415e-06   1.778362816519979e-05
-1.9139068301913273e-05   -1.6530069313573387e-05   3.634423154432647e-05
-1.9139068301913273e-05   -1.6530069313573387e-05   3.634423154432647e-05
-1.9139068301913273e-05   -1.6530069313573387e-05   3.634423154432647e-05
-1.9139068301913273e-05   -1.6530069313573387e-05   3.634423154432647e-05
-4.529786843320299e-05   1.7921390364343016e-06   3.739556335514982e-06
-4.529786843320299e-05   1.7921390364343016e-06   3.739556335514982e-06
-4.529786843320299e-05   1.7921390364343016e-06   3.739556335514982e-06
-4.529786843320299e-05   1.7921390364343016e-06   3.739556335514982e-06
-4.674388932819671e-05   -1.507042913538462e-05   4.841403821771208e-05
-4.674388932819671e-05   -1.507042913538462e-05   4.841403821771208e-05
-4.674388932819671e-05   -1.507042913538462e-05   4.841403821771208e-05
-4.674388932819671e-05   -1.507042913538462e-05   4.841403821771208e-05
-2.045457954234737e-05   1.5308395522107589e-06   -5.36223930459393e-06
-2.045457954234737e-05   1.5308395522107589e-06   -5.36223930459393e-06
-2.045457954234737e-05   1.5308395522107589e-06   -5.36223930459393e-06
-2.045457954234737e-05   1.5308395522107589e-06   -5.36223930459393e-06
-3.246544464678535e-05   -7.064394130739966e-06   1.9813009412573512e-05
-3.246544464678535e-05   -7.064394130739966e-06   1.9813009412573512e-05
-3.246544464678535e-05   -7.064394130739966e-06   1.9813009412573512e-05
-3.246544464678535e-05   -7.064394130739966e-06   1.9813009412573512e-05
-4.17545626990234e-05   0.0   3.510960854806542e-05
-4.17545626990234e-05   0.0   3.510960854806542e-05
-4.17545626990234e-05   0.0   3.510960854806542e-05
-4.17545626990234e-05   0.0   3.510960854806542e-05
-7.34743170014462e-05   9.641379246785788e-06   -1.1971821074567872e-05
-7.34743170014462e-05   9.641379246785788e-06   -1.1971821074567872e-05
-7.34743170014462e-05   9.641379246785788e-06   -1.1971821074567872e-05
-7.34743170014462e-05   9.641379246785788e-06   -1.1971821074567872e-05
-7.650569851962284e-05   0.0   5.1036340341740864e-05
-7.650569851962284e-05   0.0   5.1036340341740864e-05
-7.650569851962284e-05   0.0   5.1036340341740864e-05
-7.650569851962284e-05   0.0   5.1036340341740864e-05
-4.395638075883697e-05   9.311670370193512e-06   -8.799524815018627e-06
-4.395638075883697e-05   9.311670370193512e-06   -8.799524815018627e-06
-4.395638075883697e-05   9.311670370193512e-06   -8.799524815018627e-06
-4.395638075883697e-05   9.311670370193512e-06   -8.799524815018627e-06
-5.641119971258871e-05   5.7196906704673825e-06   1.4113694594403565e-05
-5.641119971258871e-05   5.7196906704673825e-06   1.4113694594403565e-05
-5.641119971258871e-05   5.7196906704673825e-06   1.4113694594403565e-05
-5.641119971258871e-05   5.7196906704673825e-06   1.4113694594403565e-05
-4.3956380758836946e-05   0.0   4.544933811962489e-05
-4.3956380758836946e-05   0.0   4.544933811962489e-05
-4.3956380758836946e-05   0.0   4.544933811962489e-05
-4.3956380758836946e-05   0.0   4.544933811962489e-05
-7.650569851962296e-05   9.311670370193512e-06   -3.212522592902379e-06
-7.650569851962296e-05   9.311670370193512e-06   -3.212522592902379e-06
-7.650569851962296e-05   9.311670370193512e-06   -3.212522592902379e-06
-7.650569851962296e-05   9.311670370193512e-06   -3.212522592902379e-06
-7.803176543079356e-05   0.0   5.668971711089298e-05
-7.803176543079356e-05   0.0   5.668971711089298e-05
-7.803176543079356e-05   0.0   5.668971711089298e-05
-7.803176543079356e-05   0.0   5.668971711089298e-05
-4.529786843320299e-05   9.075174583353298e-06   -3.3118826351034695e-06
-4.529786843320299e-05   9.075174583353298e-06   -3.3118826351034695e-06
-4.529786843320299e-05   9.075174583353298e-06   -3.3118826351034695e-06
-4.529786843320299e-05   9.075174583353298e-06   -3.3118826351034695e-06
-5.934191866544038e-05   4.777664633348871e-06   2.2673373721962114e-05
-5.934191866544038e-05   4.777664633348871e-06   2.2673373721962114e-05
-5.934191866544038e-05   4.777664633348871e-06   2.2673373721962114e-05
-5.934191866544038e-05   4.777664633348871e-06   2.2673373721962114e-05
-4.529786843320299e-05   0.0   5.124461236088117e-05
-4.529786843320299e-05   0.0   5.124461236088117e-05
-4.529786843320299e-05   0.0   5.124461236088117e-05
-4.529786843320299e-05   0.0   5.124461236088117e-05
-7.803176543079383e-05   9.075174583353298e-06   2.1332221149085798e-06
-7.803176543079383e-05   9.075174583353298e-06   2.1332221149085798e-06
-7.803176543079383e-05   9.075174583353298e-06   2.1332221149085798e-06
-7.803176543079383e-05   9.075174583353298e-06   2.1332221149085798e-06
-7.972870854269734e-05   0.0   6.422712682096782e-05
-7.972870854269734e-05   0.0   6.422712682096782e-05
-7.972870854269734e-05   0.0   6.422712682096782e-05
-7.972870854269734e-05   0.0   6.422712682096782e-05
-4.674388932819671e-05   7.567248851817615e-06   4.712078819042335e-06
-4.674388932819671e-05   7.567248851817615e-06   4.712078819042335e-06
-4.674388932819671e-05   7.567248851817615e-06   4.712078819042335e-06
-4.674388932819671e-05   7.567248851817615e-06   4.712078819042335e-06
-5.982754927399612e-05   3.3583753446444348e-06   2.9043502833012234e-05
-5.982754927399612e-05   3.3583753446444348e-06   2.9043502833012234e-05
-5.982754927399612e-05   3.3583753446444348e-06   2.9043502833012234e-05
-5.982754927399612e-05   3.3583753446444348e-06   2.9043502833012234e-05
5.036356142178689e-05   -7.5710870528276734e-06   3.5714384140822725e-05
5.036356142178689e-05   -7.5710870528276734e-06   3.5714384140822725e-05
5.036356142178689e-05   -7.5710870528276734e-06   3.5714384140822725e-05
5.036356142178689e-05   -7.5710870528276734e-06   3.5714384140822725e-05
2.546192812526129e-05   -5.719070461778289e-06   -4.677128065423523e-06
2.546192812526129e-05   -5.719070461778289e-06   -4.677128065423523e-06
2.546192812526129e-05   -5.719070461778289e-06   -4.677128065423523e-06
2.546192812526129e-05   -5.719070461778289e-06   -4.677128065423523e-06
2.4792761163947168e-05   -8.322096774500583e-06   3.116489090131645e-05
2.4792761163947168e-05   -8.322096774500583e-06   3.116489090131645e-05
2.4792761163947168e-05   -8.322096774500583e-06   3.116489090131645e-05
2.4792761163947168e-05   -8.322096774500583e-06   3.116489090131645e-05
4.917006910126192e-05   -6.479513255083389e-06   -1.0569505772524739e-05
4.917006910126192e-05   -6.479513255083389e-06   -1.0569505772524739e-05
4.917006910126192e-05   -6.479513255083389e-06   -1.0569505772524739e-05
4.917006910126192e-05   -6.479513255083389e-06   -1.0569505772524739e-05
3.5780001212640705e-05   -6.7429471681790774e-06   1.190533438970145e-05
3.5780001212640705e-05   -6.7429471681790774e-06   1.190533438970145e-05
3.5780001212640705e-05   -6.7429471681790774e-06   1.190533438970145e-05
3.5780001212640705e-05   -6.7429471681790774e-06   1.190533438970145e-05
4.917006910126183e-05   -8.322096774500583e-06   3.0059340789666484e-05
4.917006910126183e-05   -8.322096774500583e-06   3.0059340789666484e-05
4.917006910126183e-05   -8.322096774500583e-06   3.0059340789666484e-05
4.917006910126183e-05   -8.322096774500583e-06   3.0059340789666484e-05
2.479276116394721e-05   -6.479513255083389e-06   -9.463955660874573e-06
2.479276116394721e-05   -6.479513255083389e-06   -9.463955660874573e-06
2.479276116394721e-05   -6.479513255083389e-06   -9.463955660874573e-06
2.479276116394721e-05   -6.479513255083389e-06   -9.463955660874573e-06
2.3930552973071937e-05   -8.390362755286793e-06   2.7967971457365992e-05
2.3930552973071937e-05   -8.390362755286793e-06   2.7967971457365992e-05
2.3930552973071937e-05   -8.390362755286793e-06   2.7967971457365992e-05
2.3930552973071937e-05   -8.390362755286793e-06   2.7967971457365992e-05
4.796244379533941e-05   -6.591975904098003e-06   -1.3164212023793153e-05
4.796244379533941e-05   -6.591975904098003e-06   -1.3164212023793153e-05
4.796244379533941e-05   -6.591975904098003e-06   -1.3164212023793153e-05
4.796244379533941e-05   -6.591975904098003e-06   -1.3164212023793153e-05
3.544791448393267e-05   -7.036824893937857e-06   7.9602462224554e-06
3.544791448393267e-05   -7.036824893937857e-06   7.9602462224554e-06
3.544791448393267e-05   -7.036824893937857e-06   7.9602462224554e-06
3.544791448393267e-05   -7.036824893937857e-06   7.9602462224554e-06
4.796244379533941e-05   -8.39036275528636e-06   2.6888939346652848e-05
4.796244379533941e-05   -8.39036275528636e-06   2.6888939346652848e-05
4.796244379533941e-05   -8.39036275528636e-06   2.6888939346652848e-05
4.796244379533941e-05   -8.39036275528636e-06   2.6888939346652848e-05
2.3930552973071937e-05   -6.591975904098003e-06   -1.208517991307988e-05
2.3930552973071937e-05   -6.591975904098003e-06   -1.208517991307988e-05
2.3930552973071937e-05   -6.591975904098003e-06   -1.208517991307988e-05
2.3930552973071937e-05   -6.591975904098003e-06   -1.208517991307988e-05
2.3025733781060237e-05   -8.212435730810003e-06   2.3223709326113638e-05
2.3025733781060237e-05   -8.212435730810003e-06   2.3223709326113638e-05
2.3025733781060237e-05   -8.212435730810003e-06   2.3223709326113638e-05
2.3025733781060237e-05   -8.212435730810003e-06   2.3223709326113638e-05
4.6450581014007106e-05   -6.547749009586535e-06   -1.681651476153175e-05
4.6450581014007106e-05   -6.547749009586535e-06   -1.681651476153175e-05
4.6450581014007106e-05   -6.547749009586535e-06   -1.681651476153175e-05
4.6450581014007106e-05   -6.547749009586535e-06   -1.681651476153175e-05
3.3872654043575026e-05   -6.851772191761481e-06   4.329110765160314e-06
3.3872654043575026e-05   -6.851772191761481e-06   4.329110765160314e-06
3.3872654043575026e-05   -6.851772191761481e-06   4.329110765160314e-06
3.3872654043575026e-05   -6.851772191761481e-06   4.329110765160314e-06
2.546192812526133e-05   -4.6688808832307145e-06   3.3757972423056285e-05
2.546192812526133e-05   -4.6688808832307145e-06   3.3757972423056285e-05
2.546192812526133e-05   -4.6688808832307145e-06   3.3757972423056285e-05
2.546192812526133e-05   -4.6688808832307145e-06   3.3757972423056285e-05
2.767585721013516e-06   -2.0148126579156225e-06   -2.473490648834077e-06
2.767585721013516e-06   -2.0148126579156225e-06   -2.473490648834077e-06
2.767585721013516e-06   -2.0148126579156225e-06   -2.473490648834077e-06
2.767585721013516e-06   -2.0148126579156225e-06   -2.473490648834077e-06
2.102563803259221e-06   -4.9511314593703e-06   3.516398360002581e-05
2.102563803259221e-06   -4.9511314593703e-06   3.516398360002581e-05
2.102563803259221e-06   -4.9511314593703e-06   3.516398360002581e-05
2.102563803259221e-06   -4.9511314593703e-06   3.516398360002581e-05
2.479276116394721e-05   -2.4228899145814498e-06   -4.16995692799433e-06
2.479276116394721e-05   -2.4228899145814498e-06   -4.16995692799433e-06
2.479276116394721e-05   -2.4228899145814498e-06   -4.16995692799433e-06
2.479276116394721e-05   -2.4228899145814498e-06   -4.16995692799433e-06
1.3649016717303463e-05   -3.2682489489461574e-06   1.491016590369755e-05
1.3649016717303463e-05   -3.2682489489461574e-06   1.491016590369755e-05
1.3649016717303463e-05   -3.2682489489461574e-06   1.491016590369755e-05
1.3649016717303463e-05   -3.2682489489461574e-06   1.491016590369755e-05
2.4792761163947195e-05   -4.9511314593703e-06   3.36470386731525e-05
2.4792761163947195e-05   -4.9511314593703e-06   3.36470386731525e-05
2.4792761163947195e-05   -4.9511314593703e-06   3.36470386731525e-05
2.4792761163947195e-05   -4.9511314593703e-06   3.36470386731525e-05
2.102563803259221e-06   -2.4228899145814498e-06   -2.6530120011208306e-06
2.102563803259221e-06   -2.4228899145814498e-06   -2.6530120011208306e-06
2.102563803259221e-06   -2.4228899145814498e-06   -2.6530120011208306e-06
2.102563803259221e-06   -2.4228899145814498e-06   -2.6530120011208306e-06
1.253944987833952e-06   -5.075506420237127e-06   3.482909729701691e-05
1.253944987833952e-06   -5.075506420237127e-06   3.482909729701691e-05
1.253944987833952e-06   -5.075506420237127e-06   3.482909729701691e-05
1.253944987833952e-06   -5.075506420237127e-06   3.482909729701691e-05
2.3930552973071937e-05   -2.6897048601920784e-06   -4.396730281073274e-06
2.3930552973071937e-05   -2.6897048601920784e-06   -4.396730281073274e-06
2.3930552973071937e-05   -2.6897048601920784e-06   -4.396730281073274e-06
2.3930552973071937e-05   -2.6897048601920784e-06   -4.396730281073274e-06
1.2805205662192968e-05   -3.422305048533846e-06   1.4585075350064116e-05
1.2805205662192968e-05   -3.422305048533846e-06   1.4585075350064116e-05
1.2805205662192968e-05   -3.422305048533846e-06   1.4585075350064116e-05
1.2805205662192968e-05   -3.422305048533846e-06   1.4585075350064116e-05
2.3930552973071897e-05   -5.075506420237127e-06   3.339761636098992e-05
2.3930552973071897e-05   -5.075506420237127e-06   3.339761636098992e-05
2.3930552973071897e-05   -5.075506420237127e-06   3.339761636098992e-05
2.3930552973071897e-05   -5.075506420237127e-06   3.339761636098992e-05
1.253944987833952e-06   -2.6897048601920784e-06   -2.965249345046519e-06
1.253944987833952e-06   -2.6897048601920784e-06   -2.965249345046519e-06
1.253944987833952e-06   -2.6897048601920784e-06   -2.965249345046519e-06
1.253944987833952e-06   -2.6897048601920784e-06   -2.965249345046519e-06
3.1652127731542263e-07   -4.959044481958608e-06   3.533693511017979e-05
3.1652127731542263e-07   -4.959044481958608e-06   3.533693511017979e-05
3.1652127731542263e-07   -4.959044481958608e-06   3.533693511017979e-05
3.1652127731542263e-07   -4.959044481958608e-06   3.533693511017979e-05
2.3025733781060217e-05   -2.802878026693335e-06   -3.8054522692207535e-06
2.3025733781060217e-05   -2.802878026693335e-06   -3.8054522692207535e-06
2.3025733781060217e-05   -2.802878026693335e-06   -3.8054522692207535e-06
2.3025733781060217e-05   -2.802878026693335e-06   -3.8054522692207535e-06
1.2119066682753724e-05   -3.3887585977724916e-06   1.4723854570604833e-05
1.2119066682753724e-05   -3.3887585977724916e-06   1.4723854570604833e-05
1.2119066682753724e-05   -3.3887585977724916e-06   1.4723854570604833e-05
1.2119066682753724e-05   -3.3887585977724916e-06   1.4723854570604833e-05
2.7675857210135294e-06   -1.9439884093135074e-06   3.451013777413668e-05
2.7675857210135294e-06   -1.9439884093135074e-06   3.451013777413668e-05
2.7675857210135294e-06   -1.9439884093135074e-06   3.451013777413668e-05
2.7675857210135294e-06   -1.9439884093135074e-06   3.451013777413668e-05
-1.9220581700093715e-05   1.7974664796259737e-06   1.0806500565512141e-07
-1.9220581700093715e-05   1.7974664796259737e-06   1.0806500565512141e-07
-1.9220581700093715e-05   1.7974664796259737e-06   1.0806500565512141e-07
-1.9220581700093715e-05   1.7974664796259737e-06   1.0806500565512141e-07
-1.996998860185218e-05   -2.0521329366467167e-06   3.701325053623891e-05
-1.996998860185218e-05   -2.0521329366467167e-06   3.701325053623891e-05
-1.996998860185218e-05   -2.0521329366467167e-06   3.701325053623891e-05
-1.996998860185218e-05   -2.0521329366467167e-06   3.701325053623891e-05
2.102563803259221e-06   1.4861954346777513e-06   -1.897333828408058e-06
2.102563803259221e-06   1.4861954346777513e-06   -1.897333828408058e-06
2.102563803259221e-06   1.4861954346777513e-06   -1.897333828408058e-06
2.102563803259221e-06   1.4861954346777513e-06   -1.897333828408058e-06
-8.564467038117884e-06   -1.4173377621291144e-08   1.6781272194599706e-05
-8.564467038117884e-06   -1.4173377621291144e-08   1.6781272194599706e-05
-8.564467038117884e-06   -1.4173377621291144e-08   1.6781272194599706e-05
-8.564467038117884e-06   -1.4173377621291144e-08   1.6781272194599706e-05
2.102563803259221e-06   -2.0521329366467167e-06   3.489025351344427e-05
2.102563803259221e-06   -2.0521329366467167e-06   3.489025351344427e-05
2.102563803259221e-06   -2.0521329366467167e-06   3.489025351344427e-05
2.102563803259221e-06   -2.0521329366467167e-06   3.489025351344427e-05
-1.996998860185218e-05   1.4861954346777513e-06   2.2566319438652518e-07
-1.996998860185218e-05   1.4861954346777513e-06   2.2566319438652518e-07
-1.996998860185218e-05   1.4861954346777513e-06   2.2566319438652518e-07
-1.996998860185218e-05   1.4861954346777513e-06   2.2566319438652518e-07
-2.0973987026916244e-05   -2.184895642072353e-06   3.775203165810653e-05
-2.0973987026916244e-05   -2.184895642072353e-06   3.775203165810653e-05
-2.0973987026916244e-05   -2.184895642072353e-06   3.775203165810653e-05
-2.0973987026916244e-05   -2.184895642072353e-06   3.775203165810653e-05
1.253944987833952e-06   1.1964463949047308e-06   -1.3233269219968394e-06
1.253944987833952e-06   1.1964463949047308e-06   -1.3233269219968394e-06
1.253944987833952e-06   1.1964463949047308e-06   -1.3233269219968394e-06
1.253944987833952e-06   1.1964463949047308e-06   -1.3233269219968394e-06
-9.30350125788078e-06   -1.0095015199576736e-07   1.7050854749001457e-05
-9.30350125788078e-06   -1.0095015199576736e-07   1.7050854749001457e-05
-9.30350125788078e-06   -1.0095015199576736e-07   1.7050854749001457e-05
-9.30350125788078e-06   -1.0095015199576736e-07   1.7050854749001457e-05
1.253944987833952e-06   -2.184895642071919e-06   3.572322643592002e-05
1.253944987833952e-06   -2.184895642071919e-06   3.572322643592002e-05
1.253944987833952e-06   -2.184895642071919e-06   3.572322643592002e-05
1.253944987833952e-06   -2.184895642071919e-06   3.572322643592002e-05
-2.0973987026916217e-05   1.1964463949047308e-06   7.054783001895354e-07
-2.0973987026916217e-05   1.1964463949047308e-06   7.054783001895354e-07
-2.0973987026916217e-05   1.1964463949047308e-06   7.054783001895354e-07
-2.0973987026916217e-05   1.1964463949047308e-06   7.054783001895354e-07
-2.204365731290268e-05   -2.1703892514671197e-06   3.863816216065504e-05
-2.204365731290268e-05   -2.1703892514671197e-06   3.863816216065504e-05
-2.204365731290268e-05   -2.1703892514671197e-06   3.863816216065504e-05
-2.204365731290268e-05   -2.1703892514671197e-06   3.863816216065504e-05
3.1652127731542263e-07   9.88006284332807e-07   -5.238394778550365e-07
3.1652127731542263e-07   9.88006284332807e-07   -5.238394778550365e-07
3.1652127731542263e-07   9.88006284332807e-07   -5.238394778550365e-07
3.1652127731542263e-07   9.88006284332807e-07   -5.238394778550365e-07
-1.0245708427946623e-05   -1.628286055667047e-07   1.7770377631521906e-05
-1.0245708427946623e-05   -1.628286055667047e-07   1.7770377631521906e-05
-1.0245708427946623e-05   -1.628286055667047e-07   1.7770377631521906e-05
-1.0245708427946623e-05   -1.628286055667047e-07   1.7770377631521906e-05
-1.9220581700093647e-05   2.1456233340881765e-06   3.119922175881052e-05
-1.9220581700093647e-05   2.1456233340881765e-06   3.119922175881052e-05
-1.9220581700093647e-05   2.1456233340881765e-06   3.119922175881052e-05
-1.9220581700093647e-05   2.1456233340881765e-06   3.119922175881052e-05
-4.076979162356977e-05   5.84666971384395e-06   -2.495500285796333e-06
-4.076979162356977e-05   5.84666971384395e-06   -2.495500285796333e-06
-4.076979162356977e-05   5.84666971384395e-06   -2.495500285796333e-06
-4.076979162356977e-05   5.84666971384395e-06   -2.495500285796333e-06
-4.185976547489912e-05   2.0225253445161143e-06   3.452366290009317e-05
-4.185976547489912e-05   2.0225253445161143e-06   3.452366290009317e-05
-4.185976547489912e-05   2.0225253445161143e-06   3.452366290009317e-05
-4.185976547489912e-05   2.0225253445161143e-06   3.452366290009317e-05
-1.9969988601852126e-05   5.53520772421357e-06   -4.06690798280358e-06
-1.9969988601852126e-05   5.53520772421357e-06   -4.06690798280358e-06
-1.9969988601852126e-05   5.53520772421357e-06   -4.06690798280358e-06
-1.9969988601852126e-05   5.53520772421357e-06   -4.06690798280358e-06
-3.0215861619777304e-05   3.95357538004017e-06   1.3958526453575562e-05
-3.0215861619777304e-05   3.95357538004017e-06   1.3958526453575562e-05
-3.0215861619777304e-05   3.95357538004017e-06   1.3958526453575562e-05
-3.0215861619777304e-05   3.95357538004017e-06   1.3958526453575562e-05
-1.9969988601852167e-05   2.0225253445161143e-06   3.2416053472274524e-05
-1.9969988601852167e-05   2.0225253445161143e-06   3.2416053472274524e-05
-1.9969988601852167e-05   2.0225253445161143e-06   3.2416053472274524e-05
-1.9969988601852167e-05   2.0225253445161143e-06   3.2416053472274524e-05
-4.185976547489905e-05   5.53520772421357e-06   -1.95929855498515e-06
-4.185976547489905e-05   5.53520772421357e-06   -1.95929855498515e-06
-4.185976547489905e-05   5.53520772421357e-06   -1.95929855498515e-06
-4.185976547489905e-05   5.53520772421357e-06   -1.95929855498515e-06
-4.319604397787498e-05   1.7921390364347353e-06   3.6641209598766095e-05
-4.319604397787498e-05   1.7921390364347353e-06   3.6641209598766095e-05
-4.319604397787498e-05   1.7921390364347353e-06   3.6641209598766095e-05
-4.319604397787498e-05   1.7921390364347353e-06   3.6641209598766095e-05
-2.0973987026916217e-05   5.246609070556777e-06   -2.4682340066384386e-06
-2.0973987026916217e-05   5.246609070556777e-06   -2.4682340066384386e-06
-2.0973987026916217e-05   5.246609070556777e-06   -2.4682340066384386e-06
-2.0973987026916217e-05   5.246609070556777e-06   -2.4682340066384386e-06
-3.1026698040670667e-05   3.8829671592378705e-06   1.5104469496410224e-05
-3.1026698040670667e-05   3.8829671592378705e-06   1.5104469496410224e-05
-3.1026698040670667e-05   3.8829671592378705e-06   1.5104469496410224e-05
-3.1026698040670667e-05   3.8829671592378705e-06   1.5104469496410224e-05
-2.097398702691619e-05   1.7921390364343016e-06   3.45685275782927e-05
-2.097398702691619e-05   1.7921390364343016e-06   3.45685275782927e-05
-2.097398702691619e-05   1.7921390364343016e-06   3.45685275782927e-05
-2.097398702691619e-05   1.7921390364343016e-06   3.45685275782927e-05
-4.319604397787498e-05   5.24660907055656e-06   -3.9555198616514874e-07
-4.319604397787498e-05   5.24660907055656e-06   -3.9555198616514874e-07
-4.319604397787498e-05   5.24660907055656e-06   -3.9555198616514874e-07
-4.319604397787498e-05   5.24660907055656e-06   -3.9555198616514874e-07
-4.4609364211606464e-05   1.5308395522111926e-06   3.832307374630338e-05
-4.4609364211606464e-05   1.5308395522111926e-06   3.832307374630338e-05
-4.4609364211606464e-05   1.5308395522111926e-06   3.832307374630338e-05
-4.4609364211606464e-05   1.5308395522111926e-06   3.832307374630338e-05
-2.20436573129026e-05   4.85802340352429e-06   -1.2827480623246149e-06
-2.20436573129026e-05   4.85802340352429e-06   -1.2827480623246149e-06
-2.20436573129026e-05   4.85802340352429e-06   -1.2827480623246149e-06
-2.20436573129026e-05   4.85802340352429e-06   -1.2827480623246149e-06
-3.23808962782715e-05   3.6492240426940024e-06   1.667126316312297e-05
-3.23808962782715e-05   3.6492240426940024e-06   1.667126316312297e-05
-3.23808962782715e-05   3.6492240426940024e-06   1.667126316312297e-05
-3.23808962782715e-05   3.6492240426940024e-06   1.667126316312297e-05
-4.076979162356977e-05   9.641379246785788e-06   1.642379807733382e-05
-4.076979162356977e-05   9.641379246785788e-06   1.642379807733382e-05
-4.076979162356977e-05   9.641379246785788e-06   1.642379807733382e-05
-4.076979162356977e-05   9.641379246785788e-06   1.642379807733382e-05
-6.141758173182308e-05   9.508605715263406e-06   -1.8068849555335142e-05
-6.141758173182308e-05   9.508605715263406e-06   -1.8068849555335142e-05
-6.141758173182308e-05   9.508605715263406e-06   -1.8068849555335142e-05
-6.141758173182308e-05   9.508605715263406e-06   -1.8068849555335142e-05
-6.337506344275315e-05   9.311670370193512e-06   2.4356320861703643e-05
-6.337506344275315e-05   9.311670370193512e-06   2.4356320861703643e-05
-6.337506344275315e-05   9.311670370193512e-06   2.4356320861703643e-05
-6.337506344275315e-05   9.311670370193512e-06   2.4356320861703643e-05
-4.185976547489905e-05   9.69375726712885e-06   -1.1731761222881455e-05
-4.185976547489905e-05   9.69375726712885e-06   -1.1731761222881455e-05
-4.185976547489905e-05   9.69375726712885e-06   -1.1731761222881455e-05
-4.185976547489905e-05   9.69375726712885e-06   -1.1731761222881455e-05
-4.9768278365608635e-05   9.686546107817457e-06   1.4534202905548558e-06
-4.9768278365608635e-05   9.686546107817457e-06   1.4534202905548558e-06
-4.9768278365608635e-05   9.686546107817457e-06   1.4534202905548558e-06
-4.9768278365608635e-05   9.686546107817457e-06   1.4534202905548558e-06
-4.185976547489901e-05   9.311670370193512e-06   2.4127068723542354e-05
-4.185976547489901e-05   9.311670370193512e-06   2.4127068723542354e-05
-4.185976547489901e-05   9.311670370193512e-06   2.4127068723542354e-05
-4.185976547489901e-05   9.311670370193512e-06   2.4127068723542354e-05
-6.337506344275315e-05   9.69375726712885e-06   -1.1502509084719949e-05
-6.337506344275315e-05   9.69375726712885e-06   -1.1502509084719949e-05
-6.337506344275315e-05   9.69375726712885e-06   -1.1502509084719949e-05
-6.337506344275315e-05   9.69375726712885e-06   -1.1502509084719949e-05
-6.529460731868428e-05   9.075174583352864e-06   2.9919559101345946e-05
-6.529460731868428e-05   9.075174583352864e-06   2.9919559101345946e-05
-6.529460731868428e-05   9.075174583352864e-06   2.9919559101345946e-05
-6.529460731868428e-05   9.075174583352864e-06   2.9919559101345946e-05
-4.31960439778749e-05   9.624822038683829e-06   -7.241168273201424e-06
-4.31960439778749e-05   9.624822038683829e-06   -7.241168273201424e-06
-4.31960439778749e-05   9.624822038683829e-06   -7.241168273201424e-06
-4.31960439778749e-05   9.624822038683829e-06   -7.241168273201424e-06
-5.201732158581909e-05   9.687539983352714e-06   7.423330306571482e-06
-5.201732158581909e-05   9.687539983352714e-06   7.423330306571482e-06
-5.201732158581909e-05   9.687539983352714e-06   7.423330306571482e-06
-5.201732158581909e-05   9.687539983352714e-06   7.423330306571482e-06
-4.31960439778749e-05   9.075174583353298e-06   2.958977062814767e-05
-4.31960439778749e-05   9.075174583353298e-06   2.958977062814767e-05
-4.31960439778749e-05   9.075174583353298e-06   2.958977062814767e-05
-4.31960439778749e-05   9.075174583353298e-06   2.958977062814767e-05
-6.529460731868428e-05   9.624822038683829e-06   -6.911379800003041e-06
-6.529460731868428e-05   9.624822038683829e-06   -6.911379800003041e-06
-6.529460731868428e-05   9.624822038683829e-06   -6.911379800003041e-06
-6.529460731868428e-05   9.624822038683829e-06   -6.911379800003041e-06
-6.755888831746861e-05   7.567248851817615e-06   3.9214110141835195e-05
-6.755888831746861e-05   7.567248851817615e-06   3.9214110141835195e-05
-6.755888831746861e-05   7.567248851817615e-06   3.9214110141835195e-05
-6.755888831746861e-05   7.567248851817615e-06   3.9214110141835195e-05
-4.4609364211606315e-05   8.863047992572603e-06   1.8742381427833956e-07
-4.4609364211606315e-05   8.863047992572603e-06   1.8742381427833956e-07
-4.4609364211606315e-05   8.863047992572603e-06   1.8742381427833956e-07
-4.4609364211606315e-05   8.863047992572603e-06   1.8742381427833956e-07
-5.281718804217277e-05   9.229611019273077e-06   1.3647192382536049e-05
-5.281718804217277e-05   9.229611019273077e-06   1.3647192382536049e-05
-5.281718804217277e-05   9.229611019273077e-06   1.3647192382536049e-05
-5.281718804217277e-05   9.229611019273077e-06   1.3647192382536049e-05
4.0898045411033136e-05   -5.719070461778072e-06   3.15163991464341e-05
4.0898045411033136e-05   -5.719070461778072e-06   3.15163991464341e-05
4.0898045411033136e-05   -5.719070461778072e-06   3.15163991464341e-05
4.0898045411033136e-05   -5.719070461778072e-06   3.15163991464341e-05
2.0240332140057695e-05   -4.199955914573712e-06   -2.001654243535822e-06
2.0240332140057695e-05   -4.199955914573712e-06   -2.001654243535822e-06
2.0240332140057695e-05   -4.199955914573712e-06   -2.001654243535822e-06
2.0240332140057695e-05   -4.199955914573712e-06   -2.001654243535822e-06
1.9469358014917333e-05   -6.479513255083173e-06   2.7400182534504562e-05
1.9469358014917333e-05   -6.479513255083173e-06   2.7400182534504562e-05
1.9469358014917333e-05   -6.479513255083173e-06   2.7400182534504562e-05
1.9469358014917333e-05   -6.479513255083173e-06   2.7400182534504562e-05
3.948051965835524e-05   -4.870986688582319e-06   -6.9168694777922154e-06
3.948051965835524e-05   -4.870986688582319e-06   -6.9168694777922154e-06
3.948051965835524e-05   -4.870986688582319e-06   -6.9168694777922154e-06
3.948051965835524e-05   -4.870986688582319e-06   -6.9168694777922154e-06
2.8647704312354317e-05   -5.262812922202662e-06   1.1372918505714872e-05
2.8647704312354317e-05   -5.262812922202662e-06   1.1372918505714872e-05
2.8647704312354317e-05   -5.262812922202662e-06   1.1372918505714872e-05
2.8647704312354317e-05   -5.262812922202662e-06   1.1372918505714872e-05
3.9480519658355174e-05   -6.479513255083173e-06   2.643506659460418e-05
3.9480519658355174e-05   -6.479513255083173e-06   2.643506659460418e-05
3.9480519658355174e-05   -6.479513255083173e-06   2.643506659460418e-05
3.9480519658355174e-05   -6.479513255083173e-06   2.643506659460418e-05
1.9469358014917394e-05   -4.870986688582319e-06   -5.951753537891506e-06
1.9469358014917394e-05   -4.870986688582319e-06   -5.951753537891506e-06
1.9469358014917394e-05   -4.870986688582319e-06   -5.951753537891506e-06
1.9469358014917394e-05   -4.870986688582319e-06   -5.951753537891506e-06
1.8612429548949928e-05   -6.591975904098003e-06   2.45513491410102e-05
1.8612429548949928e-05   -6.591975904098003e-06   2.45513491410102e-05
1.8612429548949928e-05   -6.591975904098003e-06   2.45513491410102e-05
1.8612429548949928e-05   -6.591975904098003e-06   2.45513491410102e-05
3.819642727024337e-05   -5.0054135576809225e-06   -9.040584468995559e-06
3.819642727024337e-05   -5.0054135576809225e-06   -9.040584468995559e-06
3.819642727024337e-05   -5.0054135576809225e-06   -9.040584468995559e-06
3.819642727024337e-05   -5.0054135576809225e-06   -9.040584468995559e-06
2.8116786607941967e-05   -5.523042469500472e-06   8.069393981931938e-06
2.8116786607941967e-05   -5.523042469500472e-06   8.069393981931938e-06
2.8116786607941967e-05   -5.523042469500472e-06   8.069393981931938e-06
2.8116786607941967e-05   -5.523042469500472e-06   8.069393981931938e-06
3.819642727024324e-05   -6.591975904098003e-06   2.3599411733160386e-05
3.819642727024324e-05   -6.591975904098003e-06   2.3599411733160386e-05
3.819642727024324e-05   -6.591975904098003e-06   2.3599411733160386e-05
3.819642727024324e-05   -6.591975904098003e-06   2.3599411733160386e-05
1.8612429548949962e-05   -5.0054135576809225e-06   -8.088647061145612e-06
1.8612429548949962e-05   -5.0054135576809225e-06   -8.088647061145612e-06
1.8612429548949962e-05   -5.0054135576809225e-06   -8.088647061145612e-06
1.8612429548949962e-05   -5.0054135576809225e-06   -8.088647061145612e-06
1.778802172192569e-05   -6.547749009586535e-06   2.0575506350248513e-05
1.778802172192569e-05   -6.547749009586535e-06   2.0575506350248513e-05
1.778802172192569e-05   -6.547749009586535e-06   2.0575506350248513e-05
1.778802172192569e-05   -6.547749009586535e-06   2.0575506350248513e-05
3.6741635002757136e-05   -5.057813240688484e-06   -1.1907810579142944e-05
3.6741635002757136e-05   -5.057813240688484e-06   -1.1907810579142944e-05
3.6741635002757136e-05   -5.057813240688484e-06   -1.1907810579142944e-05
3.6741635002757136e-05   -5.057813240688484e-06   -1.1907810579142944e-05
2.667431154611998e-05   -5.428914303810643e-06   5.09372248645965e-06
2.667431154611998e-05   -5.428914303810643e-06   5.09372248645965e-06
2.667431154611998e-05   -5.428914303810643e-06   5.09372248645965e-06
2.667431154611998e-05   -5.428914303810643e-06   5.09372248645965e-06
2.0240332140057695e-05   -2.0148126579156225e-06   3.3039064356156804e-05
2.0240332140057695e-05   -2.0148126579156225e-06   3.3039064356156804e-05
2.0240332140057695e-05   -2.0148126579156225e-06   3.3039064356156804e-05
2.0240332140057695e-05   -2.0148126579156225e-06   3.3039064356156804e-05
8.495482542349712e-07   -8.040862292725028e-07   1.4475270703048423e-06
8.495482542349712e-07   -8.040862292725028e-07   1.4475270703048423e-06
8.495482542349712e-07   -8.040862292725028e-07   1.4475270703048423e-06
8.495482542349712e-07   -8.040862292725028e-07   1.4475270703048423e-06
1.0919346410153189e-07   -2.4228899145814498e-06   3.3380263155630054e-05
1.0919346410153189e-07   -2.4228899145814498e-06   3.3380263155630054e-05
1.0919346410153189e-07   -2.4228899145814498e-06   3.3380263155630054e-05
1.0919346410153189e-07   -2.4228899145814498e-06   3.3380263155630054e-05
1.9469358014917394e-05   -1.2794201008396126e-06   4.2724034935864863e-07
1.9469358014917394e-05   -1.2794201008396126e-06   4.2724034935864863e-07
1.9469358014917394e-05   -1.2794201008396126e-06   4.2724034935864863e-07
1.9469358014917394e-05   -1.2794201008396126e-06   4.2724034935864863e-07
1.0043606076902714e-05   -1.570194716752054e-06   1.6311291682263643e-05
1.0043606076902714e-05   -1.570194716752054e-06   1.6311291682263643e-05
1.0043606076902714e-05   -1.570194716752054e-06   1.6311291682263643e-05
1.0043606076902714e-05   -1.570194716752054e-06   1.6311291682263643e-05
1.946935801491738e-05   -2.4228899145814498e-06   3.2694181267384995e-05
1.946935801491738e-05   -2.4228899145814498e-06   3.2694181267384995e-05
1.946935801491738e-05   -2.4228899145814498e-06   3.2694181267384995e-05
1.946935801491738e-05   -2.4228899145814498e-06   3.2694181267384995e-05
1.0919346410153189e-07   -1.2794201008396126e-06   1.113322237603423e-06
1.0919346410153189e-07   -1.2794201008396126e-06   1.113322237603423e-06
1.0919346410153189e-07   -1.2794201008396126e-06   1.113322237603423e-06
1.0919346410153189e-07   -1.2794201008396126e-06   1.113322237603423e-06
-6.603761659415189e-07   -2.6897048601920784e-06   3.287447884192749e-05
-6.603761659415189e-07   -2.6897048601920784e-06   3.287447884192749e-05
-6.603761659415189e-07   -2.6897048601920784e-06   3.287447884192749e-05
-6.603761659415189e-07   -2.6897048601920784e-06   3.287447884192749e-05
1.8612429548949962e-05   -1.6319047453415645e-06   1.1845591486451038e-07
1.8612429548949962e-05   -1.6319047453415645e-06   1.1845591486451038e-07
1.8612429548949962e-05   -1.6319047453415645e-06   1.1845591486451038e-07
1.8612429548949962e-05   -1.6319047453415645e-06   1.1845591486451038e-07
9.19313819851531e-06   -1.81895850312171e-06   1.5929507086924266e-05
9.19313819851531e-06   -1.81895850312171e-06   1.5929507086924266e-05
9.19313819851531e-06   -1.81895850312171e-06   1.5929507086924266e-05
9.19313819851531e-06   -1.81895850312171e-06   1.5929507086924266e-05
1.8612429548949928e-05   -2.6897048601920784e-06   3.223979877301701e-05
1.8612429548949928e-05   -2.6897048601920784e-06   3.223979877301701e-05
1.8612429548949928e-05   -2.6897048601920784e-06   3.223979877301701e-05
1.8612429548949928e-05   -2.6897048601920784e-06   3.223979877301701e-05
-6.603761659415189e-07   -1.6319047453413477e-06   7.531359837750599e-07
-6.603761659415189e-07   -1.6319047453413477e-06   7.531359837750599e-07
-6.603761659415189e-07   -1.6319047453413477e-06   7.531359837750599e-07
-6.603761659415189e-07   -1.6319047453413477e-06   7.531359837750599e-07
-1.4615588642786175e-06   -2.802878026693335e-06   3.312395043559516e-05
-1.4615588642786175e-06   -2.802878026693335e-06   3.312395043559516e-05
-1.4615588642786175e-06   -2.802878026693335e-06   3.312395043559516e-05
-1.4615588642786175e-06   -2.802878026693335e-06   3.312395043559516e-05
1.7788021721925738e-05   -1.9092219837443455e-06   5.051224994849171e-07
1.7788021721925738e-05   -1.9092219837443455e-06   5.051224994849171e-07
1.7788021721925738e-05   -1.9092219837443455e-06   5.051224994849171e-07
1.7788021721925738e-05   -1.9092219837443455e-06   5.051224994849171e-07
8.554662640642254e-06   -1.9517964421453433e-06   1.5919598976665177e-05
8.554662640642254e-06   -1.9517964421453433e-06   1.5919598976665177e-05
8.554662640642254e-06   -1.9517964421453433e-06   1.5919598976665177e-05
8.554662640642254e-06   -1.9517964421453433e-06   1.5919598976665177e-05
8.495482542349576e-07   1.7974664796257568e-06   3.410218293446797e-05
8.495482542349576e-07   1.7974664796257568e-06   3.410218293446797e-05
8.495482542349576e-07   1.7974664796257568e-06   3.410218293446797e-05
8.495482542349576e-07   1.7974664796257568e-06   3.410218293446797e-05
-1.797654575840817e-05   2.6040949973155873e-06   3.2093366906766436e-06
-1.797654575840817e-05   2.6040949973155873e-06   3.2093366906766436e-06
-1.797654575840817e-05   2.6040949973155873e-06   3.2093366906766436e-06
-1.797654575840817e-05   2.6040949973155873e-06   3.2093366906766436e-06
-1.875024392288235e-05   1.4861954346777513e-06   3.456978621514651e-05
-1.875024392288235e-05   1.4861954346777513e-06   3.456978621514651e-05
-1.875024392288235e-05   1.4861954346777513e-06   3.456978621514651e-05
-1.875024392288235e-05   1.4861954346777513e-06   3.456978621514651e-05
1.0919346410153189e-07   2.209270246016949e-06   2.7035456833697242e-06
1.0919346410153189e-07   2.209270246016949e-06   2.7035456833697242e-06
1.0919346410153189e-07   2.209270246016949e-06   2.7035456833697242e-06
1.0919346410153189e-07   2.209270246016949e-06   2.7035456833697242e-06
-8.95580592402434e-06   2.046661717996709e-06   1.7909443113725e-05
-8.95580592402434e-06   2.046661717996709e-06   1.7909443113725e-05
-8.95580592402434e-06   2.046661717996709e-06   1.7909443113725e-05
-8.95580592402434e-06   2.046661717996709e-06   1.7909443113725e-05
1.0919346410153189e-07   1.4861954346777513e-06   3.413594132834299e-05
1.0919346410153189e-07   1.4861954346777513e-06   3.413594132834299e-05
1.0919346410153189e-07   1.4861954346777513e-06   3.413594132834299e-05
1.0919346410153189e-07   1.4861954346777513e-06   3.413594132834299e-05
-1.875024392288235e-05   2.209270246017166e-06   3.13739057017327e-06
-1.875024392288235e-05   2.209270246017166e-06   3.13739057017327e-06
-1.875024392288235e-05   2.209270246017166e-06   3.13739057017327e-06
-1.875024392288235e-05   2.209270246017166e-06   3.13739057017327e-06
-1.9567058737807313e-05   1.1964463949049476e-06   3.4894090203724205e-05
-1.9567058737807313e-05   1.1964463949049476e-06   3.4894090203724205e-05
-1.9567058737807313e-05   1.1964463949049476e-06   3.4894090203724205e-05
-1.9567058737807313e-05   1.1964463949049476e-06   3.4894090203724205e-05
-6.603761659415189e-07   1.825927959484214e-06   3.005263645200441e-06
-6.603761659415189e-07   1.825927959484214e-06   3.005263645200441e-06
-6.603761659415189e-07   1.825927959484214e-06   3.005263645200441e-06
-6.603761659415189e-07   1.825927959484214e-06   3.005263645200441e-06
-9.674412087724563e-06   1.8216656744751182e-06   1.8031214219177828e-05
-9.674412087724563e-06   1.8216656744751182e-06   1.8031214219177828e-05
-9.674412087724563e-06   1.8216656744751182e-06   1.8031214219177828e-05
-9.674412087724563e-06   1.8216656744751182e-06   1.8031214219177828e-05
-6.603761659415189e-07   1.1964463949049476e-06   3.451640126497682e-05
-6.603761659415189e-07   1.1964463949049476e-06   3.451640126497682e-05
-6.603761659415189e-07   1.1964463949049476e-06   3.451640126497682e-05
-6.603761659415189e-07   1.1964463949049476e-06   3.451640126497682e-05
-1.9567058737807354e-05   1.825927959484214e-06   3.3829525839480443e-06
-1.9567058737807354e-05   1.825927959484214e-06   3.3829525839480443e-06
-1.9567058737807354e-05   1.825927959484214e-06   3.3829525839480443e-06
-1.9567058737807354e-05   1.825927959484214e-06   3.3829525839480443e-06
-2.040983446721328e-05   9.88006284332807e-07   3.540991097903193e-05
-2.040983446721328e-05   9.88006284332807e-07   3.540991097903193e-05
-2.040983446721328e-05   9.88006284332807e-07   3.540991097903193e-05
-2.040983446721328e-05   9.88006284332807e-07   3.540991097903193e-05
-1.461558864278631e-06   1.4847523263834296e-06   3.5314040155769925e-06
-1.461558864278631e-06   1.4847523263834296e-06   3.5314040155769925e-06
-1.461558864278631e-06   1.4847523263834296e-06   3.5314040155769925e-06
-1.461558864278631e-06   1.4847523263834296e-06   3.5314040155769925e-06
-1.0452080869723645e-05   1.6061943045164034e-06   1.844274217110639e-05
-1.0452080869723645e-05   1.6061943045164034e-06   1.844274217110639e-05
-1.0452080869723645e-05   1.6061943045164034e-06   1.844274217110639e-05
-1.0452080869723645e-05   1.6061943045164034e-06   1.844274217110639e-05
-1.7976545758408225e-05   5.84666971384395e-06   2.9761966925777403e-05
-1.7976545758408225e-05   5.84666971384395e-06   2.9761966925777403e-05
-1.7976545758408225e-05   5.84666971384395e-06   2.9761966925777403e-05
-1.7976545758408225e-05   5.84666971384395e-06   2.9761966925777403e-05
-3.621696958346578e-05   5.9208398706625705e-06   -5.942373552272982e-07
-3.621696958346578e-05   5.9208398706625705e-06   -5.942373552272982e-07
-3.621696958346578e-05   5.9208398706625705e-06   -5.942373552272982e-07
-3.621696958346578e-05   5.9208398706625705e-06   -5.942373552272982e-07
-3.711508810126595e-05   5.53520772421357e-06   3.0282754691681943e-05
-3.711508810126595e-05   5.53520772421357e-06   3.0282754691681943e-05
-3.711508810126595e-05   5.53520772421357e-06   3.0282754691681943e-05
-3.711508810126595e-05   5.53520772421357e-06   3.0282754691681943e-05
-1.8750243922882403e-05   5.544440480422441e-06   -3.3085859268278247e-07
-1.8750243922882403e-05   5.544440480422441e-06   -3.3085859268278247e-07
-1.8750243922882403e-05   5.544440480422441e-06   -3.3085859268278247e-07
-1.8750243922882403e-05   5.544440480422441e-06   -3.3085859268278247e-07
-2.7391788436903326e-05   5.6970715991331265e-06   1.3980136926125628e-05
-2.7391788436903326e-05   5.6970715991331265e-06   1.3980136926125628e-05
-2.7391788436903326e-05   5.6970715991331265e-06   1.3980136926125628e-05
-2.7391788436903326e-05   5.6970715991331265e-06   1.3980136926125628e-05
-1.8750243922882403e-05   5.53520772421357e-06   3.0277215037956403e-05
-1.8750243922882403e-05   5.53520772421357e-06   3.0277215037956403e-05
-1.8750243922882403e-05   5.53520772421357e-06   3.0277215037956403e-05
-1.8750243922882403e-05   5.53520772421357e-06   3.0277215037956403e-05
-3.7115088101265866e-05   5.544440480422441e-06   -3.2531893895740554e-07
-3.7115088101265866e-05   5.544440480422441e-06   -3.2531893895740554e-07
-3.7115088101265866e-05   5.544440480422441e-06   -3.2531893895740554e-07
-3.7115088101265866e-05   5.544440480422441e-06   -3.2531893895740554e-07
-3.8110134343966804e-05   5.246609070556777e-06   3.169055368587169e-05
-3.8110134343966804e-05   5.246609070556777e-06   3.169055368587169e-05
-3.8110134343966804e-05   5.246609070556777e-06   3.169055368587169e-05
-3.8110134343966804e-05   5.246609070556777e-06   3.169055368587169e-05
-1.9567058737807354e-05   5.196902052181929e-06   8.152518866308411e-07
-1.9567058737807354e-05   5.196902052181929e-06   8.152518866308411e-07
-1.9567058737807354e-05   5.196902052181929e-06   8.152518866308411e-07
-1.9567058737807354e-05   5.196902052181929e-06   8.152518866308411e-07
-2.804001092318759e-05   5.484862242211702e-06   1.4764062748246658e-05
-2.804001092318759e-05   5.484862242211702e-06   1.4764062748246658e-05
-2.804001092318759e-05   5.484862242211702e-06   1.4764062748246658e-05
-2.804001092318759e-05   5.484862242211702e-06   1.4764062748246658e-05
-1.9567058737807313e-05   5.246609070556777e-06   3.1720377896896556e-05
-1.9567058737807313e-05   5.246609070556777e-06   3.1720377896896556e-05
-1.9567058737807313e-05   5.246609070556777e-06   3.1720377896896556e-05
-1.9567058737807313e-05   5.246609070556777e-06   3.1720377896896556e-05
-3.811013434396675e-05   5.196902052181929e-06   7.854276756060841e-07
-3.811013434396675e-05   5.196902052181929e-06   7.854276756060841e-07
-3.811013434396675e-05   5.196902052181929e-06   7.854276756060841e-07
-3.811013434396675e-05   5.196902052181929e-06   7.854276756060841e-07
-3.905824588752997e-05   4.858023403524507e-06   3.270434283487436e-05
-3.905824588752997e-05   4.858023403524507e-06   3.270434283487436e-05
-3.905824588752997e-05   4.858023403524507e-06   3.270434283487436e-05
-3.905824588752997e-05   4.858023403524507e-06   3.270434283487436e-05
-2.0409834467213347e-05   4.771986339844204e-06   1.6752793725551191e-06
-2.0409834467213347e-05   4.771986339844204e-06   1.6752793725551191e-06
-2.0409834467213347e-05   4.771986339844204e-06   1.6752793725551191e-06
-2.0409834467213347e-05   4.771986339844204e-06   1.6752793725551191e-06
-2.9073697945551306e-05   5.2085248878086e-06   1.5853128707674373e-05
-2.9073697945551306e-05   5.2085248878086e-06   1.5853128707674373e-05
-2.9073697945551306e-05   5.2085248878086e-06   1.5853128707674373e-05
-2.9073697945551306e-05   5.2085248878086e-06   1.5853128707674373e-05
-3.62169695834657e-05   9.508605715263406e-06   1.4312783869243001e-05
-3.62169695834657e-05   9.508605715263406e-06   1.4312783869243001e-05
-3.62169695834657e-05   9.508605715263406e-06   1.4312783869243001e-05
-3.62169695834657e-05   9.508605715263406e-06   1.4312783869243001e-05
-5.356187219915682e-05   8.530662824029252e-06   -1.5182152891649297e-05
-5.356187219915682e-05   8.530662824029252e-06   -1.5182152891649297e-05
-5.356187219915682e-05   8.530662824029252e-06   -1.5182152891649297e-05
-5.356187219915682e-05   8.530662824029252e-06   -1.5182152891649297e-05
-5.4976356269143456e-05   9.69375726712885e-06   1.9867890022307608e-05
-5.4976356269143456e-05   9.69375726712885e-06   1.9867890022307608e-05
-5.4976356269143456e-05   9.69375726712885e-06   1.9867890022307608e-05
-5.4976356269143456e-05   9.69375726712885e-06   1.9867890022307608e-05
-3.711508810126595e-05   8.6230872646659e-06   -9.25848825601049e-06
-3.711508810126595e-05   8.6230872646659e-06   -9.25848825601049e-06
-3.711508810126595e-05   8.6230872646659e-06   -9.25848825601049e-06
-3.711508810126595e-05   8.6230872646659e-06   -9.25848825601049e-06
-4.372626768855212e-05   9.034894291659818e-06   1.513060173270308e-06
-4.372626768855212e-05   9.034894291659818e-06   1.513060173270308e-06
-4.372626768855212e-05   9.034894291659818e-06   1.513060173270308e-06
-4.372626768855212e-05   9.034894291659818e-06   1.513060173270308e-06
-3.711508810126584e-05   9.69375726712885e-06   2.0510292023785638e-05
-3.711508810126584e-05   9.69375726712885e-06   2.0510292023785638e-05
-3.711508810126584e-05   9.69375726712885e-06   2.0510292023785638e-05
-3.711508810126584e-05   9.69375726712885e-06   2.0510292023785638e-05
-5.4976356269143646e-05   8.6230872646659e-06   -9.900890257488466e-06
-5.4976356269143646e-05   8.6230872646659e-06   -9.900890257488466e-06
-5.4976356269143646e-05   8.6230872646659e-06   -9.900890257488466e-06
-5.4976356269143646e-05   8.6230872646659e-06   -9.900890257488466e-06
-5.635700157980152e-05   9.624822038683829e-06   2.4187278888337504e-05
-5.635700157980152e-05   9.624822038683829e-06   2.4187278888337504e-05
-5.635700157980152e-05   9.624822038683829e-06   2.4187278888337504e-05
-5.635700157980152e-05   9.624822038683829e-06   2.4187278888337504e-05
-3.8110134343966804e-05   8.528724521187454e-06   -5.566507994222893e-06
-3.8110134343966804e-05   8.528724521187454e-06   -5.566507994222893e-06
-3.8110134343966804e-05   8.528724521187454e-06   -5.566507994222893e-06
-3.8110134343966804e-05   8.528724521187454e-06   -5.566507994222893e-06
-4.546781271603872e-05   9.200578360880462e-06   6.29317698874857e-06
-4.546781271603872e-05   9.200578360880462e-06   6.29317698874857e-06
-4.546781271603872e-05   9.200578360880462e-06   6.29317698874857e-06
-4.546781271603872e-05   9.200578360880462e-06   6.29317698874857e-06
-3.8110134343966804e-05   9.624822038683829e-06   2.4844937398835415e-05
-3.8110134343966804e-05   9.624822038683829e-06   2.4844937398835415e-05
-3.8110134343966804e-05   9.624822038683829e-06   2.4844937398835415e-05
-3.8110134343966804e-05   9.624822038683829e-06   2.4844937398835415e-05
-5.6357001579801735e-05   8.528724521187454e-06   -6.224166504720805e-06
-5.6357001579801735e-05   8.528724521187454e-06   -6.224166504720805e-06
-5.6357001579801735e-05   8.528724521187454e-06   -6.224166504720805e-06
-5.6357001579801735e-05   8.528724521187454e-06   -6.224166504720805e-06
-5.7968900142205034e-05   8.863047992572386e-06   3.158386122574324e-05
-5.7968900142205034e-05   8.863047992572386e-06   3.158386122574324e-05
-5.7968900142205034e-05   8.863047992572386e-06   3.158386122574324e-05
-5.7968900142205034e-05   8.863047992572386e-06   3.158386122574324e-05
-3.905824588752997e-05   7.87247603432949e-06   6.604473095637759e-07
-3.905824588752997e-05   7.87247603432949e-06   6.604473095637759e-07
-3.905824588752997e-05   7.87247603432949e-06   6.604473095637759e-07
-3.905824588752997e-05   7.87247603432949e-06   6.604473095637759e-07
-4.590471952011332e-05   8.929711196461717e-06   1.1436895599924168e-05
-4.590471952011332e-05   8.929711196461717e-06   1.1436895599924168e-05
-4.590471952011332e-05   8.929711196461717e-06   1.1436895599924168e-05
-4.590471952011332e-05   8.929711196461717e-06   1.1436895599924168e-05
3.109500999632028e-05   -4.199955914573712e-06   2.6347913762887537e-05
3.109500999632028e-05   -4.199955914573712e-06   2.6347913762887537e-05
3.109500999632028e-05   -4.199955914573712e-06   2.6347913762887537e-05
3.109500999632028e-05   -4.199955914573712e-06   2.6347913762887537e-05
1.4634520698894645e-05   -2.781511826139508e-06   -2.3516861309452915e-07
1.4634520698894645e-05   -2.781511826139508e-06   -2.3516861309452915e-07
1.4634520698894645e-05   -2.781511826139508e-06   -2.3516861309452915e-07
1.4634520698894645e-05   -2.781511826139508e-06   -2.3516861309452915e-07
1.3945540040867734e-05   -4.8709866885825355e-06   2.314586283797709e-05
1.3945540040867734e-05   -4.8709866885825355e-06   2.314586283797709e-05
1.3945540040867734e-05   -4.8709866885825355e-06   2.314586283797709e-05
1.3945540040867734e-05   -4.8709866885825355e-06   2.314586283797709e-05
2.976165729794617e-05   -3.3738886925556173e-06   -4.112591388103138e-06
2.976165729794617e-05   -3.3738886925556173e-06   -4.112591388103138e-06
2.976165729794617e-05   -3.3738886925556173e-06   -4.112591388103138e-06
2.976165729794617e-05   -3.3738886925556173e-06   -4.112591388103138e-06
2.1307553431741913e-05   -3.835175997747402e-06   1.0254354105352659e-05
2.1307553431741913e-05   -3.835175997747402e-06   1.0254354105352659e-05
2.1307553431741913e-05   -3.835175997747402e-06   1.0254354105352659e-05
2.1307553431741913e-05   -3.835175997747402e-06   1.0254354105352659e-05
2.976165729794617e-05   -4.8709866885825355e-06   2.224760404036111e-05
2.976165729794617e-05   -4.8709866885825355e-06   2.224760404036111e-05
2.976165729794617e-05   -4.8709866885825355e-06   2.224760404036111e-05
2.976165729794617e-05   -4.8709866885825355e-06   2.224760404036111e-05
1.3945540040867757e-05   -3.3738886925556173e-06   -3.2143325904871334e-06
1.3945540040867757e-05   -3.3738886925556173e-06   -3.2143325904871334e-06
1.3945540040867757e-05   -3.3738886925556173e-06   -3.2143325904871334e-06
1.3945540040867757e-05   -3.3738886925556173e-06   -3.2143325904871334e-06
1.3184771240331945e-05   -5.0054135576809225e-06   2.0895592865740383e-05
1.3184771240331945e-05   -5.0054135576809225e-06   2.0895592865740383e-05
1.3184771240331945e-05   -5.0054135576809225e-06   2.0895592865740383e-05
1.3184771240331945e-05   -5.0054135576809225e-06   2.0895592865740383e-05
2.8592731132837788e-05   -3.531828091351977e-06   -5.668491568233317e-06
2.8592731132837788e-05   -3.531828091351977e-06   -5.668491568233317e-06
2.8592731132837788e-05   -3.531828091351977e-06   -5.668491568233317e-06
2.8592731132837788e-05   -3.531828091351977e-06   -5.668491568233317e-06
2.0757108234500665e-05   -4.075692672430133e-06   7.717198677642528e-06
2.0757108234500665e-05   -4.075692672430133e-06   7.717198677642528e-06
2.0757108234500665e-05   -4.075692672430133e-06   7.717198677642528e-06
2.0757108234500665e-05   -4.075692672430133e-06   7.717198677642528e-06
2.8592731132837737e-05   -5.0054135576809225e-06   2.001144158594306e-05
2.8592731132837737e-05   -5.0054135576809225e-06   2.001144158594306e-05
2.8592731132837737e-05   -5.0054135576809225e-06   2.001144158594306e-05
2.8592731132837737e-05   -5.0054135576809225e-06   2.001144158594306e-05
1.3184771240331969e-05   -3.531828091351977e-06   -4.784340288435749e-06
1.3184771240331969e-05   -3.531828091351977e-06   -4.784340288435749e-06
1.3184771240331969e-05   -3.531828091351977e-06   -4.784340288435749e-06
1.3184771240331969e-05   -3.531828091351977e-06   -4.784340288435749e-06
1.248213329894774e-05   -5.057813240688484e-06   1.7845015932356186e-05
1.248213329894774e-05   -5.057813240688484e-06   1.7845015932356186e-05
1.248213329894774e-05   -5.057813240688484e-06   1.7845015932356186e-05
1.248213329894774e-05   -5.057813240688484e-06   1.7845015932356186e-05
2.7286135151589826e-05   -3.6779773658925357e-06   -7.656222013591087e-06
2.7286135151589826e-05   -3.6779773658925357e-06   -7.656222013591087e-06
2.7286135151589826e-05   -3.6779773658925357e-06   -7.656222013591087e-06
2.7286135151589826e-05   -3.6779773658925357e-06   -7.656222013591087e-06
1.953471148615922e-05   -4.051632750135198e-06   5.487010659338995e-06
1.953471148615922e-05   -4.051632750135198e-06   5.487010659338995e-06
1.953471148615922e-05   -4.051632750135198e-06   5.487010659338995e-06
1.953471148615922e-05   -4.051632750135198e-06   5.487010659338995e-06
1.4634520698894594e-05   -8.040862292727196e-07   2.9921725672602548e-05
1.4634520698894594e-05   -8.040862292727196e-07   2.9921725672602548e-05
1.4634520698894594e-05   -8.040862292727196e-07   2.9921725672602548e-05
1.4634520698894594e-05   -8.040862292727196e-07   2.9921725672602548e-05
-9.432349684446655e-07   -1.7323393064873696e-08   4.430857262095224e-06
-9.432349684446655e-07   -1.7323393064873696e-08   4.430857262095224e-06
-9.432349684446655e-07   -1.7323393064873696e-08   4.430857262095224e-06
-9.432349684446655e-07   -1.7323393064873696e-08   4.430857262095224e-06
-1.5911417198485628e-06   -1.2794201008396126e-06   2.9973283522544613e-05
-1.5911417198485628e-06   -1.2794201008396126e-06   2.9973283522544613e-05
-1.5911417198485628e-06   -1.2794201008396126e-06   2.9973283522544613e-05
-1.5911417198485628e-06   -1.2794201008396126e-06   2.9973283522544613e-05
1.3945540040867757e-05   -5.320421053102604e-07   3.6303871240332057e-06
1.3945540040867757e-05   -5.320421053102604e-07   3.6303871240332057e-06
1.3945540040867757e-05   -5.320421053102604e-07   3.6303871240332057e-06
1.3945540040867757e-05   -5.320421053102604e-07   3.6303871240332057e-06
6.405842431849576e-06   -6.769909076781953e-07   1.6283519087150887e-05
6.405842431849576e-06   -6.769909076781953e-07   1.6283519087150887e-05
6.405842431849576e-06   -6.769909076781953e-07   1.6283519087150887e-05
6.405842431849576e-06   -6.769909076781953e-07   1.6283519087150887e-05
1.394554004086772e-05   -1.2794201008396126e-06   2.9524856725227176e-05
1.394554004086772e-05   -1.2794201008396126e-06   2.9524856725227176e-05
1.394554004086772e-05   -1.2794201008396126e-06   2.9524856725227176e-05
1.394554004086772e-05   -1.2794201008396126e-06   2.9524856725227176e-05
-1.5911417198485628e-06   -5.320421053102604e-07   4.078813921350806e-06
-1.5911417198485628e-06   -5.320421053102604e-07   4.078813921350806e-06
-1.5911417198485628e-06   -5.320421053102604e-07   4.078813921350806e-06
-1.5911417198485628e-06   -5.320421053102604e-07   4.078813921350806e-06
-2.2529024129926438e-06   -1.6319047453413477e-06   2.951948439150671e-05
-2.2529024129926438e-06   -1.6319047453413477e-06   2.951948439150671e-05
-2.2529024129926438e-06   -1.6319047453413477e-06   2.951948439150671e-05
-2.2529024129926438e-06   -1.6319047453413477e-06   2.951948439150671e-05
1.3184771240331969e-05   -9.372571624138761e-07   3.3732397528760095e-06
1.3184771240331969e-05   -9.372571624138761e-07   3.3732397528760095e-06
1.3184771240331969e-05   -9.372571624138761e-07   3.3732397528760095e-06
1.3184771240331969e-05   -9.372571624138761e-07   3.3732397528760095e-06
5.6786455059271245e-06   -9.943801789387158e-07   1.5917723120133153e-05
5.6786455059271245e-06   -9.943801789387158e-07   1.5917723120133153e-05
5.6786455059271245e-06   -9.943801789387158e-07   1.5917723120133153e-05
5.6786455059271245e-06   -9.943801789387158e-07   1.5917723120133153e-05
1.3184771240331945e-05   -1.6319047453415645e-06   2.910269584175014e-05
1.3184771240331945e-05   -1.6319047453415645e-06   2.910269584175014e-05
1.3184771240331945e-05   -1.6319047453415645e-06   2.910269584175014e-05
1.3184771240331945e-05   -1.6319047453415645e-06   2.910269584175014e-05
-2.2529024129926438e-06   -9.372571624138761e-07   3.7900283026324165e-06
-2.2529024129926438e-06   -9.372571624138761e-07   3.7900283026324165e-06
-2.2529024129926438e-06   -9.372571624138761e-07   3.7900283026324165e-06
-2.2529024129926438e-06   -9.372571624138761e-07   3.7900283026324165e-06
-2.9182955004931763e-06   -1.9092219837443455e-06   2.9722373933637565e-05
-2.9182955004931763e-06   -1.9092219837443455e-06   2.9722373933637565e-05
-2.9182955004931763e-06   -1.9092219837443455e-06   2.9722373933637565e-05
-2.9182955004931763e-06   -1.9092219837443455e-06   2.9722373933637565e-05
1.2482133298947747e-05   -1.3119113437569038e-06   3.696606217243518e-06
1.2482133298947747e-05   -1.3119113437569038e-06   3.696606217243518e-06
1.2482133298947747e-05   -1.3119113437569038e-06   3.696606217243518e-06
1.2482133298947747e-05   -1.3119113437569038e-06   3.696606217243518e-06
5.124077732569542e-06   -1.2287201286644185e-06   1.5910117432152058e-05
5.124077732569542e-06   -1.2287201286644185e-06   1.5910117432152058e-05
5.124077732569542e-06   -1.2287201286644185e-06   1.5910117432152058e-05
5.124077732569542e-06   -1.2287201286644185e-06   1.5910117432152058e-05
-9.432349684446655e-07   2.6040949973155873e-06   3.167161588408531e-05
-9.432349684446655e-07   2.6040949973155873e-06   3.167161588408531e-05
-9.432349684446655e-07   2.6040949973155873e-06   3.167161588408531e-05
-9.432349684446655e-07   2.6040949973155873e-06   3.167161588408531e-05
-1.6194095049589403e-05   2.681541005126369e-06   6.2999833535304145e-06
-1.6194095049589403e-05   2.681541005126369e-06   6.2999833535304145e-06
-1.6194095049589403e-05   2.681541005126369e-06   6.2999833535304145e-06
-1.6194095049589403e-05   2.681541005126369e-06   6.2999833535304145e-06
-1.6845660719537844e-05   2.209270246017166e-06   3.1575847377662445e-05
-1.6845660719537844e-05   2.209270246017166e-06   3.1575847377662445e-05
-1.6845660719537844e-05   2.209270246017166e-06   3.1575847377662445e-05
-1.6845660719537844e-05   2.209270246017166e-06   3.1575847377662445e-05
-1.5911417198485628e-06   2.2298375949359774e-06   6.139308635495365e-06
-1.5911417198485628e-06   2.2298375949359774e-06   6.139308635495365e-06
-1.5911417198485628e-06   2.2298375949359774e-06   6.139308635495365e-06
-1.5911417198485628e-06   2.2298375949359774e-06   6.139308635495365e-06
-8.916577620862261e-06   2.3883471354001554e-06   1.825326274623978e-05
-8.916577620862261e-06   2.3883471354001554e-06   1.825326274623978e-05
-8.916577620862261e-06   2.3883471354001554e-06   1.825326274623978e-05
-8.916577620862261e-06   2.3883471354001554e-06   1.825326274623978e-05
-1.5911417198485628e-06   2.209270246017166e-06   3.156350696831094e-05
-1.5911417198485628e-06   2.209270246017166e-06   3.156350696831094e-05
-1.5911417198485628e-06   2.209270246017166e-06   3.156350696831094e-05
-1.5911417198485628e-06   2.209270246017166e-06   3.156350696831094e-05
-1.6845660719537844e-05   2.2298375949359774e-06   6.15164904484676e-06
-1.6845660719537844e-05   2.2298375949359774e-06   6.15164904484676e-06
-1.6845660719537844e-05   2.2298375949359774e-06   6.15164904484676e-06
-1.6845660719537844e-05   2.2298375949359774e-06   6.15164904484676e-06
-1.751340417697247e-05   1.825927959484214e-06   3.174725324524416e-05
-1.751340417697247e-05   1.825927959484214e-06   3.174725324524416e-05
-1.751340417697247e-05   1.825927959484214e-06   3.174725324524416e-05
-1.751340417697247e-05   1.825927959484214e-06   3.174725324524416e-05
-2.2529024129926573e-06   1.785329946670921e-06   6.3374424462993284e-06
-2.2529024129926573e-06   1.785329946670921e-06   6.3374424462993284e-06
-2.2529024129926573e-06   1.785329946670921e-06   6.3374424462993284e-06
-2.2529024129926573e-06   1.785329946670921e-06   6.3374424462993284e-06
-9.521374991723145e-06   2.0848933427308064e-06   1.8271825373214533e-05
-9.521374991723145e-06   2.0848933427308064e-06   1.8271825373214533e-05
-9.521374991723145e-06   2.0848933427308064e-06   1.8271825373214533e-05
-9.521374991723145e-06   2.0848933427308064e-06   1.8271825373214533e-05
-2.2529024129926573e-06   1.825927959484214e-06   3.1771612052932524e-05
-2.2529024129926573e-06   1.825927959484214e-06   3.1771612052932524e-05
-2.2529024129926573e-06   1.825927959484214e-06   3.1771612052932524e-05
-2.2529024129926573e-06   1.825927959484214e-06   3.1771612052932524e-05
-1.751340417697247e-05   1.785329946670921e-06   6.313083638611206e-06
-1.751340417697247e-05   1.785329946670921e-06   6.313083638611206e-06
-1.751340417697247e-05   1.785329946670921e-06   6.313083638611206e-06
-1.751340417697247e-05   1.785329946670921e-06   6.313083638611206e-06
-1.8180796810680227e-05   1.4847523263836464e-06   3.213975447704945e-05
-1.8180796810680227e-05   1.4847523263836464e-06   3.213975447704945e-05
-1.8180796810680227e-05   1.4847523263836464e-06   3.213975447704945e-05
-1.8180796810680227e-05   1.4847523263836464e-06   3.213975447704945e-05
-2.9182955004931763e-06   1.3635734148653884e-06   6.774959640315346e-06
-2.9182955004931763e-06   1.3635734148653884e-06   6.774959640315346e-06
-2.9182955004931763e-06   1.3635734148653884e-06   6.774959640315346e-06
-2.9182955004931763e-06   1.3635734148653884e-06   6.774959640315346e-06
-1.015462168051715e-05   1.7892701315897104e-06   1.8580085243654558e-05
-1.015462168051715e-05   1.7892701315897104e-06   1.8580085243654558e-05
-1.015462168051715e-05   1.7892701315897104e-06   1.8580085243654558e-05
-1.015462168051715e-05   1.7892701315897104e-06   1.8580085243654558e-05
-1.6194095049589376e-05   5.9208398706625705e-06   2.787000734877647e-05
-1.6194095049589376e-05   5.9208398706625705e-06   2.787000734877647e-05
-1.6194095049589376e-05   5.9208398706625705e-06   2.787000734877647e-05
-1.6194095049589376e-05   5.9208398706625705e-06   2.787000734877647e-05
-3.1112941914466206e-05   5.279553014783016e-06   2.620490460454204e-06
-3.1112941914466206e-05   5.279553014783016e-06   2.620490460454204e-06
-3.1112941914466206e-05   5.279553014783016e-06   2.620490460454204e-06
-3.1112941914466206e-05   5.279553014783016e-06   2.620490460454204e-06
-3.1814184732265716e-05   5.544440480422441e-06   2.7689401722974342e-05
-3.1814184732265716e-05   5.544440480422441e-06   2.7689401722974342e-05
-3.1814184732265716e-05   5.544440480422441e-06   2.7689401722974342e-05
-3.1814184732265716e-05   5.544440480422441e-06   2.7689401722974342e-05
-1.6845660719537898e-05   4.847446327369692e-06   3.1600581935931093e-06
-1.6845660719537898e-05   4.847446327369692e-06   3.1600581935931093e-06
-1.6845660719537898e-05   4.847446327369692e-06   3.1600581935931093e-06
-1.6845660719537898e-05   4.847446327369692e-06   3.1600581935931093e-06
-2.391232157465682e-05   5.3270846088440856e-06   1.465004331657326e-05
-2.391232157465682e-05   5.3270846088440856e-06   1.465004331657326e-05
-2.391232157465682e-05   5.3270846088440856e-06   1.465004331657326e-05
-2.391232157465682e-05   5.3270846088440856e-06   1.465004331657326e-05
-1.6845660719537844e-05   5.544440480422441e-06   2.810759821480634e-05
-1.6845660719537844e-05   5.544440480422441e-06   2.810759821480634e-05
-1.6845660719537844e-05   5.544440480422441e-06   2.810759821480634e-05
-1.6845660719537844e-05   5.544440480422441e-06   2.810759821480634e-05
-3.1814184732265716e-05   4.847446327369692e-06   2.7418617017614926e-06
-3.1814184732265716e-05   4.847446327369692e-06   2.7418617017614926e-06
-3.1814184732265716e-05   4.847446327369692e-06   2.7418617017614926e-06
-3.1814184732265716e-05   4.847446327369692e-06   2.7418617017614926e-06
-3.258591642363331e-05   5.196902052181929e-06   2.8728037387624463e-05
-3.258591642363331e-05   5.196902052181929e-06   2.8728037387624463e-05
-3.258591642363331e-05   5.196902052181929e-06   2.8728037387624463e-05
-3.258591642363331e-05   5.196902052181929e-06   2.8728037387624463e-05
-1.7513404176972496e-05   4.444376785010676e-06   4.058698803492428e-06
-1.7513404176972496e-05   4.444376785010676e-06   4.058698803492428e-06
-1.7513404176972496e-05   4.444376785010676e-06   4.058698803492428e-06
-1.7513404176972496e-05   4.444376785010676e-06   4.058698803492428e-06
-2.4414726075236502e-05   5.0514191982375944e-06   1.5196676519330554e-05
-2.4414726075236502e-05   5.0514191982375944e-06   1.5196676519330554e-05
-2.4414726075236502e-05   5.0514191982375944e-06   1.5196676519330554e-05
-2.4414726075236502e-05   5.0514191982375944e-06   1.5196676519330554e-05
-1.7513404176972496e-05   5.196902052181929e-06   2.917955254792717e-05
-1.7513404176972496e-05   5.196902052181929e-06   2.917955254792717e-05
-1.7513404176972496e-05   5.196902052181929e-06   2.917955254792717e-05
-1.7513404176972496e-05   5.196902052181929e-06   2.917955254792717e-05
-3.258591642363331e-05   4.444376785010676e-06   3.6071836431898286e-06
-3.258591642363331e-05   4.444376785010676e-06   3.6071836431898286e-06
-3.258591642363331e-05   4.444376785010676e-06   3.6071836431898286e-06
-3.258591642363331e-05   4.444376785010676e-06   3.6071836431898286e-06
-3.3291284458840696e-05   4.771986339844204e-06   2.9507140105815852e-05
-3.3291284458840696e-05   4.771986339844204e-06   2.9507140105815852e-05
-3.3291284458840696e-05   4.771986339844204e-06   2.9507140105815852e-05
-3.3291284458840696e-05   4.771986339844204e-06   2.9507140105815852e-05
-1.818079681068028e-05   3.974582834875536e-06   4.801436128529474e-06
-1.818079681068028e-05   3.974582834875536e-06   4.801436128529474e-06
-1.818079681068028e-05   3.974582834875536e-06   4.801436128529474e-06
-1.818079681068028e-05   3.974582834875536e-06   4.801436128529474e-06
-2.521605785786776e-05   4.739971438591376e-06   1.6067638044947206e-05
-2.521605785786776e-05   4.739971438591376e-06   1.6067638044947206e-05
-2.521605785786776e-05   4.739971438591376e-06   1.6067638044947206e-05
-2.521605785786776e-05   4.739971438591376e-06   1.6067638044947206e-05
-3.1112941914466206e-05   8.530662824029252e-06   1.348408543356736e-05
-3.1112941914466206e-05   8.530662824029252e-06   1.348408543356736e-05
-3.1112941914466206e-05   8.530662824029252e-06   1.348408543356736e-05
-3.1112941914466206e-05   8.530662824029252e-06   1.348408543356736e-05
-4.529093967756777e-05   7.281964020733507e-06   -1.0895130120245982e-05
-4.529093967756777e-05   7.281964020733507e-06   -1.0895130120245982e-05
-4.529093967756777e-05   7.281964020733507e-06   -1.0895130120245982e-05
-4.529093967756777e-05   7.281964020733507e-06   -1.0895130120245982e-05
-4.655173450006893e-05   8.623087264665683e-06   1.7930746242702383e-05
-4.655173450006893e-05   8.623087264665683e-06   1.7930746242702383e-05
-4.655173450006893e-05   8.623087264665683e-06   1.7930746242702383e-05
-4.655173450006893e-05   8.623087264665683e-06   1.7930746242702383e-05
-3.1814184732265716e-05   7.247276992633847e-06   -5.8063505404175124e-06
-3.1814184732265716e-05   7.247276992633847e-06   -5.8063505404175124e-06
-3.1814184732265716e-05   7.247276992633847e-06   -5.8063505404175124e-06
-3.1814184732265716e-05   7.247276992633847e-06   -5.8063505404175124e-06
-3.722012574560837e-05   7.804057769573124e-06   2.8694826823234885e-06
-3.722012574560837e-05   7.804057769573124e-06   2.8694826823234885e-06
-3.722012574560837e-05   7.804057769573124e-06   2.8694826823234885e-06
-3.722012574560837e-05   7.804057769573124e-06   2.8694826823234885e-06
-3.181418473226569e-05   8.623087264665683e-06   1.875623240592131e-05
-3.181418473226569e-05   8.623087264665683e-06   1.875623240592131e-05
-3.181418473226569e-05   8.623087264665683e-06   1.875623240592131e-05
-3.181418473226569e-05   8.623087264665683e-06   1.875623240592131e-05
-4.6551734500068984e-05   7.247276992633847e-06   -6.63183670363682e-06
-4.6551734500068984e-05   7.247276992633847e-06   -6.63183670363682e-06
-4.6551734500068984e-05   7.247276992633847e-06   -6.63183670363682e-06
-4.6551734500068984e-05   7.247276992633847e-06   -6.63183670363682e-06
-4.768009433076171e-05   8.528724521187237e-06   2.1518965628165637e-05
-4.768009433076171e-05   8.528724521187237e-06   2.1518965628165637e-05
-4.768009433076171e-05   8.528724521187237e-06   2.1518965628165637e-05
-4.768009433076171e-05   8.528724521187237e-06   2.1518965628165637e-05
-3.258591642363331e-05   7.10016437180448e-06   -2.780861460751824e-06
-3.258591642363331e-05   7.10016437180448e-06   -2.780861460751824e-06
-3.258591642363331e-05   7.10016437180448e-06   -2.780861460751824e-06
-3.258591642363331e-05   7.10016437180448e-06   -2.780861460751824e-06
-3.867170694099726e-05   7.890870826696757e-06   6.887698861920391e-06
-3.867170694099726e-05   7.890870826696757e-06   6.887698861920391e-06
-3.867170694099726e-05   7.890870826696757e-06   6.887698861920391e-06
-3.867170694099726e-05   7.890870826696757e-06   6.887698861920391e-06
-3.258591642363331e-05   8.528724521187237e-06   2.237610171779581e-05
-3.258591642363331e-05   8.528724521187237e-06   2.237610171779581e-05
-3.258591642363331e-05   8.528724521187237e-06   2.237610171779581e-05
-3.258591642363331e-05   8.528724521187237e-06   2.237610171779581e-05
-4.7680094330761766e-05   7.10016437180448e-06   -3.637997550381836e-06
-4.7680094330761766e-05   7.10016437180448e-06   -3.637997550381836e-06
-4.7680094330761766e-05   7.10016437180448e-06   -3.637997550381836e-06
-4.7680094330761766e-05   7.10016437180448e-06   -3.637997550381836e-06
-4.897616127137421e-05   7.872476034329274e-06   2.769035317864944e-05
-4.897616127137421e-05   7.872476034329274e-06   2.769035317864944e-05
-4.897616127137421e-05   7.872476034329274e-06   2.769035317864944e-05
-4.897616127137421e-05   7.872476034329274e-06   2.769035317864944e-05
-3.3291284458840696e-05   6.449847530357695e-06   2.402468926809907e-06
-3.3291284458840696e-05   6.449847530357695e-06   2.402468926809907e-06
-3.3291284458840696e-05   6.449847530357695e-06   2.402468926809907e-06
-3.3291284458840696e-05   6.449847530357695e-06   2.402468926809907e-06
-3.897813463395136e-05   7.621075901936402e-06   1.1177815529047849e-05
-3.897813463395136e-05   7.621075901936402e-06   1.1177815529047849e-05
-3.897813463395136e-05   7.621075901936402e-06   1.1177815529047849e-05
-3.897813463395136e-05   7.621075901936402e-06   1.1177815529047849e-05
2.1468407435701434e-05   -2.781511826139508e-06   2.14797766927182e-05
2.1468407435701434e-05   -2.781511826139508e-06   2.14797766927182e-05
2.1468407435701434e-05   -2.781511826139508e-06   2.14797766927182e-05
2.1468407435701434e-05   -2.781511826139508e-06   2.14797766927182e-05
8.910895148022029e-06   -1.3737383883080049e-06   1.3952536092847866e-06
8.910895148022029e-06   -1.3737383883080049e-06   1.3952536092847866e-06
8.910895148022029e-06   -1.3737383883080049e-06   1.3952536092847866e-06
8.910895148022029e-06   -1.3737383883080049e-06   1.3952536092847866e-06
8.35619722553667e-06   -3.3738886925556173e-06   1.930704114931018e-05
8.35619722553667e-06   -3.3738886925556173e-06   1.930704114931018e-05
8.35619722553667e-06   -3.3738886925556173e-06   1.930704114931018e-05
8.35619722553667e-06   -3.3738886925556173e-06   1.930704114931018e-05
2.0286955378354236e-05   -1.904265352285989e-06   -1.4593297762140683e-06
2.0286955378354236e-05   -1.904265352285989e-06   -1.4593297762140683e-06
2.0286955378354236e-05   -1.904265352285989e-06   -1.4593297762140683e-06
2.0286955378354236e-05   -1.904265352285989e-06   -1.4593297762140683e-06
1.402176676394057e-05   -2.4146033047465e-06   9.28885401928534e-06
1.402176676394057e-05   -2.4146033047465e-06   9.28885401928534e-06
1.402176676394057e-05   -2.4146033047465e-06   9.28885401928534e-06
1.402176676394057e-05   -2.4146033047465e-06   9.28885401928534e-06
2.028695537835427e-05   -3.3738886925554004e-06   1.8425267145148532e-05
2.028695537835427e-05   -3.3738886925554004e-06   1.8425267145148532e-05
2.028695537835427e-05   -3.3738886925554004e-06   1.8425267145148532e-05
2.028695537835427e-05   -3.3738886925554004e-06   1.8425267145148532e-05
8.356197225536639e-06   -1.904265352285989e-06   -5.775557720523808e-07
8.356197225536639e-06   -1.904265352285989e-06   -5.775557720523808e-07
8.356197225536639e-06   -1.904265352285989e-06   -5.775557720523808e-07
8.356197225536639e-06   -1.904265352285989e-06   -5.775557720523808e-07
7.732849233113207e-06   -3.531828091351977e-06   1.76942305936921e-05
7.732849233113207e-06   -3.531828091351977e-06   1.76942305936921e-05
7.732849233113207e-06   -3.531828091351977e-06   1.76942305936921e-05
7.732849233113207e-06   -3.531828091351977e-06   1.76942305936921e-05
1.9272409428646153e-05   -2.0865506054146624e-06   -2.405536223758567e-06
1.9272409428646153e-05   -2.0865506054146624e-06   -2.405536223758567e-06
1.9272409428646153e-05   -2.0865506054146624e-06   -2.405536223758567e-06
1.9272409428646153e-05   -2.0865506054146624e-06   -2.405536223758567e-06
1.3497874953381666e-05   -2.6397573171885874e-06   7.5506119287472375e-06
1.3497874953381666e-05   -2.6397573171885874e-06   7.5506119287472375e-06
1.3497874953381666e-05   -2.6397573171885874e-06   7.5506119287472375e-06
1.3497874953381666e-05   -2.6397573171885874e-06   7.5506119287472375e-06
1.9272409428646186e-05   -3.531828091351977e-06   1.6827064102129603e-05
1.9272409428646186e-05   -3.531828091351977e-06   1.6827064102129603e-05
1.9272409428646186e-05   -3.531828091351977e-06   1.6827064102129603e-05
1.9272409428646186e-05   -3.531828091351977e-06   1.6827064102129603e-05
7.732849233113197e-06   -2.0865506054146624e-06   -1.5383697321960698e-06
7.732849233113197e-06   -2.0865506054146624e-06   -1.5383697321960698e-06
7.732849233113197e-06   -2.0865506054146624e-06   -1.5383697321960698e-06
7.732849233113197e-06   -2.0865506054146624e-06   -1.5383697321960698e-06
7.173937906574275e-06   -3.6779773658925357e-06   1.5597404585032367e-05
7.173937906574275e-06   -3.6779773658925357e-06   1.5597404585032367e-05
7.173937906574275e-06   -3.6779773658925357e-06   1.5597404585032367e-05
7.173937906574275e-06   -3.6779773658925357e-06   1.5597404585032367e-05
1.8121104967172532e-05   -2.326398744360858e-06   -3.458821022217192e-06
1.8121104967172532e-05   -2.326398744360858e-06   -3.458821022217192e-06
1.8121104967172532e-05   -2.326398744360858e-06   -3.458821022217192e-06
1.8121104967172532e-05   -2.326398744360858e-06   -3.458821022217192e-06
1.2522431957808582e-05   -2.683114243421216e-06   6.086329959492206e-06
1.2522431957808582e-05   -2.683114243421216e-06   6.086329959492206e-06
1.2522431957808582e-05   -2.683114243421216e-06   6.086329959492206e-06
1.2522431957808582e-05   -2.683114243421216e-06   6.086329959492206e-06
8.91089514802206e-06   -1.7323393064873696e-08   2.6518408928882515e-05
8.91089514802206e-06   -1.7323393064873696e-08   2.6518408928882515e-05
8.91089514802206e-06   -1.7323393064873696e-08   2.6518408928882515e-05
8.91089514802206e-06   -1.7323393064873696e-08   2.6518408928882515e-05
-2.86975506578678e-06   6.983294592473582e-07   7.313383617255152e-06
-2.86975506578678e-06   6.983294592473582e-07   7.313383617255152e-06
-2.86975506578678e-06   6.983294592473582e-07   7.313383617255152e-06
-2.86975506578678e-06   6.983294592473582e-07   7.313383617255152e-06
-3.379594269632794e-06   -5.320421053102604e-07   2.6568102912691858e-05
-3.379594269632794e-06   -5.320421053102604e-07   2.6568102912691858e-05
-3.379594269632794e-06   -5.320421053102604e-07   2.6568102912691858e-05
-3.379594269632794e-06   -5.320421053102604e-07   2.6568102912691858e-05
8.356197225536639e-06   1.6186130945912598e-07   6.592108371881429e-06
8.356197225536639e-06   1.6186130945912598e-07   6.592108371881429e-06
8.356197225536639e-06   1.6186130945912598e-07   6.592108371881429e-06
8.356197225536639e-06   1.6186130945912598e-07   6.592108371881429e-06
2.670340334832666e-06   3.147919388222023e-08   1.614676579240131e-05
2.670340334832666e-06   3.147919388222023e-08   1.614676579240131e-05
2.670340334832666e-06   3.147919388222023e-08   1.614676579240131e-05
2.670340334832666e-06   3.147919388222023e-08   1.614676579240131e-05
8.356197225536666e-06   -5.320421053102604e-07   2.6151760863830356e-05
8.356197225536666e-06   -5.320421053102604e-07   2.6151760863830356e-05
8.356197225536666e-06   -5.320421053102604e-07   2.6151760863830356e-05
8.356197225536666e-06   -5.320421053102604e-07   2.6151760863830356e-05
-3.379594269632794e-06   1.6186130945890914e-07   7.0084504207431e-06
-3.379594269632794e-06   1.6186130945890914e-07   7.0084504207431e-06
-3.379594269632794e-06   1.6186130945890914e-07   7.0084504207431e-06
-3.379594269632794e-06   1.6186130945890914e-07   7.0084504207431e-06
-3.900943802173011e-06   -9.372571624138761e-07   2.6248179009724778e-05
-3.900943802173011e-06   -9.372571624138761e-07   2.6248179009724778e-05
-3.900943802173011e-06   -9.372571624138761e-07   2.6248179009724778e-05
-3.900943802173011e-06   -9.372571624138761e-07   2.6248179009724778e-05
7.732849233113197e-06   -2.766432045460572e-07   6.462155576193767e-06
7.732849233113197e-06   -2.766432045460572e-07   6.462155576193767e-06
7.732849233113197e-06   -2.766432045460572e-07   6.462155576193767e-06
7.732849233113197e-06   -2.766432045460572e-07   6.462155576193767e-06
2.1094574573672557e-06   -3.260532502977632e-07   1.5864121229888794e-05
2.1094574573672557e-06   -3.260532502977632e-07   1.5864121229888794e-05
2.1094574573672557e-06   -3.260532502977632e-07   1.5864121229888794e-05
2.1094574573672557e-06   -3.260532502977632e-07   1.5864121229888794e-05
7.73284923311322e-06   -9.372571624138761e-07   2.5851810635004022e-05
7.73284923311322e-06   -9.372571624138761e-07   2.5851810635004022e-05
7.73284923311322e-06   -9.372571624138761e-07   2.5851810635004022e-05
7.73284923311322e-06   -9.372571624138761e-07   2.5851810635004022e-05
-3.900943802173011e-06   -2.766432045460572e-07   6.85852395091455e-06
-3.900943802173011e-06   -2.766432045460572e-07   6.85852395091455e-06
-3.900943802173011e-06   -2.766432045460572e-07   6.85852395091455e-06
-3.900943802173011e-06   -2.766432045460572e-07   6.85852395091455e-06
-4.41797095198023e-06   -1.3119113437569038e-06   2.648457406136497e-05
-4.41797095198023e-06   -1.3119113437569038e-06   2.648457406136497e-05
-4.41797095198023e-06   -1.3119113437569038e-06   2.648457406136497e-05
-4.41797095198023e-06   -1.3119113437569038e-06   2.648457406136497e-05
7.173937906574241e-06   -7.081733931313221e-07   6.802483193398914e-06
7.173937906574241e-06   -7.081733931313221e-07   6.802483193398914e-06
7.173937906574241e-06   -7.081733931313221e-07   6.802483193398914e-06
7.173937906574241e-06   -7.081733931313221e-07   6.802483193398914e-06
1.6669014301584693e-06   -6.235655355402159e-07   1.593011260620376e-05
1.6669014301584693e-06   -6.235655355402159e-07   1.593011260620376e-05
1.6669014301584693e-06   -6.235655355402159e-07   1.593011260620376e-05
1.6669014301584693e-06   -6.235655355402159e-07   1.593011260620376e-05
-2.8697550657867665e-06   2.681541005126152e-06   2.877045912701864e-05
-2.8697550657867665e-06   2.681541005126152e-06   2.877045912701864e-05
-2.8697550657867665e-06   2.681541005126152e-06   2.877045912701864e-05
-2.8697550657867665e-06   2.681541005126152e-06   2.877045912701864e-05
-1.4455153542177585e-05   2.640468577437636e-06   9.436818209754218e-06
-1.4455153542177585e-05   2.640468577437636e-06   9.436818209754218e-06
-1.4455153542177585e-05   2.640468577437636e-06   9.436818209754218e-06
-1.4455153542177585e-05   2.640468577437636e-06   9.436818209754218e-06
-1.4958316781099997e-05   2.2298375949359774e-06   2.858279845489994e-05
-1.4958316781099997e-05   2.2298375949359774e-06   2.858279845489994e-05
-1.4958316781099997e-05   2.2298375949359774e-06   2.858279845489994e-05
-1.4958316781099997e-05   2.2298375949359774e-06   2.858279845489994e-05
-3.379594269632794e-06   2.1535056417079385e-06   9.330726774391205e-06
-3.379594269632794e-06   2.1535056417079385e-06   9.330726774391205e-06
-3.379594269632794e-06   2.1535056417079385e-06   9.330726774391205e-06
-3.379594269632794e-06   2.1535056417079385e-06   9.330726774391205e-06
-8.937995159586673e-06   2.3658588403307167e-06   1.8467316338474524e-05
-8.937995159586673e-06   2.3658588403307167e-06   1.8467316338474524e-05
-8.937995159586673e-06   2.3658588403307167e-06   1.8467316338474524e-05
-8.937995159586673e-06   2.3658588403307167e-06   1.8467316338474524e-05
-3.379594269632794e-06   2.2298375949357605e-06   2.8628597626836525e-05
-3.379594269632794e-06   2.2298375949357605e-06   2.8628597626836525e-05
-3.379594269632794e-06   2.2298375949357605e-06   2.8628597626836525e-05
-3.379594269632794e-06   2.2298375949357605e-06   2.8628597626836525e-05
-1.4958316781099997e-05   2.1535056417081554e-06   9.28492760245462e-06
-1.4958316781099997e-05   2.1535056417081554e-06   9.28492760245462e-06
-1.4958316781099997e-05   2.1535056417081554e-06   9.28492760245462e-06
-1.4958316781099997e-05   2.1535056417081554e-06   9.28492760245462e-06
-1.5473516036575835e-05   1.785329946670921e-06   2.8727682290095174e-05
-1.5473516036575835e-05   1.785329946670921e-06   2.8727682290095174e-05
-1.5473516036575835e-05   1.785329946670921e-06   2.8727682290095174e-05
-1.5473516036575835e-05   1.785329946670921e-06   2.8727682290095174e-05
-3.900943802173011e-06   1.6721451745105222e-06   9.507972762720326e-06
-3.900943802173011e-06   1.6721451745105222e-06   9.507972762720326e-06
-3.900943802173011e-06   1.6721451745105222e-06   9.507972762720326e-06
-3.900943802173011e-06   1.6721451745105222e-06   9.507972762720326e-06
-9.398648578562202e-06   2.0126360609027533e-06   1.8466519524867268e-05
-9.398648578562202e-06   2.0126360609027533e-06   1.8466519524867268e-05
-9.398648578562202e-06   2.0126360609027533e-06   1.8466519524867268e-05
-9.398648578562202e-06   2.0126360609027533e-06   1.8466519524867268e-05
-3.900943802173011e-06   1.785329946670921e-06   2.879559315339161e-05
-3.900943802173011e-06   1.785329946670921e-06   2.879559315339161e-05
-3.900943802173011e-06   1.785329946670921e-06   2.879559315339161e-05
-3.900943802173011e-06   1.785329946670921e-06   2.879559315339161e-05
-1.5473516036575835e-05   1.6721451745103054e-06   9.440061899424054e-06
-1.5473516036575835e-05   1.6721451745103054e-06   9.440061899424054e-06
-1.5473516036575835e-05   1.6721451745103054e-06   9.440061899424054e-06
-1.5473516036575835e-05   1.6721451745103054e-06   9.440061899424054e-06
-1.598265232507457e-05   1.3635734148653884e-06   2.9111676709373067e-05
-1.598265232507457e-05   1.3635734148653884e-06   2.9111676709373067e-05
-1.598265232507457e-05   1.3635734148653884e-06   2.9111676709373067e-05
-1.598265232507457e-05   1.3635734148653884e-06   2.9111676709373067e-05
-4.41797095198023e-06   1.2087994297467312e-06   9.930072145287067e-06
-4.41797095198023e-06   1.2087994297467312e-06   9.930072145287067e-06
-4.41797095198023e-06   1.2087994297467312e-06   9.930072145287067e-06
-4.41797095198023e-06   1.2087994297467312e-06   9.930072145287067e-06
-9.880569905408083e-06   1.6677764268200907e-06   1.8759017536089362e-05
-9.880569905408083e-06   1.6677764268200907e-06   1.8759017536089362e-05
-9.880569905408083e-06   1.6677764268200907e-06   1.8759017536089362e-05
-9.880569905408083e-06   1.6677764268200907e-06   1.8759017536089362e-05
-1.4455153542177585e-05   5.279553014783016e-06   2.5451094890856793e-05
-1.4455153542177585e-05   5.279553014783016e-06   2.5451094890856793e-05
-1.4455153542177585e-05   5.279553014783016e-06   2.5451094890856793e-05
-1.4455153542177585e-05   5.279553014783016e-06   2.5451094890856793e-05
-2.584922900364354e-05   4.530253206642704e-06   6.011389236862787e-06
-2.584922900364354e-05   4.530253206642704e-06   6.011389236862787e-06
-2.584922900364354e-05   4.530253206642704e-06   6.011389236862787e-06
-2.584922900364354e-05   4.530253206642704e-06   6.011389236862787e-06
-2.6389152501850945e-05   4.847446327369692e-06   2.511567931911358e-05
-2.6389152501850945e-05   4.847446327369692e-06   2.511567931911358e-05
-2.6389152501850945e-05   4.847446327369692e-06   2.511567931911358e-05
-2.6389152501850945e-05   4.847446327369692e-06   2.511567931911358e-05
-1.495831678109997e-05   4.054899186481864e-06   6.539814735727898e-06
-1.495831678109997e-05   4.054899186481864e-06   6.539814735727898e-06
-1.495831678109997e-05   4.054899186481864e-06   6.539814735727898e-06
-1.495831678109997e-05   4.054899186481864e-06   6.539814735727898e-06
-2.0355173279669046e-05   4.597931854776567e-06   1.5208755965700311e-05
-2.0355173279669046e-05   4.597931854776567e-06   1.5208755965700311e-05
-2.0355173279669046e-05   4.597931854776567e-06   1.5208755965700311e-05
-2.0355173279669046e-05   4.597931854776567e-06   1.5208755965700311e-05
-1.4958316781099997e-05   4.847446327369692e-06   2.5591207603646235e-05
-1.4958316781099997e-05   4.847446327369692e-06   2.5591207603646235e-05
-1.4958316781099997e-05   4.847446327369692e-06   2.5591207603646235e-05
-1.4958316781099997e-05   4.847446327369692e-06   2.5591207603646235e-05
-2.6389152501850918e-05   4.054899186481864e-06   6.064286451195407e-06
-2.6389152501850918e-05   4.054899186481864e-06   6.064286451195407e-06
-2.6389152501850918e-05   4.054899186481864e-06   6.064286451195407e-06
-2.6389152501850918e-05   4.054899186481864e-06   6.064286451195407e-06
-2.6996622509535128e-05   4.444376785010676e-06   2.597548090563901e-05
-2.6996622509535128e-05   4.444376785010676e-06   2.597548090563901e-05
-2.6996622509535128e-05   4.444376785010676e-06   2.597548090563901e-05
-2.6996622509535128e-05   4.444376785010676e-06   2.597548090563901e-05
-1.547351603657578e-05   3.6146825361147404e-06   7.2681200000444595e-06
-1.547351603657578e-05   3.6146825361147404e-06   7.2681200000444595e-06
-1.547351603657578e-05   3.6146825361147404e-06   7.2681200000444595e-06
-1.547351603657578e-05   3.6146825361147404e-06   7.2681200000444595e-06
-2.072840126593497e-05   4.274282698455431e-06   1.5630501951572576e-05
-2.072840126593497e-05   4.274282698455431e-06   1.5630501951572576e-05
-2.072840126593497e-05   4.274282698455431e-06   1.5630501951572576e-05
-2.072840126593497e-05   4.274282698455431e-06   1.5630501951572576e-05
-1.5473516036575835e-05   4.444376785010676e-06   2.6473297454976288e-05
-1.5473516036575835e-05   4.444376785010676e-06   2.6473297454976288e-05
-1.5473516036575835e-05   4.444376785010676e-06   2.6473297454976288e-05
-1.5473516036575835e-05   4.444376785010676e-06   2.6473297454976288e-05
-2.6996622509535073e-05   3.6146825361149573e-06   6.770303450706963e-06
-2.6996622509535073e-05   3.6146825361149573e-06   6.770303450706963e-06
-2.6996622509535073e-05   3.6146825361149573e-06   6.770303450706963e-06
-2.6996622509535073e-05   3.6146825361149573e-06   6.770303450706963e-06
-2.753643967245528e-05   3.974582834875536e-06   2.6699436563831997e-05
-2.753643967245528e-05   3.974582834875536e-06   2.6699436563831997e-05
-2.753643967245528e-05   3.974582834875536e-06   2.6699436563831997e-05
-2.753643967245528e-05   3.974582834875536e-06   2.6699436563831997e-05
-1.5982652325074542e-05   3.1222095337652724e-06   7.95454829886379e-06
-1.5982652325074542e-05   3.1222095337652724e-06   7.95454829886379e-06
-1.5982652325074542e-05   3.1222095337652724e-06   7.95454829886379e-06
-1.5982652325074542e-05   3.1222095337652724e-06   7.95454829886379e-06
-2.1337679095226534e-05   3.93321029152011e-06   1.639299246113102e-05
-2.1337679095226534e-05   3.93321029152011e-06   1.639299246113102e-05
-2.1337679095226534e-05   3.93321029152011e-06   1.639299246113102e-05
-2.1337679095226534e-05   3.93321029152011e-06   1.639299246113102e-05
-2.584922900364354e-05   7.281964020733507e-06   1.2235113707249868e-05
-2.584922900364354e-05   7.281964020733507e-06   1.2235113707249868e-05
-2.584922900364354e-05   7.281964020733507e-06   1.2235113707249868e-05
-2.584922900364354e-05   7.281964020733507e-06   1.2235113707249868e-05
-3.6542682907888364e-05   5.947747323069817e-06   -6.387839485089901e-06
-3.6542682907888364e-05   5.947747323069817e-06   -6.387839485089901e-06
-3.6542682907888364e-05   5.947747323069817e-06   -6.387839485089901e-06
-3.6542682907888364e-05   5.947747323069817e-06   -6.387839485089901e-06
-3.767229009182013e-05   7.247276992634064e-06   1.56968112923336e-05
-3.767229009182013e-05   7.247276992634064e-06   1.56968112923336e-05
-3.767229009182013e-05   7.247276992634064e-06   1.56968112923336e-05
-3.767229009182013e-05   7.247276992634064e-06   1.56968112923336e-05
-2.6389152501850863e-05   5.796184018299266e-06   -2.2377622396808645e-06
-2.6389152501850863e-05   5.796184018299266e-06   -2.2377622396808645e-06
-2.6389152501850863e-05   5.796184018299266e-06   -2.2377622396808645e-06
-2.6389152501850863e-05   5.796184018299266e-06   -2.2377622396808645e-06
-3.0428323088423515e-05   6.44815610728643e-06   4.103005484548347e-06
-3.0428323088423515e-05   6.44815610728643e-06   4.103005484548347e-06
-3.0428323088423515e-05   6.44815610728643e-06   4.103005484548347e-06
-3.0428323088423515e-05   6.44815610728643e-06   4.103005484548347e-06
-2.6389152501850918e-05   7.247276992634064e-06   1.6567467076934413e-05
-2.6389152501850918e-05   7.247276992634064e-06   1.6567467076934413e-05
-2.6389152501850918e-05   7.247276992634064e-06   1.6567467076934413e-05
-2.6389152501850918e-05   7.247276992634064e-06   1.6567467076934413e-05
-3.767229009182018e-05   5.796184018299266e-06   -3.1084180242817866e-06
-3.767229009182018e-05   5.796184018299266e-06   -3.1084180242817866e-06
-3.767229009182018e-05   5.796184018299266e-06   -3.1084180242817866e-06
-3.767229009182018e-05   5.796184018299266e-06   -3.1084180242817866e-06
-3.8657385644809265e-05   7.1001643718042635e-06   1.8693024660452898e-05
-3.8657385644809265e-05   7.1001643718042635e-06   1.8693024660452898e-05
-3.8657385644809265e-05   7.1001643718042635e-06   1.8693024660452898e-05
-3.8657385644809265e-05   7.1001643718042635e-06   1.8693024660452898e-05
-2.699662250953502e-05   5.609479136397177e-06   1.528305762399547e-07
-2.699662250953502e-05   5.609479136397177e-06   1.528305762399547e-07
-2.699662250953502e-05   5.609479136397177e-06   1.528305762399547e-07
-2.699662250953502e-05   5.609479136397177e-06   1.528305762399547e-07
-3.1626150552476287e-05   6.453022777224782e-06   7.362584463313374e-06
-3.1626150552476287e-05   6.453022777224782e-06   7.362584463313374e-06
-3.1626150552476287e-05   6.453022777224782e-06   7.362584463313374e-06
-3.1626150552476287e-05   6.453022777224782e-06   7.362584463313374e-06
-2.6996622509535128e-05   7.10016437180448e-06   1.9587435801697085e-05
-2.6996622509535128e-05   7.10016437180448e-06   1.9587435801697085e-05
-2.6996622509535128e-05   7.10016437180448e-06   1.9587435801697085e-05
-2.6996622509535128e-05   7.10016437180448e-06   1.9587435801697085e-05
-3.8657385644809265e-05   5.609479136397177e-06   -7.415805650042321e-07
-3.8657385644809265e-05   5.609479136397177e-06   -7.415805650042321e-07
-3.8657385644809265e-05   5.609479136397177e-06   -7.415805650042321e-07
-3.8657385644809265e-05   5.609479136397177e-06   -7.415805650042321e-07
-3.979968719052012e-05   6.449847530357478e-06   2.389809327563554e-05
-3.979968719052012e-05   6.449847530357478e-06   2.389809327563554e-05
-3.979968719052012e-05   6.449847530357478e-06   2.389809327563554e-05
-3.979968719052012e-05   6.449847530357478e-06   2.389809327563554e-05
-2.7536439672455197e-05   4.981817214594212e-06   4.340165601651941e-06
-2.7536439672455197e-05   4.981817214594212e-06   4.340165601651941e-06
-2.7536439672455197e-05   4.981817214594212e-06   4.340165601651941e-06
-2.7536439672455197e-05   4.981817214594212e-06   4.340165601651941e-06
-3.1890600089177766e-05   6.179568399224426e-06   1.0878448918744761e-05
-3.1890600089177766e-05   6.179568399224426e-06   1.0878448918744761e-05
-3.1890600089177766e-05   6.179568399224426e-06   1.0878448918744761e-05
-3.1890600089177766e-05   6.179568399224426e-06   1.0878448918744761e-05
1.1968813978130258e-05   -1.3737383883080049e-06   1.6927046221731e-05
1.1968813978130258e-05   -1.3737383883080049e-06   1.6927046221731e-05
1.1968813978130258e-05   -1.3737383883080049e-06   1.6927046221731e-05
1.1968813978130258e-05   -1.3737383883080049e-06   1.6927046221731e-05
3.147646574243282e-06   2.1556696871332173e-08   3.0622775996937395e-06
3.147646574243282e-06   2.1556696871332173e-08   3.0622775996937395e-06
3.147646574243282e-06   2.1556696871332173e-08   3.0622775996937395e-06
3.147646574243282e-06   2.1556696871332173e-08   3.0622775996937395e-06
2.7320012255761865e-06   -1.904265352285989e-06   1.577595226417614e-05
2.7320012255761865e-06   -1.904265352285989e-06   1.577595226417614e-05
2.7320012255761865e-06   -1.904265352285989e-06   1.577595226417614e-05
2.7320012255761865e-06   -1.904265352285989e-06   1.577595226417614e-05
1.0940889341740402e-05   -4.542805541907658e-07   1.2244811917123716e-06
1.0940889341740402e-05   -4.542805541907658e-07   1.2244811917123716e-06
1.0940889341740402e-05   -4.542805541907658e-07   1.2244811917123716e-06
1.0940889341740402e-05   -4.542805541907658e-07   1.2244811917123716e-06
6.773249102605647e-06   -9.950287814593662e-07   8.494997193298439e-06
6.773249102605647e-06   -9.950287814593662e-07   8.494997193298439e-06
6.773249102605647e-06   -9.950287814593662e-07   8.494997193298439e-06
6.773249102605647e-06   -9.950287814593662e-07   8.494997193298439e-06
1.0940889341740422e-05   -1.904265352285989e-06   1.4905961385319288e-05
1.0940889341740422e-05   -1.904265352285989e-06   1.4905961385319288e-05
1.0940889341740422e-05   -1.904265352285989e-06   1.4905961385319288e-05
1.0940889341740422e-05   -1.904265352285989e-06   1.4905961385319288e-05
2.7320012255761797e-06   -4.542805541907658e-07   2.0944720705693863e-06
2.7320012255761797e-06   -4.542805541907658e-07   2.0944720705693863e-06
2.7320012255761797e-06   -4.542805541907658e-07   2.0944720705693863e-06
2.7320012255761797e-06   -4.542805541907658e-07   2.0944720705693863e-06
2.2473046250565376e-06   -2.0865506054146624e-06   1.4802351866458887e-05
2.2473046250565376e-06   -2.0865506054146624e-06   1.4802351866458887e-05
2.2473046250565376e-06   -2.0865506054146624e-06   1.4802351866458887e-05
2.2473046250565376e-06   -2.0865506054146624e-06   1.4802351866458887e-05
1.0070218386123574e-05   -6.589559445734517e-07   9.076054681759858e-07
1.0070218386123574e-05   -6.589559445734517e-07   9.076054681759858e-07
1.0070218386123574e-05   -6.589559445734517e-07   9.076054681759858e-07
1.0070218386123574e-05   -6.589559445734517e-07   9.076054681759858e-07
6.277668609688723e-06   -1.202781539817949e-06   7.554817119380787e-06
6.277668609688723e-06   -1.202781539817949e-06   7.554817119380787e-06
6.277668609688723e-06   -1.202781539817949e-06   7.554817119380787e-06
6.277668609688723e-06   -1.202781539817949e-06   7.554817119380787e-06
1.0070218386123594e-05   -2.0865506054144455e-06   1.3945795069954226e-05
1.0070218386123594e-05   -2.0865506054144455e-06   1.3945795069954226e-05
1.0070218386123594e-05   -2.0865506054144455e-06   1.3945795069954226e-05
1.0070218386123594e-05   -2.0865506054144455e-06   1.3945795069954226e-05
2.2473046250565274e-06   -6.589559445734517e-07   1.7641622646805523e-06
2.2473046250565274e-06   -6.589559445734517e-07   1.7641622646805523e-06
2.2473046250565274e-06   -6.589559445734517e-07   1.7641622646805523e-06
2.2473046250565274e-06   -6.589559445734517e-07   1.7641622646805523e-06
1.827202671299168e-06   -2.326398744360858e-06   1.3674198999961995e-05
1.827202671299168e-06   -2.326398744360858e-06   1.3674198999961995e-05
1.827202671299168e-06   -2.326398744360858e-06   1.3674198999961995e-05
1.827202671299168e-06   -2.326398744360858e-06   1.3674198999961995e-05
9.050177460198022e-06   -9.989675598849612e-07   8.394489744452513e-07
9.050177460198022e-06   -9.989675598849612e-07   8.394489744452513e-07
9.050177460198022e-06   -9.989675598849612e-07   8.394489744452513e-07
9.050177460198022e-06   -9.989675598849612e-07   8.394489744452513e-07
5.544165386377077e-06   -1.3090682267299404e-06   6.868862830920565e-06
5.544165386377077e-06   -1.3090682267299404e-06   6.868862830920565e-06
5.544165386377077e-06   -1.3090682267299404e-06   6.868862830920565e-06
5.544165386377077e-06   -1.3090682267299404e-06   6.868862830920565e-06
3.1476465742432856e-06   6.983294592473582e-07   2.325296156942139e-05
3.1476465742432856e-06   6.983294592473582e-07   2.325296156942139e-05
3.1476465742432856e-06   6.983294592473582e-07   2.325296156942139e-05
3.1476465742432856e-06   6.983294592473582e-07   2.325296156942139e-05
-4.885790312930433e-06   1.3311151150297365e-06   1.024357148426806e-05
-4.885790312930433e-06   1.3311151150297365e-06   1.024357148426806e-05
-4.885790312930433e-06   1.3311151150297365e-06   1.024357148426806e-05
-4.885790312930433e-06   1.3311151150297365e-06   1.024357148426806e-05
-5.251083400166325e-06   1.6186130945912598e-07   2.3324937865395394e-05
-5.251083400166325e-06   1.6186130945912598e-07   2.3324937865395394e-05
-5.251083400166325e-06   1.6186130945912598e-07   2.3324937865395394e-05
-5.251083400166325e-06   1.6186130945912598e-07   2.3324937865395394e-05
2.7320012255761797e-06   7.94063738267627e-07   9.640475365206246e-06
2.7320012255761797e-06   7.94063738267627e-07   9.640475365206246e-06
2.7320012255761797e-06   7.94063738267627e-07   9.640475365206246e-06
2.7320012255761797e-06   7.94063738267627e-07   9.640475365206246e-06
-1.1245991580037845e-06   6.925221450058885e-07   1.6129067627130723e-05
-1.1245991580037845e-06   6.925221450058885e-07   1.6129067627130723e-05
-1.1245991580037845e-06   6.925221450058885e-07   1.6129067627130723e-05
-1.1245991580037845e-06   6.925221450058885e-07   1.6129067627130723e-05
2.7320012255761797e-06   1.6186130945912598e-07   2.294561640811012e-05
2.7320012255761797e-06   1.6186130945912598e-07   2.294561640811012e-05
2.7320012255761797e-06   1.6186130945912598e-07   2.294561640811012e-05
2.7320012255761797e-06   1.6186130945912598e-07   2.294561640811012e-05
-5.251083400166325e-06   7.94063738267627e-07   1.0019796822491561e-05
-5.251083400166325e-06   7.94063738267627e-07   1.0019796822491561e-05
-5.251083400166325e-06   7.94063738267627e-07   1.0019796822491561e-05
-5.251083400166325e-06   7.94063738267627e-07   1.0019796822491561e-05
-5.627110122202432e-06   -2.766432045460572e-07   2.317250061865722e-05
-5.627110122202432e-06   -2.766432045460572e-07   2.317250061865722e-05
-5.627110122202432e-06   -2.766432045460572e-07   2.317250061865722e-05
-5.627110122202432e-06   -2.766432045460572e-07   2.317250061865722e-05
2.2473046250565274e-06   3.3939586846802247e-07   9.678852596083751e-06
2.2473046250565274e-06   3.3939586846802247e-07   9.678852596083751e-06
2.2473046250565274e-06   3.3939586846802247e-07   9.678852596083751e-06
2.2473046250565274e-06   3.3939586846802247e-07   9.678852596083751e-06
-1.514724472686067e-06   3.1826262894855614e-07   1.5961581036033596e-05
-1.514724472686067e-06   3.1826262894855614e-07   1.5961581036033596e-05
-1.514724472686067e-06   3.1826262894855614e-07   1.5961581036033596e-05
-1.514724472686067e-06   3.1826262894855614e-07   1.5961581036033596e-05
2.2473046250565376e-06   -2.766432045460572e-07   2.2802877174848643e-05
2.2473046250565376e-06   -2.766432045460572e-07   2.2802877174848643e-05
2.2473046250565376e-06   -2.766432045460572e-07   2.2802877174848643e-05
2.2473046250565376e-06   -2.766432045460572e-07   2.2802877174848643e-05
-5.627110122202432e-06   3.3939586846802247e-07   1.0048476039892316e-05
-5.627110122202432e-06   3.3939586846802247e-07   1.0048476039892316e-05
-5.627110122202432e-06   3.3939586846802247e-07   1.0048476039892316e-05
-5.627110122202432e-06   3.3939586846802247e-07   1.0048476039892316e-05
-5.997602938380962e-06   -7.081733931313221e-07   2.3474670517767285e-05
-5.997602938380962e-06   -7.081733931313221e-07   2.3474670517767285e-05
-5.997602938380962e-06   -7.081733931313221e-07   2.3474670517767285e-05
-5.997602938380962e-06   -7.081733931313221e-07   2.3474670517767285e-05
1.827202671299168e-06   -1.2464926795060192e-07   1.0083213359858784e-05
1.827202671299168e-06   -1.2464926795060192e-07   1.0083213359858784e-05
1.827202671299168e-06   -1.2464926795060192e-07   1.0083213359858784e-05
1.827202671299168e-06   -1.2464926795060192e-07   1.0083213359858784e-05
-1.844744778704378e-06   -1.7037118511115112e-08   1.613855848686804e-05
-1.844744778704378e-06   -1.7037118511115112e-08   1.613855848686804e-05
-1.844744778704378e-06   -1.7037118511115112e-08   1.613855848686804e-05
-1.844744778704378e-06   -1.7037118511115112e-08   1.613855848686804e-05
-4.885790312930433e-06   2.640468577437636e-06   2.5780711012003167e-05
-4.885790312930433e-06   2.640468577437636e-06   2.5780711012003167e-05
-4.885790312930433e-06   2.640468577437636e-06   2.5780711012003167e-05
-4.885790312930433e-06   2.640468577437636e-06   2.5780711012003167e-05
-1.2781221968528856e-05   2.490631671732673e-06   1.2531756109249409e-05
-1.2781221968528856e-05   2.490631671732673e-06   1.2531756109249409e-05
-1.2781221968528856e-05   2.490631671732673e-06   1.2531756109249409e-05
-1.2781221968528856e-05   2.490631671732673e-06   1.2531756109249409e-05
-1.3131857425217164e-05   2.1535056417079385e-06   2.5552711140899506e-05
-1.3131857425217164e-05   2.1535056417079385e-06   2.5552711140899506e-05
-1.3131857425217164e-05   2.1535056417079385e-06   2.5552711140899506e-05
-1.3131857425217164e-05   2.1535056417079385e-06   2.5552711140899506e-05
-5.2510834001662975e-06   1.996000511467807e-06   1.2512590843959023e-05
-5.2510834001662975e-06   1.996000511467807e-06   1.2512590843959023e-05
-5.2510834001662975e-06   1.996000511467807e-06   1.2512590843959023e-05
-5.2510834001662975e-06   1.996000511467807e-06   1.2512590843959023e-05
-9.029445122755269e-06   2.2642684772138533e-06   1.8648899602160412e-05
-9.029445122755269e-06   2.2642684772138533e-06   1.8648899602160412e-05
-9.029445122755269e-06   2.2642684772138533e-06   1.8648899602160412e-05
-9.029445122755269e-06   2.2642684772138533e-06   1.8648899602160412e-05
-5.251083400166325e-06   2.1535056417079385e-06   2.5647214219043824e-05
-5.251083400166325e-06   2.1535056417079385e-06   2.5647214219043824e-05
-5.251083400166325e-06   2.1535056417079385e-06   2.5647214219043824e-05
-5.251083400166325e-06   2.1535056417079385e-06   2.5647214219043824e-05
-1.3131857425217137e-05   1.996000511467807e-06   1.2418087765815112e-05
-1.3131857425217137e-05   1.996000511467807e-06   1.2418087765815112e-05
-1.3131857425217137e-05   1.996000511467807e-06   1.2418087765815112e-05
-1.3131857425217137e-05   1.996000511467807e-06   1.2418087765815112e-05
-1.3493935038316496e-05   1.6721451745105222e-06   2.572101224016497e-05
-1.3493935038316496e-05   1.6721451745105222e-06   2.572101224016497e-05
-1.3493935038316496e-05   1.6721451745105222e-06   2.572101224016497e-05
-1.3493935038316496e-05   1.6721451745105222e-06   2.572101224016497e-05
-5.627110122202405e-06   1.5039165240137223e-06   1.271057457027293e-05
-5.627110122202405e-06   1.5039165240137223e-06   1.271057457027293e-05
-5.627110122202405e-06   1.5039165240137223e-06   1.271057457027293e-05
-5.627110122202405e-06   1.5039165240137223e-06   1.271057457027293e-05
-9.341527506167081e-06   1.8882634449483848e-06   1.8670662057653365e-05
-9.341527506167081e-06   1.8882634449483848e-06   1.8670662057653365e-05
-9.341527506167081e-06   1.8882634449483848e-06   1.8670662057653365e-05
-9.341527506167081e-06   1.8882634449483848e-06   1.8670662057653365e-05
-5.627110122202432e-06   1.6721451745105222e-06   2.582194943046305e-05
-5.627110122202432e-06   1.6721451745105222e-06   2.582194943046305e-05
-5.627110122202432e-06   1.6721451745105222e-06   2.582194943046305e-05
-5.627110122202432e-06   1.6721451745105222e-06   2.582194943046305e-05
-1.349393503831647e-05   1.5039165240139391e-06   1.2609637379974985e-05
-1.349393503831647e-05   1.5039165240139391e-06   1.2609637379974985e-05
-1.349393503831647e-05   1.5039165240139391e-06   1.2609637379974985e-05
-1.349393503831647e-05   1.5039165240139391e-06   1.2609637379974985e-05
-1.3850320675841388e-05   1.2087994297467312e-06   2.6134452590668316e-05
-1.3850320675841388e-05   1.2087994297467312e-06   2.6134452590668316e-05
-1.3850320675841388e-05   1.2087994297467312e-06   2.6134452590668316e-05
-1.3850320675841388e-05   1.2087994297467312e-06   2.6134452590668316e-05
-5.997602938380962e-06   1.0328592487268435e-06   1.3152153803513137e-05
-5.997602938380962e-06   1.0328592487268435e-06   1.3152153803513137e-05
-5.997602938380962e-06   1.0328592487268435e-06   1.3152153803513137e-05
-5.997602938380962e-06   1.0328592487268435e-06   1.3152153803513137e-05
-9.67354181015196e-06   1.5198538554392176e-06   1.898652182577096e-05
-9.67354181015196e-06   1.5198538554392176e-06   1.898652182577096e-05
-9.67354181015196e-06   1.5198538554392176e-06   1.898652182577096e-05
-9.67354181015196e-06   1.5198538554392176e-06   1.898652182577096e-05
-1.2781221968528856e-05   4.530253206642704e-06   2.2714959780572902e-05
-1.2781221968528856e-05   4.530253206642704e-06   2.2714959780572902e-05
-1.2781221968528856e-05   4.530253206642704e-06   2.2714959780572902e-05
-1.2781221968528856e-05   4.530253206642704e-06   2.2714959780572902e-05
-2.0535637437888788e-05   3.7029893127616623e-06   9.294575661977637e-06
-2.0535637437888788e-05   3.7029893127616623e-06   9.294575661977637e-06
-2.0535637437888788e-05   3.7029893127616623e-06   9.294575661977637e-06
-2.0535637437888788e-05   3.7029893127616623e-06   9.294575661977637e-06
-2.091797461395851e-05   4.054899186481864e-06   2.2297286393632666e-05
-2.091797461395851e-05   4.054899186481864e-06   2.2297286393632666e-05
-2.091797461395851e-05   4.054899186481864e-06   2.2297286393632666e-05
-2.091797461395851e-05   4.054899186481864e-06   2.2297286393632666e-05
-1.313185742521711e-05   3.204379385581685e-06   9.830736292937596e-06
-1.313185742521711e-05   3.204379385581685e-06   9.830736292937596e-06
-1.313185742521711e-05   3.204379385581685e-06   9.830736292937596e-06
-1.313185742521711e-05   3.204379385581685e-06   9.830736292937596e-06
-1.6800998678540935e-05   3.8095161166058506e-06   1.5582889676530405e-05
-1.6800998678540935e-05   3.8095161166058506e-06   1.5582889676530405e-05
-1.6800998678540935e-05   3.8095161166058506e-06   1.5582889676530405e-05
-1.6800998678540935e-05   3.8095161166058506e-06   1.5582889676530405e-05
-1.3131857425217164e-05   4.054899186481864e-06   2.2807598274173055e-05
-1.3131857425217164e-05   4.054899186481864e-06   2.2807598274173055e-05
-1.3131857425217164e-05   4.054899186481864e-06   2.2807598274173055e-05
-1.3131857425217164e-05   4.054899186481864e-06   2.2807598274173055e-05
-2.0917974613958456e-05   3.204379385581685e-06   9.320424412397532e-06
-2.0917974613958456e-05   3.204379385581685e-06   9.320424412397532e-06
-2.0917974613958456e-05   3.204379385581685e-06   9.320424412397532e-06
-2.0917974613958456e-05   3.204379385581685e-06   9.320424412397532e-06
-2.137058838409643e-05   3.6146825361147404e-06   2.303071845069591e-05
-2.137058838409643e-05   3.6146825361147404e-06   2.303071845069591e-05
-2.137058838409643e-05   3.6146825361147404e-06   2.303071845069591e-05
-2.137058838409643e-05   3.6146825361147404e-06   2.303071845069591e-05
-1.3493935038316442e-05   2.7507627192991085e-06   1.042131476448573e-05
-1.3493935038316442e-05   2.7507627192991085e-06   1.042131476448573e-05
-1.3493935038316442e-05   2.7507627192991085e-06   1.042131476448573e-05
-1.3493935038316442e-05   2.7507627192991085e-06   1.042131476448573e-05
-1.7048289901378392e-05   3.4570215548498148e-06   1.5921484234925174e-05
-1.7048289901378392e-05   3.4570215548498148e-06   1.5921484234925174e-05
-1.7048289901378392e-05   3.4570215548498148e-06   1.5921484234925174e-05
-1.7048289901378392e-05   3.4570215548498148e-06   1.5921484234925174e-05
-1.349393503831647e-05   3.6146825361147404e-06   2.3549070340785376e-05
-1.349393503831647e-05   3.6146825361147404e-06   2.3549070340785376e-05
-1.349393503831647e-05   3.6146825361147404e-06   2.3549070340785376e-05
-1.349393503831647e-05   3.6146825361147404e-06   2.3549070340785376e-05
-2.1370588384096376e-05   2.7507627192991085e-06   9.902962874396265e-06
-2.1370588384096376e-05   2.7507627192991085e-06   9.902962874396265e-06
-2.1370588384096376e-05   2.7507627192991085e-06   9.902962874396265e-06
-2.1370588384096376e-05   2.7507627192991085e-06   9.902962874396265e-06
-2.1758758557529755e-05   3.1222095337652724e-06   2.3737879363073915e-05
-2.1758758557529755e-05   3.1222095337652724e-06   2.3737879363073915e-05
-2.1758758557529755e-05   3.1222095337652724e-06   2.3737879363073915e-05
-2.1758758557529755e-05   3.1222095337652724e-06   2.3737879363073915e-05
-1.3850320675841334e-05   2.26568658002785e-06   1.1071063332502358e-05
-1.3850320675841334e-05   2.26568658002785e-06   1.1071063332502358e-05
-1.3850320675841334e-05   2.26568658002785e-06   1.1071063332502358e-05
-1.3850320675841334e-05   2.26568658002785e-06   1.1071063332502358e-05
-1.7474388475844797e-05   3.1036804366303943e-06   1.6608380018547488e-05
-1.7474388475844797e-05   3.1036804366303943e-06   1.6608380018547488e-05
-1.7474388475844797e-05   3.1036804366303943e-06   1.6608380018547488e-05
-1.7474388475844797e-05   3.1036804366303943e-06   1.6608380018547488e-05
-2.0535637437888842e-05   5.9477473230696e-06   1.0619902740889977e-05
-2.0535637437888842e-05   5.9477473230696e-06   1.0619902740889977e-05
-2.0535637437888842e-05   5.9477473230696e-06   1.0619902740889977e-05
-2.0535637437888842e-05   5.9477473230696e-06   1.0619902740889977e-05
-2.75383642919258e-05   4.560667662316517e-06   -1.8835564789568228e-06
-2.75383642919258e-05   4.560667662316517e-06   -1.8835564789568228e-06
-2.75383642919258e-05   4.560667662316517e-06   -1.8835564789568228e-06
-2.75383642919258e-05   4.560667662316517e-06   -1.8835564789568228e-06
-2.8518926197359585e-05   5.796184018299266e-06   1.310085699262947e-05
-2.8518926197359585e-05   5.796184018299266e-06   1.310085699262947e-05
-2.8518926197359585e-05   5.796184018299266e-06   1.310085699262947e-05
-2.8518926197359585e-05   5.796184018299266e-06   1.310085699262947e-05
-2.0917974613958402e-05   4.3055495014211655e-06   1.3269850637549654e-06
-2.0917974613958402e-05   4.3055495014211655e-06   1.3269850637549654e-06
-2.0917974613958402e-05   4.3055495014211655e-06   1.3269850637549654e-06
-2.0917974613958402e-05   4.3055495014211655e-06   1.3269850637549654e-06
-2.348968720117806e-05   5.0572202792294706e-06   5.162170242436863e-06
-2.348968720117806e-05   5.0572202792294706e-06   5.162170242436863e-06
-2.348968720117806e-05   5.0572202792294706e-06   5.162170242436863e-06
-2.348968720117806e-05   5.0572202792294706e-06   5.162170242436863e-06
-2.0917974613958456e-05   5.796184018299266e-06   1.3995237702756611e-05
-2.0917974613958456e-05   5.796184018299266e-06   1.3995237702756611e-05
-2.0917974613958456e-05   5.796184018299266e-06   1.3995237702756611e-05
-2.0917974613958456e-05   5.796184018299266e-06   1.3995237702756611e-05
-2.8518926197359585e-05   4.3055495014211655e-06   4.326043536280401e-07
-2.8518926197359585e-05   4.3055495014211655e-06   4.326043536280401e-07
-2.8518926197359585e-05   4.3055495014211655e-06   4.326043536280401e-07
-2.8518926197359585e-05   4.3055495014211655e-06   4.326043536280401e-07
-2.936275429567752e-05   5.609479136397177e-06   1.5502634661468916e-05
-2.936275429567752e-05   5.609479136397177e-06   1.5502634661468916e-05
-2.936275429567752e-05   5.609479136397177e-06   1.5502634661468916e-05
-2.936275429567752e-05   5.609479136397177e-06   1.5502634661468916e-05
-2.1370588384096376e-05   4.091794278463e-06   3.0929690569274793e-06
-2.1370588384096376e-05   4.091794278463e-06   3.0929690569274793e-06
-2.1370588384096376e-05   4.091794278463e-06   3.0929690569274793e-06
-2.1370588384096376e-05   4.091794278463e-06   3.0929690569274793e-06
-2.4432058706616648e-05   4.991479742382735e-06   7.655608316110016e-06
-2.4432058706616648e-05   4.991479742382735e-06   7.655608316110016e-06
-2.4432058706616648e-05   4.991479742382735e-06   7.655608316110016e-06
-2.4432058706616648e-05   4.991479742382735e-06   7.655608316110016e-06
-2.137058838409643e-05   5.609479136397177e-06   1.6413245576229335e-05
-2.137058838409643e-05   5.609479136397177e-06   1.6413245576229335e-05
-2.137058838409643e-05   5.609479136397177e-06   1.6413245576229335e-05
-2.137058838409643e-05   5.609479136397177e-06   1.6413245576229335e-05
-2.936275429567752e-05   4.091794278463e-06   2.18235814216706e-06
-2.936275429567752e-05   4.091794278463e-06   2.18235814216706e-06
-2.936275429567752e-05   4.091794278463e-06   2.18235814216706e-06
-2.936275429567752e-05   4.091794278463e-06   2.18235814216706e-06
-3.0372212870887557e-05   4.9818172145944285e-06   1.975148699565575e-05
-3.0372212870887557e-05   4.9818172145944285e-06   1.975148699565575e-05
-3.0372212870887557e-05   4.9818172145944285e-06   1.975148699565575e-05
-3.0372212870887557e-05   4.9818172145944285e-06   1.975148699565575e-05
-2.17587585575297e-05   3.509427796473223e-06   6.279163457598516e-06
-2.17587585575297e-05   3.509427796473223e-06   6.279163457598516e-06
-2.17587585575297e-05   3.509427796473223e-06   6.279163457598516e-06
-2.17587585575297e-05   3.509427796473223e-06   6.279163457598516e-06
-2.4665088058037474e-05   4.726647776533404e-06   1.039271397040918e-05
-2.4665088058037474e-05   4.726647776533404e-06   1.039271397040918e-05
-2.4665088058037474e-05   4.726647776533404e-06   1.039271397040918e-05
-2.4665088058037474e-05   4.726647776533404e-06   1.039271397040918e-05
2.4596811807897645e-06   2.1556696871332173e-08   1.265414391902163e-05
2.4596811807897645e-06   2.1556696871332173e-08   1.265414391902163e-05
2.4596811807897645e-06   2.1556696871332173e-08   1.265414391902163e-05
2.4596811807897645e-06   2.1556696871332173e-08   1.265414391902163e-05
-2.606298763931863e-06   1.3627005758533837e-06   5.0155303385414525e-06
-2.606298763931863e-06   1.3627005758533837e-06   5.0155303385414525e-06
-2.606298763931863e-06   1.3627005758533837e-06   5.0155303385414525e-06
-2.606298763931863e-06   1.3627005758533837e-06   5.0155303385414525e-06
-2.90160529294523e-06   -4.5428055419098265e-07   1.2473520624305752e-05
-2.90160529294523e-06   -4.5428055419098265e-07   1.2473520624305752e-05
-2.90160529294523e-06   -4.5428055419098265e-07   1.2473520624305752e-05
-2.90160529294523e-06   -4.5428055419098265e-07   1.2473520624305752e-05
1.5617131933703352e-06   9.187410097483877e-07   4.210843542082853e-06
1.5617131933703352e-06   9.187410097483877e-07   4.210843542082853e-06
1.5617131933703352e-06   9.187410097483877e-07   4.210843542082853e-06
1.5617131933703352e-06   9.187410097483877e-07   4.210843542082853e-06
-4.919809114639399e-07   3.8594881292763027e-07   7.953342368232502e-06
-4.919809114639399e-07   3.8594881292763027e-07   7.953342368232502e-06
-4.919809114639399e-07   3.8594881292763027e-07   7.953342368232502e-06
-4.919809114639399e-07   3.8594881292763027e-07   7.953342368232502e-06
1.5617131933703352e-06   -4.5428055419098265e-07   1.164970768594226e-05
1.5617131933703352e-06   -4.5428055419098265e-07   1.164970768594226e-05
1.5617131933703352e-06   -4.5428055419098265e-07   1.164970768594226e-05
1.5617131933703352e-06   -4.5428055419098265e-07   1.164970768594226e-05
-2.90160529294523e-06   9.187410097483877e-07   5.034656480446399e-06
-2.90160529294523e-06   9.187410097483877e-07   5.034656480446399e-06
-2.90160529294523e-06   9.187410097483877e-07   5.034656480446399e-06
-2.90160529294523e-06   9.187410097483877e-07   5.034656480446399e-06
-3.26655987830077e-06   -6.589559445734517e-07   1.2142372882310566e-05
-3.26655987830077e-06   -6.589559445734517e-07   1.2142372882310566e-05
-3.26655987830077e-06   -6.589559445734517e-07   1.2142372882310566e-05
-3.26655987830077e-06   -6.589559445734517e-07   1.2142372882310566e-05
7.820968784840154e-07   6.750409174180027e-07   4.594213503807682e-06
7.820968784840154e-07   6.750409174180027e-07   4.594213503807682e-06
7.820968784840154e-07   6.750409174180027e-07   4.594213503807682e-06
7.820968784840154e-07   6.750409174180027e-07   4.594213503807682e-06
-9.75864538626381e-07   1.9682829248347973e-07   7.811076773952332e-06
-9.75864538626381e-07   1.9682829248347973e-07   7.811076773952332e-06
-9.75864538626381e-07   1.9682829248347973e-07   7.811076773952332e-06
-9.75864538626381e-07   1.9682829248347973e-07   7.811076773952332e-06
7.820968784840154e-07   -6.589559445734517e-07   1.1341974765115411e-05
7.820968784840154e-07   -6.589559445734517e-07   1.1341974765115411e-05
7.820968784840154e-07   -6.589559445734517e-07   1.1341974765115411e-05
7.820968784840154e-07   -6.589559445734517e-07   1.1341974765115411e-05
-3.2665598783007633e-06   6.750409174180027e-07   5.3946116210024705e-06
-3.2665598783007633e-06   6.750409174180027e-07   5.3946116210024705e-06
-3.2665598783007633e-06   6.750409174180027e-07   5.3946116210024705e-06
-3.2665598783007633e-06   6.750409174180027e-07   5.3946116210024705e-06
-3.5718393369002688e-06   -9.989675598849612e-07   1.2017510513053506e-05
-3.5718393369002688e-06   -9.989675598849612e-07   1.2017510513053506e-05
-3.5718393369002688e-06   -9.989675598849612e-07   1.2017510513053506e-05
-3.5718393369002688e-06   -9.989675598849612e-07   1.2017510513053506e-05
-1.9630577974571767e-07   1.588248853117433e-07   5.696945784011432e-06
-1.9630577974571767e-07   1.588248853117433e-07   5.696945784011432e-06
-1.9630577974571767e-07   1.588248853117433e-07   5.696945784011432e-06
-1.9630577974571767e-07   1.588248853117433e-07   5.696945784011432e-06
-1.4994468854583364e-06   2.447263841424442e-08   7.949458975004285e-06
-1.4994468854583364e-06   2.447263841424442e-08   7.949458975004285e-06
-1.4994468854583364e-06   2.447263841424442e-08   7.949458975004285e-06
-1.4994468854583364e-06   2.447263841424442e-08   7.949458975004285e-06
-2.606298763931863e-06   1.3311151150297365e-06   2.0260452737515798e-05
-2.606298763931863e-06   1.3311151150297365e-06   2.0260452737515798e-05
-2.606298763931863e-06   1.3311151150297365e-06   2.0260452737515798e-05
-2.606298763931863e-06   1.3311151150297365e-06   2.0260452737515798e-05
-6.845235924976515e-06   1.597023226657568e-06   1.335510233608459e-05
-6.845235924976515e-06   1.597023226657568e-06   1.335510233608459e-05
-6.845235924976515e-06   1.597023226657568e-06   1.335510233608459e-05
-6.845235924976515e-06   1.597023226657568e-06   1.335510233608459e-05
-7.068271112955105e-06   7.94063738267627e-07   2.0204047463943595e-05
-7.068271112955105e-06   7.94063738267627e-07   2.0204047463943595e-05
-7.068271112955105e-06   7.94063738267627e-07   2.0204047463943595e-05
-7.068271112955105e-06   7.94063738267627e-07   2.0204047463943595e-05
-2.90160529294523e-06   1.101602979936044e-06   1.3075080885592779e-05
-2.90160529294523e-06   1.101602979936044e-06   1.3075080885592779e-05
-2.90160529294523e-06   1.101602979936044e-06   1.3075080885592779e-05
-2.90160529294523e-06   1.101602979936044e-06   1.3075080885592779e-05
-4.8849895527701385e-06   1.1480978495792115e-06   1.635282439684835e-05
-4.8849895527701385e-06   1.1480978495792115e-06   1.635282439684835e-05
-4.8849895527701385e-06   1.1480978495792115e-06   1.635282439684835e-05
-4.8849895527701385e-06   1.1480978495792115e-06   1.635282439684835e-05
-2.9016052929452333e-06   7.94063738267627e-07   2.0019523918942436e-05
-2.9016052929452333e-06   7.94063738267627e-07   2.0019523918942436e-05
-2.9016052929452333e-06   7.94063738267627e-07   2.0019523918942436e-05
-2.9016052929452333e-06   7.94063738267627e-07   2.0019523918942436e-05
-7.0682711129550915e-06   1.101602979936044e-06   1.325960443059374e-05
-7.0682711129550915e-06   1.101602979936044e-06   1.325960443059374e-05
-7.0682711129550915e-06   1.101602979936044e-06   1.325960443059374e-05
-7.0682711129550915e-06   1.101602979936044e-06   1.325960443059374e-05
-7.298366362149924e-06   3.3939586846802247e-07   2.0240359096869356e-05
-7.298366362149924e-06   3.3939586846802247e-07   2.0240359096869356e-05
-7.298366362149924e-06   3.3939586846802247e-07   2.0240359096869356e-05
-7.298366362149924e-06   3.3939586846802247e-07   2.0240359096869356e-05
-3.2665598783007633e-06   6.448890070607323e-07   1.333738574063183e-05
-3.2665598783007633e-06   6.448890070607323e-07   1.333738574063183e-05
-3.2665598783007633e-06   6.448890070607323e-07   1.333738574063183e-05
-3.2665598783007633e-06   6.448890070607323e-07   1.333738574063183e-05
-5.112820912678762e-06   7.864121325601913e-07   1.6329573589295675e-05
-5.112820912678762e-06   7.864121325601913e-07   1.6329573589295675e-05
-5.112820912678762e-06   7.864121325601913e-07   1.6329573589295675e-05
-5.112820912678762e-06   7.864121325601913e-07   1.6329573589295675e-05
-3.26655987830077e-06   3.3939586846802247e-07   2.005706321371375e-05
-3.26655987830077e-06   3.3939586846802247e-07   2.005706321371375e-05
-3.26655987830077e-06   3.3939586846802247e-07   2.005706321371375e-05
-3.26655987830077e-06   3.3939586846802247e-07   2.005706321371375e-05
-7.298366362149924e-06   6.448890070607323e-07   1.3520681623787408e-05
-7.298366362149924e-06   6.448890070607323e-07   1.3520681623787408e-05
-7.298366362149924e-06   6.448890070607323e-07   1.3520681623787408e-05
-7.298366362149924e-06   6.448890070607323e-07   1.3520681623787408e-05
-7.524201369297042e-06   -1.2464926795060192e-07   2.0630046883866903e-05
-7.524201369297042e-06   -1.2464926795060192e-07   2.0630046883866903e-05
-7.524201369297042e-06   -1.2464926795060192e-07   2.0630046883866903e-05
-7.524201369297042e-06   -1.2464926795060192e-07   2.0630046883866903e-05
-3.5718393369002688e-06   1.5073522552486087e-07   1.3877546133787129e-05
-3.5718393369002688e-06   1.5073522552486087e-07   1.3877546133787129e-05
-3.5718393369002688e-06   1.5073522552486087e-07   1.3877546133787129e-05
-3.5718393369002688e-06   1.5073522552486087e-07   1.3877546133787129e-05
-5.340171677051664e-06   4.3150150664421957e-07   1.6656306932034555e-05
-5.340171677051664e-06   4.3150150664421957e-07   1.6656306932034555e-05
-5.340171677051664e-06   4.3150150664421957e-07   1.6656306932034555e-05
-5.340171677051664e-06   4.3150150664421957e-07   1.6656306932034555e-05
-6.8452359249765015e-06   2.490631671732673e-06   2.279808437289678e-05
-6.8452359249765015e-06   2.490631671732673e-06   2.279808437289678e-05
-6.8452359249765015e-06   2.490631671732673e-06   2.279808437289678e-05
-6.8452359249765015e-06   2.490631671732673e-06   2.279808437289678e-05
-1.1066267011888733e-05   1.919145805566371e-06   1.542014104167675e-05
-1.1066267011888733e-05   1.919145805566371e-06   1.542014104167675e-05
-1.1066267011888733e-05   1.919145805566371e-06   1.542014104167675e-05
-1.1066267011888733e-05   1.919145805566371e-06   1.542014104167675e-05
-1.1255248786323817e-05   1.9960005114680237e-06   2.2375553488871423e-05
-1.1255248786323817e-05   1.9960005114680237e-06   2.2375553488871423e-05
-1.1255248786323817e-05   1.9960005114680237e-06   2.2375553488871423e-05
-1.1255248786323817e-05   1.9960005114680237e-06   2.2375553488871423e-05
-7.0682711129550915e-06   1.4605205172348945e-06   1.571854536312997e-05
-7.0682711129550915e-06   1.4605205172348945e-06   1.571854536312997e-05
-7.0682711129550915e-06   1.4605205172348945e-06   1.571854536312997e-05
-7.0682711129550915e-06   1.4605205172348945e-06   1.571854536312997e-05
-9.063534794057859e-06   1.928130461600506e-06   1.876341886501522e-05
-9.063534794057859e-06   1.928130461600506e-06   1.876341886501522e-05
-9.063534794057859e-06   1.928130461600506e-06   1.876341886501522e-05
-9.063534794057859e-06   1.928130461600506e-06   1.876341886501522e-05
-7.0682711129550915e-06   1.9960005114680237e-06   2.2696841485411192e-05
-7.0682711129550915e-06   1.9960005114680237e-06   2.2696841485411192e-05
-7.0682711129550915e-06   1.9960005114680237e-06   2.2696841485411192e-05
-7.0682711129550915e-06   1.9960005114680237e-06   2.2696841485411192e-05
-1.1255248786323817e-05   1.4605205172348945e-06   1.5397257366590227e-05
-1.1255248786323817e-05   1.4605205172348945e-06   1.5397257366590227e-05
-1.1255248786323817e-05   1.4605205172348945e-06   1.5397257366590227e-05
-1.1255248786323817e-05   1.4605205172348945e-06   1.5397257366590227e-05
-1.1457671427034314e-05   1.5039165240137223e-06   2.2596776449322316e-05
-1.1457671427034314e-05   1.5039165240137223e-06   2.2596776449322316e-05
-1.1457671427034314e-05   1.5039165240137223e-06   2.2596776449322316e-05
-1.1457671427034314e-05   1.5039165240137223e-06   2.2596776449322316e-05
-7.298366362149924e-06   9.94447894133929e-07   1.597028251910945e-05
-7.298366362149924e-06   9.94447894133929e-07   1.597028251910945e-05
-7.298366362149924e-06   9.94447894133929e-07   1.597028251910945e-05
-7.298366362149924e-06   9.94447894133929e-07   1.597028251910945e-05
-9.225015002452e-06   1.561136911159243e-06   1.8841350176064487e-05
-9.225015002452e-06   1.561136911159243e-06   1.8841350176064487e-05
-9.225015002452e-06   1.561136911159243e-06   1.8841350176064487e-05
-9.225015002452e-06   1.561136911159243e-06   1.8841350176064487e-05
-7.298366362149924e-06   1.5039165240137223e-06   2.290245762724989e-05
-7.298366362149924e-06   1.5039165240137223e-06   2.290245762724989e-05
-7.298366362149924e-06   1.5039165240137223e-06   2.290245762724989e-05
-7.298366362149924e-06   1.5039165240137223e-06   2.290245762724989e-05
-1.1457671427034287e-05   9.94447894133929e-07   1.566460134118158e-05
-1.1457671427034287e-05   9.94447894133929e-07   1.566460134118158e-05
-1.1457671427034287e-05   9.94447894133929e-07   1.566460134118158e-05
-1.1457671427034287e-05   9.94447894133929e-07   1.566460134118158e-05
-1.1655919666511303e-05   1.0328592487268435e-06   2.3060867545540275e-05
-1.1655919666511303e-05   1.0328592487268435e-06   2.3060867545540275e-05
-1.1655919666511303e-05   1.0328592487268435e-06   2.3060867545540275e-05
-1.1655919666511303e-05   1.0328592487268435e-06   2.3060867545540275e-05
-7.524201369297028e-06   5.528504039392342e-07   1.646267569038894e-05
-7.524201369297028e-06   5.528504039392342e-07   1.646267569038894e-05
-7.524201369297028e-06   5.528504039392342e-07   1.646267569038894e-05
-7.524201369297028e-06   5.528504039392342e-07   1.646267569038894e-05
-9.404915836133839e-06   1.1997651010654158e-06   1.9209050983507874e-05
-9.404915836133839e-06   1.1997651010654158e-06   1.9209050983507874e-05
-9.404915836133839e-06   1.1997651010654158e-06   1.9209050983507874e-05
-9.404915836133839e-06   1.1997651010654158e-06   1.9209050983507874e-05
-1.106626701188876e-05   3.7029893127616623e-06   1.971437074225395e-05
-1.106626701188876e-05   3.7029893127616623e-06   1.971437074225395e-05
-1.106626701188876e-05   3.7029893127616623e-06   1.971437074225395e-05
-1.106626701188876e-05   3.7029893127616623e-06   1.971437074225395e-05
-1.521940703887799e-05   2.5970918029417835e-06   1.212893219137989e-05
-1.521940703887799e-05   2.5970918029417835e-06   1.212893219137989e-05
-1.521940703887799e-05   2.5970918029417835e-06   1.212893219137989e-05
-1.521940703887799e-05   2.5970918029417835e-06   1.212893219137989e-05
-1.5427129965007167e-05   3.204379385581685e-06   1.9134356975610825e-05
-1.5427129965007167e-05   3.204379385581685e-06   1.9134356975610825e-05
-1.5427129965007167e-05   3.204379385581685e-06   1.9134356975610825e-05
-1.5427129965007167e-05   3.204379385581685e-06   1.9134356975610825e-05
-1.1255248786323817e-05   2.1146376516093576e-06   1.2835066718188532e-05
-1.1255248786323817e-05   2.1146376516093576e-06   1.2835066718188532e-05
-1.1255248786323817e-05   2.1146376516093576e-06   1.2835066718188532e-05
-1.1255248786323817e-05   2.1146376516093576e-06   1.2835066718188532e-05
-1.3213949735435868e-05   2.8793707852688187e-06   1.5640728419846392e-05
-1.3213949735435868e-05   2.8793707852688187e-06   1.5640728419846392e-05
-1.3213949735435868e-05   2.8793707852688187e-06   1.5640728419846392e-05
-1.3213949735435868e-05   2.8793707852688187e-06   1.5640728419846392e-05
-1.1255248786323817e-05   3.204379385581685e-06   1.978820201599407e-05
-1.1255248786323817e-05   3.204379385581685e-06   1.978820201599407e-05
-1.1255248786323817e-05   3.204379385581685e-06   1.978820201599407e-05
-1.1255248786323817e-05   3.204379385581685e-06   1.978820201599407e-05
-1.5427129965007113e-05   2.114637651609466e-06   1.2181221677805233e-05
-1.5427129965007113e-05   2.114637651609466e-06   1.2181221677805233e-05
-1.5427129965007113e-05   2.114637651609466e-06   1.2181221677805233e-05
-1.5427129965007113e-05   2.114637651609466e-06   1.2181221677805233e-05
-1.5713742235479394e-05   2.7507627192991085e-06   1.9769116331551698e-05
-1.5713742235479394e-05   2.7507627192991085e-06   1.9769116331551698e-05
-1.5713742235479394e-05   2.7507627192991085e-06   1.9769116331551698e-05
-1.5713742235479394e-05   2.7507627192991085e-06   1.9769116331551698e-05
-1.1457671427034314e-05   1.685200215497144e-06   1.3315002486424495e-05
-1.1457671427034314e-05   1.685200215497144e-06   1.3315002486424495e-05
-1.1457671427034314e-05   1.685200215497144e-06   1.3315002486424495e-05
-1.1457671427034314e-05   1.685200215497144e-06   1.3315002486424495e-05
-1.3326830586142522e-05   2.5237081910742948e-06   1.5927162966258433e-05
-1.3326830586142522e-05   2.5237081910742948e-06   1.5927162966258433e-05
-1.3326830586142522e-05   2.5237081910742948e-06   1.5927162966258433e-05
-1.3326830586142522e-05   2.5237081910742948e-06   1.5927162966258433e-05
-1.1457671427034314e-05   2.7507627192991085e-06   2.0408453833832573e-05
-1.1457671427034314e-05   2.7507627192991085e-06   2.0408453833832573e-05
-1.1457671427034314e-05   2.7507627192991085e-06   2.0408453833832573e-05
-1.1457671427034314e-05   2.7507627192991085e-06   2.0408453833832573e-05
-1.5713742235479286e-05   1.6852002154970356e-06   1.267566498414324e-05
-1.5713742235479286e-05   1.6852002154970356e-06   1.267566498414324e-05
-1.5713742235479286e-05   1.6852002154970356e-06   1.267566498414324e-05
-1.5713742235479286e-05   1.6852002154970356e-06   1.267566498414324e-05
-1.5943406330609655e-05   2.26568658002785e-06   2.0474419952966642e-05
-1.5943406330609655e-05   2.26568658002785e-06   2.0474419952966642e-05
-1.5943406330609655e-05   2.26568658002785e-06   2.0474419952966642e-05
-1.5943406330609655e-05   2.26568658002785e-06   2.0474419952966642e-05
-1.1655919666511276e-05   1.2474845297364388e-06   1.3939530076311e-05
-1.1655919666511276e-05   1.2474845297364388e-06   1.3939530076311e-05
-1.1655919666511276e-05   1.2474845297364388e-06   1.3939530076311e-05
-1.1655919666511276e-05   1.2474845297364388e-06   1.3939530076311e-05
-1.35644728246979e-05   2.18523515415302e-06   1.655780163197255e-05
-1.35644728246979e-05   2.18523515415302e-06   1.655780163197255e-05
-1.35644728246979e-05   2.18523515415302e-06   1.655780163197255e-05
-1.35644728246979e-05   2.18523515415302e-06   1.655780163197255e-05
-1.521940703887799e-05   4.560667662316517e-06   8.70494789187925e-06
-1.521940703887799e-05   4.560667662316517e-06   8.70494789187925e-06
-1.521940703887799e-05   4.560667662316517e-06   8.70494789187925e-06
-1.521940703887799e-05   4.560667662316517e-06   8.70494789187925e-06
-1.8491361507375938e-05   3.0728884901379218e-06   2.359022941075589e-06
-1.8491361507375938e-05   3.0728884901379218e-06   2.359022941075589e-06
-1.8491361507375938e-05   3.0728884901379218e-06   2.359022941075589e-06
-1.8491361507375938e-05   3.0728884901379218e-06   2.359022941075589e-06
-1.9278096837762487e-05   4.305549501420949e-06   1.0208738460531705e-05
-1.9278096837762487e-05   4.305549501420949e-06   1.0208738460531705e-05
-1.9278096837762487e-05   4.305549501420949e-06   1.0208738460531705e-05
-1.9278096837762487e-05   4.305549501420949e-06   1.0208738460531705e-05
-1.5427129965007113e-05   2.7519175573603337e-06   4.7226395057089945e-06
-1.5427129965007113e-05   2.7519175573603337e-06   4.7226395057089945e-06
-1.5427129965007113e-05   2.7519175573603337e-06   4.7226395057089945e-06
-1.5427129965007113e-05   2.7519175573603337e-06   4.7226395057089945e-06
-1.6510269686556198e-05   3.6349278008456724e-06   5.998066228866364e-06
-1.6510269686556198e-05   3.6349278008456724e-06   5.998066228866364e-06
-1.6510269686556198e-05   3.6349278008456724e-06   5.998066228866364e-06
-1.6510269686556198e-05   3.6349278008456724e-06   5.998066228866364e-06
-1.5427129965007113e-05   4.305549501420949e-06   1.1140917626967987e-05
-1.5427129965007113e-05   4.305549501420949e-06   1.1140917626967987e-05
-1.5427129965007113e-05   4.305549501420949e-06   1.1140917626967987e-05
-1.5427129965007113e-05   4.305549501420949e-06   1.1140917626967987e-05
-1.927809683776254e-05   2.7519175573603337e-06   3.790460339272658e-06
-1.927809683776254e-05   2.7519175573603337e-06   3.790460339272658e-06
-1.927809683776254e-05   2.7519175573603337e-06   3.790460339272658e-06
-1.927809683776254e-05   2.7519175573603337e-06   3.790460339272658e-06
-1.9953202098157833e-05   4.091794278463217e-06   1.2022823455961609e-05
-1.9953202098157833e-05   4.091794278463217e-06   1.2022823455961609e-05
-1.9953202098157833e-05   4.091794278463217e-06   1.2022823455961609e-05
-1.9953202098157833e-05   4.091794278463217e-06   1.2022823455961609e-05
-1.571374223547934e-05   2.5312958482612063e-06   5.893356076285298e-06
-1.571374223547934e-05   2.5312958482612063e-06   5.893356076285298e-06
-1.571374223547934e-05   2.5312958482612063e-06   5.893356076285298e-06
-1.571374223547934e-05   2.5312958482612063e-06   5.893356076285298e-06
-1.7177467447471086e-05   3.509430680461085e-06   7.746017196952077e-06
-1.7177467447471086e-05   3.509430680461085e-06   7.746017196952077e-06
-1.7177467447471086e-05   3.509430680461085e-06   7.746017196952077e-06
-1.7177467447471086e-05   3.509430680461085e-06   7.746017196952077e-06
-1.571374223547934e-05   4.091794278463217e-06   1.2959122514082642e-05
-1.571374223547934e-05   4.091794278463217e-06   1.2959122514082642e-05
-1.571374223547934e-05   4.091794278463217e-06   1.2959122514082642e-05
-1.571374223547934e-05   4.091794278463217e-06   1.2959122514082642e-05
-1.9953202098157887e-05   2.5312958482612063e-06   4.957057018164211e-06
-1.9953202098157887e-05   2.5312958482612063e-06   4.957057018164211e-06
-1.9953202098157887e-05   2.5312958482612063e-06   4.957057018164211e-06
-1.9953202098157887e-05   2.5312958482612063e-06   4.957057018164211e-06
-2.0812085226523745e-05   3.5094277964730063e-06   1.5305032402808047e-05
-2.0812085226523745e-05   3.5094277964730063e-06   1.5305032402808047e-05
-2.0812085226523745e-05   3.5094277964730063e-06   1.5305032402808047e-05
-2.0812085226523745e-05   3.5094277964730063e-06   1.5305032402808047e-05
-1.59434063306096e-05   2.0237587173112855e-06   8.081969023781687e-06
-1.59434063306096e-05   2.0237587173112855e-06   8.081969023781687e-06
-1.59434063306096e-05   2.0237587173112855e-06   8.081969023781687e-06
-1.59434063306096e-05   2.0237587173112855e-06   8.081969023781687e-06
-1.7367245362435432e-05   3.2675682542777744e-06   9.70874835464462e-06
-1.7367245362435432e-05   3.2675682542777744e-06   9.70874835464462e-06
-1.7367245362435432e-05   3.2675682542777744e-06   9.70874835464462e-06
-1.7367245362435432e-05   3.2675682542777744e-06   9.70874835464462e-06
-7.472646105469689e-06   1.3627005758533837e-06   9.048769192535131e-06
-7.472646105469689e-06   1.3627005758533837e-06   9.048769192535131e-06
-7.472646105469689e-06   1.3627005758533837e-06   9.048769192535131e-06
-7.472646105469689e-06   1.3627005758533837e-06   9.048769192535131e-06
-8.214484160639799e-06   2.581570910871185e-06   8.543694634928966e-06
-8.214484160639799e-06   2.581570910871185e-06   8.543694634928966e-06
-8.214484160639799e-06   2.581570910871185e-06   8.543694634928966e-06
-8.214484160639799e-06   2.581570910871185e-06   8.543694634928966e-06
-8.427881778058183e-06   9.187410097483877e-07   9.708742838423188e-06
-8.427881778058183e-06   9.187410097483877e-07   9.708742838423188e-06
-8.427881778058183e-06   9.187410097483877e-07   9.708742838423188e-06
-8.427881778058183e-06   9.187410097483877e-07   9.708742838423188e-06
-8.366507964218737e-06   2.015355242646782e-06   8.9484846089518e-06
-8.366507964218737e-06   2.015355242646782e-06   8.9484846089518e-06
-8.366507964218737e-06   2.015355242646782e-06   8.9484846089518e-06
-8.366507964218737e-06   2.015355242646782e-06   8.9484846089518e-06
-7.919952067947112e-06   1.6064991815497448e-06   8.449538418490619e-06
-7.919952067947112e-06   1.6064991815497448e-06   8.449538418490619e-06
-7.919952067947112e-06   1.6064991815497448e-06   8.449538418490619e-06
-7.919952067947112e-06   1.6064991815497448e-06   8.449538418490619e-06
-8.36650796421875e-06   9.187410097483877e-07   9.050774298684065e-06
-8.36650796421875e-06   9.187410097483877e-07   9.050774298684065e-06
-8.36650796421875e-06   9.187410097483877e-07   9.050774298684065e-06
-8.36650796421875e-06   9.187410097483877e-07   9.050774298684065e-06
-8.427881778058183e-06   2.015355242646782e-06   9.606453148690828e-06
-8.427881778058183e-06   2.015355242646782e-06   9.606453148690828e-06
-8.427881778058183e-06   2.015355242646782e-06   9.606453148690828e-06
-8.427881778058183e-06   2.015355242646782e-06   9.606453148690828e-06
-8.70476860484217e-06   6.750409174181111e-07   1.0009088943401911e-05
-8.70476860484217e-06   6.750409174181111e-07   1.0009088943401911e-05
-8.70476860484217e-06   6.750409174181111e-07   1.0009088943401911e-05
-8.70476860484217e-06   6.750409174181111e-07   1.0009088943401911e-05
-9.23636480061374e-06   1.6245416346431524e-06   1.0325382172686028e-05
-9.23636480061374e-06   1.6245416346431524e-06   1.0325382172686028e-05
-9.23636480061374e-06   1.6245416346431524e-06   1.0325382172686028e-05
-9.23636480061374e-06   1.6245416346431524e-06   1.0325382172686028e-05
-8.451748615926246e-06   1.3624596436134047e-06   9.174937726157694e-06
-8.451748615926246e-06   1.3624596436134047e-06   9.174937726157694e-06
-8.451748615926246e-06   1.3624596436134047e-06   9.174937726157694e-06
-8.451748615926246e-06   1.3624596436134047e-06   9.174937726157694e-06
-9.236364800613753e-06   6.750409174180027e-07   9.439388513066637e-06
-9.236364800613753e-06   6.750409174180027e-07   9.439388513066637e-06
-9.236364800613753e-06   6.750409174180027e-07   9.439388513066637e-06
-9.236364800613753e-06   6.750409174180027e-07   9.439388513066637e-06
-8.70476860484217e-06   1.6245416346431524e-06   1.0895082603021018e-05
-8.70476860484217e-06   1.6245416346431524e-06   1.0895082603021018e-05
-8.70476860484217e-06   1.6245416346431524e-06   1.0895082603021018e-05
-8.70476860484217e-06   1.6245416346431524e-06   1.0895082603021018e-05
-8.881772348013644e-06   1.5882488531185172e-07   1.0988821402925194e-05
-8.881772348013644e-06   1.5882488531185172e-07   1.0988821402925194e-05
-8.881772348013644e-06   1.5882488531185172e-07   1.0988821402925194e-05
-8.881772348013644e-06   1.5882488531185172e-07   1.0988821402925194e-05
-1.016283482690532e-05   6.636374161637188e-07   1.2821038015899922e-05
-1.016283482690532e-05   6.636374161637188e-07   1.2821038015899922e-05
-1.016283482690532e-05   6.636374161637188e-07   1.2821038015899922e-05
-1.016283482690532e-05   6.636374161637188e-07   1.2821038015899922e-05
-8.827082630748783e-06   1.0637215774548375e-06   1.0354733858864088e-05
-8.827082630748783e-06   1.0637215774548375e-06   1.0354733858864088e-05
-8.827082630748783e-06   1.0637215774548375e-06   1.0354733858864088e-05
-8.827082630748783e-06   1.0637215774548375e-06   1.0354733858864088e-05
-8.214484160639785e-06   1.597023226657568e-06   1.7960118524112424e-05
-8.214484160639785e-06   1.597023226657568e-06   1.7960118524112424e-05
-8.214484160639785e-06   1.597023226657568e-06   1.7960118524112424e-05
-8.214484160639785e-06   1.597023226657568e-06   1.7960118524112424e-05
-8.3524949498305e-06   6.686076599614127e-07   1.7173051202110253e-05
-8.3524949498305e-06   6.686076599614127e-07   1.7173051202110253e-05
-8.3524949498305e-06   6.686076599614127e-07   1.7173051202110253e-05
-8.3524949498305e-06   6.686076599614127e-07   1.7173051202110253e-05
-8.419607210886188e-06   1.101602979936044e-06   1.7279761954056743e-05
-8.419607210886188e-06   1.101602979936044e-06   1.7279761954056743e-05
-8.419607210886188e-06   1.101602979936044e-06   1.7279761954056743e-05
-8.419607210886188e-06   1.101602979936044e-06   1.7279761954056743e-05
-8.427881778058183e-06   3.192608307480945e-07   1.776295818885622e-05
-8.427881778058183e-06   3.192608307480945e-07   1.776295818885622e-05
-8.427881778058183e-06   3.192608307480945e-07   1.776295818885622e-05
-8.427881778058183e-06   3.192608307480945e-07   1.776295818885622e-05
-8.328614629572273e-06   8.144852499427898e-07   1.7300378289862868e-05
-8.328614629572273e-06   8.144852499427898e-07   1.7300378289862868e-05
-8.328614629572273e-06   8.144852499427898e-07   1.7300378289862868e-05
-8.328614629572273e-06   8.144852499427898e-07   1.7300378289862868e-05
-8.427881778058176e-06   1.1016029799359355e-06   1.774916724356921e-05
-8.427881778058176e-06   1.1016029799359355e-06   1.774916724356921e-05
-8.427881778058176e-06   1.1016029799359355e-06   1.774916724356921e-05
-8.427881778058176e-06   1.1016029799359355e-06   1.774916724356921e-05
-8.419607210886188e-06   3.192608307480945e-07   1.7293552899343427e-05
-8.419607210886188e-06   3.192608307480945e-07   1.7293552899343427e-05
-8.419607210886188e-06   3.192608307480945e-07   1.7293552899343427e-05
-8.419607210886188e-06   3.192608307480945e-07   1.7293552899343427e-05
-8.502538400118089e-06   6.448890070608407e-07   1.7514148476948342e-05
-8.502538400118089e-06   6.448890070608407e-07   1.7514148476948342e-05
-8.502538400118089e-06   6.448890070608407e-07   1.7514148476948342e-05
-8.502538400118089e-06   6.448890070608407e-07   1.7514148476948342e-05
-8.70476860484217e-06   -8.46353030774195e-08   1.8288913404237898e-05
-8.70476860484217e-06   -8.46353030774195e-08   1.8288913404237898e-05
-8.70476860484217e-06   -8.46353030774195e-08   1.8288913404237898e-05
-8.70476860484217e-06   -8.46353030774195e-08   1.8288913404237898e-05
-8.410615506138957e-06   5.257454020103245e-07   1.7432429816679717e-05
-8.410615506138957e-06   5.257454020103245e-07   1.7432429816679717e-05
-8.410615506138957e-06   5.257454020103245e-07   1.7432429816679717e-05
-8.410615506138957e-06   5.257454020103245e-07   1.7432429816679717e-05
-8.70476860484217e-06   6.448890070607323e-07   1.7951863063030973e-05
-8.70476860484217e-06   6.448890070607323e-07   1.7951863063030973e-05
-8.70476860484217e-06   6.448890070607323e-07   1.7951863063030973e-05
-8.70476860484217e-06   6.448890070607323e-07   1.7951863063030973e-05
-8.502538400118048e-06   -8.463530307731108e-08   1.785119881815507e-05
-8.502538400118048e-06   -8.463530307731108e-08   1.785119881815507e-05
-8.502538400118048e-06   -8.463530307731108e-08   1.785119881815507e-05
-8.502538400118048e-06   -8.463530307731108e-08   1.785119881815507e-05
-8.563519999382467e-06   1.5073522552486087e-07   1.801551356221101e-05
-8.563519999382467e-06   1.5073522552486087e-07   1.801551356221101e-05
-8.563519999382467e-06   1.5073522552486087e-07   1.801551356221101e-05
-8.563519999382467e-06   1.5073522552486087e-07   1.801551356221101e-05
-8.881772348013638e-06   -6.14652646761739e-07   1.900516686663478e-05
-8.881772348013638e-06   -6.14652646761739e-07   1.900516686663478e-05
-8.881772348013638e-06   -6.14652646761739e-07   1.900516686663478e-05
-8.881772348013638e-06   -6.14652646761739e-07   1.900516686663478e-05
-8.539213129638884e-06   1.8715649762683206e-07   1.795314934937649e-05
-8.539213129638884e-06   1.8715649762683206e-07   1.795314934937649e-05
-8.539213129638884e-06   1.8715649762683206e-07   1.795314934937649e-05
-8.539213129638884e-06   1.8715649762683206e-07   1.795314934937649e-05
-8.352494949830528e-06   1.919145805566371e-06   1.9810999409386617e-05
-8.352494949830528e-06   1.919145805566371e-06   1.9810999409386617e-05
-8.352494949830528e-06   1.919145805566371e-06   1.9810999409386617e-05
-8.352494949830528e-06   1.919145805566371e-06   1.9810999409386617e-05
-9.01591235323427e-06   1.8658409768244032e-07   1.7665766712316643e-05
-9.01591235323427e-06   1.8658409768244032e-07   1.7665766712316643e-05
-9.01591235323427e-06   1.8658409768244032e-07   1.7665766712316643e-05
-9.01591235323427e-06   1.8658409768244032e-07   1.7665766712316643e-05
-9.039555204595263e-06   1.4605205172348945e-06   1.879772828601654e-05
-9.039555204595263e-06   1.4605205172348945e-06   1.879772828601654e-05
-9.039555204595263e-06   1.4605205172348945e-06   1.879772828601654e-05
-9.039555204595263e-06   1.4605205172348945e-06   1.879772828601654e-05
-8.419607210886188e-06   -1.0777048372603241e-07   1.870545623041116e-05
-8.419607210886188e-06   -1.0777048372603241e-07   1.870545623041116e-05
-8.419607210886188e-06   -1.0777048372603241e-07   1.870545623041116e-05
-8.419607210886188e-06   -1.0777048372603241e-07   1.870545623041116e-05
-8.692290808848835e-06   8.350675909142308e-07   1.859422604889811e-05
-8.692290808848835e-06   8.350675909142308e-07   1.859422604889811e-05
-8.692290808848835e-06   8.350675909142308e-07   1.859422604889811e-05
-8.692290808848835e-06   8.350675909142308e-07   1.859422604889811e-05
-8.419607210886188e-06   1.4605205172348945e-06   1.973870288659289e-05
-8.419607210886188e-06   1.4605205172348945e-06   1.973870288659289e-05
-8.419607210886188e-06   1.4605205172348945e-06   1.973870288659289e-05
-8.419607210886188e-06   1.4605205172348945e-06   1.973870288659289e-05
-9.039555204595263e-06   -1.0777048372603241e-07   1.7764481629834594e-05
-9.039555204595263e-06   -1.0777048372603241e-07   1.7764481629834594e-05
-9.039555204595263e-06   -1.0777048372603241e-07   1.7764481629834594e-05
-9.039555204595263e-06   -1.0777048372603241e-07   1.7764481629834594e-05
-9.081272140490268e-06   9.94447894133929e-07   1.9090963658588292e-05
-9.081272140490268e-06   9.94447894133929e-07   1.9090963658588292e-05
-9.081272140490268e-06   9.94447894133929e-07   1.9090963658588292e-05
-9.081272140490268e-06   9.94447894133929e-07   1.9090963658588292e-05
-8.502538400118075e-06   -4.601949620030091e-07   1.899919313831663e-05
-8.502538400118075e-06   -4.601949620030091e-07   1.899919313831663e-05
-8.502538400118075e-06   -4.601949620030091e-07   1.899919313831663e-05
-8.502538400118075e-06   -4.601949620030091e-07   1.899919313831663e-05
-8.698647103903357e-06   5.438332607219081e-07   1.8723624044323273e-05
-8.698647103903357e-06   5.438332607219081e-07   1.8723624044323273e-05
-8.698647103903357e-06   5.438332607219081e-07   1.8723624044323273e-05
-8.698647103903357e-06   5.438332607219081e-07   1.8723624044323273e-05
-8.502538400118089e-06   9.94447894133929e-07   1.9963749372270087e-05
-8.502538400118089e-06   9.94447894133929e-07   1.9963749372270087e-05
-8.502538400118089e-06   9.94447894133929e-07   1.9963749372270087e-05
-8.502538400118089e-06   9.94447894133929e-07   1.9963749372270087e-05
-9.081272140490268e-06   -4.601949620031175e-07   1.8126407424634322e-05
-9.081272140490268e-06   -4.601949620031175e-07   1.8126407424634322e-05
-9.081272140490268e-06   -4.601949620031175e-07   1.8126407424634322e-05
-9.081272140490268e-06   -4.601949620031175e-07   1.8126407424634322e-05
-9.108596935985337e-06   5.528504039392342e-07   1.961553065316687e-05
-9.108596935985337e-06   5.528504039392342e-07   1.961553065316687e-05
-9.108596935985337e-06   5.528504039392342e-07   1.961553065316687e-05
-9.108596935985337e-06   5.528504039392342e-07   1.961553065316687e-05
-8.563519999382467e-06   -8.136192119954878e-07   1.952695086172268e-05
-8.563519999382467e-06   -8.136192119954878e-07   1.952695086172268e-05
-8.563519999382467e-06   -8.136192119954878e-07   1.952695086172268e-05
-8.563519999382467e-06   -8.136192119954878e-07   1.952695086172268e-05
-8.719547106019874e-06   2.445208774723862e-07   1.9152111985770465e-05
-8.719547106019874e-06   2.445208774723862e-07   1.9152111985770465e-05
-8.719547106019874e-06   2.445208774723862e-07   1.9152111985770465e-05
-8.719547106019874e-06   2.445208774723862e-07   1.9152111985770465e-05
-9.01591235323427e-06   2.5970918029417835e-06   1.6143792040251403e-05
-9.01591235323427e-06   2.5970918029417835e-06   1.6143792040251403e-05
-9.01591235323427e-06   2.5970918029417835e-06   1.6143792040251403e-05
-9.01591235323427e-06   2.5970918029417835e-06   1.6143792040251403e-05
-9.965257161705142e-06   8.541006357045246e-07   1.3515755992457622e-05
-9.965257161705142e-06   8.541006357045246e-07   1.3515755992457622e-05
-9.965257161705142e-06   8.541006357045246e-07   1.3515755992457622e-05
-9.965257161705142e-06   8.541006357045246e-07   1.3515755992457622e-05
-9.98327016581927e-06   2.114637651609466e-06   1.5246380754216143e-05
-9.98327016581927e-06   2.114637651609466e-06   1.5246380754216143e-05
-9.98327016581927e-06   2.114637651609466e-06   1.5246380754216143e-05
-9.98327016581927e-06   2.114637651609466e-06   1.5246380754216143e-05
-9.039555204595263e-06   4.660428459448557e-07   1.4662679368908165e-05
-9.039555204595263e-06   4.660428459448557e-07   1.4662679368908165e-05
-9.039555204595263e-06   4.660428459448557e-07   1.4662679368908165e-05
-9.039555204595263e-06   4.660428459448557e-07   1.4662679368908165e-05
-9.476213082361735e-06   1.5430826078987204e-06   1.4744218641346476e-05
-9.476213082361735e-06   1.5430826078987204e-06   1.4744218641346476e-05
-9.476213082361735e-06   1.5430826078987204e-06   1.4744218641346476e-05
-9.476213082361735e-06   1.5430826078987204e-06   1.4744218641346476e-05
-9.039555204595263e-06   2.114637651609466e-06   1.6235537637614627e-05
-9.039555204595263e-06   2.114637651609466e-06   1.6235537637614627e-05
-9.039555204595263e-06   2.114637651609466e-06   1.6235537637614627e-05
-9.039555204595263e-06   2.114637651609466e-06   1.6235537637614627e-05
-9.98327016581927e-06   4.660428459448557e-07   1.367352248550941e-05
-9.98327016581927e-06   4.660428459448557e-07   1.367352248550941e-05
-9.98327016581927e-06   4.660428459448557e-07   1.367352248550941e-05
-9.98327016581927e-06   4.660428459448557e-07   1.367352248550941e-05
-1.0092858743783397e-05   1.6852002154970356e-06   1.5810416293344197e-05
-1.0092858743783397e-05   1.6852002154970356e-06   1.5810416293344197e-05
-1.0092858743783397e-05   1.6852002154970356e-06   1.5810416293344197e-05
-1.0092858743783397e-05   1.6852002154970356e-06   1.5810416293344197e-05
-9.081272140490268e-06   1.3361936468565816e-07   1.5055387131675659e-05
-9.081272140490268e-06   1.3361936468565816e-07   1.5055387131675659e-05
-9.081272140490268e-06   1.3361936468565816e-07   1.5055387131675659e-05
-9.081272140490268e-06   1.3361936468565816e-07   1.5055387131675659e-05
-9.450636864311124e-06   1.2246230636655218e-06   1.501639278532192e-05
-9.450636864311124e-06   1.2246230636655218e-06   1.501639278532192e-05
-9.450636864311124e-06   1.2246230636655218e-06   1.501639278532192e-05
-9.450636864311124e-06   1.2246230636655218e-06   1.501639278532192e-05
-9.08127214049024e-06   1.685200215497144e-06   1.6741364803830557e-05
-9.08127214049024e-06   1.685200215497144e-06   1.6741364803830557e-05
-9.08127214049024e-06   1.685200215497144e-06   1.6741364803830557e-05
-9.08127214049024e-06   1.685200215497144e-06   1.6741364803830557e-05
-1.0092858743783397e-05   1.3361936468565816e-07   1.4124438621188919e-05
-1.0092858743783397e-05   1.3361936468565816e-07   1.4124438621188919e-05
-1.0092858743783397e-05   1.3361936468565816e-07   1.4124438621188919e-05
-1.0092858743783397e-05   1.3361936468565816e-07   1.4124438621188919e-05
-1.0158641347676213e-05   1.2474845297365473e-06   1.6510954885672014e-05
-1.0158641347676213e-05   1.2474845297365473e-06   1.6510954885672014e-05
-1.0158641347676213e-05   1.2474845297365473e-06   1.6510954885672014e-05
-1.0158641347676213e-05   1.2474845297365473e-06   1.6510954885672014e-05
-9.108596935985337e-06   -2.0157457074549464e-07   1.5630316326476336e-05
-9.108596935985337e-06   -2.0157457074549464e-07   1.5630316326476336e-05
-9.108596935985337e-06   -2.0157457074549464e-07   1.5630316326476336e-05
-9.108596935985337e-06   -2.0157457074549464e-07   1.5630316326476336e-05
-9.499598617785819e-06   9.400059788799899e-07   1.5597037466368068e-05
-9.499598617785819e-06   9.400059788799899e-07   1.5597037466368068e-05
-9.499598617785819e-06   9.400059788799899e-07   1.5597037466368068e-05
-9.499598617785819e-06   9.400059788799899e-07   1.5597037466368068e-05
-9.965257161705142e-06   3.07288849013803e-06   6.2207555929118924e-06
-9.965257161705142e-06   3.07288849013803e-06   6.2207555929118924e-06
-9.965257161705142e-06   3.07288849013803e-06   6.2207555929118924e-06
-9.965257161705142e-06   3.07288849013803e-06   6.2207555929118924e-06
-9.865424483014942e-06   1.4105169282138588e-06   5.389720453574469e-06
-9.865424483014942e-06   1.4105169282138588e-06   5.389720453574469e-06
-9.865424483014942e-06   1.4105169282138588e-06   5.389720453574469e-06
-9.865424483014942e-06   1.4105169282138588e-06   5.389720453574469e-06
-1.0372841651817659e-05   2.7519175573602252e-06   6.817968476233779e-06
-1.0372841651817659e-05   2.7519175573602252e-06   6.817968476233779e-06
-1.0372841651817659e-05   2.7519175573602252e-06   6.817968476233779e-06
-1.0372841651817659e-05   2.7519175573602252e-06   6.817968476233779e-06
-9.98327016581927e-06   1.135534047550196e-06   7.138512772122464e-06
-9.98327016581927e-06   1.135534047550196e-06   7.138512772122464e-06
-9.98327016581927e-06   1.135534047550196e-06   7.138512772122464e-06
-9.98327016581927e-06   1.135534047550196e-06   7.138512772122464e-06
-9.720073357126128e-06   2.162924733086001e-06   6.0834170129789875e-06
-9.720073357126128e-06   2.162924733086001e-06   6.0834170129789875e-06
-9.720073357126128e-06   2.162924733086001e-06   6.0834170129789875e-06
-9.720073357126128e-06   2.162924733086001e-06   6.0834170129789875e-06
-9.983270165819216e-06   2.7519175573603337e-06   7.787798582119525e-06
-9.983270165819216e-06   2.7519175573603337e-06   7.787798582119525e-06
-9.983270165819216e-06   2.7519175573603337e-06   7.787798582119525e-06
-9.983270165819216e-06   2.7519175573603337e-06   7.787798582119525e-06
-1.0372841651817713e-05   1.1355340475500877e-06   6.1686826662365e-06
-1.0372841651817713e-05   1.1355340475500877e-06   6.1686826662365e-06
-1.0372841651817713e-05   1.1355340475500877e-06   6.1686826662365e-06
-1.0372841651817713e-05   1.1355340475500877e-06   6.1686826662365e-06
-1.0818219798266722e-05   2.5312958482612063e-06   8.082821117975773e-06
-1.0818219798266722e-05   2.5312958482612063e-06   8.082821117975773e-06
-1.0818219798266722e-05   2.5312958482612063e-06   8.082821117975773e-06
-1.0818219798266722e-05   2.5312958482612063e-06   8.082821117975773e-06
-1.0092858743783397e-05   9.558187357439898e-07   7.819172294680585e-06
-1.0092858743783397e-05   9.558187357439898e-07   7.819172294680585e-06
-1.0092858743783397e-05   9.558187357439898e-07   7.819172294680585e-06
-1.0092858743783397e-05   9.558187357439898e-07   7.819172294680585e-06
-1.0082292892893142e-05   2.002869679496467e-06   7.173331976944816e-06
-1.0082292892893142e-05   2.002869679496467e-06   7.173331976944816e-06
-1.0082292892893142e-05   2.002869679496467e-06   7.173331976944816e-06
-1.0082292892893142e-05   2.002869679496467e-06   7.173331976944816e-06
-1.0092858743783397e-05   2.5312958482612063e-06   9.028107385486038e-06
-1.0092858743783397e-05   2.5312958482612063e-06   9.028107385486038e-06
-1.0092858743783397e-05   2.5312958482612063e-06   9.028107385486038e-06
-1.0092858743783397e-05   2.5312958482612063e-06   9.028107385486038e-06
-1.0818219798266776e-05   9.558187357438814e-07   6.873886027170158e-06
-1.0818219798266776e-05   9.558187357438814e-07   6.873886027170158e-06
-1.0818219798266776e-05   9.558187357438814e-07   6.873886027170158e-06
-1.0818219798266776e-05   9.558187357438814e-07   6.873886027170158e-06
-1.1479043757082867e-05   2.0237587173112855e-06   1.0406054620194457e-05
-1.1479043757082867e-05   2.0237587173112855e-06   1.0406054620194457e-05
-1.1479043757082867e-05   2.0237587173112855e-06   1.0406054620194457e-05
-1.1479043757082867e-05   2.0237587173112855e-06   1.0406054620194457e-05
-1.0158641347676213e-05   5.933246454394503e-07   9.063644380972861e-06
-1.0158641347676213e-05   5.933246454394503e-07   9.063644380972861e-06
-1.0158641347676213e-05   5.933246454394503e-07   9.063644380972861e-06
-1.0158641347676213e-05   5.933246454394503e-07   9.063644380972861e-06
-1.0204892398484793e-05   1.8117642785193781e-06   8.409665685805002e-06
-1.0204892398484793e-05   1.8117642785193781e-06   8.409665685805002e-06
-1.0204892398484793e-05   1.8117642785193781e-06   8.409665685805002e-06
-1.0204892398484793e-05   1.8117642785193781e-06   8.409665685805002e-06
-1.949212583642969e-05   2.581570910871185e-06   7.584130316428534e-06
-1.949212583642969e-05   2.581570910871185e-06   7.584130316428534e-06
-1.949212583642969e-05   2.581570910871185e-06   7.584130316428534e-06
-1.949212583642969e-05   2.581570910871185e-06   7.584130316428534e-06
-1.3176795642266742e-05   3.572529743182777e-06   1.870425593942035e-05
-1.3176795642266742e-05   3.572529743182777e-06   1.870425593942035e-05
-1.3176795642266742e-05   3.572529743182777e-06   1.870425593942035e-05
-1.3176795642266742e-05   3.572529743182777e-06   1.870425593942035e-05
-1.317168042020163e-05   2.015355242646782e-06   8.599263212837814e-06
-1.317168042020163e-05   2.015355242646782e-06   8.599263212837814e-06
-1.317168042020163e-05   2.015355242646782e-06   8.599263212837814e-06
-1.317168042020163e-05   2.015355242646782e-06   8.599263212837814e-06
-2.148019217627306e-05   1.4390408351683606e-06   2.2792571450777385e-05
-2.148019217627306e-05   1.4390408351683606e-06   2.2792571450777385e-05
-2.148019217627306e-05   1.4390408351683606e-06   2.2792571450777385e-05
-2.148019217627306e-05   1.4390408351683606e-06   2.2792571450777385e-05
-1.5961359133833544e-05   2.1151182835386874e-06   1.3188869911022553e-05
-1.5961359133833544e-05   2.1151182835386874e-06   1.3188869911022553e-05
-1.5961359133833544e-05   2.1151182835386874e-06   1.3188869911022553e-05
-1.5961359133833544e-05   2.1151182835386874e-06   1.3188869911022553e-05
-2.1480192176273095e-05   2.015355242646782e-06   8.945051857324861e-06
-2.1480192176273095e-05   2.015355242646782e-06   8.945051857324861e-06
-2.1480192176273095e-05   2.015355242646782e-06   8.945051857324861e-06
-2.1480192176273095e-05   2.015355242646782e-06   8.945051857324861e-06
-1.317168042020163e-05   1.4390408351683606e-06   2.244678280629035e-05
-1.317168042020163e-05   1.4390408351683606e-06   2.244678280629035e-05
-1.317168042020163e-05   1.4390408351683606e-06   2.244678280629035e-05
-1.317168042020163e-05   1.4390408351683606e-06   2.244678280629035e-05
-1.3354360811207383e-05   1.6245416346431524e-06   9.611090488719653e-06
-1.3354360811207383e-05   1.6245416346431524e-06   9.611090488719653e-06
-1.3354360811207383e-05   1.6245416346431524e-06   9.611090488719653e-06
-1.3354360811207383e-05   1.6245416346431524e-06   9.611090488719653e-06
-2.15585127684495e-05   1.0297101985232474e-06   2.3641575945795043e-05
-2.15585127684495e-05   1.0297101985232474e-06   2.3641575945795043e-05
-2.15585127684495e-05   1.0297101985232474e-06   2.3641575945795043e-05
-2.15585127684495e-05   1.0297101985232474e-06   2.3641575945795043e-05
-1.7036901820330507e-05   1.3183843164464408e-06   1.593235322817592e-05
-1.7036901820330507e-05   1.3183843164464408e-06   1.593235322817592e-05
-1.7036901820330507e-05   1.3183843164464408e-06   1.593235322817592e-05
-1.7036901820330507e-05   1.3183843164464408e-06   1.593235322817592e-05
-2.1558512768449533e-05   1.6245416346431524e-06   9.967989350391537e-06
-2.1558512768449533e-05   1.6245416346431524e-06   9.967989350391537e-06
-2.1558512768449533e-05   1.6245416346431524e-06   9.967989350391537e-06
-2.1558512768449533e-05   1.6245416346431524e-06   9.967989350391537e-06
-1.3354360811207363e-05   1.0297101985232474e-06   2.328467708412316e-05
-1.3354360811207363e-05   1.0297101985232474e-06   2.328467708412316e-05
-1.3354360811207363e-05   1.0297101985232474e-06   2.328467708412316e-05
-1.3354360811207363e-05   1.0297101985232474e-06   2.328467708412316e-05
-1.3214763490842237e-05   6.636374161637188e-07   1.1380290506565543e-05
-1.3214763490842237e-05   6.636374161637188e-07   1.1380290506565543e-05
-1.3214763490842237e-05   6.636374161637188e-07   1.1380290506565543e-05
-1.3214763490842237e-05   6.636374161637188e-07   1.1380290506565543e-05
-2.1796528018623202e-05   -7.127425239472651e-07   2.650905935026701e-05
-2.1796528018623202e-05   -7.127425239472651e-07   2.650905935026701e-05
-2.1796528018623202e-05   -7.127425239472651e-07   2.650905935026701e-05
-2.1796528018623202e-05   -7.127425239472651e-07   2.650905935026701e-05
-1.6779919044520923e-05   6.356763635345392e-07   1.733899306094076e-05
-1.6779919044520923e-05   6.356763635345392e-07   1.733899306094076e-05
-1.6779919044520923e-05   6.356763635345392e-07   1.733899306094076e-05
-1.6779919044520923e-05   6.356763635345392e-07   1.733899306094076e-05
-1.3176795642266766e-05   6.686076599614127e-07   1.7365111523014328e-05
-1.3176795642266766e-05   6.686076599614127e-07   1.7365111523014328e-05
-1.3176795642266766e-05   6.686076599614127e-07   1.7365111523014328e-05
-1.3176795642266766e-05   6.686076599614127e-07   1.7365111523014328e-05
-8.093500556449295e-06   -4.060581165205382e-06   2.2999756704276768e-05
-8.093500556449295e-06   -4.060581165205382e-06   2.2999756704276768e-05
-8.093500556449295e-06   -4.060581165205382e-06   2.2999756704276768e-05
-8.093500556449295e-06   -4.060581165205382e-06   2.2999756704276768e-05
-8.111863733440257e-06   3.192608307480945e-07   1.4567278736231468e-05
-8.111863733440257e-06   3.192608307480945e-07   1.4567278736231468e-05
-8.111863733440257e-06   3.192608307480945e-07   1.4567278736231468e-05
-8.111863733440257e-06   3.192608307480945e-07   1.4567278736231468e-05
-1.317168042020163e-05   -3.328221697204844e-06   2.518879606427234e-05
-1.317168042020163e-05   -3.328221697204844e-06   2.518879606427234e-05
-1.317168042020163e-05   -3.328221697204844e-06   2.518879606427234e-05
-1.317168042020163e-05   -3.328221697204844e-06   2.518879606427234e-05
-1.0582755953481423e-05   -2.0086312279976723e-06   2.008216767154775e-05
-1.0582755953481423e-05   -2.0086312279976723e-06   2.008216767154775e-05
-1.0582755953481423e-05   -2.0086312279976723e-06   2.008216767154775e-05
-1.0582755953481423e-05   -2.0086312279976723e-06   2.008216767154775e-05
-1.3171680420201644e-05   3.192608307480945e-07   1.675576825300307e-05
-1.3171680420201644e-05   3.192608307480945e-07   1.675576825300307e-05
-1.3171680420201644e-05   3.192608307480945e-07   1.675576825300307e-05
-1.3171680420201644e-05   3.192608307480945e-07   1.675576825300307e-05
-8.111863733440244e-06   -3.328221697204844e-06   2.3000306547500576e-05
-8.111863733440244e-06   -3.328221697204844e-06   2.3000306547500576e-05
-8.111863733440244e-06   -3.328221697204844e-06   2.3000306547500576e-05
-8.111863733440244e-06   -3.328221697204844e-06   2.3000306547500576e-05
-8.146544877848488e-06   -8.46353030774195e-08   1.5014151055257375e-05
-8.146544877848488e-06   -8.46353030774195e-08   1.5014151055257375e-05
-8.146544877848488e-06   -8.46353030774195e-08   1.5014151055257375e-05
-8.146544877848488e-06   -8.46353030774195e-08   1.5014151055257375e-05
-1.3354360811207363e-05   -3.4025856942092834e-06   2.5684614512201182e-05
-1.3354360811207363e-05   -3.4025856942092834e-06   2.5684614512201182e-05
-1.3354360811207363e-05   -3.4025856942092834e-06   2.5684614512201182e-05
-1.3354360811207363e-05   -3.4025856942092834e-06   2.5684614512201182e-05
-1.0507540247299851e-05   -1.755069350189856e-06   1.9951403765943544e-05
-1.0507540247299851e-05   -1.755069350189856e-06   1.9951403765943544e-05
-1.0507540247299851e-05   -1.755069350189856e-06   1.9951403765943544e-05
-1.0507540247299851e-05   -1.755069350189856e-06   1.9951403765943544e-05
-1.3354360811207383e-05   -8.46353030774195e-08   1.7004921289936526e-05
-1.3354360811207383e-05   -8.46353030774195e-08   1.7004921289936526e-05
-1.3354360811207383e-05   -8.46353030774195e-08   1.7004921289936526e-05
-1.3354360811207383e-05   -8.46353030774195e-08   1.7004921289936526e-05
-8.146544877848488e-06   -3.4025856942092834e-06   2.3693844277522004e-05
-8.146544877848488e-06   -3.4025856942092834e-06   2.3693844277522004e-05
-8.146544877848488e-06   -3.4025856942092834e-06   2.3693844277522004e-05
-8.146544877848488e-06   -3.4025856942092834e-06   2.3693844277522004e-05
-8.070405268787153e-06   -6.14652646761739e-07   1.557210453553262e-05
-8.070405268787153e-06   -6.14652646761739e-07   1.557210453553262e-05
-8.070405268787153e-06   -6.14652646761739e-07   1.557210453553262e-05
-8.070405268787153e-06   -6.14652646761739e-07   1.557210453553262e-05
-1.3214763490842203e-05   -3.430364818855856e-06   2.5835462208880733e-05
-1.3214763490842203e-05   -3.430364818855856e-06   2.5835462208880733e-05
-1.3214763490842203e-05   -3.430364818855856e-06   2.5835462208880733e-05
-1.3214763490842203e-05   -3.430364818855856e-06   2.5835462208880733e-05
-1.0559440795570297e-05   -1.9684975047755274e-06   2.053280399497937e-05
-1.0559440795570297e-05   -1.9684975047755274e-06   2.053280399497937e-05
-1.0559440795570297e-05   -1.9684975047755274e-06   2.053280399497937e-05
-1.0559440795570297e-05   -1.9684975047755274e-06   2.053280399497937e-05
-8.093500556449295e-06   1.8658409768244032e-07   1.6059850762851027e-05
-8.093500556449295e-06   1.8658409768244032e-07   1.6059850762851027e-05
-8.093500556449295e-06   1.8658409768244032e-07   1.6059850762851027e-05
-8.093500556449295e-06   1.8658409768244032e-07   1.6059850762851027e-05
-5.966350400056806e-06   -3.1724713584089723e-06   1.7589667749850352e-05
-5.966350400056806e-06   -3.1724713584089723e-06   1.7589667749850352e-05
-5.966350400056806e-06   -3.1724713584089723e-06   1.7589667749850352e-05
-5.966350400056806e-06   -3.1724713584089723e-06   1.7589667749850352e-05
-5.915463940522637e-06   -1.0777048372603241e-07   1.4174392845573824e-05
-5.915463940522637e-06   -1.0777048372603241e-07   1.4174392845573824e-05
-5.915463940522637e-06   -1.0777048372603241e-07   1.4174392845573824e-05
-5.915463940522637e-06   -1.0777048372603241e-07   1.4174392845573824e-05
-8.111863733440244e-06   -3.115752519934807e-06   1.963984838882865e-05
-8.111863733440244e-06   -3.115752519934807e-06   1.963984838882865e-05
-8.111863733440244e-06   -3.115752519934807e-06   1.963984838882865e-05
-8.111863733440244e-06   -3.115752519934807e-06   1.963984838882865e-05
-6.979013275274586e-06   -1.6025552718952661e-06   1.6843845943062237e-05
-6.979013275274586e-06   -1.6025552718952661e-06   1.6843845943062237e-05
-6.979013275274586e-06   -1.6025552718952661e-06   1.6843845943062237e-05
-6.979013275274586e-06   -1.6025552718952661e-06   1.6843845943062237e-05
-8.111863733440244e-06   -1.0777048372603241e-07   1.5979182067299175e-05
-8.111863733440244e-06   -1.0777048372603241e-07   1.5979182067299175e-05
-8.111863733440244e-06   -1.0777048372603241e-07   1.5979182067299175e-05
-8.111863733440244e-06   -1.0777048372603241e-07   1.5979182067299175e-05
-5.915463940522664e-06   -3.115752519934807e-06   1.783505916710338e-05
-5.915463940522664e-06   -3.115752519934807e-06   1.783505916710338e-05
-5.915463940522664e-06   -3.115752519934807e-06   1.783505916710338e-05
-5.915463940522664e-06   -3.115752519934807e-06   1.783505916710338e-05
-5.87263066786323e-06   -4.601949620030091e-07   1.4512115281600617e-05
-5.87263066786323e-06   -4.601949620030091e-07   1.4512115281600617e-05
-5.87263066786323e-06   -4.601949620030091e-07   1.4512115281600617e-05
-5.87263066786323e-06   -4.601949620030091e-07   1.4512115281600617e-05
-8.146544877848488e-06   -3.2102451183668116e-06   1.9952002392060862e-05
-8.146544877848488e-06   -3.2102451183668116e-06   1.9952002392060862e-05
-8.146544877848488e-06   -3.2102451183668116e-06   1.9952002392060862e-05
-8.146544877848488e-06   -3.2102451183668116e-06   1.9952002392060862e-05
-6.919847502198431e-06   -1.7076486510951734e-06   1.7005948885614075e-05
-6.919847502198431e-06   -1.7076486510951734e-06   1.7005948885614075e-05
-6.919847502198431e-06   -1.7076486510951734e-06   1.7005948885614075e-05
-6.919847502198431e-06   -1.7076486510951734e-06   1.7005948885614075e-05
-8.146544877848488e-06   -4.601949620031175e-07   1.616214537541891e-05
-8.146544877848488e-06   -4.601949620031175e-07   1.616214537541891e-05
-8.146544877848488e-06   -4.601949620031175e-07   1.616214537541891e-05
-8.146544877848488e-06   -4.601949620031175e-07   1.616214537541891e-05
-5.872630667863257e-06   -3.2102451183668116e-06   1.830197229824265e-05
-5.872630667863257e-06   -3.2102451183668116e-06   1.830197229824265e-05
-5.872630667863257e-06   -3.2102451183668116e-06   1.830197229824265e-05
-5.872630667863257e-06   -3.2102451183668116e-06   1.830197229824265e-05
-5.7608822634467336e-06   -8.136192119953794e-07   1.5035460557933636e-05
-5.7608822634467336e-06   -8.136192119953794e-07   1.5035460557933636e-05
-5.7608822634467336e-06   -8.136192119953794e-07   1.5035460557933636e-05
-5.7608822634467336e-06   -8.136192119953794e-07   1.5035460557933636e-05
-8.070405268787153e-06   -3.3430537054272564e-06   2.0402326262893206e-05
-8.070405268787153e-06   -3.3430537054272564e-06   2.0402326262893206e-05
-8.070405268787153e-06   -3.3430537054272564e-06   2.0402326262893206e-05
-8.070405268787153e-06   -3.3430537054272564e-06   2.0402326262893206e-05
-6.850864606731117e-06   -1.8615026680051218e-06   1.748082787034655e-05
-6.850864606731117e-06   -1.8615026680051218e-06   1.748082787034655e-05
-6.850864606731117e-06   -1.8615026680051218e-06   1.748082787034655e-05
-6.850864606731117e-06   -1.8615026680051218e-06   1.748082787034655e-05
-5.966350400056833e-06   8.541006357045246e-07   1.0940201469679508e-05
-5.966350400056833e-06   8.541006357045246e-07   1.0940201469679508e-05
-5.966350400056833e-06   8.541006357045246e-07   1.0940201469679508e-05
-5.966350400056833e-06   8.541006357045246e-07   1.0940201469679508e-05
-4.988524198954033e-06   -1.3029831937644764e-06   1.1275661507169344e-05
-4.988524198954033e-06   -1.3029831937644764e-06   1.1275661507169344e-05
-4.988524198954033e-06   -1.3029831937644764e-06   1.1275661507169344e-05
-4.988524198954033e-06   -1.3029831937644764e-06   1.1275661507169344e-05
-4.88416380348746e-06   4.660428459448557e-07   9.878485324997261e-06
-4.88416380348746e-06   4.660428459448557e-07   9.878485324997261e-06
-4.88416380348746e-06   4.660428459448557e-07   9.878485324997261e-06
-4.88416380348746e-06   4.660428459448557e-07   9.878485324997261e-06
-5.915463940522637e-06   -1.524132586805556e-06   1.2791424146372816e-05
-5.915463940522637e-06   -1.524132586805556e-06   1.2791424146372816e-05
-5.915463940522637e-06   -1.524132586805556e-06   1.2791424146372816e-05
-5.915463940522637e-06   -1.524132586805556e-06   1.2791424146372816e-05
-5.3990640009837055e-06   -2.9745032637830664e-07   1.1194748224218384e-05
-5.3990640009837055e-06   -2.9745032637830664e-07   1.1194748224218384e-05
-5.3990640009837055e-06   -2.9745032637830664e-07   1.1194748224218384e-05
-5.3990640009837055e-06   -2.9745032637830664e-07   1.1194748224218384e-05
-5.915463940522637e-06   4.660428459448557e-07   1.1072590584647421e-05
-5.915463940522637e-06   4.660428459448557e-07   1.1072590584647421e-05
-5.915463940522637e-06   4.660428459448557e-07   1.1072590584647421e-05
-5.915463940522637e-06   4.660428459448557e-07   1.1072590584647421e-05
-4.88416380348746e-06   -1.524132586805556e-06   1.1597318886722547e-05
-4.88416380348746e-06   -1.524132586805556e-06   1.1597318886722547e-05
-4.88416380348746e-06   -1.524132586805556e-06   1.1597318886722547e-05
-4.88416380348746e-06   -1.524132586805556e-06   1.1597318886722547e-05
-4.838777706943017e-06   1.3361936468565816e-07   1.0344760135822255e-05
-4.838777706943017e-06   1.3361936468565816e-07   1.0344760135822255e-05
-4.838777706943017e-06   1.3361936468565816e-07   1.0344760135822255e-05
-4.838777706943017e-06   1.3361936468565816e-07   1.0344760135822255e-05
-5.87263066786323e-06   -1.6936053900138749e-06   1.316418325684218e-05
-5.87263066786323e-06   -1.6936053900138749e-06   1.316418325684218e-05
-5.87263066786323e-06   -1.6936053900138749e-06   1.316418325684218e-05
-5.87263066786323e-06   -1.6936053900138749e-06   1.316418325684218e-05
-5.295486534889196e-06   -5.33456182160775e-07   1.1506186843839711e-05
-5.295486534889196e-06   -5.33456182160775e-07   1.1506186843839711e-05
-5.295486534889196e-06   -5.33456182160775e-07   1.1506186843839711e-05
-5.295486534889196e-06   -5.33456182160775e-07   1.1506186843839711e-05
-5.87263066786323e-06   1.3361936468565816e-07   1.144109498864179e-05
-5.87263066786323e-06   1.3361936468565816e-07   1.144109498864179e-05
-5.87263066786323e-06   1.3361936468565816e-07   1.144109498864179e-05
-5.87263066786323e-06   1.3361936468565816e-07   1.144109498864179e-05
-4.838777706943017e-06   -1.6936053900138749e-06   1.2067848404022401e-05
-4.838777706943017e-06   -1.6936053900138749e-06   1.2067848404022401e-05
-4.838777706943017e-06   -1.6936053900138749e-06   1.2067848404022401e-05
-4.838777706943017e-06   -1.6936053900138749e-06   1.2067848404022401e-05
-4.762038496848185e-06   -2.0157457074549464e-07   1.093030034416537e-05
-4.762038496848185e-06   -2.0157457074549464e-07   1.093030034416537e-05
-4.762038496848185e-06   -2.0157457074549464e-07   1.093030034416537e-05
-4.762038496848185e-06   -2.0157457074549464e-07   1.093030034416537e-05
-5.7608822634467336e-06   -1.9155869842166695e-06   1.3623447403245353e-05
-5.7608822634467336e-06   -1.9155869842166695e-06   1.3623447403245353e-05
-5.7608822634467336e-06   -1.9155869842166695e-06   1.3623447403245353e-05
-5.7608822634467336e-06   -1.9155869842166695e-06   1.3623447403245353e-05
-5.216205360257132e-06   -7.405543125894778e-07   1.2010632961620199e-05
-5.216205360257132e-06   -7.405543125894778e-07   1.2010632961620199e-05
-5.216205360257132e-06   -7.405543125894778e-07   1.2010632961620199e-05
-5.216205360257132e-06   -7.405543125894778e-07   1.2010632961620199e-05
-4.988524198954033e-06   1.4105169282137503e-06   2.5173385702694255e-06
-4.988524198954033e-06   1.4105169282137503e-06   2.5173385702694255e-06
-4.988524198954033e-06   1.4105169282137503e-06   2.5173385702694255e-06
-4.988524198954033e-06   1.4105169282137503e-06   2.5173385702694255e-06
-2.9068904518415504e-06   -1.4386687697447512e-07   5.054097865677255e-06
-2.9068904518415504e-06   -1.4386687697447512e-07   5.054097865677255e-06
-2.9068904518415504e-06   -1.4386687697447512e-07   5.054097865677255e-06
-2.9068904518415504e-06   -1.4386687697447512e-07   5.054097865677255e-06
-3.074188179504739e-06   1.1355340475500877e-06   2.54131633898951e-06
-3.074188179504739e-06   1.1355340475500877e-06   2.54131633898951e-06
-3.074188179504739e-06   1.1355340475500877e-06   2.54131633898951e-06
-3.074188179504739e-06   1.1355340475500877e-06   2.54131633898951e-06
-4.88416380348746e-06   -2.0139807348451512e-07   6.360101651581643e-06
-4.88416380348746e-06   -2.0139807348451512e-07   6.360101651581643e-06
-4.88416380348746e-06   -2.0139807348451512e-07   6.360101651581643e-06
-4.88416380348746e-06   -2.0139807348451512e-07   6.360101651581643e-06
-3.827082221938407e-06   7.255792748961484e-07   4.042112606638315e-06
-3.827082221938407e-06   7.255792748961484e-07   4.042112606638315e-06
-3.827082221938407e-06   7.255792748961484e-07   4.042112606638315e-06
-3.827082221938407e-06   7.255792748961484e-07   4.042112606638315e-06
-4.88416380348746e-06   1.135534047550196e-06   3.3434756116101525e-06
-4.88416380348746e-06   1.135534047550196e-06   3.3434756116101525e-06
-4.88416380348746e-06   1.135534047550196e-06   3.3434756116101525e-06
-4.88416380348746e-06   1.135534047550196e-06   3.3434756116101525e-06
-3.0741881795047932e-06   -2.0139807348456933e-07   5.557942378960838e-06
-3.0741881795047932e-06   -2.0139807348456933e-07   5.557942378960838e-06
-3.0741881795047932e-06   -2.0139807348456933e-07   5.557942378960838e-06
-3.0741881795047932e-06   -2.0139807348456933e-07   5.557942378960838e-06
-3.2118637746392513e-06   9.558187357439898e-07   3.2985962753005055e-06
-3.2118637746392513e-06   9.558187357439898e-07   3.2985962753005055e-06
-3.2118637746392513e-06   9.558187357439898e-07   3.2985962753005055e-06
-3.2118637746392513e-06   9.558187357439898e-07   3.2985962753005055e-06
-4.838777706943017e-06   -2.790104876118659e-07   6.75101702982009e-06
-4.838777706943017e-06   -2.790104876118659e-07   6.75101702982009e-06
-4.838777706943017e-06   -2.790104876118659e-07   6.75101702982009e-06
-4.838777706943017e-06   -2.790104876118659e-07   6.75101702982009e-06
-3.897456484155943e-06   5.90062208868339e-07   4.66070470728653e-06
-3.897456484155943e-06   5.90062208868339e-07   4.66070470728653e-06
-3.897456484155943e-06   5.90062208868339e-07   4.66070470728653e-06
-3.897456484155943e-06   5.90062208868339e-07   4.66070470728653e-06
-4.838777706943017e-06   9.558187357439898e-07   4.039493809313867e-06
-4.838777706943017e-06   9.558187357439898e-07   4.039493809313867e-06
-4.838777706943017e-06   9.558187357439898e-07   4.039493809313867e-06
-4.838777706943017e-06   9.558187357439898e-07   4.039493809313867e-06
-3.211863774639197e-06   -2.790104876118659e-07   6.010119495806674e-06
-3.211863774639197e-06   -2.790104876118659e-07   6.010119495806674e-06
-3.211863774639197e-06   -2.790104876118659e-07   6.010119495806674e-06
-3.211863774639197e-06   -2.790104876118659e-07   6.010119495806674e-06
-3.5458712822058146e-06   5.933246454394503e-07   4.652604772133477e-06
-3.5458712822058146e-06   5.933246454394503e-07   4.652604772133477e-06
-3.5458712822058146e-06   5.933246454394503e-07   4.652604772133477e-06
-3.5458712822058146e-06   5.933246454394503e-07   4.652604772133477e-06
-4.762038496848185e-06   -3.7410716592308803e-07   7.260009216688429e-06
-4.762038496848185e-06   -3.7410716592308803e-07   7.260009216688429e-06
-4.762038496848185e-06   -3.7410716592308803e-07   7.260009216688429e-06
-4.762038496848185e-06   -3.7410716592308803e-07   7.260009216688429e-06
-3.908786320087741e-06   4.978914527006308e-07   5.314723084246637e-06
-3.908786320087741e-06   4.978914527006308e-07   5.314723084246637e-06
-3.908786320087741e-06   4.978914527006308e-07   5.314723084246637e-06
-3.908786320087741e-06   4.978914527006308e-07   5.314723084246637e-06
-4.575478597352714e-05   3.572529743182777e-06   1.97126838392043e-05
-4.575478597352714e-05   3.572529743182777e-06   1.97126838392043e-05
-4.575478597352714e-05   3.572529743182777e-06   1.97126838392043e-05
-4.575478597352714e-05   3.572529743182777e-06   1.97126838392043e-05
-1.0744309144113213e-05   -2.2487462816203388e-05   6.242748301926253e-05
-1.0744309144113213e-05   -2.2487462816203388e-05   6.242748301926253e-05
-1.0744309144113213e-05   -2.2487462816203388e-05   6.242748301926253e-05
-1.0744309144113213e-05   -2.2487462816203388e-05   6.242748301926253e-05
-1.2619389288083244e-05   1.4390408351683606e-06   1.0810317331992958e-05
-1.2619389288083244e-05   1.4390408351683606e-06   1.0810317331992958e-05
-1.2619389288083244e-05   1.4390408351683606e-06   1.0810317331992958e-05
-1.2619389288083244e-05   1.4390408351683606e-06   1.0810317331992958e-05
-4.1729773494259196e-05   -1.7497886965737912e-05   7.068978102282988e-05
-4.1729773494259196e-05   -1.7497886965737912e-05   7.068978102282988e-05
-4.1729773494259196e-05   -1.7497886965737912e-05   7.068978102282988e-05
-4.1729773494259196e-05   -1.7497886965737912e-05   7.068978102282988e-05
-2.781995285536876e-05   -8.710450065268382e-06   4.2234284484397407e-05
-2.781995285536876e-05   -8.710450065268382e-06   4.2234284484397407e-05
-2.781995285536876e-05   -8.710450065268382e-06   4.2234284484397407e-05
-2.781995285536876e-05   -8.710450065268382e-06   4.2234284484397407e-05
-4.172977349425913e-05   1.4390408351683606e-06   2.2172474012536678e-05
-4.172977349425913e-05   1.4390408351683606e-06   2.2172474012536678e-05
-4.172977349425913e-05   1.4390408351683606e-06   2.2172474012536678e-05
-4.172977349425913e-05   1.4390408351683606e-06   2.2172474012536678e-05
-1.2619389288083271e-05   -1.7497886965737912e-05   5.932762434228611e-05
-1.2619389288083271e-05   -1.7497886965737912e-05   5.932762434228611e-05
-1.2619389288083271e-05   -1.7497886965737912e-05   5.932762434228611e-05
-1.2619389288083271e-05   -1.7497886965737912e-05   5.932762434228611e-05
-1.2908894320397122e-05   1.0297101985232474e-06   1.1880013393152094e-05
-1.2908894320397122e-05   1.0297101985232474e-06   1.1880013393152094e-05
-1.2908894320397122e-05   1.0297101985232474e-06   1.1880013393152094e-05
-1.2908894320397122e-05   1.0297101985232474e-06   1.1880013393152094e-05
-3.9374112868830004e-05   -1.5096237358579808e-05   6.566427950813532e-05
-3.9374112868830004e-05   -1.5096237358579808e-05   6.566427950813532e-05
-3.9374112868830004e-05   -1.5096237358579808e-05   6.566427950813532e-05
-3.9374112868830004e-05   -1.5096237358579808e-05   6.566427950813532e-05
-2.6991139133333035e-05   -8.254327149294382e-06   4.092084382340249e-05
-2.6991139133333035e-05   -8.254327149294382e-06   4.092084382340249e-05
-2.6991139133333035e-05   -8.254327149294382e-06   4.092084382340249e-05
-2.6991139133333035e-05   -8.254327149294382e-06   4.092084382340249e-05
-3.9374112868829937e-05   1.0297101985232474e-06   2.1555581927413923e-05
-3.9374112868829937e-05   1.0297101985232474e-06   2.1555581927413923e-05
-3.9374112868829937e-05   1.0297101985232474e-06   2.1555581927413923e-05
-3.9374112868829937e-05   1.0297101985232474e-06   2.1555581927413923e-05
-1.2908894320397142e-05   -1.5096237358579808e-05   5.598871097387348e-05
-1.2908894320397142e-05   -1.5096237358579808e-05   5.598871097387348e-05
-1.2908894320397142e-05   -1.5096237358579808e-05   5.598871097387348e-05
-1.2908894320397142e-05   -1.5096237358579808e-05   5.598871097387348e-05
-1.414873794569364e-05   -7.127425239473193e-07   1.4872662738981494e-05
-1.414873794569364e-05   -7.127425239473193e-07   1.4872662738981494e-05
-1.414873794569364e-05   -7.127425239473193e-07   1.4872662738981494e-05
-1.414873794569364e-05   -7.127425239473193e-07   1.4872662738981494e-05
-3.635314439819464e-05   -1.1905192417764765e-05   5.859547676277351e-05
-3.635314439819464e-05   -1.1905192417764765e-05   5.859547676277351e-05
-3.635314439819464e-05   -1.1905192417764765e-05   5.859547676277351e-05
-3.635314439819464e-05   -1.1905192417764765e-05   5.859547676277351e-05
-2.59659000368674e-05   -7.6204081819456935e-06   3.871253228573672e-05
-2.59659000368674e-05   -7.6204081819456935e-06   3.871253228573672e-05
-2.59659000368674e-05   -7.6204081819456935e-06   3.871253228573672e-05
-2.59659000368674e-05   -7.6204081819456935e-06   3.871253228573672e-05
-1.0744309144113192e-05   -4.060581165205382e-06   1.120970236352908e-05
-1.0744309144113192e-05   -4.060581165205382e-06   1.120970236352908e-05
-1.0744309144113192e-05   -4.060581165205382e-06   1.120970236352908e-05
-1.0744309144113192e-05   -4.060581165205382e-06   1.120970236352908e-05
-3.7391317412257023e-06   -7.006773540024353e-06   2.1117282610116903e-05
-3.7391317412257023e-06   -7.006773540024353e-06   2.1117282610116903e-05
-3.7391317412257023e-06   -7.006773540024353e-06   2.1117282610116903e-05
-3.7391317412257023e-06   -7.006773540024353e-06   2.1117282610116903e-05
-4.1818817297809235e-06   -3.3282216972047897e-06   9.984349850228178e-06
-4.1818817297809235e-06   -3.3282216972047897e-06   9.984349850228178e-06
-4.1818817297809235e-06   -3.3282216972047897e-06   9.984349850228178e-06
-4.1818817297809235e-06   -3.3282216972047897e-06   9.984349850228178e-06
-1.2619389288083271e-05   -9.27485626344941e-06   2.7614843187145414e-05
-1.2619389288083271e-05   -9.27485626344941e-06   2.7614843187145414e-05
-1.2619389288083271e-05   -9.27485626344941e-06   2.7614843187145414e-05
-1.2619389288083271e-05   -9.27485626344941e-06   2.7614843187145414e-05
-7.413260902103004e-06   -4.853957789078276e-06   1.6285423459222275e-05
-7.413260902103004e-06   -4.853957789078276e-06   1.6285423459222275e-05
-7.413260902103004e-06   -4.853957789078276e-06   1.6285423459222275e-05
-7.413260902103004e-06   -4.853957789078276e-06   1.6285423459222275e-05
-1.2619389288083237e-05   -3.3282216972047897e-06   1.355233058997481e-05
-1.2619389288083237e-05   -3.3282216972047897e-06   1.355233058997481e-05
-1.2619389288083237e-05   -3.3282216972047897e-06   1.355233058997481e-05
-1.2619389288083237e-05   -3.3282216972047897e-06   1.355233058997481e-05
-4.181881729780951e-06   -9.27485626344941e-06   2.4046862447398687e-05
-4.181881729780951e-06   -9.27485626344941e-06   2.4046862447398687e-05
-4.181881729780951e-06   -9.27485626344941e-06   2.4046862447398687e-05
-4.181881729780951e-06   -9.27485626344941e-06   2.4046862447398687e-05
-4.56158356405324e-06   -3.4025856942092834e-06   1.1227021877033245e-05
-4.56158356405324e-06   -3.4025856942092834e-06   1.1227021877033245e-05
-4.56158356405324e-06   -3.4025856942092834e-06   1.1227021877033245e-05
-4.56158356405324e-06   -3.4025856942092834e-06   1.1227021877033245e-05
-1.2908894320397142e-05   -8.49080060120419e-06   2.8192135415136587e-05
-1.2908894320397142e-05   -8.49080060120419e-06   2.8192135415136587e-05
-1.2908894320397142e-05   -8.49080060120419e-06   2.8192135415136587e-05
-1.2908894320397142e-05   -8.49080060120419e-06   2.8192135415136587e-05
-8.364914401044273e-06   -5.9297499148915544e-06   1.9082205137761017e-05
-8.364914401044273e-06   -5.9297499148915544e-06   1.9082205137761017e-05
-8.364914401044273e-06   -5.9297499148915544e-06   1.9082205137761017e-05
-8.364914401044273e-06   -5.9297499148915544e-06   1.9082205137761017e-05
-1.2908894320397122e-05   -3.4025856942092834e-06   1.4279950821230171e-05
-1.2908894320397122e-05   -3.4025856942092834e-06   1.4279950821230171e-05
-1.2908894320397122e-05   -3.4025856942092834e-06   1.4279950821230171e-05
-1.2908894320397122e-05   -3.4025856942092834e-06   1.4279950821230171e-05
-4.561583564053267e-06   -8.49080060120419e-06   2.5139206470939674e-05
-4.561583564053267e-06   -8.49080060120419e-06   2.5139206470939674e-05
-4.561583564053267e-06   -8.49080060120419e-06   2.5139206470939674e-05
-4.561583564053267e-06   -8.49080060120419e-06   2.5139206470939674e-05
-5.1800512502761325e-06   -3.430364818855856e-06   1.2285876566609346e-05
-5.1800512502761325e-06   -3.430364818855856e-06   1.2285876566609346e-05
-5.1800512502761325e-06   -3.430364818855856e-06   1.2285876566609346e-05
-5.1800512502761325e-06   -3.430364818855856e-06   1.2285876566609346e-05
-1.4148737945693654e-05   -7.995393143943396e-06   2.997270472069096e-05
-1.4148737945693654e-05   -7.995393143943396e-06   2.997270472069096e-05
-1.4148737945693654e-05   -7.995393143943396e-06   2.997270472069096e-05
-1.4148737945693654e-05   -7.995393143943396e-06   2.997270472069096e-05
-8.923259396561552e-06   -5.414907659758496e-06   1.971528251495987e-05
-8.923259396561552e-06   -5.414907659758496e-06   1.971528251495987e-05
-8.923259396561552e-06   -5.414907659758496e-06   1.971528251495987e-05
-8.923259396561552e-06   -5.414907659758496e-06   1.971528251495987e-05
-3.7391317412257023e-06   -3.1724713584089723e-06   6.0473312578660724e-06
-3.7391317412257023e-06   -3.1724713584089723e-06   6.0473312578660724e-06
-3.7391317412257023e-06   -3.1724713584089723e-06   6.0473312578660724e-06
-3.7391317412257023e-06   -3.1724713584089723e-06   6.0473312578660724e-06
-2.0883549869083287e-06   -1.9777566454819314e-06   9.515454676151282e-06
-2.0883549869083287e-06   -1.9777566454819314e-06   9.515454676151282e-06
-2.0883549869083287e-06   -1.9777566454819314e-06   9.515454676151282e-06
-2.0883549869083287e-06   -1.9777566454819314e-06   9.515454676151282e-06
-2.0098941816305957e-06   -3.1157525199347526e-06   6.944040712606185e-06
-2.0098941816305957e-06   -3.1157525199347526e-06   6.944040712606185e-06
-2.0098941816305957e-06   -3.1157525199347526e-06   6.944040712606185e-06
-2.0098941816305957e-06   -3.1157525199347526e-06   6.944040712606185e-06
-4.181881729780951e-06   -2.582170818185016e-06   1.0243870938473444e-05
-4.181881729780951e-06   -2.582170818185016e-06   1.0243870938473444e-05
-4.181881729780951e-06   -2.582170818185016e-06   1.0243870938473444e-05
-4.181881729780951e-06   -2.582170818185016e-06   1.0243870938473444e-05
-2.814419169954176e-06   -2.563781258760724e-06   7.953732936440811e-06
-2.814419169954176e-06   -2.563781258760724e-06   7.953732936440811e-06
-2.814419169954176e-06   -2.563781258760724e-06   7.953732936440811e-06
-2.814419169954176e-06   -2.563781258760724e-06   7.953732936440811e-06
-4.1818817297809235e-06   -3.1157525199347526e-06   6.623891691556294e-06
-4.1818817297809235e-06   -3.1157525199347526e-06   6.623891691556294e-06
-4.1818817297809235e-06   -3.1157525199347526e-06   6.623891691556294e-06
-4.1818817297809235e-06   -3.1157525199347526e-06   6.623891691556294e-06
-2.0098941816305957e-06   -2.582170818185016e-06   1.0564019959523308e-05
-2.0098941816305957e-06   -2.582170818185016e-06   1.0564019959523308e-05
-2.0098941816305957e-06   -2.582170818185016e-06   1.0564019959523308e-05
-2.0098941816305957e-06   -2.582170818185016e-06   1.0564019959523308e-05
-2.0162141079548652e-06   -3.2102451183668116e-06   7.42643813885955e-06
-2.0162141079548652e-06   -3.2102451183668116e-06   7.42643813885955e-06
-2.0162141079548652e-06   -3.2102451183668116e-06   7.42643813885955e-06
-2.0162141079548652e-06   -3.2102451183668116e-06   7.42643813885955e-06
-4.561583564053267e-06   -3.308148206221153e-06   1.1727462418402646e-05
-4.561583564053267e-06   -3.308148206221153e-06   1.1727462418402646e-05
-4.561583564053267e-06   -3.308148206221153e-06   1.1727462418402646e-05
-4.561583564053267e-06   -3.308148206221153e-06   1.1727462418402646e-05
-2.9878910118807494e-06   -2.802979299140171e-06   8.80154015386658e-06
-2.9878910118807494e-06   -2.802979299140171e-06   8.80154015386658e-06
-2.9878910118807494e-06   -2.802979299140171e-06   8.80154015386658e-06
-2.9878910118807494e-06   -2.802979299140171e-06   8.80154015386658e-06
-4.56158356405324e-06   -3.210245118366866e-06   7.485179991572076e-06
-4.56158356405324e-06   -3.210245118366866e-06   7.485179991572076e-06
-4.56158356405324e-06   -3.210245118366866e-06   7.485179991572076e-06
-4.56158356405324e-06   -3.210245118366866e-06   7.485179991572076e-06
-2.0162141079548652e-06   -3.308148206221153e-06   1.1668720565690066e-05
-2.0162141079548652e-06   -3.308148206221153e-06   1.1668720565690066e-05
-2.0162141079548652e-06   -3.308148206221153e-06   1.1668720565690066e-05
-2.0162141079548652e-06   -3.308148206221153e-06   1.1668720565690066e-05
-2.0521590249520066e-06   -3.3430537054272022e-06   8.14940865740565e-06
-2.0521590249520066e-06   -3.3430537054272022e-06   8.14940865740565e-06
-2.0521590249520066e-06   -3.3430537054272022e-06   8.14940865740565e-06
-2.0521590249520066e-06   -3.3430537054272022e-06   8.14940865740565e-06
-5.1800512502761596e-06   -3.997652482881502e-06   1.3755321632751661e-05
-5.1800512502761596e-06   -3.997652482881502e-06   1.3755321632751661e-05
-5.1800512502761596e-06   -3.997652482881502e-06   1.3755321632751661e-05
-5.1800512502761596e-06   -3.997652482881502e-06   1.3755321632751661e-05
-3.1862179329085287e-06   -3.0582737503526375e-06   9.86863886428841e-06
-3.1862179329085287e-06   -3.0582737503526375e-06   9.86863886428841e-06
-3.1862179329085287e-06   -3.0582737503526375e-06   9.86863886428841e-06
-3.1862179329085287e-06   -3.0582737503526375e-06   9.86863886428841e-06
-2.0883549869083287e-06   -1.3029831937645306e-06   1.7444041406227708e-06
-2.0883549869083287e-06   -1.3029831937645306e-06   1.7444041406227708e-06
-2.0883549869083287e-06   -1.3029831937645306e-06   1.7444041406227708e-06
-2.0883549869083287e-06   -1.3029831937645306e-06   1.7444041406227708e-06
-1.5563209119821516e-06   3.1726697443286027e-07   3.6032776997515126e-06
-1.5563209119821516e-06   3.1726697443286027e-07   3.6032776997515126e-06
-1.5563209119821516e-06   3.1726697443286027e-07   3.6032776997515126e-06
-1.5563209119821516e-06   3.1726697443286027e-07   3.6032776997515126e-06
-1.2618860263771724e-06   -1.5241325868056103e-06   2.8741665683452034e-06
-1.2618860263771724e-06   -1.5241325868056103e-06   2.8741665683452034e-06
-1.2618860263771724e-06   -1.5241325868056103e-06   2.8741665683452034e-06
-1.2618860263771724e-06   -1.5241325868056103e-06   2.8741665683452034e-06
-2.0098941816305957e-06   9.880220731050944e-08   3.1470859506312174e-06
-2.0098941816305957e-06   9.880220731050944e-08   3.1470859506312174e-06
-2.0098941816305957e-06   9.880220731050944e-08   3.1470859506312174e-06
-2.0098941816305957e-06   9.880220731050944e-08   3.1470859506312174e-06
-1.6221904378880669e-06   -6.191171692793401e-07   2.9316646703474235e-06
-1.6221904378880669e-06   -6.191171692793401e-07   2.9316646703474235e-06
-1.6221904378880669e-06   -6.191171692793401e-07   2.9316646703474235e-06
-1.6221904378880669e-06   -6.191171692793401e-07   2.9316646703474235e-06
-2.0098941816305957e-06   -1.5241325868056103e-06   1.9004056918755661e-06
-2.0098941816305957e-06   -1.5241325868056103e-06   1.9004056918755661e-06
-2.0098941816305957e-06   -1.5241325868056103e-06   1.9004056918755661e-06
-2.0098941816305957e-06   -1.5241325868056103e-06   1.9004056918755661e-06
-1.2618860263771724e-06   9.880220731050944e-08   4.120846827100882e-06
-1.2618860263771724e-06   9.880220731050944e-08   4.120846827100882e-06
-1.2618860263771724e-06   9.880220731050944e-08   4.120846827100882e-06
-1.2618860263771724e-06   9.880220731050944e-08   4.120846827100882e-06
-1.1014484064616895e-06   -1.6936053900138749e-06   3.1576808728815643e-06
-1.1014484064616895e-06   -1.6936053900138749e-06   3.1576808728815643e-06
-1.1014484064616895e-06   -1.6936053900138749e-06   3.1576808728815643e-06
-1.1014484064616895e-06   -1.6936053900138749e-06   3.1576808728815643e-06
-2.0162141079548652e-06   -2.452190976429606e-07   3.81325859994758e-06
-2.0162141079548652e-06   -2.452190976429606e-07   3.81325859994758e-06
-2.0162141079548652e-06   -2.452190976429606e-07   3.81325859994758e-06
-2.0162141079548652e-06   -2.452190976429606e-07   3.81325859994758e-06
-1.472760593259953e-06   -7.914471730885019e-07   3.2352395873900533e-06
-1.472760593259953e-06   -7.914471730885019e-07   3.2352395873900533e-06
-1.472760593259953e-06   -7.914471730885019e-07   3.2352395873900533e-06
-1.472760593259953e-06   -7.914471730885019e-07   3.2352395873900533e-06
-2.0162141079548652e-06   -1.6936053900138749e-06   2.2886490974589446e-06
-2.0162141079548652e-06   -1.6936053900138749e-06   2.2886490974589446e-06
-2.0162141079548652e-06   -1.6936053900138749e-06   2.2886490974589446e-06
-2.0162141079548652e-06   -1.6936053900138749e-06   2.2886490974589446e-06
-1.1014484064616895e-06   -2.452190976429606e-07   4.682290375370064e-06
-1.1014484064616895e-06   -2.452190976429606e-07   4.682290375370064e-06
-1.1014484064616895e-06   -2.452190976429606e-07   4.682290375370064e-06
-1.1014484064616895e-06   -2.452190976429606e-07   4.682290375370064e-06
-8.555187765160125e-07   -1.9155869842167237e-06   3.4681945256002326e-06
-8.555187765160125e-07   -1.9155869842167237e-06   3.4681945256002326e-06
-8.555187765160125e-07   -1.9155869842167237e-06   3.4681945256002326e-06
-8.555187765160125e-07   -1.9155869842167237e-06   3.4681945256002326e-06
-2.0521590249520066e-06   -9.489135979113511e-07   4.882590907876773e-06
-2.0521590249520066e-06   -9.489135979113511e-07   4.882590907876773e-06
-2.0521590249520066e-06   -9.489135979113511e-07   4.882590907876773e-06
-2.0521590249520066e-06   -9.489135979113511e-07   4.882590907876773e-06
-1.3522418172976956e-06   -1.0539322884910813e-06   3.7790734428011356e-06
-1.3522418172976956e-06   -1.0539322884910813e-06   3.7790734428011356e-06
-1.3522418172976956e-06   -1.0539322884910813e-06   3.7790734428011356e-06
-1.3522418172976956e-06   -1.0539322884910813e-06   3.7790734428011356e-06
-1.5563209119821516e-06   -1.438668769744209e-07   -2.572379116837968e-06
-1.5563209119821516e-06   -1.438668769744209e-07   -2.572379116837968e-06
-1.5563209119821516e-06   -1.438668769744209e-07   -2.572379116837968e-06
-1.5563209119821516e-06   -1.438668769744209e-07   -2.572379116837968e-06
-2.953170984289861e-07   2.2050376914115662e-07   -2.520837065799809e-07
-2.953170984289861e-07   2.2050376914115662e-07   -2.520837065799809e-07
-2.953170984289861e-07   2.2050376914115662e-07   -2.520837065799809e-07
-2.953170984289861e-07   2.2050376914115662e-07   -2.520837065799809e-07
-6.403705287447246e-09   -2.0139807348456933e-07   -2.013879749928867e-06
-6.403705287447246e-09   -2.0139807348456933e-07   -2.013879749928867e-06
-6.403705287447246e-09   -2.0139807348456933e-07   -2.013879749928867e-06
-6.403705287447246e-09   -2.0139807348456933e-07   -2.013879749928867e-06
-1.2618860263771724e-06   3.8055345462672236e-07   -2.705801316461951e-07
-1.2618860263771724e-06   3.8055345462672236e-07   -2.705801316461951e-07
-1.2618860263771724e-06   3.8055345462672236e-07   -2.705801316461951e-07
-1.2618860263771724e-06   3.8055345462672236e-07   -2.705801316461951e-07
-7.129174029086747e-07   1.0265892573315684e-07   -1.018791120091186e-06
-7.129174029086747e-07   1.0265892573315684e-07   -1.018791120091186e-06
-7.129174029086747e-07   1.0265892573315684e-07   -1.018791120091186e-06
-7.129174029086747e-07   1.0265892573315684e-07   -1.018791120091186e-06
-1.2618860263771724e-06   -2.0139807348451512e-07   -2.363050666795701e-06
-1.2618860263771724e-06   -2.0139807348451512e-07   -2.363050666795701e-06
-1.2618860263771724e-06   -2.0139807348451512e-07   -2.363050666795701e-06
-1.2618860263771724e-06   -2.0139807348451512e-07   -2.363050666795701e-06
-6.4037052873930356e-09   3.8055345462672236e-07   7.859078522053043e-08
-6.4037052873930356e-09   3.8055345462672236e-07   7.859078522053043e-08
-6.4037052873930356e-09   3.8055345462672236e-07   7.859078522053043e-08
-6.4037052873930356e-09   3.8055345462672236e-07   7.859078522053043e-08
1.4375199177925953e-07   -2.790104876118659e-07   -1.7978589533406341e-06
1.4375199177925953e-07   -2.790104876118659e-07   -1.7978589533406341e-06
1.4375199177925953e-07   -2.790104876118659e-07   -1.7978589533406341e-06
1.4375199177925953e-07   -2.790104876118659e-07   -1.7978589533406341e-06
-1.1014484064616895e-06   3.2314209235483326e-07   -8.381650425256203e-08
-1.1014484064616895e-06   3.2314209235483326e-07   -8.381650425256203e-08
-1.1014484064616895e-06   3.2314209235483326e-07   -8.381650425256203e-08
-1.1014484064616895e-06   3.2314209235483326e-07   -8.381650425256203e-08
-5.000405582309938e-07   6.68264276983111e-08   -9.323735191759134e-07
-5.000405582309938e-07   6.68264276983111e-08   -9.323735191759134e-07
-5.000405582309938e-07   6.68264276983111e-08   -9.323735191759134e-07
-5.000405582309938e-07   6.68264276983111e-08   -9.323735191759134e-07
-1.1014484064616895e-06   -2.790104876118659e-07   -2.159150501320747e-06
-1.1014484064616895e-06   -2.790104876118659e-07   -2.159150501320747e-06
-1.1014484064616895e-06   -2.790104876118659e-07   -2.159150501320747e-06
-1.1014484064616895e-06   -2.790104876118659e-07   -2.159150501320747e-06
1.4375199177925953e-07   3.2314209235483326e-07   2.774750437274697e-07
1.4375199177925953e-07   3.2314209235483326e-07   2.774750437274697e-07
1.4375199177925953e-07   3.2314209235483326e-07   2.774750437274697e-07
1.4375199177925953e-07   3.2314209235483326e-07   2.774750437274697e-07
3.2982189643483836e-07   -3.7410716592308803e-07   -1.4791993306449572e-06
3.2982189643483836e-07   -3.7410716592308803e-07   -1.4791993306449572e-06
3.2982189643483836e-07   -3.7410716592308803e-07   -1.4791993306449572e-06
3.2982189643483836e-07   -3.7410716592308803e-07   -1.4791993306449572e-06
-8.555187765160125e-07   2.7195430445879406e-07   1.0873157537706624e-07
-8.555187765160125e-07   2.7195430445879406e-07   1.0873157537706624e-07
-8.555187765160125e-07   2.7195430445879406e-07   1.0873157537706624e-07
-8.555187765160125e-07   2.7195430445879406e-07   1.0873157537706624e-07
-3.076484393574482e-07   2.2942660862231663e-08   -6.549786670626435e-07
-3.076484393574482e-07   2.2942660862231663e-08   -6.549786670626435e-07
-3.076484393574482e-07   2.2942660862231663e-08   -6.549786670626435e-07
-3.076484393574482e-07   2.2942660862231663e-08   -6.549786670626435e-07
              </DataArray>   
             <DataArray type="Float64" NumberOfComponents="3" Name="Stress" format="ascii">   
-2.3771219531900556   -0.5942804882975139   -0.5942804882975139
-2.3771219531900556   -0.5942804882975139   -0.5942804882975139
-2.3771219531900556   -0.5942804882975139   -0.5942804882975139
-2.3771219531900556   -0.5942804882975139   -0.5942804882975139
-1.375501409142281   -0.043826767825675184   -0.027675237861823715
-1.375501409142281   -0.043826767825675184   -0.027675237861823715
-1.375501409142281   -0.043826767825675184   -0.027675237861823715
-1.375501409142281   -0.043826767825675184   -0.027675237861823715
-1.4824257224739166   -0.37060643061847914   -0.37060643061847914
-1.4824257224739166   -0.37060643061847914   -0.37060643061847914
-1.4824257224739166   -0.37060643061847914   -0.37060643061847914
-1.4824257224739166   -0.37060643061847914   -0.37060643061847914
-2.2909561359525528   -0.18833190986601378   -0.07208508265233513
-2.2909561359525528   -0.18833190986601378   -0.07208508265233513
-2.2909561359525528   -0.18833190986601378   -0.07208508265233513
-2.2909561359525528   -0.18833190986601378   -0.07208508265233513
-1.7967270972932612   -0.29467838418508974   -0.004974832037294066
-1.7967270972932612   -0.29467838418508974   -0.004974832037294066
-1.7967270972932612   -0.29467838418508974   -0.004974832037294066
-1.7967270972932612   -0.29467838418508974   -0.004974832037294066
-2.4876363749432078   -0.6219090937358019   -0.6219090937358019
-2.4876363749432078   -0.6219090937358019   -0.6219090937358019
-2.4876363749432078   -0.6219090937358019   -0.6219090937358019
-2.4876363749432078   -0.6219090937358019   -0.6219090937358019
-1.3324086234541155   0.016307613280459154   -0.007434979418411633
-1.3324086234541155   0.016307613280459154   -0.007434979418411633
-1.3324086234541155   0.016307613280459154   -0.007434979418411633
-1.3324086234541155   0.016307613280459154   -0.007434979418411633
-1.4864890328713396   -0.3716222582178349   -0.3716222582178349
-1.4864890328713396   -0.3716222582178349   -0.3716222582178349
-1.4864890328713396   -0.3716222582178349   -0.3716222582178349
-1.4864890328713396   -0.3716222582178349   -0.3716222582178349
-2.3678189509279015   -0.19010149378544272   -0.10561271011258969
-2.3678189509279015   -0.19010149378544272   -0.10561271011258969
-2.3678189509279015   -0.19010149378544272   -0.10561271011258969
-2.3678189509279015   -0.19010149378544272   -0.10561271011258969
-1.8636149619069315   -0.2774018849011687   -0.09889075705077341
-1.8636149619069315   -0.2774018849011687   -0.09889075705077341
-1.8636149619069315   -0.2774018849011687   -0.09889075705077341
-1.8636149619069315   -0.2774018849011687   -0.09889075705077341
-2.565195677942554   -0.6412989194856386   -0.6412989194856386
-2.565195677942554   -0.6412989194856386   -0.6412989194856386
-2.565195677942554   -0.6412989194856386   -0.6412989194856386
-2.565195677942554   -0.6412989194856386   -0.6412989194856386
-1.3284265101179658   0.040260963221085466   0.006807134110113425
-1.3284265101179658   0.040260963221085466   0.006807134110113425
-1.3284265101179658   0.040260963221085466   0.006807134110113425
-1.3284265101179658   0.040260963221085466   0.006807134110113425
-1.4855753673111245   -0.3713938418277811   -0.3713938418277811
-1.4855753673111245   -0.3713938418277811   -0.3713938418277811
-1.4855753673111245   -0.3713938418277811   -0.3713938418277811
-1.4855753673111245   -0.3713938418277811   -0.3713938418277811
-2.5051728385536967   -0.16665523203848065   -0.06342568805086823
-2.5051728385536967   -0.16665523203848065   -0.06342568805086823
-2.5051728385536967   -0.16665523203848065   -0.06342568805086823
-2.5051728385536967   -0.16665523203848065   -0.06342568805086823
-1.9131972839600362   -0.2730492965233048   -0.17870227145611683
-1.9131972839600362   -0.2730492965233048   -0.17870227145611683
-1.9131972839600362   -0.2730492965233048   -0.17870227145611683
-1.9131972839600362   -0.2730492965233048   -0.17870227145611683
-1.5124455644497594   -0.37811139111243985   -0.37811139111243985
-1.5124455644497594   -0.37811139111243985   -0.37811139111243985
-1.5124455644497594   -0.37811139111243985   -0.37811139111243985
-1.5124455644497594   -0.37811139111243985   -0.37811139111243985
-0.6311901986610918   -0.04216141828685864   -0.0136871745305291
-0.6311901986610918   -0.04216141828685864   -0.0136871745305291
-0.6311901986610918   -0.04216141828685864   -0.0136871745305291
-0.6311901986610918   -0.04216141828685864   -0.0136871745305291
-0.6624710583305222   -0.16561776458263056   -0.16561776458263056
-0.6624710583305222   -0.16561776458263056   -0.16561776458263056
-0.6624710583305222   -0.16561776458263056   -0.16561776458263056
-0.6624710583305222   -0.16561776458263056   -0.16561776458263056
-1.3769113827078558   -0.16204106949737612   -0.05160009290927854
-1.3769113827078558   -0.16204106949737612   -0.05160009290927854
-1.3769113827078558   -0.16204106949737612   -0.05160009290927854
-1.3769113827078558   -0.16204106949737612   -0.05160009290927854
-1.0156196705867089   -0.19245232562204279   0.007916373944124377
-1.0156196705867089   -0.19245232562204279   0.007916373944124377
-1.0156196705867089   -0.19245232562204279   0.007916373944124377
-1.0156196705867089   -0.19245232562204279   0.007916373944124377
-1.4824257224739155   -0.37060643061847887   -0.37060643061847887
-1.4824257224739155   -0.37060643061847887   -0.37060643061847887
-1.4824257224739155   -0.37060643061847887   -0.37060643061847887
-1.4824257224739155   -0.37060643061847887   -0.37060643061847887
-0.5954017903741661   0.004502524728767943   -0.00039171411224810104
-0.5954017903741661   0.004502524728767943   -0.00039171411224810104
-0.5954017903741661   0.004502524728767943   -0.00039171411224810104
-0.5954017903741661   0.004502524728767943   -0.00039171411224810104
-0.6475732239254167   -0.16189330598135418   -0.16189330598135418
-0.6475732239254167   -0.16189330598135418   -0.16189330598135418
-0.6475732239254167   -0.16189330598135418   -0.16189330598135418
-0.6475732239254167   -0.16189330598135418   -0.16189330598135418
-1.373334866952049   -0.13215994672093878   -0.045313740118277934
-1.373334866952049   -0.13215994672093878   -0.045313740118277934
-1.373334866952049   -0.13215994672093878   -0.045313740118277934
-1.373334866952049   -0.13215994672093878   -0.045313740118277934
-1.001367355633592   -0.16199610130929923   -0.05234304746017155
-1.001367355633592   -0.16199610130929923   -0.05234304746017155
-1.001367355633592   -0.16199610130929923   -0.05234304746017155
-1.001367355633592   -0.16199610130929923   -0.05234304746017155
-1.4864890328713396   -0.3716222582178349   -0.3716222582178349
-1.4864890328713396   -0.3716222582178349   -0.3716222582178349
-1.4864890328713396   -0.3716222582178349   -0.3716222582178349
-1.4864890328713396   -0.3716222582178349   -0.3716222582178349
-0.5716553889221393   0.04033267459952877   0.015469888454150177
-0.5716553889221393   0.04033267459952877   0.015469888454150177
-0.5716553889221393   0.04033267459952877   0.015469888454150177
-0.5716553889221393   0.04033267459952877   0.015469888454150177
-0.6339881862043188   -0.1584970465510797   -0.1584970465510797
-0.6339881862043188   -0.1584970465510797   -0.1584970465510797
-0.6339881862043188   -0.1584970465510797   -0.1584970465510797
-0.6339881862043188   -0.1584970465510797   -0.1584970465510797
-1.3631213598300427   -0.10194468147804184   -0.028572964772128083
-1.3631213598300427   -0.10194468147804184   -0.028572964772128083
-1.3631213598300427   -0.10194468147804184   -0.028572964772128083
-1.3631213598300427   -0.10194468147804184   -0.028572964772128083
-1.0061998497185571   -0.1433248200070236   -0.11660068566553274
-1.0061998497185571   -0.1433248200070236   -0.11660068566553274
-1.0061998497185571   -0.1433248200070236   -0.11660068566553274
-1.0061998497185571   -0.1433248200070236   -0.11660068566553274
-0.6889116445529059   -0.17222791113822647   -0.17222791113822647
-0.6889116445529059   -0.17222791113822647   -0.17222791113822647
-0.6889116445529059   -0.17222791113822647   -0.17222791113822647
-0.6889116445529059   -0.17222791113822647   -0.17222791113822647
0.08135074335668144   0.005253780612706602   0.0006719908599193036
0.08135074335668144   0.005253780612706602   0.0006719908599193036
0.08135074335668144   0.005253780612706602   0.0006719908599193036
0.08135074335668144   0.005253780612706602   0.0006719908599193036
0.10600427729026188   0.02650106932256547   0.02650106932256547
0.10600427729026188   0.02650106932256547   0.02650106932256547
0.10600427729026188   0.02650106932256547   0.02650106932256547
0.10600427729026188   0.02650106932256547   0.02650106932256547
-0.6227713141720338   -0.10763807866456122   -0.02509872970825781
-0.6227713141720338   -0.10763807866456122   -0.02509872970825781
-0.6227713141720338   -0.10763807866456122   -0.02509872970825781
-0.6227713141720338   -0.10763807866456122   -0.02509872970825781
-0.26680552413203856   -0.0676742025864727   0.04518815826722582
-0.26680552413203856   -0.0676742025864727   0.04518815826722582
-0.26680552413203856   -0.0676742025864727   0.04518815826722582
-0.26680552413203856   -0.0676742025864727   0.04518815826722582
-0.6624710583305222   -0.16561776458263056   -0.16561776458263056
-0.6624710583305222   -0.16561776458263056   -0.16561776458263056
-0.6624710583305222   -0.16561776458263056   -0.16561776458263056
-0.6624710583305222   -0.16561776458263056   -0.16561776458263056
0.10791160598242848   0.04668833977431285   0.015850442331650276
0.10791160598242848   0.04668833977431285   0.015850442331650276
0.10791160598242848   0.04668833977431285   0.015850442331650276
0.10791160598242848   0.04668833977431285   0.015850442331650276
0.11938312812845794   0.029845782032114486   0.029845782032114486
0.11938312812845794   0.029845782032114486   0.029845782032114486
0.11938312812845794   0.029845782032114486   0.029845782032114486
0.11938312812845794   0.029845782032114486   0.029845782032114486
-0.6006670630943861   -0.07242544517126204   -0.016830362636298495
-0.6006670630943861   -0.07242544517126204   -0.016830362636298495
-0.6006670630943861   -0.07242544517126204   -0.016830362636298495
-0.6006670630943861   -0.07242544517126204   -0.016830362636298495
-0.2558467033634169   -0.04181174080108807   -0.01547393306135223
-0.2558467033634169   -0.04181174080108807   -0.01547393306135223
-0.2558467033634169   -0.04181174080108807   -0.01547393306135223
-0.2558467033634169   -0.04181174080108807   -0.01547393306135223
-0.6475732239254167   -0.16189330598135418   -0.16189330598135418
-0.6475732239254167   -0.16189330598135418   -0.16189330598135418
-0.6475732239254167   -0.16189330598135418   -0.16189330598135418
-0.6475732239254167   -0.16189330598135418   -0.16189330598135418
0.12925780138584808   0.08228215526856719   0.026782775082611485
0.12925780138584808   0.08228215526856719   0.026782775082611485
0.12925780138584808   0.08228215526856719   0.026782775082611485
0.12925780138584808   0.08228215526856719   0.026782775082611485
0.13734546670727277   0.03433636667681819   0.03433636667681819
0.13734546670727277   0.03433636667681819   0.03433636667681819
0.13734546670727277   0.03433636667681819   0.03433636667681819
0.13734546670727277   0.03433636667681819   0.03433636667681819
-0.5766127565058913   -0.030440687189598137   0.00032374257957421687
-0.5766127565058913   -0.030440687189598137   0.00032374257957421687
-0.5766127565058913   -0.030440687189598137   0.00032374257957421687
-0.5766127565058913   -0.030440687189598137   0.00032374257957421687
-0.24809720203683225   -0.01687932847914224   -0.07559422796419758
-0.24809720203683225   -0.01687932847914224   -0.07559422796419758
-0.24809720203683225   -0.01687932847914224   -0.07559422796419758
-0.24809720203683225   -0.01687932847914224   -0.07559422796419758
0.08907287673572935   0.022268219183932337   0.022268219183932337
0.08907287673572935   0.022268219183932337   0.022268219183932337
0.08907287673572935   0.022268219183932337   0.022268219183932337
0.08907287673572935   0.022268219183932337   0.022268219183932337
0.8614325263236935   0.07905281348569883   0.02662551857097437
0.8614325263236935   0.07905281348569883   0.02662551857097437
0.8614325263236935   0.07905281348569883   0.02662551857097437
0.8614325263236935   0.07905281348569883   0.02662551857097437
0.9354565865514325   0.23386414663785812   0.23386414663785812
0.9354565865514325   0.23386414663785812   0.23386414663785812
0.9354565865514325   0.23386414663785812   0.23386414663785812
0.9354565865514325   0.23386414663785812   0.23386414663785812
0.08074888210857241   -0.060646416459228324   -0.012628420804089678
0.08074888210857241   -0.060646416459228324   -0.012628420804089678
0.08074888210857241   -0.060646416459228324   -0.012628420804089678
0.08074888210857241   -0.060646416459228324   -0.012628420804089678
0.4911063404615007   0.061148957846926574   0.08919145206446223
0.4911063404615007   0.061148957846926574   0.08919145206446223
0.4911063404615007   0.061148957846926574   0.08919145206446223
0.4911063404615007   0.061148957846926574   0.08919145206446223
0.10600427729026224   0.02650106932256556   0.02650106932256556
0.10600427729026224   0.02650106932256556   0.02650106932256556
0.10600427729026224   0.02650106932256556   0.02650106932256556
0.10600427729026224   0.02650106932256556   0.02650106932256556
0.8717833970641826   0.10829886655050419   0.041063479288962756
0.8717833970641826   0.10829886655050419   0.041063479288962756
0.8717833970641826   0.10829886655050419   0.041063479288962756
0.8717833970641826   0.10829886655050419   0.041063479288962756
0.9315649497309535   0.23289123743273837   0.23289123743273837
0.9315649497309535   0.23289123743273837   0.23289123743273837
0.9315649497309535   0.23289123743273837   0.23289123743273837
0.9315649497309535   0.23289123743273837   0.23289123743273837
0.10222976441952716   -0.02620971712052781   0.00013446264010188134
0.10222976441952716   -0.02620971712052781   0.00013446264010188134
0.10222976441952716   -0.02620971712052781   0.00013446264010188134
0.10222976441952716   -0.02620971712052781   0.00013446264010188134
0.48759891984801307   0.0802964098499655   0.023167428592364335
0.48759891984801307   0.0802964098499655   0.023167428592364335
0.48759891984801307   0.0802964098499655   0.023167428592364335
0.48759891984801307   0.0802964098499655   0.023167428592364335
0.11938312812845805   0.029845782032114514   0.029845782032114514
0.11938312812845805   0.029845782032114514   0.029845782032114514
0.11938312812845805   0.029845782032114514   0.029845782032114514
0.11938312812845805   0.029845782032114514   0.029845782032114514
0.8763636507613021   0.1387878030193756   0.05098817699784402
0.8763636507613021   0.1387878030193756   0.05098817699784402
0.8763636507613021   0.1387878030193756   0.05098817699784402
0.8763636507613021   0.1387878030193756   0.05098817699784402
0.9497168557868576   0.2374292139467144   0.2374292139467144
0.9497168557868576   0.2374292139467144   0.2374292139467144
0.9497168557868576   0.2374292139467144   0.2374292139467144
0.9497168557868576   0.2374292139467144   0.2374292139467144
0.13036156824096612   0.019338453018483484   0.014414788003618539
0.13036156824096612   0.019338453018483484   0.014414788003618539
0.13036156824096612   0.019338453018483484   0.014414788003618539
0.13036156824096612   0.019338453018483484   0.014414788003618539
0.4952765496248467   0.10895866267194468   -0.038050878357170054
0.4952765496248467   0.10895866267194468   -0.038050878357170054
0.4952765496248467   0.10895866267194468   -0.038050878357170054
0.4952765496248467   0.10895866267194468   -0.038050878357170054
0.9336631776803987   0.2334157944200997   0.2334157944200997
0.9336631776803987   0.2334157944200997   0.2334157944200997
0.9336631776803987   0.2334157944200997   0.2334157944200997
0.9336631776803987   0.2334157944200997   0.2334157944200997
1.9374285300673382   0.14771958168360738   0.05080307182439123
1.9374285300673382   0.14771958168360738   0.05080307182439123
1.9374285300673382   0.14771958168360738   0.05080307182439123
1.9374285300673382   0.14771958168360738   0.05080307182439123
1.9804720013392236   0.4951180003348059   0.4951180003348059
1.9804720013392236   0.4951180003348059   0.4951180003348059
1.9804720013392236   0.4951180003348059   0.4951180003348059
1.9804720013392236   0.4951180003348059   0.4951180003348059
0.8315521095797506   -0.047194136756449456   -0.004599954826244056
0.8315521095797506   -0.047194136756449456   -0.004599954826244056
0.8315521095797506   -0.047194136756449456   -0.004599954826244056
0.8315521095797506   -0.047194136756449456   -0.004599954826244056
1.381663930677436   0.19559366624072416   0.15592183435230583
1.381663930677436   0.19559366624072416   0.15592183435230583
1.381663930677436   0.19559366624072416   0.15592183435230583
1.381663930677436   0.19559366624072416   0.15592183435230583
0.9354565865514317   0.23386414663785793   0.23386414663785793
0.9354565865514317   0.23386414663785793   0.23386414663785793
0.9354565865514317   0.23386414663785793   0.23386414663785793
0.9354565865514317   0.23386414663785793   0.23386414663785793
1.8353842437677153   0.1728764363406773   0.09192077647142308
1.8353842437677153   0.1728764363406773   0.09192077647142308
1.8353842437677153   0.1728764363406773   0.09192077647142308
1.8353842437677153   0.1728764363406773   0.09192077647142308
1.9214471049998711   0.4803617762499678   0.4803617762499678
1.9214471049998711   0.4803617762499678   0.4803617762499678
1.9214471049998711   0.4803617762499678   0.4803617762499678
1.9214471049998711   0.4803617762499678   0.4803617762499678
0.8345691311682814   -0.02596455895630448   0.006767941008420562
0.8345691311682814   -0.02596455895630448   0.006767941008420562
0.8345691311682814   -0.02596455895630448   0.006767941008420562
0.8345691311682814   -0.02596455895630448   0.006767941008420562
1.340813739585409   0.20127686177544568   0.0747585301611686
1.340813739585409   0.20127686177544568   0.0747585301611686
1.340813739585409   0.20127686177544568   0.0747585301611686
1.340813739585409   0.20127686177544568   0.0747585301611686
0.9315649497309535   0.23289123743273837   0.23289123743273837
0.9315649497309535   0.23289123743273837   0.23289123743273837
0.9315649497309535   0.23289123743273837   0.23289123743273837
0.9315649497309535   0.23289123743273837   0.23289123743273837
1.776423970371302   0.17347866379503363   0.06212921556208663
1.776423970371302   0.17347866379503363   0.06212921556208663
1.776423970371302   0.17347866379503363   0.06212921556208663
1.776423970371302   0.17347866379503363   0.06212921556208663
1.8334954065098625   0.45837385162746563   0.45837385162746563
1.8334954065098625   0.45837385162746563   0.45837385162746563
1.8334954065098625   0.45837385162746563   0.45837385162746563
1.8334954065098625   0.45837385162746563   0.45837385162746563
0.8655697830849823   0.02754268460445644   0.02658037977959625
0.8655697830849823   0.02754268460445644   0.02658037977959625
0.8655697830849823   0.02754268460445644   0.02658037977959625
0.8655697830849823   0.02754268460445644   0.02658037977959625
1.2840030605289654   0.21828137335566403   -0.019651872252679788
1.2840030605289654   0.21828137335566403   -0.019651872252679788
1.2840030605289654   0.21828137335566403   -0.019651872252679788
1.2840030605289654   0.21828137335566403   -0.019651872252679788
-1.8777750725156968   -0.13448224013161048   0.021321063981915994
-1.8777750725156968   -0.13448224013161048   0.021321063981915994
-1.8777750725156968   -0.13448224013161048   0.021321063981915994
-1.8777750725156968   -0.13448224013161048   0.021321063981915994
-1.195411618684032   -0.027749940592627698   -0.007794724236046824
-1.195411618684032   -0.027749940592627698   -0.007794724236046824
-1.195411618684032   -0.027749940592627698   -0.007794724236046824
-1.195411618684032   -0.027749940592627698   -0.007794724236046824
-1.2033682882615588   0.04865210851931534   0.025247161583318384
-1.2033682882615588   0.04865210851931534   0.025247161583318384
-1.2033682882615588   0.04865210851931534   0.025247161583318384
-1.2033682882615588   0.04865210851931534   0.025247161583318384
-1.905660156170991   -0.13008262293654793   -0.022645675194989237
-1.905660156170991   -0.13008262293654793   -0.022645675194989237
-1.905660156170991   -0.13008262293654793   -0.022645675194989237
-1.905660156170991   -0.13008262293654793   -0.022645675194989237
-1.4847529206220993   -0.05076007275000832   -0.005979174831104203
-1.4847529206220993   -0.05076007275000832   -0.005979174831104203
-1.4847529206220993   -0.05076007275000832   -0.005979174831104203
-1.4847529206220993   -0.05076007275000832   -0.005979174831104203
-1.89172507597047   -0.0922327173040976   0.009179820175164916
-1.89172507597047   -0.0922327173040976   0.009179820175164916
-1.89172507597047   -0.0922327173040976   0.009179820175164916
-1.89172507597047   -0.0922327173040976   0.009179820175164916
-1.2192941727167224   0.00881139863222652   -0.014541550805389505
-1.2192941727167224   0.00881139863222652   -0.014541550805389505
-1.2192941727167224   0.00881139863222652   -0.014541550805389505
-1.2192941727167224   0.00881139863222652   -0.014541550805389505
-1.204725032242072   0.06938320334148096   0.02871685683620087
-1.204725032242072   0.06938320334148096   0.02871685683620087
-1.204725032242072   0.06938320334148096   0.02871685683620087
-1.204725032242072   0.06938320334148096   0.02871685683620087
-1.9171031772367706   -0.11455121912988592   -0.029886905928846977
-1.9171031772367706   -0.11455121912988592   -0.029886905928846977
-1.9171031772367706   -0.11455121912988592   -0.029886905928846977
-1.9171031772367706   -0.11455121912988592   -0.029886905928846977
-1.526350579836175   -0.03394990891432825   -0.014520121565132313
-1.526350579836175   -0.03394990891432825   -0.014520121565132313
-1.526350579836175   -0.03394990891432825   -0.014520121565132313
-1.526350579836175   -0.03394990891432825   -0.014520121565132313
-1.8825937345582953   -0.05526007568523167   0.0833691640188611
-1.8825937345582953   -0.05526007568523167   0.0833691640188611
-1.8825937345582953   -0.05526007568523167   0.0833691640188611
-1.8825937345582953   -0.05526007568523167   0.0833691640188611
-1.2248806422803717   0.024445892537001634   -0.027123882550808012
-1.2248806422803717   0.024445892537001634   -0.027123882550808012
-1.2248806422803717   0.024445892537001634   -0.027123882550808012
-1.2248806422803717   0.024445892537001634   -0.027123882550808012
-1.182724538950863   0.1209360756584611   0.05208255083100834
-1.182724538950863   0.1209360756584611   0.05208255083100834
-1.182724538950863   0.1209360756584611   0.05208255083100834
-1.182724538950863   0.1209360756584611   0.05208255083100834
-1.8639585124037368   -0.09236089273162224   -0.048850219999987246
-1.8639585124037368   -0.09236089273162224   -0.048850219999987246
-1.8639585124037368   -0.09236089273162224   -0.048850219999987246
-1.8639585124037368   -0.09236089273162224   -0.048850219999987246
-1.4678562069093832   0.013763137169018391   0.03255826098921
-1.4678562069093832   0.013763137169018391   0.03255826098921
-1.4678562069093832   0.013763137169018391   0.03255826098921
-1.4678562069093832   0.013763137169018391   0.03255826098921
-1.2250573024972098   -0.1624600174390748   -0.021313066455489835
-1.2250573024972098   -0.1624600174390748   -0.021313066455489835
-1.2250573024972098   -0.1624600174390748   -0.021313066455489835
-1.2250573024972098   -0.1624600174390748   -0.021313066455489835
-0.5646010242290466   -0.01266330063851924   0.005966008995387802
-0.5646010242290466   -0.01266330063851924   0.005966008995387802
-0.5646010242290466   -0.01266330063851924   0.005966008995387802
-0.5646010242290466   -0.01266330063851924   0.005966008995387802
-0.5727796495314547   0.010823686989910264   0.00859195635075212
-0.5727796495314547   0.010823686989910264   0.00859195635075212
-0.5727796495314547   0.010823686989910264   0.00859195635075212
-0.5727796495314547   0.010823686989910264   0.00859195635075212
-1.2492886213386671   -0.11890188219538231   -0.03680051308752478
-1.2492886213386671   -0.11890188219538231   -0.03680051308752478
-1.2492886213386671   -0.11890188219538231   -0.03680051308752478
-1.2492886213386671   -0.11890188219538231   -0.03680051308752478
-0.9029149696040386   -0.07336420878227433   -0.02074365399791756
-0.9029149696040386   -0.07336420878227433   -0.02074365399791756
-0.9029149696040386   -0.07336420878227433   -0.02074365399791756
-0.9029149696040386   -0.07336420878227433   -0.02074365399791756
-1.2480961446905472   -0.12992167143376743   -0.01981834060854383
-1.2480961446905472   -0.12992167143376743   -0.01981834060854383
-1.2480961446905472   -0.12992167143376743   -0.01981834060854383
-1.2480961446905472   -0.12992167143376743   -0.01981834060854383
-0.5717474952828653   0.024068107125005483   0.0005083074586085534
-0.5717474952828653   0.024068107125005483   0.0005083074586085534
-0.5717474952828653   0.024068107125005483   0.0005083074586085534
-0.5717474952828653   0.024068107125005483   0.0005083074586085534
-0.5705537647772914   0.03978593640619016   0.011634573342611094
-0.5705537647772914   0.03978593640619016   0.011634573342611094
-0.5705537647772914   0.03978593640619016   0.011634573342611094
-0.5705537647772914   0.03978593640619016   0.011634573342611094
-1.2497254651093268   -0.08709334595686344   -0.039808758201729126
-1.2497254651093268   -0.08709334595686344   -0.039808758201729126
-1.2497254651093268   -0.08709334595686344   -0.039808758201729126
-1.2497254651093268   -0.08709334595686344   -0.039808758201729126
-0.9010959826189796   -0.04081232262280304   -0.009865143754934955
-0.9010959826189796   -0.04081232262280304   -0.009865143754934955
-0.9010959826189796   -0.04081232262280304   -0.009865143754934955
-0.9010959826189796   -0.04081232262280304   -0.009865143754934955
-1.2448250441466162   -0.09822936167100407   -0.004170637674035353
-1.2448250441466162   -0.09822936167100407   -0.004170637674035353
-1.2448250441466162   -0.09822936167100407   -0.004170637674035353
-1.2448250441466162   -0.09822936167100407   -0.004170637674035353
-0.5713223518290049   0.055053786031329766   -0.007476211541085111
-0.5713223518290049   0.055053786031329766   -0.007476211541085111
-0.5713223518290049   0.055053786031329766   -0.007476211541085111
-0.5713223518290049   0.055053786031329766   -0.007476211541085111
-0.5609344728065473   0.0688716627422448   0.023321869305811496
-0.5609344728065473   0.0688716627422448   0.023321869305811496
-0.5609344728065473   0.0688716627422448   0.023321869305811496
-0.5609344728065473   0.0688716627422448   0.023321869305811496
-1.2362678869577415   -0.050339669626038835   -0.04435844391889062
-1.2362678869577415   -0.050339669626038835   -0.04435844391889062
-1.2362678869577415   -0.050339669626038835   -0.04435844391889062
-1.2362678869577415   -0.050339669626038835   -0.04435844391889062
-0.8972581617175844   -0.010006686004324972   0.004500848788838843
-0.8972581617175844   -0.010006686004324972   0.004500848788838843
-0.8972581617175844   -0.010006686004324972   0.004500848788838843
-0.8972581617175844   -0.010006686004324972   0.004500848788838843
-0.5953371891592306   -0.13524485610105907   -0.025133260192997105
-0.5953371891592306   -0.13524485610105907   -0.025133260192997105
-0.5953371891592306   -0.13524485610105907   -0.025133260192997105
-0.5953371891592306   -0.13524485610105907   -0.025133260192997105
0.06131029563323534   0.013932253786909385   0.023191852704878887
0.06131029563323534   0.013932253786909385   0.023191852704878887
0.06131029563323534   0.013932253786909385   0.023191852704878887
0.06131029563323534   0.013932253786909385   0.023191852704878887
0.05857088101000861   0.034024123715736945   0.0018700870111906156
0.05857088101000861   0.034024123715736945   0.0018700870111906156
0.05857088101000861   0.034024123715736945   0.0018700870111906156
0.05857088101000861   0.034024123715736945   0.0018700870111906156
-0.5977866108460171   -0.08956726252653968   -0.016051900705610397
-0.5977866108460171   -0.08956726252653968   -0.016051900705610397
-0.5977866108460171   -0.08956726252653968   -0.016051900705610397
-0.5977866108460171   -0.08956726252653968   -0.016051900705610397
-0.2709067976016306   -0.04487030946329514   -0.008594193202702919
-0.2709067976016306   -0.04487030946329514   -0.008594193202702919
-0.2709067976016306   -0.04487030946329514   -0.008594193202702919
-0.2709067976016306   -0.04487030946329514   -0.008594193202702919
-0.6019241787972278   -0.10309192187132434   -0.023215081116879293
-0.6019241787972278   -0.10309192187132434   -0.023215081116879293
-0.6019241787972278   -0.10309192187132434   -0.023215081116879293
-0.6019241787972278   -0.10309192187132434   -0.023215081116879293
0.06500110611314039   0.04984144021244266   0.018203896030143808
0.06500110611314039   0.04984144021244266   0.018203896030143808
0.06500110611314039   0.04984144021244266   0.018203896030143808
0.06500110611314039   0.04984144021244266   0.018203896030143808
0.06331876552131949   0.06589232743338788   0.010772671771243485
0.06331876552131949   0.06589232743338788   0.010772671771243485
0.06331876552131949   0.06589232743338788   0.010772671771243485
0.06331876552131949   0.06589232743338788   0.010772671771243485
-0.595768163684771   -0.0546183642848528   -0.020033120503744253
-0.595768163684771   -0.0546183642848528   -0.020033120503744253
-0.595768163684771   -0.0546183642848528   -0.020033120503744253
-0.595768163684771   -0.0546183642848528   -0.020033120503744253
-0.2665900639117838   -0.011008394613976132   0.003168319378588273
-0.2665900639117838   -0.011008394613976132   0.003168319378588273
-0.2665900639117838   -0.011008394613976132   0.003168319378588273
-0.2665900639117838   -0.011008394613976132   0.003168319378588273
-0.5973730543374053   -0.07077979875246625   -0.01189613929930233
-0.5973730543374053   -0.07077979875246625   -0.01189613929930233
-0.5973730543374053   -0.07077979875246625   -0.01189613929930233
-0.5973730543374053   -0.07077979875246625   -0.01189613929930233
0.0673913858058168   0.08452149153286492   0.012506609094252589
0.0673913858058168   0.08452149153286492   0.012506609094252589
0.0673913858058168   0.08452149153286492   0.012506609094252589
0.0673913858058168   0.08452149153286492   0.012506609094252589
0.06488050994214675   0.10133686951263186   0.017718259642684343
0.06488050994214675   0.10133686951263186   0.017718259642684343
0.06488050994214675   0.10133686951263186   0.017718259642684343
0.06488050994214675   0.10133686951263186   0.017718259642684343
-0.587875936152039   -0.017263415889535783   -0.02525036878986523
-0.587875936152039   -0.017263415889535783   -0.02525036878986523
-0.587875936152039   -0.017263415889535783   -0.02525036878986523
-0.587875936152039   -0.017263415889535783   -0.02525036878986523
-0.2598246725618158   0.02440306407687262   0.016045602724104383
-0.2598246725618158   0.02440306407687262   0.016045602724104383
-0.2598246725618158   0.02440306407687262   0.016045602724104383
-0.2598246725618158   0.02440306407687262   0.016045602724104383
0.027870607753421678   -0.09916628377000503   -0.030908049137274976
0.027870607753421678   -0.09916628377000503   -0.030908049137274976
0.027870607753421678   -0.09916628377000503   -0.030908049137274976
0.027870607753421678   -0.09916628377000503   -0.030908049137274976
0.7081456133130374   0.048824385405262544   0.042592375748806116
0.7081456133130374   0.048824385405262544   0.042592375748806116
0.7081456133130374   0.048824385405262544   0.042592375748806116
0.7081456133130374   0.048824385405262544   0.042592375748806116
0.7073742699700052   0.0658385481192662   -0.0068289857730498005
0.7073742699700052   0.0658385481192662   -0.0068289857730498005
0.7073742699700052   0.0658385481192662   -0.0068289857730498005
0.7073742699700052   0.0658385481192662   -0.0068289857730498005
0.04035105388340148   -0.059515398753031946   0.004310473846923846
0.04035105388340148   -0.059515398753031946   0.004310473846923846
0.04035105388340148   -0.059515398753031946   0.004310473846923846
0.04035105388340148   -0.059515398753031946   0.004310473846923846
0.366358917150824   -0.008536131161035881   0.0007466186139263552
0.366358917150824   -0.008536131161035881   0.0007466186139263552
0.366358917150824   -0.008536131161035881   0.0007466186139263552
0.366358917150824   -0.008536131161035881   0.0007466186139263552
0.03228558331074143   -0.07243320634321514   -0.02309907142619273
0.03228558331074143   -0.07243320634321514   -0.02309907142619273
0.03228558331074143   -0.07243320634321514   -0.02309907142619273
0.03228558331074143   -0.07243320634321514   -0.02309907142619273
0.7195657366383861   0.08288235180516983   0.03708454388294426
0.7195657366383861   0.08288235180516983   0.03708454388294426
0.7195657366383861   0.08288235180516983   0.03708454388294426
0.7195657366383861   0.08288235180516983   0.03708454388294426
0.713092322882062   0.09736354195046498   0.007138199532530967
0.713092322882062   0.09736354195046498   0.007138199532530967
0.713092322882062   0.09736354195046498   0.007138199532530967
0.713092322882062   0.09736354195046498   0.007138199532530967
0.04192387829481021   -0.028274666126586898   -0.0020347708013281375
0.04192387829481021   -0.028274666126586898   -0.0020347708013281375
0.04192387829481021   -0.028274666126586898   -0.0020347708013281375
0.04192387829481021   -0.028274666126586898   -0.0020347708013281375
0.37137978326206983   0.02159389073039339   0.01520358918675644
0.37137978326206983   0.02159389073039339   0.01520358918675644
0.37137978326206983   0.02159389073039339   0.01520358918675644
0.37137978326206983   0.02159389073039339   0.01520358918675644
0.0360375788724577   -0.042852694638247965   -0.016888239401429438
0.0360375788724577   -0.042852694638247965   -0.016888239401429438
0.0360375788724577   -0.042852694638247965   -0.016888239401429438
0.0360375788724577   -0.042852694638247965   -0.016888239401429438
0.7219652639657581   0.11492821212346757   0.0339382347779963
0.7219652639657581   0.11492821212346757   0.0339382347779963
0.7219652639657581   0.11492821212346757   0.0339382347779963
0.7219652639657581   0.11492821212346757   0.0339382347779963
0.7017518706388688   0.13374500830337163   0.015057262030156756
0.7017518706388688   0.13374500830337163   0.015057262030156756
0.7017518706388688   0.13374500830337163   0.015057262030156756
0.7017518706388688   0.13374500830337163   0.015057262030156756
0.04165584798302245   0.010397180113811603   -0.007465360754116946
0.04165584798302245   0.010397180113811603   -0.007465360754116946
0.04165584798302245   0.010397180113811603   -0.007465360754116946
0.04165584798302245   0.010397180113811603   -0.007465360754116946
0.3769994526056938   0.05603590056150727   0.0285918800121176
0.3769994526056938   0.05603590056150727   0.0285918800121176
0.3769994526056938   0.05603590056150727   0.0285918800121176
0.3769994526056938   0.05603590056150727   0.0285918800121176
0.6522363211786812   -0.13092117863545394   -0.057208520882258335
0.6522363211786812   -0.13092117863545394   -0.057208520882258335
0.6522363211786812   -0.13092117863545394   -0.057208520882258335
0.6522363211786812   -0.13092117863545394   -0.057208520882258335
1.3434928971643125   0.08874560604556503   0.0415810210479948
1.3434928971643125   0.08874560604556503   0.0415810210479948
1.3434928971643125   0.08874560604556503   0.0415810210479948
1.3434928971643125   0.08874560604556503   0.0415810210479948
1.3588296401821094   0.04196795399103728   -0.08606703169116917
1.3588296401821094   0.04196795399103728   -0.08606703169116917
1.3588296401821094   0.04196795399103728   -0.08606703169116917
1.3588296401821094   0.04196795399103728   -0.08606703169116917
0.6952072470398314   -0.02672114809814813   0.02489559579348278
0.6952072470398314   -0.02672114809814813   0.02489559579348278
0.6952072470398314   -0.02672114809814813   0.02489559579348278
0.6952072470398314   -0.02672114809814813   0.02489559579348278
0.9620896341381097   -0.016905224828673043   -0.024142731130746047
0.9620896341381097   -0.016905224828673043   -0.024142731130746047
0.9620896341381097   -0.016905224828673043   -0.024142731130746047
0.9620896341381097   -0.016905224828673043   -0.024142731130746047
0.6707644135727572   -0.08603302410050367   -0.038006695539523544
0.6707644135727572   -0.08603302410050367   -0.038006695539523544
0.6707644135727572   -0.08603302410050367   -0.038006695539523544
0.6707644135727572   -0.08603302410050367   -0.038006695539523544
1.3956307935191554   0.11363814986336648   0.026268539121731986
1.3956307935191554   0.11363814986336648   0.026268539121731986
1.3956307935191554   0.11363814986336648   0.026268539121731986
1.3956307935191554   0.11363814986336648   0.026268539121731986
1.373993429191008   0.07664601844181898   -0.019603470023690762
1.373993429191008   0.07664601844181898   -0.019603470023690762
1.373993429191008   0.07664601844181898   -0.019603470023690762
1.373993429191008   0.07664601844181898   -0.019603470023690762
0.6925408615452279   -0.011132219753721695   0.012876654552534311
0.6925408615452279   -0.011132219753721695   0.012876654552534311
0.6925408615452279   -0.011132219753721695   0.012876654552534311
0.6925408615452279   -0.011132219753721695   0.012876654552534311
1.0126617372143965   0.025306347710739613   0.016658979758346806
1.0126617372143965   0.025306347710739613   0.016658979758346806
1.0126617372143965   0.025306347710739613   0.016658979758346806
1.0126617372143965   0.025306347710739613   0.016658979758346806
0.6729149475533113   -0.06577167576094589   -0.03061345939981825
0.6729149475533113   -0.06577167576094589   -0.03061345939981825
0.6729149475533113   -0.06577167576094589   -0.03061345939981825
0.6729149475533113   -0.06577167576094589   -0.03061345939981825
1.391994330682269   0.12966046194838854   0.017386593926044552
1.391994330682269   0.12966046194838854   0.017386593926044552
1.391994330682269   0.12966046194838854   0.017386593926044552
1.391994330682269   0.12966046194838854   0.017386593926044552
1.3719152479799661   0.11750213467968415   -0.029967834739250847
1.3719152479799661   0.11750213467968415   -0.029967834739250847
1.3719152479799661   0.11750213467968415   -0.029967834739250847
1.3719152479799661   0.11750213467968415   -0.029967834739250847
0.6783810091841816   0.024760184719244446   0.007187778340836368
0.6783810091841816   0.024760184719244446   0.007187778340836368
0.6783810091841816   0.024760184719244446   0.007187778340836368
0.6783810091841816   0.024760184719244446   0.007187778340836368
0.986920580867027   0.044425543062100475   0.012409565057967704
0.986920580867027   0.044425543062100475   0.012409565057967704
0.986920580867027   0.044425543062100475   0.012409565057967704
0.986920580867027   0.044425543062100475   0.012409565057967704
-1.4750406730393117   -0.06689360147160733   0.07611602572433473
-1.4750406730393117   -0.06689360147160733   0.07611602572433473
-1.4750406730393117   -0.06689360147160733   0.07611602572433473
-1.4750406730393117   -0.06689360147160733   0.07611602572433473
-0.9798817810725535   -0.037345695003872414   -0.01980556691490258
-0.9798817810725535   -0.037345695003872414   -0.01980556691490258
-0.9798817810725535   -0.037345695003872414   -0.01980556691490258
-0.9798817810725535   -0.037345695003872414   -0.01980556691490258
-0.9444465303885385   0.07945718079922487   0.06383971770142237
-0.9444465303885385   0.07945718079922487   0.06383971770142237
-0.9444465303885385   0.07945718079922487   0.06383971770142237
-0.9444465303885385   0.07945718079922487   0.06383971770142237
-1.481796860831149   -0.10583179751403593   -0.03102245350421437
-1.481796860831149   -0.10583179751403593   -0.03102245350421437
-1.481796860831149   -0.10583179751403593   -0.03102245350421437
-1.481796860831149   -0.10583179751403593   -0.03102245350421437
-1.1707603575273877   -0.01809990867890951   -0.002241809139787228
-1.1707603575273877   -0.01809990867890951   -0.002241809139787228
-1.1707603575273877   -0.01809990867890951   -0.002241809139787228
-1.1707603575273877   -0.01809990867890951   -0.002241809139787228
-1.4404670905080177   -0.015463295537895161   0.08525789613530137
-1.4404670905080177   -0.015463295537895161   0.08525789613530137
-1.4404670905080177   -0.015463295537895161   0.08525789613530137
-1.4404670905080177   -0.015463295537895161   0.08525789613530137
-0.979268683785322   -0.004403704250569351   -0.026410164232700747
-0.979268683785322   -0.004403704250569351   -0.026410164232700747
-0.979268683785322   -0.004403704250569351   -0.026410164232700747
-0.979268683785322   -0.004403704250569351   -0.026410164232700747
-0.940544908656056   0.09856981273758952   0.059159984827815634
-0.940544908656056   0.09856981273758952   0.059159984827815634
-0.940544908656056   0.09856981273758952   0.059159984827815634
-0.940544908656056   0.09856981273758952   0.059159984827815634
-1.4587426277451057   -0.08850150790612776   -0.04246186194913684
-1.4587426277451057   -0.08850150790612776   -0.04246186194913684
-1.4587426277451057   -0.08850150790612776   -0.04246186194913684
-1.4587426277451057   -0.08850150790612776   -0.04246186194913684
-1.1731659622854604   0.0043543799050960175   0.013481638092825807
-1.1731659622854604   0.0043543799050960175   0.013481638092825807
-1.1731659622854604   0.0043543799050960175   0.013481638092825807
-1.1731659622854604   0.0043543799050960175   0.013481638092825807
-1.4202609323794135   0.002569693684994989   0.05887541328820049
-1.4202609323794135   0.002569693684994989   0.05887541328820049
-1.4202609323794135   0.002569693684994989   0.05887541328820049
-1.4202609323794135   0.002569693684994989   0.05887541328820049
-0.9768824480471962   0.009642767121020274   -0.03360066651130589
-0.9768824480471962   0.009642767121020274   -0.03360066651130589
-0.9768824480471962   0.009642767121020274   -0.03360066651130589
-0.9768824480471962   0.009642767121020274   -0.03360066651130589
-0.9414100428121325   0.11130735099352487   0.04694252903414371
-0.9414100428121325   0.11130735099352487   0.04694252903414371
-0.9414100428121325   0.11130735099352487   0.04694252903414371
-0.9414100428121325   0.11130735099352487   0.04694252903414371
-1.4288457886959087   -0.07006055195377875   -0.054136368147562744
-1.4288457886959087   -0.07006055195377875   -0.054136368147562744
-1.4288457886959087   -0.07006055195377875   -0.054136368147562744
-1.4288457886959087   -0.07006055195377875   -0.054136368147562744
-1.139375183212751   0.024474761752147467   0.028123351030975227
-1.139375183212751   0.024474761752147467   0.028123351030975227
-1.139375183212751   0.024474761752147467   0.028123351030975227
-1.139375183212751   0.024474761752147467   0.028123351030975227
-0.982751340202138   -0.09315531428796206   0.021656256721265095
-0.982751340202138   -0.09315531428796206   0.021656256721265095
-0.982751340202138   -0.09315531428796206   0.021656256721265095
-0.982751340202138   -0.09315531428796206   0.021656256721265095
-0.4965608786806198   -0.01802130143034622   0.0009390413775437756
-0.4965608786806198   -0.01802130143034622   0.0009390413775437756
-0.4965608786806198   -0.01802130143034622   0.0009390413775437756
-0.4965608786806198   -0.01802130143034622   0.0009390413775437756
-0.4824209704980401   0.04876946517094442   0.03468857290348184
-0.4824209704980401   0.04876946517094442   0.03468857290348184
-0.4824209704980401   0.04876946517094442   0.03468857290348184
-0.4824209704980401   0.04876946517094442   0.03468857290348184
-0.9983604416141885   -0.0918670813376295   -0.034405576289981366
-0.9983604416141885   -0.0918670813376295   -0.034405576289981366
-0.9983604416141885   -0.0918670813376295   -0.034405576289981366
-0.9983604416141885   -0.0918670813376295   -0.034405576289981366
-0.7374043055035239   -0.03618691019293399   -0.014981635536646463
-0.7374043055035239   -0.03618691019293399   -0.014981635536646463
-0.7374043055035239   -0.03618691019293399   -0.014981635536646463
-0.7374043055035239   -0.03618691019293399   -0.014981635536646463
-0.9795979699036954   -0.05341309092159277   0.02095279184645129
-0.9795979699036954   -0.05341309092159277   0.02095279184645129
-0.9795979699036954   -0.05341309092159277   0.02095279184645129
-0.9795979699036954   -0.05341309092159277   0.02095279184645129
-0.4973843917802108   0.01411452518323153   -0.0054735935196539715
-0.4973843917802108   0.01411452518323153   -0.0054735935196539715
-0.4973843917802108   0.01411452518323153   -0.0054735935196539715
-0.4973843917802108   0.01411452518323153   -0.0054735935196539715
-0.4808455394186534   0.08064521485719485   0.030004120177888803
-0.4808455394186534   0.08064521485719485   0.030004120177888803
-0.4808455394186534   0.08064521485719485   0.030004120177888803
-0.4808455394186534   0.08064521485719485   0.030004120177888803
-0.9926410302879956   -0.06212243159264225   -0.040628379001649645
-0.9926410302879956   -0.06212243159264225   -0.040628379001649645
-0.9926410302879956   -0.06212243159264225   -0.040628379001649645
-0.9926410302879956   -0.06212243159264225   -0.040628379001649645
-0.7293023711892562   -0.003950081893373925   -7.559224289747923e-05
-0.7293023711892562   -0.003950081893373925   -7.559224289747923e-05
-0.7293023711892562   -0.003950081893373925   -7.559224289747923e-05
-0.7293023711892562   -0.003950081893373925   -7.559224289747923e-05
-0.9734963629370375   -0.021076057208300192   0.014048583368797697
-0.9734963629370375   -0.021076057208300192   0.014048583368797697
-0.9734963629370375   -0.021076057208300192   0.014048583368797697
-0.9734963629370375   -0.021076057208300192   0.014048583368797697
-0.4968970016195561   0.04269204562290936   -0.012300021592330956
-0.4968970016195561   0.04269204562290936   -0.012300021592330956
-0.4968970016195561   0.04269204562290936   -0.012300021592330956
-0.4968970016195561   0.04269204562290936   -0.012300021592330956
-0.4806567176810206   0.11414946315576399   0.0224760507133986
-0.4806567176810206   0.11414946315576399   0.0224760507133986
-0.4806567176810206   0.11414946315576399   0.0224760507133986
-0.4806567176810206   0.11414946315576399   0.0224760507133986
-0.9878064533071472   -0.030015126216590526   -0.043717046230818256
-0.9878064533071472   -0.030015126216590526   -0.043717046230818256
-0.9878064533071472   -0.030015126216590526   -0.043717046230818256
-0.9878064533071472   -0.030015126216590526   -0.043717046230818256
-0.7297199672930056   0.025627379035602776   0.011324149992250489
-0.7297199672930056   0.025627379035602776   0.011324149992250489
-0.7297199672930056   0.025627379035602776   0.011324149992250489
-0.7297199672930056   0.025627379035602776   0.011324149992250489
-0.5150352801644571   -0.10655507117333562   -0.002899196298657574
-0.5150352801644571   -0.10655507117333562   -0.002899196298657574
-0.5150352801644571   -0.10655507117333562   -0.002899196298657574
-0.5150352801644571   -0.10655507117333562   -0.002899196298657574
-0.017696736459291526   0.005182654849464862   0.021991102187564594
-0.017696736459291526   0.005182654849464862   0.021991102187564594
-0.017696736459291526   0.005182654849464862   0.021991102187564594
-0.017696736459291526   0.005182654849464862   0.021991102187564594
-0.01953497561047711   0.03139657729316802   0.010515663157388125
-0.01953497561047711   0.03139657729316802   0.010515663157388125
-0.01953497561047711   0.03139657729316802   0.010515663157388125
-0.01953497561047711   0.03139657729316802   0.010515663157388125
-0.5153346100483034   -0.06824892922247235   -0.012861230454418168
-0.5153346100483034   -0.06824892922247235   -0.012861230454418168
-0.5153346100483034   -0.06824892922247235   -0.012861230454418168
-0.5153346100483034   -0.06824892922247235   -0.012861230454418168
-0.26772127687332564   -0.0334312981440619   -0.008394234615567969
-0.26772127687332564   -0.0334312981440619   -0.008394234615567969
-0.26772127687332564   -0.0334312981440619   -0.008394234615567969
-0.26772127687332564   -0.0334312981440619   -0.008394234615567969
-0.5147793576604819   -0.0711851760798893   -0.0071487216578937345
-0.5147793576604819   -0.0711851760798893   -0.0071487216578937345
-0.5147793576604819   -0.0711851760798893   -0.0071487216578937345
-0.5147793576604819   -0.0711851760798893   -0.0071487216578937345
-0.017258873118546264   0.037164179030338675   0.01612857387987205
-0.017258873118546264   0.037164179030338675   0.01612857387987205
-0.017258873118546264   0.037164179030338675   0.01612857387987205
-0.017258873118546264   0.037164179030338675   0.01612857387987205
-0.017137649957649926   0.06612076449585388   0.005032009672667993
-0.017137649957649926   0.06612076449585388   0.005032009672667993
-0.017137649957649926   0.06612076449585388   0.005032009672667993
-0.017137649957649926   0.06612076449585388   0.005032009672667993
-0.5139894972736608   -0.03621077882079908   -0.018859675419150086
-0.5139894972736608   -0.03621077882079908   -0.018859675419150086
-0.5139894972736608   -0.03621077882079908   -0.018859675419150086
-0.5139894972736608   -0.03621077882079908   -0.018859675419150086
-0.26507498286153003   -0.001329170815540258   0.0036518884360490743
-0.26507498286153003   -0.001329170815540258   0.0036518884360490743
-0.26507498286153003   -0.001329170815540258   0.0036518884360490743
-0.26507498286153003   -0.001329170815540258   0.0036518884360490743
-0.5132172865364953   -0.03695287072106035   -0.014256529833061603
-0.5132172865364953   -0.03695287072106035   -0.014256529833061603
-0.5132172865364953   -0.03695287072106035   -0.014256529833061603
-0.5132172865364953   -0.03695287072106035   -0.014256529833061603
-0.015572298329994686   0.06920041876093651   0.009779113545861768
-0.015572298329994686   0.06920041876093651   0.009779113545861768
-0.015572298329994686   0.06920041876093651   0.009779113545861768
-0.015572298329994686   0.06920041876093651   0.009779113545861768
-0.016589814284650867   0.10188030874565845   -0.0008178674812822397
-0.016589814284650867   0.10188030874565845   -0.0008178674812822397
-0.016589814284650867   0.10188030874565845   -0.0008178674812822397
-0.016589814284650867   0.10188030874565845   -0.0008178674812822397
-0.5136925001614213   -0.003629890089631743   -0.024923508443212224
-0.5136925001614213   -0.003629890089631743   -0.024923508443212224
-0.5136925001614213   -0.003629890089631743   -0.024923508443212224
-0.5136925001614213   -0.003629890089631743   -0.024923508443212224
-0.2630089616483964   0.030803684031826345   0.01469927590482624
-0.2630089616483964   0.030803684031826345   0.01469927590482624
-0.2630089616483964   0.030803684031826345   0.01469927590482624
-0.2630089616483964   0.030803684031826345   0.01469927590482624
-0.05158495029251312   -0.11674472074285434   -0.025522591386223936
-0.05158495029251312   -0.11674472074285434   -0.025522591386223936
-0.05158495029251312   -0.11674472074285434   -0.025522591386223936
-0.05158495029251312   -0.11674472074285434   -0.025522591386223936
0.45928648285609414   0.032331969371421215   0.04181368652675049
0.45928648285609414   0.032331969371421215   0.04181368652675049
0.45928648285609414   0.032331969371421215   0.04181368652675049
0.45928648285609414   0.032331969371421215   0.04181368652675049
0.4442503533087206   0.017095891350026204   -0.01653237506310451
0.4442503533087206   0.017095891350026204   -0.01653237506310451
0.4442503533087206   0.017095891350026204   -0.01653237506310451
0.4442503533087206   0.017095891350026204   -0.01653237506310451
-0.03465040875751907   -0.04269063503556617   0.009025709750912879
-0.03465040875751907   -0.04269063503556617   0.009025709750912879
-0.03465040875751907   -0.04269063503556617   0.009025709750912879
-0.03465040875751907   -0.04269063503556617   0.009025709750912879
0.20142793275716617   -0.027078326567749708   -0.0047457635421270655
0.20142793275716617   -0.027078326567749708   -0.0047457635421270655
0.20142793275716617   -0.027078326567749708   -0.0047457635421270655
0.20142793275716617   -0.027078326567749708   -0.0047457635421270655
-0.051356114537895195   -0.08513134836998507   -0.03206210581654885
-0.051356114537895195   -0.08513134836998507   -0.03206210581654885
-0.051356114537895195   -0.08513134836998507   -0.03206210581654885
-0.051356114537895195   -0.08513134836998507   -0.03206210581654885
0.46417658116024385   0.06275712675559283   0.037437528788945025
0.46417658116024385   0.06275712675559283   0.037437528788945025
0.46417658116024385   0.06275712675559283   0.037437528788945025
0.46417658116024385   0.06275712675559283   0.037437528788945025
0.4515072641525429   0.04940441771893084   -0.023222737431472178
0.4515072641525429   0.04940441771893084   -0.023222737431472178
0.4515072641525429   0.04940441771893084   -0.023222737431472178
0.4515072641525429   0.04940441771893084   -0.023222737431472178
-0.0336406504876133   -0.013984675901071181   0.002622447419776674
-0.0336406504876133   -0.013984675901071181   0.002622447419776674
-0.0336406504876133   -0.013984675901071181   0.002622447419776674
-0.0336406504876133   -0.013984675901071181   0.002622447419776674
0.20325782751389393   0.00197202307681147   0.007227225066195433
0.20325782751389393   0.00197202307681147   0.007227225066195433
0.20325782751389393   0.00197202307681147   0.007227225066195433
0.20325782751389393   0.00197202307681147   0.007227225066195433
-0.04988924254560676   -0.05395947824054759   -0.038645710530714625
-0.04988924254560676   -0.05395947824054759   -0.038645710530714625
-0.04988924254560676   -0.05395947824054759   -0.038645710530714625
-0.04988924254560676   -0.05395947824054759   -0.038645710530714625
0.47126577576864204   0.09288913961651155   0.03208509875144272
0.47126577576864204   0.09288913961651155   0.03208509875144272
0.47126577576864204   0.09288913961651155   0.03208509875144272
0.47126577576864204   0.09288913961651155   0.03208509875144272
0.4559987550122859   0.08990697060730068   -0.024259315315931153
0.4559987550122859   0.08990697060730068   -0.024259315315931153
0.4559987550122859   0.08990697060730068   -0.024259315315931153
0.4559987550122859   0.08990697060730068   -0.024259315315931153
-0.03364533680462078   0.01955033880481482   -0.003765510140287788
-0.03364533680462078   0.01955033880481482   -0.003765510140287788
-0.03364533680462078   0.01955033880481482   -0.003765510140287788
-0.03364533680462078   0.01955033880481482   -0.003765510140287788
0.21035249947367515   0.03435375308406659   0.0214403606641933
0.21035249947367515   0.03435375308406659   0.0214403606641933
0.21035249947367515   0.03435375308406659   0.0214403606641933
0.21035249947367515   0.03435375308406659   0.0214403606641933
0.4113218347539127   -0.11595027297388358   -0.049727311638848234
0.4113218347539127   -0.11595027297388358   -0.049727311638848234
0.4113218347539127   -0.11595027297388358   -0.049727311638848234
0.4113218347539127   -0.11595027297388358   -0.049727311638848234
0.904834321717433   0.06723393383712523   0.04655564441444561
0.904834321717433   0.06723393383712523   0.04655564441444561
0.904834321717433   0.06723393383712523   0.04655564441444561
0.904834321717433   0.06723393383712523   0.04655564441444561
0.8977945652585498   -0.0044212051266190044   -0.06619200756759383
0.8977945652585498   -0.0044212051266190044   -0.06619200756759383
0.8977945652585498   -0.0044212051266190044   -0.06619200756759383
0.8977945652585498   -0.0044212051266190044   -0.06619200756759383
0.4484695632459707   -0.009603618964387675   0.03126318493756404
0.4484695632459707   -0.009603618964387675   0.03126318493756404
0.4484695632459707   -0.009603618964387675   0.03126318493756404
0.4484695632459707   -0.009603618964387675   0.03126318493756404
0.6332927990456819   -0.02265977558045737   -0.02080893140981336
0.6332927990456819   -0.02265977558045737   -0.02080893140981336
0.6332927990456819   -0.02265977558045737   -0.02080893140981336
0.6332927990456819   -0.02265977558045737   -0.02080893140981336
0.4117788360374343   -0.10062063622602088   -0.06117343384348383
0.4117788360374343   -0.10062063622602088   -0.06117343384348383
0.4117788360374343   -0.10062063622602088   -0.06117343384348383
0.4117788360374343   -0.10062063622602088   -0.06117343384348383
0.9371200705166066   0.08923059018453412   0.03678372341153713
0.9371200705166066   0.08923059018453412   0.03678372341153713
0.9371200705166066   0.08923059018453412   0.03678372341153713
0.9371200705166066   0.08923059018453412   0.03678372341153713
0.9199148544364295   0.014007075188035956   -0.08880086362987896
0.9199148544364295   0.014007075188035956   -0.08880086362987896
0.9199148544364295   0.014007075188035956   -0.08880086362987896
0.9199148544364295   0.014007075188035956   -0.08880086362987896
0.451823383559287   0.0044556778362935395   0.023306599484894174
0.451823383559287   0.0044556778362935395   0.023306599484894174
0.451823383559287   0.0044556778362935395   0.023306599484894174
0.451823383559287   0.0044556778362935395   0.023306599484894174
0.6620415281326499   -0.002729723019820912   -0.006330574591155075
0.6620415281326499   -0.002729723019820912   -0.006330574591155075
0.6620415281326499   -0.002729723019820912   -0.006330574591155075
0.6620415281326499   -0.002729723019820912   -0.006330574591155075
0.4165076469352995   -0.08223122895497079   -0.06658517684378272
0.4165076469352995   -0.08223122895497079   -0.06658517684378272
0.4165076469352995   -0.08223122895497079   -0.06658517684378272
0.4165076469352995   -0.08223122895497079   -0.06658517684378272
0.9610519658705903   0.1065153567894728   0.0243764119394949
0.9610519658705903   0.1065153567894728   0.0243764119394949
0.9610519658705903   0.1065153567894728   0.0243764119394949
0.9610519658705903   0.1065153567894728   0.0243764119394949
0.9550329713048115   0.06194319521601911   -0.08354913129592009
0.9550329713048115   0.06194319521601911   -0.08354913129592009
0.9550329713048115   0.06194319521601911   -0.08354913129592009
0.9550329713048115   0.06194319521601911   -0.08354913129592009
0.4533724235799031   0.035489498115892304   0.017026500013570693
0.4533724235799031   0.035489498115892304   0.017026500013570693
0.4533724235799031   0.035489498115892304   0.017026500013570693
0.4533724235799031   0.035489498115892304   0.017026500013570693
0.6670278971298407   0.020048912185700457   0.009700900907701426
0.6670278971298407   0.020048912185700457   0.009700900907701426
0.6670278971298407   0.020048912185700457   0.009700900907701426
0.6670278971298407   0.020048912185700457   0.009700900907701426
-1.0535954761844468   -0.03434425422675408   0.06891533208258242
-1.0535954761844468   -0.03434425422675408   0.06891533208258242
-1.0535954761844468   -0.03434425422675408   0.06891533208258242
-1.0535954761844468   -0.03434425422675408   0.06891533208258242
-0.7374867272729481   -0.04934539065484908   -0.02600893802604149
-0.7374867272729481   -0.04934539065484908   -0.02600893802604149
-0.7374867272729481   -0.04934539065484908   -0.02600893802604149
-0.7374867272729481   -0.04934539065484908   -0.02600893802604149
-0.6940966354915147   0.06966339426578097   0.05875328005523586
-0.6940966354915147   0.06966339426578097   0.05875328005523586
-0.6940966354915147   0.06966339426578097   0.05875328005523586
-0.6940966354915147   0.06966339426578097   0.05875328005523586
-1.053673802077215   -0.08674918882561916   -0.03804906401270232
-1.053673802077215   -0.08674918882561916   -0.03804906401270232
-1.053673802077215   -0.08674918882561916   -0.03804906401270232
-1.053673802077215   -0.08674918882561916   -0.03804906401270232
-0.8484861749319925   -0.01350413346717666   -0.0019363643869703406
-0.8484861749319925   -0.01350413346717666   -0.0019363643869703406
-0.8484861749319925   -0.01350413346717666   -0.0019363643869703406
-0.8484861749319925   -0.01350413346717666   -0.0019363643869703406
-1.01420488208446   0.007000298634362828   0.06554604849109039
-1.01420488208446   0.007000298634362828   0.06554604849109039
-1.01420488208446   0.007000298634362828   0.06554604849109039
-1.01420488208446   0.007000298634362828   0.06554604849109039
-0.7303528764669555   -0.02087341417688615   -0.03199111637929676
-0.7303528764669555   -0.02087341417688615   -0.03199111637929676
-0.7303528764669555   -0.02087341417688615   -0.03199111637929676
-0.7303528764669555   -0.02087341417688615   -0.03199111637929676
-0.6875568579621401   0.08415688207989849   0.0496443181980292
-0.6875568579621401   0.08415688207989849   0.0496443181980292
-0.6875568579621401   0.08415688207989849   0.0496443181980292
-0.6875568579621401   0.08415688207989849   0.0496443181980292
-1.0286961165494934   -0.07059184867811336   -0.048090298720627596
-1.0286961165494934   -0.07059184867811336   -0.048090298720627596
-1.0286961165494934   -0.07059184867811336   -0.048090298720627596
-1.0286961165494934   -0.07059184867811336   -0.048090298720627596
-0.8425270570241451   0.005608250288910488   0.00886075817698393
-0.8425270570241451   0.005608250288910488   0.00886075817698393
-0.8425270570241451   0.005608250288910488   0.00886075817698393
-0.8425270570241451   0.005608250288910488   0.00886075817698393
-0.9895706828510794   0.02434521473430884   0.0525998063590202
-0.9895706828510794   0.02434521473430884   0.0525998063590202
-0.9895706828510794   0.02434521473430884   0.0525998063590202
-0.9895706828510794   0.02434521473430884   0.0525998063590202
-0.7237792914719337   -0.007877181143901929   -0.03943378612713038
-0.7237792914719337   -0.007877181143901929   -0.03943378612713038
-0.7237792914719337   -0.007877181143901929   -0.03943378612713038
-0.7237792914719337   -0.007877181143901929   -0.03943378612713038
-0.6839370655916374   0.09829212250802952   0.04271828105720733
-0.6839370655916374   0.09829212250802952   0.04271828105720733
-0.6839370655916374   0.09829212250802952   0.04271828105720733
-0.6839370655916374   0.09829212250802952   0.04271828105720733
-0.9952531723671022   -0.04922068731435503   -0.05757167122183496
-0.9952531723671022   -0.04922068731435503   -0.05757167122183496
-0.9952531723671022   -0.04922068731435503   -0.05757167122183496
-0.9952531723671022   -0.04922068731435503   -0.05757167122183496
-0.8108912933165651   0.02352483532329433   0.02399662826489623
-0.8108912933165651   0.02352483532329433   0.02399662826489623
-0.8108912933165651   0.02352483532329433   0.02399662826489623
-0.8108912933165651   0.02352483532329433   0.02399662826489623
-0.7291445699490069   -0.05954546364314181   0.02590192158195287
-0.7291445699490069   -0.05954546364314181   0.02590192158195287
-0.7291445699490069   -0.05954546364314181   0.02590192158195287
-0.7291445699490069   -0.05954546364314181   0.02590192158195287
-0.42310042795035696   -0.03197297320963647   -0.004199008303204724
-0.42310042795035696   -0.03197297320963647   -0.004199008303204724
-0.42310042795035696   -0.03197297320963647   -0.004199008303204724
-0.42310042795035696   -0.03197297320963647   -0.004199008303204724
-0.40159523953042564   0.04070245857901014   0.03167692120945388
-0.40159523953042564   0.04070245857901014   0.03167692120945388
-0.40159523953042564   0.04070245857901014   0.03167692120945388
-0.40159523953042564   0.04070245857901014   0.03167692120945388
-0.7401255705033417   -0.07088364349747253   -0.030844357240645277
-0.7401255705033417   -0.07088364349747253   -0.030844357240645277
-0.7401255705033417   -0.07088364349747253   -0.030844357240645277
-0.7401255705033417   -0.07088364349747253   -0.030844357240645277
-0.5711935263748027   -0.027832617167210624   -0.011690432253358366
-0.5711935263748027   -0.027832617167210624   -0.011690432253358366
-0.5711935263748027   -0.027832617167210624   -0.011690432253358366
-0.5711935263748027   -0.027832617167210624   -0.011690432253358366
-0.7205859571681075   -0.02519754666900606   0.021167612607054798
-0.7205859571681075   -0.02519754666900606   0.021167612607054798
-0.7205859571681075   -0.02519754666900606   0.021167612607054798
-0.7205859571681075   -0.02519754666900606   0.021167612607054798
-0.4186280314041819   -0.002476816787979147   -0.010307762792338117
-0.4186280314041819   -0.002476816787979147   -0.010307762792338117
-0.4186280314041819   -0.002476816787979147   -0.010307762792338117
-0.4186280314041819   -0.002476816787979147   -0.010307762792338117
-0.3964885147450148   0.07042737779836618   0.025968152410411796
-0.3964885147450148   0.07042737779836618   0.025968152410411796
-0.3964885147450148   0.07042737779836618   0.025968152410411796
-0.3964885147450148   0.07042737779836618   0.025968152410411796
-0.7301541825017939   -0.04284060639121108   -0.036344816029129784
-0.7301541825017939   -0.04284060639121108   -0.036344816029129784
-0.7301541825017939   -0.04284060639121108   -0.036344816029129784
-0.7301541825017939   -0.04284060639121108   -0.036344816029129784
-0.5602231609606303   0.0013735802202877595   0.0008571589376339395
-0.5602231609606303   0.0013735802202877595   0.0008571589376339395
-0.5602231609606303   0.0013735802202877595   0.0008571589376339395
-0.5602231609606303   0.0013735802202877595   0.0008571589376339395
-0.7091360200365797   0.006571103532597322   0.01933428637313242
-0.7091360200365797   0.006571103532597322   0.01933428637313242
-0.7091360200365797   0.006571103532597322   0.01933428637313242
-0.7091360200365797   0.006571103532597322   0.01933428637313242
-0.4143936686887463   0.02412867639603826   -0.017258915905915242
-0.4143936686887463   0.02412867639603826   -0.017258915905915242
-0.4143936686887463   0.02412867639603826   -0.017258915905915242
-0.4143936686887463   0.02412867639603826   -0.017258915905915242
-0.3915541385437289   0.1021091399603201   0.020651969890316625
-0.3915541385437289   0.1021091399603201   0.020651969890316625
-0.3915541385437289   0.1021091399603201   0.020651969890316625
-0.3915541385437289   0.1021091399603201   0.020651969890316625
-0.7226940673936092   -0.012611083634947673   -0.04016352180967464
-0.7226940673936092   -0.012611083634947673   -0.04016352180967464
-0.7226940673936092   -0.012611083634947673   -0.04016352180967464
-0.7226940673936092   -0.012611083634947673   -0.04016352180967464
-0.5559687819090849   0.0288673376045908   0.012810201563474885
-0.5559687819090849   0.0288673376045908   0.012810201563474885
-0.5559687819090849   0.0288673376045908   0.012810201563474885
-0.5559687819090849   0.0288673376045908   0.012810201563474885
-0.4320235743021123   -0.08186539650911394   0.0010776832374913485
-0.4320235743021123   -0.08186539650911394   0.0010776832374913485
-0.4320235743021123   -0.08186539650911394   0.0010776832374913485
-0.4320235743021123   -0.08186539650911394   0.0010776832374913485
-0.11193030506198762   -0.009623102542833651   0.017607708989350324
-0.11193030506198762   -0.009623102542833651   0.017607708989350324
-0.11193030506198762   -0.009623102542833651   0.017607708989350324
-0.11193030506198762   -0.009623102542833651   0.017607708989350324
-0.10919656680882159   0.01675192348527165   0.006004989844819942
-0.10919656680882159   0.01675192348527165   0.006004989844819942
-0.10919656680882159   0.01675192348527165   0.006004989844819942
-0.10919656680882159   0.01675192348527165   0.006004989844819942
-0.4272861291003169   -0.04786126180810612   -0.008213806252890631
-0.4272861291003169   -0.04786126180810612   -0.008213806252890631
-0.4272861291003169   -0.04786126180810612   -0.008213806252890631
-0.4272861291003169   -0.04786126180810612   -0.008213806252890631
-0.2705711326468377   -0.02933776781987659   -0.008312255949801126
-0.2705711326468377   -0.02933776781987659   -0.008312255949801126
-0.2705711326468377   -0.02933776781987659   -0.008312255949801126
-0.2705711326468377   -0.02933776781987659   -0.008312255949801126
-0.4265871786874046   -0.04870271671558002   -0.0038775992808554142
-0.4265871786874046   -0.04870271671558002   -0.0038775992808554142
-0.4265871786874046   -0.04870271671558002   -0.0038775992808554142
-0.4265871786874046   -0.04870271671558002   -0.0038775992808554142
-0.10738231829876259   0.02010657731571682   0.011721578564669764
-0.10738231829876259   0.02010657731571682   0.011721578564669764
-0.10738231829876259   0.02010657731571682   0.011721578564669764
-0.10738231829876259   0.02010657731571682   0.011721578564669764
-0.10302920646326652   0.05006411323550192   0.0015544940519606476
-0.10302920646326652   0.05006411323550192   0.0015544940519606476
-0.10302920646326652   0.05006411323550192   0.0015544940519606476
-0.10302920646326652   0.05006411323550192   0.0015544940519606476
-0.4221736542717416   -0.017923869513834872   -0.01410629791102119
-0.4221736542717416   -0.017923869513834872   -0.01410629791102119
-0.4221736542717416   -0.017923869513834872   -0.01410629791102119
-0.4221736542717416   -0.017923869513834872   -0.01410629791102119
-0.2639833848710812   0.0005934462905183707   0.0035152944887776073
-0.2639833848710812   0.0005934462905183707   0.0035152944887776073
-0.2639833848710812   0.0005934462905183707   0.0035152944887776073
-0.2639833848710812   0.0005934462905183707   0.0035152944887776073
-0.4206029049506444   -0.015497341196866549   -0.008679079622503808
-0.4206029049506444   -0.015497341196866549   -0.008679079622503808
-0.4206029049506444   -0.015497341196866549   -0.008679079622503808
-0.4206029049506444   -0.015497341196866549   -0.008679079622503808
-0.10227946426973769   0.04995807643315975   0.005409241821948053
-0.10227946426973769   0.04995807643315975   0.005409241821948053
-0.10227946426973769   0.04995807643315975   0.005409241821948053
-0.10227946426973769   0.04995807643315975   0.005409241821948053
-0.0974953544830935   0.08385950463259244   -0.0036736805104268105
-0.0974953544830935   0.08385950463259244   -0.0036736805104268105
-0.0974953544830935   0.08385950463259244   -0.0036736805104268105
-0.0974953544830935   0.08385950463259244   -0.0036736805104268105
-0.4176888046327565   0.012359548149518423   -0.020271768744021243
-0.4176888046327565   0.012359548149518423   -0.020271768744021243
-0.4176888046327565   0.012359548149518423   -0.020271768744021243
-0.4176888046327565   0.012359548149518423   -0.020271768744021243
-0.257968957740507   0.03066824267767347   0.014910023918650466
-0.257968957740507   0.03066824267767347   0.014910023918650466
-0.257968957740507   0.03066824267767347   0.014910023918650466
-0.257968957740507   0.03066824267767347   0.014910023918650466
-0.13819529205577244   -0.10016265718398658   -0.023177671338421874
-0.13819529205577244   -0.10016265718398658   -0.023177671338421874
-0.13819529205577244   -0.10016265718398658   -0.023177671338421874
-0.13819529205577244   -0.10016265718398658   -0.023177671338421874
0.19505797707079114   0.015433555282463984   0.0381791196524213
0.19505797707079114   0.015433555282463984   0.0381791196524213
0.19505797707079114   0.015433555282463984   0.0381791196524213
0.19505797707079114   0.015433555282463984   0.0381791196524213
0.18138423909013693   -0.005557790246211031   -0.0213447141499674
0.18138423909013693   -0.005557790246211031   -0.0213447141499674
0.18138423909013693   -0.005557790246211031   -0.0213447141499674
0.18138423909013693   -0.005557790246211031   -0.0213447141499674
-0.11556129528463967   -0.023227383751987535   0.014160654702988747
-0.11556129528463967   -0.023227383751987535   0.014160654702988747
-0.11556129528463967   -0.023227383751987535   0.014160654702988747
-0.11556129528463967   -0.023227383751987535   0.014160654702988747
0.029439571635795025   -0.027590529652603096   -0.0059193301696583685
0.029439571635795025   -0.027590529652603096   -0.0059193301696583685
0.029439571635795025   -0.027590529652603096   -0.0059193301696583685
0.029439571635795025   -0.027590529652603096   -0.0059193301696583685
-0.13344721678780305   -0.06996200492064057   -0.028534331644175154
-0.13344721678780305   -0.06996200492064057   -0.028534331644175154
-0.13344721678780305   -0.06996200492064057   -0.028534331644175154
-0.13344721678780305   -0.06996200492064057   -0.028534331644175154
0.20226077871057382   0.0441674490397149   0.03331274466628746
0.20226077871057382   0.0441674490397149   0.03331274466628746
0.20226077871057382   0.0441674490397149   0.03331274466628746
0.20226077871057382   0.0441674490397149   0.03331274466628746
0.1928632919645194   0.02595449190118217   -0.02418565602108162
0.1928632919645194   0.02595449190118217   -0.02418565602108162
0.1928632919645194   0.02595449190118217   -0.02418565602108162
0.1928632919645194   0.02595449190118217   -0.02418565602108162
-0.1111111120420277   0.003545479200653661   0.007663600193004111
-0.1111111120420277   0.003545479200653661   0.007663600193004111
-0.1111111120420277   0.003545479200653661   0.007663600193004111
-0.1111111120420277   0.003545479200653661   0.007663600193004111
0.035548045205070926   -0.0004446430175935826   0.006114654482289742
0.035548045205070926   -0.0004446430175935826   0.006114654482289742
0.035548045205070926   -0.0004446430175935826   0.006114654482289742
0.035548045205070926   -0.0004446430175935826   0.006114654482289742
-0.1283720159752408   -0.04039543878086143   -0.03470000149154705
-0.1283720159752408   -0.04039543878086143   -0.03470000149154705
-0.1283720159752408   -0.04039543878086143   -0.03470000149154705
-0.1283720159752408   -0.04039543878086143   -0.03470000149154705
0.2127179806385854   0.07248919462354843   0.0285530846268802
0.2127179806385854   0.07248919462354843   0.0285530846268802
0.2127179806385854   0.07248919462354843   0.0285530846268802
0.2127179806385854   0.07248919462354843   0.0285530846268802
0.20210855410686757   0.06186394199408911   -0.027951385105397047
0.20210855410686757   0.06186394199408911   -0.027951385105397047
0.20210855410686757   0.06186394199408911   -0.027951385105397047
0.20210855410686757   0.06186394199408911   -0.027951385105397047
-0.10635541485780427   0.034402571525756556   0.001482950722854098
-0.10635541485780427   0.034402571525756556   0.001482950722854098
-0.10635541485780427   0.034402571525756556   0.001482950722854098
-0.10635541485780427   0.034402571525756556   0.001482950722854098
0.044975499909380774   0.0290750051995586   0.01857288760011688
0.044975499909380774   0.0290750051995586   0.01857288760011688
0.044975499909380774   0.0290750051995586   0.01857288760011688
0.044975499909380774   0.0290750051995586   0.01857288760011688
0.15494102917423658   -0.10120855538665025   -0.04576350916123531
0.15494102917423658   -0.10120855538665025   -0.04576350916123531
0.15494102917423658   -0.10120855538665025   -0.04576350916123531
0.15494102917423658   -0.10120855538665025   -0.04576350916123531
0.46771866470820256   0.046152585189418255   0.049484892136670205
0.46771866470820256   0.046152585189418255   0.049484892136670205
0.46771866470820256   0.046152585189418255   0.049484892136670205
0.46771866470820256   0.046152585189418255   0.049484892136670205
0.4630323448758643   -0.02499375746893799   -0.06025028921508116
0.4630323448758643   -0.02499375746893799   -0.06025028921508116
0.4630323448758643   -0.02499375746893799   -0.06025028921508116
0.4630323448758643   -0.02499375746893799   -0.06025028921508116
0.19583692241318384   0.008427262128872723   0.0369336500901816
0.19583692241318384   0.008427262128872723   0.0369336500901816
0.19583692241318384   0.008427262128872723   0.0369336500901816
0.19583692241318384   0.008427262128872723   0.0369336500901816
0.3036774218164979   -0.02097096544258431   -0.016080978138675733
0.3036774218164979   -0.02097096544258431   -0.016080978138675733
0.3036774218164979   -0.02097096544258431   -0.016080978138675733
0.3036774218164979   -0.02097096544258431   -0.016080978138675733
0.1593221051339372   -0.08427365200811884   -0.05293952216905827
0.1593221051339372   -0.08427365200811884   -0.05293952216905827
0.1593221051339372   -0.08427365200811884   -0.05293952216905827
0.1593221051339372   -0.08427365200811884   -0.05293952216905827
0.5025962671387216   0.07075626165166646   0.041819302978612444
0.5025962671387216   0.07075626165166646   0.041819302978612444
0.5025962671387216   0.07075626165166646   0.041819302978612444
0.5025962671387216   0.07075626165166646   0.041819302978612444
0.48840922965916994   -0.00734310979175018   -0.07227318475520744
0.48840922965916994   -0.00734310979175018   -0.07227318475520744
0.48840922965916994   -0.00734310979175018   -0.07227318475520744
0.48840922965916994   -0.00734310979175018   -0.07227318475520744
0.2025424158555638   0.021357394206648454   0.028807061128672175
0.2025424158555638   0.021357394206648454   0.028807061128672175
0.2025424158555638   0.021357394206648454   0.028807061128672175
0.2025424158555638   0.021357394206648454   0.028807061128672175
0.3292928564106314   -0.003167565561635763   -0.0019088222731549996
0.3292928564106314   -0.003167565561635763   -0.0019088222731549996
0.3292928564106314   -0.003167565561635763   -0.0019088222731549996
0.3292928564106314   -0.003167565561635763   -0.0019088222731549996
0.16631163779329583   -0.06958823184090711   -0.06140120313511025
0.16631163779329583   -0.06958823184090711   -0.06140120313511025
0.16631163779329583   -0.06958823184090711   -0.06140120313511025
0.16631163779329583   -0.06958823184090711   -0.06140120313511025
0.5278184354969087   0.08678094403127644   0.03064879061046721
0.5278184354969087   0.08678094403127644   0.03064879061046721
0.5278184354969087   0.08678094403127644   0.03064879061046721
0.5278184354969087   0.08678094403127644   0.03064879061046721
0.5273864294944118   0.031411506205577464   -0.07737746545251986
0.5273864294944118   0.031411506205577464   -0.07737746545251986
0.5273864294944118   0.031411506205577464   -0.07737746545251986
0.5273864294944118   0.031411506205577464   -0.07737746545251986
0.20940396371674366   0.047497635516892026   0.022891969421180575
0.20940396371674366   0.047497635516892026   0.022891969421180575
0.20940396371674366   0.047497635516892026   0.022891969421180575
0.20940396371674366   0.047497635516892026   0.022891969421180575
0.3420992487717868   0.016444714051793152   0.010296082117613445
0.3420992487717868   0.016444714051793152   0.010296082117613445
0.3420992487717868   0.016444714051793152   0.010296082117613445
0.3420992487717868   0.016444714051793152   0.010296082117613445
-0.6309603861325809   -0.010489211909685159   0.061745614559410904
-0.6309603861325809   -0.010489211909685159   0.061745614559410904
-0.6309603861325809   -0.010489211909685159   0.061745614559410904
-0.6309603861325809   -0.010489211909685159   0.061745614559410904
-0.4925436836035921   -0.06258067064330188   -0.030518508130194126
-0.4925436836035921   -0.06258067064330188   -0.030518508130194126
-0.4925436836035921   -0.06258067064330188   -0.030518508130194126
-0.4925436836035921   -0.06258067064330188   -0.030518508130194126
-0.4458234219865288   0.05298881273698064   0.05279056370961059
-0.4458234219865288   0.05298881273698064   0.05279056370961059
-0.4458234219865288   0.05298881273698064   0.05279056370961059
-0.4458234219865288   0.05298881273698064   0.05279056370961059
-0.6283143271657501   -0.06845803725371652   -0.04155107063387054
-0.6283143271657501   -0.06845803725371652   -0.04155107063387054
-0.6283143271657501   -0.06845803725371652   -0.04155107063387054
-0.6283143271657501   -0.06845803725371652   -0.04155107063387054
-0.5284009140716409   -0.014523771264489976   -0.007838045057761568
-0.5284009140716409   -0.014523771264489976   -0.007838045057761568
-0.5284009140716409   -0.014523771264489976   -0.007838045057761568
-0.5284009140716409   -0.014523771264489976   -0.007838045057761568
-0.5894131510099091   0.025510090640588373   0.05898668225102961
-0.5894131510099091   0.025510090640588373   0.05898668225102961
-0.5894131510099091   0.025510090640588373   0.05898668225102961
-0.5894131510099091   0.025510090640588373   0.05898668225102961
-0.4820183915579935   -0.0382731085729448   -0.03692236283778387
-0.4820183915579935   -0.0382731085729448   -0.03692236283778387
-0.4820183915579935   -0.0382731085729448   -0.03692236283778387
-0.4820183915579935   -0.0382731085729448   -0.03692236283778387
-0.43478326636093334   0.06673779041581421   0.044645046560450034
-0.43478326636093334   0.06673779041581421   0.044645046560450034
-0.43478326636093334   0.06673779041581421   0.044645046560450034
-0.43478326636093334   0.06673779041581421   0.044645046560450034
-0.5994543232105812   -0.05287703952591155   -0.05190473322112421
-0.5994543232105812   -0.05287703952591155   -0.05190473322112421
-0.5994543232105812   -0.05287703952591155   -0.05190473322112421
-0.5994543232105812   -0.05287703952591155   -0.05190473322112421
-0.5133136933280528   0.0034685054566739038   0.003649026287067432
-0.5133136933280528   0.0034685054566739038   0.003649026287067432
-0.5133136933280528   0.0034685054566739038   0.003649026287067432
-0.5133136933280528   0.0034685054566739038   0.003649026287067432
-0.5605287054317571   0.042190797099146304   0.047655519047934324
-0.5605287054317571   0.042190797099146304   0.047655519047934324
-0.5605287054317571   0.042190797099146304   0.047655519047934324
-0.5605287054317571   0.042190797099146304   0.047655519047934324
-0.47114857675744454   -0.025769738826931468   -0.0446739761793605
-0.47114857675744454   -0.025769738826931468   -0.0446739761793605
-0.47114857675744454   -0.025769738826931468   -0.0446739761793605
-0.47114857675744454   -0.025769738826931468   -0.0446739761793605
-0.4258470029503092   0.08387552330683967   0.038503212467345505
-0.4258470029503092   0.08387552330683967   0.038503212467345505
-0.4258470029503092   0.08387552330683967   0.038503212467345505
-0.4258470029503092   0.08387552330683967   0.038503212467345505
-0.5606845575697577   -0.027929633218303357   -0.06006401799901193
-0.5606845575697577   -0.027929633218303357   -0.06006401799901193
-0.5606845575697577   -0.027929633218303357   -0.06006401799901193
-0.5606845575697577   -0.027929633218303357   -0.06006401799901193
-0.4828776826908192   0.02121728027283669   0.017894536665909337
-0.4828776826908192   0.02121728027283669   0.017894536665909337
-0.4828776826908192   0.02121728027283669   0.017894536665909337
-0.4828776826908192   0.02121728027283669   0.017894536665909337
-0.47523638660971607   -0.035727418368075504   0.029164724563959236
-0.47523638660971607   -0.035727418368075504   0.029164724563959236
-0.47523638660971607   -0.035727418368075504   0.029164724563959236
-0.47523638660971607   -0.035727418368075504   0.029164724563959236
-0.3492378668596071   -0.047443271782031345   -0.00903349601836602
-0.3492378668596071   -0.047443271782031345   -0.00903349601836602
-0.3492378668596071   -0.047443271782031345   -0.00903349601836602
-0.3492378668596071   -0.047443271782031345   -0.00903349601836602
-0.32320213425049676   0.024067671059337936   0.026988779290562197
-0.32320213425049676   0.024067671059337936   0.026988779290562197
-0.32320213425049676   0.024067671059337936   0.026988779290562197
-0.32320213425049676   0.024067671059337936   0.026988779290562197
-0.4822956982275331   -0.050524356526750976   -0.02605764823167178
-0.4822956982275331   -0.050524356526750976   -0.02605764823167178
-0.4822956982275331   -0.050524356526750976   -0.02605764823167178
-0.4822956982275331   -0.050524356526750976   -0.02605764823167178
-0.40637594443710057   -0.025241269861947274   -0.010965694455453878
-0.40637594443710057   -0.025241269861947274   -0.010965694455453878
-0.40637594443710057   -0.025241269861947274   -0.010965694455453878
-0.40637594443710057   -0.025241269861947274   -0.010965694455453878
-0.4628757514729423   -0.0043010520336323466   0.024818781048156262
-0.4628757514729423   -0.0043010520336323466   0.024818781048156262
-0.4628757514729423   -0.0043010520336323466   0.024818781048156262
-0.4628757514729423   -0.0043010520336323466   0.024818781048156262
-0.3404395225816753   -0.019973075010369608   -0.015157416295622785
-0.3404395225816753   -0.019973075010369608   -0.015157416295622785
-0.3404395225816753   -0.019973075010369608   -0.015157416295622785
-0.3404395225816753   -0.019973075010369608   -0.015157416295622785
-0.3136843388347748   0.052039159754006775   0.02158417102994049
-0.3136843388347748   0.052039159754006775   0.02158417102994049
-0.3136843388347748   0.052039159754006775   0.02158417102994049
-0.3136843388347748   0.052039159754006775   0.02158417102994049
-0.4680275136533671   -0.023640694953026287   -0.031197704532874508
-0.4680275136533671   -0.023640694953026287   -0.031197704532874508
-0.4680275136533671   -0.023640694953026287   -0.031197704532874508
-0.4680275136533671   -0.023640694953026287   -0.031197704532874508
-0.39260347589831146   0.0017197733221701594   0.0011096130512670069
-0.39260347589831146   0.0017197733221701594   0.0011096130512670069
-0.39260347589831146   0.0017197733221701594   0.0011096130512670069
-0.39260347589831146   0.0017197733221701594   0.0011096130512670069
-0.4474673981427048   0.025465124416592447   0.022497053650814242
-0.4474673981427048   0.025465124416592447   0.022497053650814242
-0.4474673981427048   0.025465124416592447   0.022497053650814242
-0.4474673981427048   0.025465124416592447   0.022497053650814242
-0.3317248426039032   0.0054529521259154695   -0.022032140187614326
-0.3317248426039032   0.0054529521259154695   -0.022032140187614326
-0.3317248426039032   0.0054529521259154695   -0.022032140187614326
-0.3317248426039032   0.0054529521259154695   -0.022032140187614326
-0.3041965048464225   0.08240842661780196   0.01643646690690225
-0.3041965048464225   0.08240842661780196   0.01643646690690225
-0.3041965048464225   0.08240842661780196   0.01643646690690225
-0.3041965048464225   0.08240842661780196   0.01643646690690225
-0.45625583776968204   0.005730035244791862   -0.035395473567463726
-0.45625583776968204   0.005730035244791862   -0.035395473567463726
-0.45625583776968204   0.005730035244791862   -0.035395473567463726
-0.45625583776968204   0.005730035244791862   -0.035395473567463726
-0.3826467989978447   0.028159611969014064   0.012924217295489968
-0.3826467989978447   0.028159611969014064   0.012924217295489968
-0.3826467989978447   0.028159611969014064   0.012924217295489968
-0.3826467989978447   0.028159611969014064   0.012924217295489968
-0.3488091568326726   -0.05948921518999156   0.00515599752426113
-0.3488091568326726   -0.05948921518999156   0.00515599752426113
-0.3488091568326726   -0.05948921518999156   0.00515599752426113
-0.3488091568326726   -0.05948921518999156   0.00515599752426113
-0.207840854665957   -0.025078581532990973   0.012804114439500327
-0.207840854665957   -0.025078581532990973   0.012804114439500327
-0.207840854665957   -0.025078581532990973   0.012804114439500327
-0.207840854665957   -0.025078581532990973   0.012804114439500327
-0.20076340580402913   -0.0005841812795508022   0.001648873093598199
-0.20076340580402913   -0.0005841812795508022   0.001648873093598199
-0.20076340580402913   -0.0005841812795508022   0.001648873093598199
-0.20076340580402913   -0.0005841812795508022   0.001648873093598199
-0.3394372623400975   -0.02711205778337121   -0.0030071323147324476
-0.3394372623400975   -0.02711205778337121   -0.0030071323147324476
-0.3394372623400975   -0.02711205778337121   -0.0030071323147324476
-0.3394372623400975   -0.02711205778337121   -0.0030071323147324476
-0.2746495649739188   -0.026752155715462057   -0.007988740622226083
-0.2746495649739188   -0.026752155715462057   -0.007988740622226083
-0.2746495649739188   -0.026752155715462057   -0.007988740622226083
-0.2746495649739188   -0.026752155715462057   -0.007988740622226083
-0.3390282681036876   -0.02848481011784467   0.00041059120178726753
-0.3390282681036876   -0.02848481011784467   0.00041059120178726753
-0.3390282681036876   -0.02848481011784467   0.00041059120178726753
-0.3390282681036876   -0.02848481011784467   0.00041059120178726753
-0.1990016401217528   0.002959330973610924   0.006914189251818113
-0.1990016401217528   0.002959330973610924   0.006914189251818113
-0.1990016401217528   0.002959330973610924   0.006914189251818113
-0.1990016401217528   0.002959330973610924   0.006914189251818113
-0.19042226322318284   0.030693878230638176   -0.002768950237230016
-0.19042226322318284   0.030693878230638176   -0.002768950237230016
-0.19042226322318284   0.030693878230638176   -0.002768950237230016
-0.19042226322318284   0.030693878230638176   -0.002768950237230016
-0.32990172822650005   0.0013263552065257422   -0.008789971381208666
-0.32990172822650005   0.0013263552065257422   -0.008789971381208666
-0.32990172822650005   0.0013263552065257422   -0.008789971381208666
-0.32990172822650005   0.0013263552065257422   -0.008789971381208666
-0.26374007318141396   0.0013642497470508358   0.003723806682409434
-0.26374007318141396   0.0013642497470508358   0.003723806682409434
-0.26374007318141396   0.0013642497470508358   0.003723806682409434
-0.26374007318141396   0.0013642497470508358   0.003723806682409434
-0.3287527268030288   0.0026982114588740697   -0.004416820516204584
-0.3287527268030288   0.0026982114588740697   -0.004416820516204584
-0.3287527268030288   0.0026982114588740697   -0.004416820516204584
-0.3287527268030288   0.0026982114588740697   -0.004416820516204584
-0.18960795999074864   0.03128532663419492   0.0007111175213858588
-0.18960795999074864   0.03128532663419492   0.0007111175213858588
-0.18960795999074864   0.03128532663419492   0.0007111175213858588
-0.18960795999074864   0.03128532663419492   0.0007111175213858588
-0.18065432231201234   0.062259718070670475   -0.007805401459005115
-0.18065432231201234   0.062259718070670475   -0.007805401459005115
-0.18065432231201234   0.062259718070670475   -0.007805401459005115
-0.18065432231201234   0.062259718070670475   -0.007805401459005115
-0.3209634813227081   0.029983724583195495   -0.014973713439919299
-0.3209634813227081   0.029983724583195495   -0.014973713439919299
-0.3209634813227081   0.029983724583195495   -0.014973713439919299
-0.3209634813227081   0.029983724583195495   -0.014973713439919299
-0.25342276382722895   0.02958177054706878   0.014964721093878947
-0.25342276382722895   0.02958177054706878   0.014964721093878947
-0.25342276382722895   0.02958177054706878   0.014964721093878947
-0.25342276382722895   0.02958177054706878   0.014964721093878947
-0.22523314403913716   -0.08008972971823491   -0.019146184241160227
-0.22523314403913716   -0.08008972971823491   -0.019146184241160227
-0.22523314403913716   -0.08008972971823491   -0.019146184241160227
-0.22523314403913716   -0.08008972971823491   -0.019146184241160227
-0.07048248529588678   -0.001334135105301927   0.03356612557379411
-0.07048248529588678   -0.001334135105301927   0.03356612557379411
-0.07048248529588678   -0.001334135105301927   0.03356612557379411
-0.07048248529588678   -0.001334135105301927   0.03356612557379411
-0.08004202994174946   -0.023897062693048164   -0.02470700534518924
-0.08004202994174946   -0.023897062693048164   -0.02470700534518924
-0.08004202994174946   -0.023897062693048164   -0.02470700534518924
-0.08004202994174946   -0.023897062693048164   -0.02470700534518924
-0.1977415353342582   -0.003054708707948127   0.01922875287084866
-0.1977415353342582   -0.003054708707948127   0.01922875287084866
-0.1977415353342582   -0.003054708707948127   0.01922875287084866
-0.1977415353342582   -0.003054708707948127   0.01922875287084866
-0.14334157991663848   -0.025912794189513838   -0.005766147919079445
-0.14334157991663848   -0.025912794189513838   -0.005766147919079445
-0.14334157991663848   -0.025912794189513838   -0.005766147919079445
-0.14334157991663848   -0.025912794189513838   -0.005766147919079445
-0.21602108487270366   -0.05099684443005575   -0.024226859099272965
-0.21602108487270366   -0.05099684443005575   -0.024226859099272965
-0.21602108487270366   -0.05099684443005575   -0.024226859099272965
-0.21602108487270366   -0.05099684443005575   -0.024226859099272965
-0.05933063336861465   0.026476920063748473   0.028475994763688103
-0.05933063336861465   0.026476920063748473   0.028475994763688103
-0.05933063336861465   0.026476920063748473   0.028475994763688103
-0.05933063336861465   0.026476920063748473   0.028475994763688103
-0.06490465023053973   0.005690922227470613   -0.027815646484383727
-0.06490465023053973   0.005690922227470613   -0.027815646484383727
-0.06490465023053973   0.005690922227470613   -0.027815646484383727
-0.06490465023053973   0.005690922227470613   -0.027815646484383727
-0.1889455152492037   0.022479266526415423   0.012829401336888448
-0.1889455152492037   0.022479266526415423   0.012829401336888448
-0.1889455152492037   0.022479266526415423   0.012829401336888448
-0.1889455152492037   0.022479266526415423   0.012829401336888448
-0.13172968086883322   0.0002790997423939498   0.006171935339303384
-0.13172968086883322   0.0002790997423939498   0.006171935339303384
-0.13172968086883322   0.0002790997423939498   0.006171935339303384
-0.13172968086883322   0.0002790997423939498   0.006171935339303384
-0.2066445817577048   -0.023109389764105412   -0.03007727491509879
-0.2066445817577048   -0.023109389764105412   -0.03007727491509879
-0.2066445817577048   -0.023109389764105412   -0.03007727491509879
-0.2066445817577048   -0.023109389764105412   -0.03007727491509879
-0.04494164576348374   0.05354351647654592   0.024146781601820967
-0.04494164576348374   0.05354351647654592   0.024146781601820967
-0.04494164576348374   0.05354351647654592   0.024146781601820967
-0.04494164576348374   0.05354351647654592   0.024146781601820967
-0.052101625402737196   0.03872396267810453   -0.0311638829704731
-0.052101625402737196   0.03872396267810453   -0.0311638829704731
-0.052101625402737196   0.03872396267810453   -0.0311638829704731
-0.052101625402737196   0.03872396267810453   -0.0311638829704731
-0.17994056696945424   0.05136296877137504   0.006660124553080769
-0.17994056696945424   0.05136296877137504   0.006660124553080769
-0.17994056696945424   0.05136296877137504   0.006660124553080769
-0.17994056696945424   0.05136296877137504   0.006660124553080769
-0.11971742957683508   0.027570275426438584   0.018107709059909726
-0.11971742957683508   0.027570275426438584   0.018107709059909726
-0.11971742957683508   0.027570275426438584   0.018107709059909726
-0.11971742957683508   0.027570275426438584   0.018107709059909726
-0.1024785684878126   -0.08611127081278883   -0.04163715467835
-0.1024785684878126   -0.08611127081278883   -0.04163715467835
-0.1024785684878126   -0.08611127081278883   -0.04163715467835
-0.1024785684878126   -0.08611127081278883   -0.04163715467835
0.03300263594810732   0.025339712438132288   0.051221888093809405
0.03300263594810732   0.025339712438132288   0.051221888093809405
0.03300263594810732   0.025339712438132288   0.051221888093809405
0.03300263594810732   0.025339712438132288   0.051221888093809405
0.03322531287247624   -0.0425110925531009   -0.05514651377897888
0.03322531287247624   -0.0425110925531009   -0.05514651377897888
0.03322531287247624   -0.0425110925531009   -0.05514651377897888
0.03322531287247624   -0.0425110925531009   -0.05514651377897888
-0.05661775286099911   0.02659284856973525   0.041924468795779074
-0.05661775286099911   0.02659284856973525   0.041924468795779074
-0.05661775286099911   0.02659284856973525   0.041924468795779074
-0.05661775286099911   0.02659284856973525   0.041924468795779074
-0.024282433759881372   -0.0183193761963073   -0.009711949109220764
-0.024282433759881372   -0.0183193761963073   -0.009711949109220764
-0.024282433759881372   -0.0183193761963073   -0.009711949109220764
-0.024282433759881372   -0.0183193761963073   -0.009711949109220764
-0.09316239405332684   -0.06633375741807582   -0.047872131178050434
-0.09316239405332684   -0.06633375741807582   -0.047872131178050434
-0.09316239405332684   -0.06633375741807582   -0.047872131178050434
-0.09316239405332684   -0.06633375741807582   -0.047872131178050434
0.07236925985473394   0.05301481922463984   0.04504730935456895
0.07236925985473394   0.05301481922463984   0.04504730935456895
0.07236925985473394   0.05301481922463984   0.04504730935456895
0.07236925985473394   0.05301481922463984   0.04504730935456895
0.06223218360012888   -0.02556981008548005   -0.0655187280765354
0.06223218360012888   -0.02556981008548005   -0.0655187280765354
0.06223218360012888   -0.02556981008548005   -0.0655187280765354
0.06223218360012888   -0.02556981008548005   -0.0655187280765354
-0.04597677428510773   0.038886060752171034   0.033628594718074
-0.04597677428510773   0.038886060752171034   0.033628594718074
-0.04597677428510773   0.038886060752171034   0.033628594718074
-0.04597677428510773   0.038886060752171034   0.033628594718074
-0.00045573685378476716   -0.0008836331943038156   0.0032192892942722613
-0.00045573685378476716   -0.0008836331943038156   0.0032192892942722613
-0.00045573685378476716   -0.0008836331943038156   0.0032192892942722613
-0.00045573685378476716   -0.0008836331943038156   0.0032192892942722613
-0.08203324253677048   -0.05239390571263851   -0.05537378007542837
-0.08203324253677048   -0.05239390571263851   -0.05537378007542837
-0.08203324253677048   -0.05239390571263851   -0.05537378007542837
-0.08203324253677048   -0.05239390571263851   -0.05537378007542837
0.10089132562891731   0.06831283015645549   0.03389434182547125
0.10089132562891731   0.06831283015645549   0.03389434182547125
0.10089132562891731   0.06831283015645549   0.03389434182547125
0.10089132562891731   0.06831283015645549   0.03389434182547125
0.10290346346817016   0.007584440690243802   -0.07017350446348701
0.10290346346817016   0.007584440690243802   -0.07017350446348701
0.10290346346817016   0.007584440690243802   -0.07017350446348701
0.10290346346817016   0.007584440690243802   -0.07017350446348701
-0.03603764759018985   0.06055090902432975   0.02732905974603651
-0.03603764759018985   0.06055090902432975   0.02732905974603651
-0.03603764759018985   0.06055090902432975   0.02732905974603651
-0.03603764759018985   0.06055090902432975   0.02732905974603651
0.021051366318547274   0.01742627972654709   0.015867505311736016
0.021051366318547274   0.01742627972654709   0.015867505311736016
0.021051366318547274   0.01742627972654709   0.015867505311736016
0.021051366318547274   0.01742627972654709   0.015867505311736016
-0.20844099399794327   0.01204855166036825   0.058524913782507786
-0.20844099399794327   0.01204855166036825   0.058524913782507786
-0.20844099399794327   0.01204855166036825   0.058524913782507786
-0.20844099399794327   0.01204855166036825   0.058524913782507786
-0.2484902337836503   -0.07626023782960273   -0.034459251378123654
-0.2484902337836503   -0.07626023782960273   -0.034459251378123654
-0.2484902337836503   -0.07626023782960273   -0.034459251378123654
-0.2484902337836503   -0.07626023782960273   -0.034459251378123654
-0.1983891033528375   0.035419718797256874   0.04791248580806853
-0.1983891033528375   0.035419718797256874   0.04791248580806853
-0.1983891033528375   0.035419718797256874   0.04791248580806853
-0.1983891033528375   0.035419718797256874   0.04791248580806853
-0.2024312508680852   -0.05005935958184844   -0.04442051432103927
-0.2024312508680852   -0.05005935958184844   -0.04442051432103927
-0.2024312508680852   -0.05005935958184844   -0.04442051432103927
-0.2024312508680852   -0.05005935958184844   -0.04442051432103927
-0.20903905453391403   -0.016075256310073935   -0.016040067515306747
-0.20903905453391403   -0.016075256310073935   -0.016040067515306747
-0.20903905453391403   -0.016075256310073935   -0.016040067515306747
-0.20903905453391403   -0.016075256310073935   -0.016040067515306747
-0.16390681186601097   0.04363512012875302   0.05450720097872275
-0.16390681186601097   0.04363512012875302   0.05450720097872275
-0.16390681186601097   0.04363512012875302   0.05450720097872275
-0.16390681186601097   0.04363512012875302   0.05450720097872275
-0.23449445102454944   -0.055855669582982964   -0.04133886417024759
-0.23449445102454944   -0.055855669582982964   -0.04133886417024759
-0.23449445102454944   -0.055855669582982964   -0.04133886417024759
-0.23449445102454944   -0.055855669582982964   -0.04133886417024759
-0.18296724688264582   0.04886439577737019   0.040315366967349046
-0.18296724688264582   0.04886439577737019   0.040315366967349046
-0.18296724688264582   0.04886439577737019   0.040315366967349046
-0.18296724688264582   0.04886439577737019   0.040315366967349046
-0.1693318301598353   -0.034865127329521024   -0.055321476892950146
-0.1693318301598353   -0.034865127329521024   -0.055321476892950146
-0.1693318301598353   -0.034865127329521024   -0.055321476892950146
-0.1693318301598353   -0.034865127329521024   -0.055321476892950146
-0.18462190346949225   0.0010972721979094213   -0.003367767206175166
-0.18462190346949225   0.0010972721979094213   -0.003367767206175166
-0.18462190346949225   0.0010972721979094213   -0.003367767206175166
-0.18462190346949225   0.0010972721979094213   -0.003367767206175166
-0.13059012370620243   0.0599842771902718   0.04353765085541375
-0.13059012370620243   0.0599842771902718   0.04353765085541375
-0.13059012370620243   0.0599842771902718   0.04353765085541375
-0.13059012370620243   0.0599842771902718   0.04353765085541375
-0.21942915111386774   -0.04370520652001231   -0.049424551891374145
-0.21942915111386774   -0.04370520652001231   -0.049424551891374145
-0.21942915111386774   -0.04370520652001231   -0.049424551891374145
-0.21942915111386774   -0.04370520652001231   -0.049424551891374145
-0.16886320994940743   0.06941130093239448   0.03481930513411173
-0.16886320994940743   0.06941130093239448   0.03481930513411173
-0.16886320994940743   0.06941130093239448   0.03481930513411173
-0.16886320994940743   0.06941130093239448   0.03481930513411173
-0.12514777946796588   -0.005984174021879778   -0.06231731959730901
-0.12514777946796588   -0.005984174021879778   -0.06231731959730901
-0.12514777946796588   -0.005984174021879778   -0.06231731959730901
-0.12514777946796588   -0.005984174021879778   -0.06231731959730901
-0.155280807676038   0.019047499156916954   0.010194141344655619
-0.155280807676038   0.019047499156916954   0.010194141344655619
-0.155280807676038   0.019047499156916954   0.010194141344655619
-0.155280807676038   0.019047499156916954   0.010194141344655619
-0.22240777229324227   -0.013609991680188518   0.0333028099244985
-0.22240777229324227   -0.013609991680188518   0.0333028099244985
-0.22240777229324227   -0.013609991680188518   0.0333028099244985
-0.22240777229324227   -0.013609991680188518   0.0333028099244985
-0.2765501599674519   -0.06220788027082666   -0.01346224064698898
-0.2765501599674519   -0.06220788027082666   -0.01346224064698898
-0.2765501599674519   -0.06220788027082666   -0.01346224064698898
-0.2765501599674519   -0.06220788027082666   -0.01346224064698898
-0.24661026459834923   0.0062712454202900544   0.02223492787434947
-0.24661026459834923   0.0062712454202900544   0.02223492787434947
-0.24661026459834923   0.0062712454202900544   0.02223492787434947
-0.24661026459834923   0.0062712454202900544   0.02223492787434947
-0.2249933348872935   -0.0293176075283461   -0.02037134553860097
-0.2249933348872935   -0.0293176075283461   -0.02037134553860097
-0.2249933348872935   -0.0293176075283461   -0.02037134553860097
-0.2249933348872935   -0.0293176075283461   -0.02037134553860097
-0.24282079496277945   -0.02281750670768723   -0.011273648678091268
-0.24282079496277945   -0.02281750670768723   -0.011273648678091268
-0.24282079496277945   -0.02281750670768723   -0.011273648678091268
-0.24282079496277945   -0.02281750670768723   -0.011273648678091268
-0.20609442420614338   0.015740456659683787   0.02906514367911226
-0.20609442420614338   0.015740456659683787   0.02906514367911226
-0.20609442420614338   0.015740456659683787   0.02906514367911226
-0.20609442420614338   0.015740456659683787   0.02906514367911226
-0.26361391189216593   -0.036891555380408635   -0.019620507794041182
-0.26361391189216593   -0.036891555380408635   -0.019620507794041182
-0.26361391189216593   -0.036891555380408635   -0.019620507794041182
-0.26361391189216593   -0.036891555380408635   -0.019620507794041182
-0.23284256148505658   0.03302828601288095   0.016962248128351072
-0.23284256148505658   0.03302828601288095   0.016962248128351072
-0.23284256148505658   0.03302828601288095   0.016962248128351072
-0.23284256148505658   0.03302828601288095   0.016962248128351072
-0.20656839794780948   -0.003536227452326887   -0.02528976512876838
-0.20656839794780948   -0.003536227452326887   -0.02528976512876838
-0.20656839794780948   -0.003536227452326887   -0.02528976512876838
-0.20656839794780948   -0.003536227452326887   -0.02528976512876838
-0.2263679592419463   0.002143718355677081   0.00042063757594304994
-0.2263679592419463   0.002143718355677081   0.00042063757594304994
-0.2263679592419463   0.002143718355677081   0.00042063757594304994
-0.2263679592419463   0.002143718355677081   0.00042063757594304994
-0.18674965614017375   0.04408996728966682   0.026177749167412938
-0.18674965614017375   0.04408996728966682   0.026177749167412938
-0.18674965614017375   0.04408996728966682   0.026177749167412938
-0.18674965614017375   0.04408996728966682   0.026177749167412938
-0.2506409333722467   -0.012577538808670935   -0.026423786486051443
-0.2506409333722467   -0.012577538808670935   -0.026423786486051443
-0.2506409333722467   -0.012577538808670935   -0.026423786486051443
-0.2506409333722467   -0.012577538808670935   -0.026423786486051443
-0.2190072763089591   0.06264895706215362   0.011950574058622133
-0.2190072763089591   0.06264895706215362   0.011950574058622133
-0.2190072763089591   0.06264895706215362   0.011950574058622133
-0.2190072763089591   0.06264895706215362   0.011950574058622133
-0.19067585747300658   0.02508351692309463   -0.029916148474580524
-0.19067585747300658   0.02508351692309463   -0.029916148474580524
-0.19067585747300658   0.02508351692309463   -0.029916148474580524
-0.19067585747300658   0.02508351692309463   -0.029916148474580524
-0.2108122788043361   0.027927751294087998   0.012325246107947926
-0.2108122788043361   0.027927751294087998   0.012325246107947926
-0.2108122788043361   0.027927751294087998   0.012325246107947926
-0.2108122788043361   0.027927751294087998   0.012325246107947926
-0.2670647346981362   -0.03761064945131257   0.00936765488007155
-0.2670647346981362   -0.03761064945131257   0.00936765488007155
-0.2670647346981362   -0.03761064945131257   0.00936765488007155
-0.2670647346981362   -0.03761064945131257   0.00936765488007155
-0.3044978541843152   -0.039324526524199585   0.008137466343691037
-0.3044978541843152   -0.039324526524199585   0.008137466343691037
-0.3044978541843152   -0.039324526524199585   0.008137466343691037
-0.3044978541843152   -0.039324526524199585   0.008137466343691037
-0.29347314650362305   -0.01789493091397258   -0.0028856138042292027
-0.29347314650362305   -0.01789493091397258   -0.0028856138042292027
-0.29347314650362305   -0.01789493091397258   -0.0028856138042292027
-0.29347314650362305   -0.01789493091397258   -0.0028856138042292027
-0.25284143794379577   -0.005308977703750363   0.002659284271157117
-0.25284143794379577   -0.005308977703750363   0.002659284271157117
-0.25284143794379577   -0.005308977703750363   0.002659284271157117
-0.25284143794379577   -0.005308977703750363   0.002659284271157117
-0.2798885922061389   -0.023615829641231004   -0.007485733417220209
-0.2798885922061389   -0.023615829641231004   -0.007485733417220209
-0.2798885922061389   -0.023615829641231004   -0.007485733417220209
-0.2798885922061389   -0.023615829641231004   -0.007485733417220209
-0.25304002018297744   -0.008299753178916201   0.004657148550407098
-0.25304002018297744   -0.008299753178916201   0.004657148550407098
-0.25304002018297744   -0.008299753178916201   0.004657148550407098
-0.25304002018297744   -0.008299753178916201   0.004657148550407098
-0.29148702682065786   -0.013116617995029181   0.0022666716916557965
-0.29148702682065786   -0.013116617995029181   0.0022666716916557965
-0.29148702682065786   -0.013116617995029181   0.0022666716916557965
-0.29148702682065786   -0.013116617995029181   0.0022666716916557965
-0.27900805720368443   0.011799262099450536   -0.0073191079394002954
-0.27900805720368443   0.011799262099450536   -0.0073191079394002954
-0.27900805720368443   0.011799262099450536   -0.0073191079394002954
-0.27900805720368443   0.011799262099450536   -0.0073191079394002954
-0.23912008115984576   0.02162197194898452   -0.003019036181698513
-0.23912008115984576   0.02162197194898452   -0.003019036181698513
-0.23912008115984576   0.02162197194898452   -0.003019036181698513
-0.23912008115984576   0.02162197194898452   -0.003019036181698513
-0.2647755120656974   0.0029240345054505207   0.004062422839016339
-0.2647755120656974   0.0029240345054505207   0.004062422839016339
-0.2647755120656974   0.0029240345054505207   0.004062422839016339
-0.2647755120656974   0.0029240345054505207   0.004062422839016339
-0.23863215006032168   0.021288986140819706   -0.0002463948759171726
-0.23863215006032168   0.021288986140819706   -0.0002463948759171726
-0.23863215006032168   0.021288986140819706   -0.0002463948759171726
-0.23863215006032168   0.021288986140819706   -0.0002463948759171726
-0.2779363405682984   0.013691895642524848   -0.003853158305544252
-0.2779363405682984   0.013691895642524848   -0.003853158305544252
-0.2779363405682984   0.013691895642524848   -0.003853158305544252
-0.2779363405682984   0.013691895642524848   -0.003853158305544252
-0.2651571071958142   0.04167561109090091   -0.012320655028286057
-0.2651571071958142   0.04167561109090091   -0.012320655028286057
-0.2651571071958142   0.04167561109090091   -0.012320655028286057
-0.2651571071958142   0.04167561109090091   -0.012320655028286057
-0.22604586652879458   0.04866320448102256   -0.009256624459422328
-0.22604586652879458   0.04866320448102256   -0.009256624459422328
-0.22604586652879458   0.04866320448102256   -0.009256624459422328
-0.22604586652879458   0.04866320448102256   -0.009256624459422328
-0.25036353545707274   0.029512785150227275   0.015069934212533352
-0.25036353545707274   0.029512785150227275   0.015069934212533352
-0.25036353545707274   0.029512785150227275   0.015069934212533352
-0.25036353545707274   0.029512785150227275   0.015069934212533352
-0.31322350835401214   -0.059632192531237915   -0.015183138497760481
-0.31322350835401214   -0.059632192531237915   -0.015183138497760481
-0.31322350835401214   -0.059632192531237915   -0.015183138497760481
-0.31322350835401214   -0.059632192531237915   -0.015183138497760481
-0.33485312223464764   -0.016910894578172443   0.02877437688480198
-0.33485312223464764   -0.016910894578172443   0.02877437688480198
-0.33485312223464764   -0.016910894578172443   0.02877437688480198
-0.33485312223464764   -0.016910894578172443   0.02877437688480198
-0.3402748595401691   -0.04107523809802129   -0.028340569873606232
-0.3402748595401691   -0.04107523809802129   -0.028340569873606232
-0.3402748595401691   -0.04107523809802129   -0.028340569873606232
-0.3402748595401691   -0.04107523809802129   -0.028340569873606232
-0.2808861454468987   0.017858122641171217   0.024296337924248488
-0.2808861454468987   0.017858122641171217   0.024296337924248488
-0.2808861454468987   0.017858122641171217   0.024296337924248488
-0.2808861454468987   0.017858122641171217   0.024296337924248488
-0.31598637288966186   -0.023329116519800158   -0.004706509109825955
-0.31598637288966186   -0.023329116519800158   -0.004706509109825955
-0.31598637288966186   -0.023329116519800158   -0.004706509109825955
-0.31598637288966186   -0.023329116519800158   -0.004706509109825955
-0.29958268093715235   -0.0312786098165558   -0.02004960706929553
-0.29958268093715235   -0.0312786098165558   -0.02004960706929553
-0.29958268093715235   -0.0312786098165558   -0.02004960706929553
-0.29958268093715235   -0.0312786098165558   -0.02004960706929553
-0.319704120701617   0.009935697708003718   0.023502188513129286
-0.319704120701617   0.009935697708003718   0.023502188513129286
-0.319704120701617   0.009935697708003718   0.023502188513129286
-0.319704120701617   0.009935697708003718   0.023502188513129286
-0.32130439013516127   -0.012917934206904208   -0.03179772744375213
-0.32130439013516127   -0.012917934206904208   -0.03179772744375213
-0.32130439013516127   -0.012917934206904208   -0.03179772744375213
-0.32130439013516127   -0.012917934206904208   -0.03179772744375213
-0.2678661198661747   0.04214638680503248   0.01804345404256437
-0.2678661198661747   0.04214638680503248   0.01804345404256437
-0.2678661198661747   0.04214638680503248   0.01804345404256437
-0.2678661198661747   0.04214638680503248   0.01804345404256437
-0.2988053041697683   0.0022320001121570038   0.007215493987480292
-0.2988053041697683   0.0022320001121570038   0.007215493987480292
-0.2988053041697683   0.0022320001121570038   0.007215493987480292
-0.2988053041697683   0.0022320001121570038   0.007215493987480292
-0.28598283851144385   -0.004644024057634102   -0.02574972832111899
-0.28598283851144385   -0.004644024057634102   -0.02574972832111899
-0.28598283851144385   -0.004644024057634102   -0.02574972832111899
-0.28598283851144385   -0.004644024057634102   -0.02574972832111899
-0.3012936034613894   0.035766544684264406   0.019571727033938724
-0.3012936034613894   0.035766544684264406   0.019571727033938724
-0.3012936034613894   0.035766544684264406   0.019571727033938724
-0.3012936034613894   0.035766544684264406   0.019571727033938724
-0.3047057011809721   0.01809892756568554   -0.034894947263848786
-0.3047057011809721   0.01809892756568554   -0.034894947263848786
-0.3047057011809721   0.01809892756568554   -0.034894947263848786
-0.3047057011809721   0.01809892756568554   -0.034894947263848786
-0.25481038917285803   0.06921241111029748   0.011876135067098344
-0.25481038917285803   0.06921241111029748   0.011876135067098344
-0.25481038917285803   0.06921241111029748   0.011876135067098344
-0.25481038917285803   0.06921241111029748   0.011876135067098344
-0.2842255876751078   0.027589224948773514   0.018612204705038778
-0.2842255876751078   0.027589224948773514   0.018612204705038778
-0.2842255876751078   0.027589224948773514   0.018612204705038778
-0.2842255876751078   0.027589224948773514   0.018612204705038778
-0.35902194930558573   -0.07092142736748465   -0.038059225680582225
-0.35902194930558573   -0.07092142736748465   -0.038059225680582225
-0.35902194930558573   -0.07092142736748465   -0.038059225680582225
-0.35902194930558573   -0.07092142736748465   -0.038059225680582225
-0.39752925389120625   0.005364926278924029   0.05181153627066676
-0.39752925389120625   0.005364926278924029   0.05181153627066676
-0.39752925389120625   0.005364926278924029   0.05181153627066676
-0.39752925389120625   0.005364926278924029   0.05181153627066676
-0.3922490724433084   -0.05905998783364841   -0.05070839363882988
-0.3922490724433084   -0.05905998783364841   -0.05070839363882988
-0.3922490724433084   -0.05905998783364841   -0.05070839363882988
-0.3922490724433084   -0.05905998783364841   -0.05070839363882988
-0.30815838353000463   0.04472589044818874   0.04644068163100243
-0.30815838353000463   0.04472589044818874   0.04644068163100243
-0.30815838353000463   0.04472589044818874   0.04644068163100243
-0.30815838353000463   0.04472589044818874   0.04644068163100243
-0.3496339370666438   -0.01527014219524378   -0.0022929137630889225
-0.3496339370666438   -0.01527014219524378   -0.0022929137630889225
-0.3496339370666438   -0.01527014219524378   -0.0022929137630889225
-0.3496339370666438   -0.01527014219524378   -0.0022929137630889225
-0.34471904138220216   -0.04811637194168436   -0.04352034524011596
-0.34471904138220216   -0.04811637194168436   -0.04352034524011596
-0.34471904138220216   -0.04811637194168436   -0.04352034524011596
-0.34471904138220216   -0.04811637194168436   -0.04352034524011596
-0.3537074415898337   0.03576324755750064   0.04717652523739105
-0.3537074415898337   0.03576324755750064   0.04717652523739105
-0.3537074415898337   0.03576324755750064   0.04717652523739105
-0.3537074415898337   0.03576324755750064   0.04717652523739105
-0.3594576947222823   -0.04262505350002922   -0.0604460561057681
-0.3594576947222823   -0.04262505350002922   -0.0604460561057681
-0.3594576947222823   -0.04262505350002922   -0.0604460561057681
-0.3594576947222823   -0.04262505350002922   -0.0604460561057681
-0.2934974685790446   0.0563021389449031   0.03801680718502404
-0.2934974685790446   0.0563021389449031   0.03801680718502404
-0.2934974685790446   0.0563021389449031   0.03801680718502404
-0.2934974685790446   0.0563021389449031   0.03801680718502404
-0.3274685705812125   0.0019102473785353319   0.009141988851049304
-0.3274685705812125   0.0019102473785353319   0.009141988851049304
-0.3274685705812125   0.0019102473785353319   0.009141988851049304
-0.3274685705812125   0.0019102473785353319   0.009141988851049304
-0.32935081308203557   -0.034586684356527134   -0.05036109202850439
-0.32935081308203557   -0.034586684356527134   -0.05036109202850439
-0.32935081308203557   -0.034586684356527134   -0.05036109202850439
-0.32935081308203557   -0.034586684356527134   -0.05036109202850439
-0.3215278411016915   0.05034027891899506   0.03623787957816146
-0.3215278411016915   0.05034027891899506   0.03623787957816146
-0.3215278411016915   0.05034027891899506   0.03623787957816146
-0.3215278411016915   0.05034027891899506   0.03623787957816146
-0.31639728908924475   -0.014200021515186526   -0.06606595145248995
-0.31639728908924475   -0.014200021515186526   -0.06606595145248995
-0.31639728908924475   -0.014200021515186526   -0.06606595145248995
-0.31639728908924475   -0.014200021515186526   -0.06606595145248995
-0.280372615105442   0.07355566242600886   0.031313748253476714
-0.280372615105442   0.07355566242600886   0.031313748253476714
-0.280372615105442   0.07355566242600886   0.031313748253476714
-0.280372615105442   0.07355566242600886   0.031313748253476714
-0.29708692168600365   0.019068637434988392   0.022387713053062853
-0.29708692168600365   0.019068637434988392   0.022387713053062853
-0.29708692168600365   0.019068637434988392   0.022387713053062853
-0.29708692168600365   0.019068637434988392   0.022387713053062853
0.21733854225773325   0.035110865519164244   0.05656748932432773
0.21733854225773325   0.035110865519164244   0.05656748932432773
0.21733854225773325   0.035110865519164244   0.05656748932432773
0.21733854225773325   0.035110865519164244   0.05656748932432773
-0.005077344212999491   -0.09088080922559226   -0.0373352341596822
-0.005077344212999491   -0.09088080922559226   -0.0373352341596822
-0.005077344212999491   -0.09088080922559226   -0.0373352341596822
-0.005077344212999491   -0.09088080922559226   -0.0373352341596822
0.04831622884670795   0.017713601008428902   0.043696808915554324
0.04831622884670795   0.017713601008428902   0.043696808915554324
0.04831622884670795   0.017713601008428902   0.043696808915554324
0.04831622884670795   0.017713601008428902   0.043696808915554324
0.22666922183717844   -0.03174790886130277   -0.04674197318163489
0.22666922183717844   -0.03174790886130277   -0.04674197318163489
0.22666922183717844   -0.03174790886130277   -0.04674197318163489
0.22666922183717844   -0.03174790886130277   -0.04674197318163489
0.11092602485213149   -0.01762271477497184   -0.026963787571572626
0.11092602485213149   -0.01762271477497184   -0.026963787571572626
0.11092602485213149   -0.01762271477497184   -0.026963787571572626
0.11092602485213149   -0.01762271477497184   -0.026963787571572626
0.2650826947344337   0.06253585740960914   0.05104162503372969
0.2650826947344337   0.06253585740960914   0.05104162503372969
0.2650826947344337   0.06253585740960914   0.05104162503372969
0.2650826947344337   0.06253585740960914   0.05104162503372969
0.012269708218300826   -0.07420321299363483   -0.04461898022441756
0.012269708218300826   -0.07420321299363483   -0.04461898022441756
0.012269708218300826   -0.07420321299363483   -0.04461898022441756
0.012269708218300826   -0.07420321299363483   -0.04461898022441756
0.06775163636564288   0.030908498749002228   0.03646318697418791
0.06775163636564288   0.030908498749002228   0.03646318697418791
0.06775163636564288   0.030908498749002228   0.03646318697418791
0.06775163636564288   0.030908498749002228   0.03646318697418791
0.2639313572323685   -0.016843171671308   -0.05846277277509654
0.2639313572323685   -0.016843171671308   -0.05846277277509654
0.2639313572323685   -0.016843171671308   -0.05846277277509654
0.2639313572323685   -0.016843171671308   -0.05846277277509654
0.14455652046013306   -0.0011767679909350862   -0.012687985009238253
0.14455652046013306   -0.0011767679909350862   -0.012687985009238253
0.14455652046013306   -0.0011767679909350862   -0.012687985009238253
0.14455652046013306   -0.0011767679909350862   -0.012687985009238253
0.30276244157452775   0.07865659820734872   0.04019287905703542
0.30276244157452775   0.07865659820734872   0.04019287905703542
0.30276244157452775   0.07865659820734872   0.04019287905703542
0.30276244157452775   0.07865659820734872   0.04019287905703542
0.031234008607034295   -0.062277814546104426   -0.0529386385237445
0.031234008607034295   -0.062277814546104426   -0.0529386385237445
0.031234008607034295   -0.062277814546104426   -0.0529386385237445
0.031234008607034295   -0.062277814546104426   -0.0529386385237445
0.0866117437408391   0.05514180022505932   0.03155302842858155
0.0866117437408391   0.05514180022505932   0.03155302842858155
0.0866117437408391   0.05514180022505932   0.03155302842858155
0.0866117437408391   0.05514180022505932   0.03155302842858155
0.31340004819815304   0.016514497711686886   -0.06447067203685154
0.31340004819815304   0.016514497711686886   -0.06447067203685154
0.31340004819815304   0.016514497711686886   -0.06447067203685154
0.31340004819815304   0.016514497711686886   -0.06447067203685154
0.1727619793746989   0.01726073563692342   0.0008048293496363103
0.1727619793746989   0.01726073563692342   0.0008048293496363103
0.1727619793746989   0.01726073563692342   0.0008048293496363103
0.1727619793746989   0.01726073563692342   0.0008048293496363103
0.0301524724035592   0.009509751893570048   0.0384232878039528
0.0301524724035592   0.009509751893570048   0.0384232878039528
0.0301524724035592   0.009509751893570048   0.0384232878039528
0.0301524724035592   0.009509751893570048   0.0384232878039528
-0.20616728261396716   -0.07717138341436791   -0.017129838115069823
-0.20616728261396716   -0.07717138341436791   -0.017129838115069823
-0.20616728261396716   -0.07717138341436791   -0.017129838115069823
-0.20616728261396716   -0.07717138341436791   -0.017129838115069823
-0.1724936241137354   -0.011234653906594116   0.017543711796600824
-0.1724936241137354   -0.011234653906594116   0.017543711796600824
-0.1724936241137354   -0.011234653906594116   0.017543711796600824
-0.1724936241137354   -0.011234653906594116   0.017543711796600824
0.03155789416169253   -0.008791032384557093   -0.013590231116536759
0.03155789416169253   -0.008791032384557093   -0.013590231116536759
0.03155789416169253   -0.008791032384557093   -0.013590231116536759
0.03155789416169253   -0.008791032384557093   -0.013590231116536759
-0.0809416912148737   -0.019945845617979685   -0.012955063103549887
-0.0809416912148737   -0.019945845617979685   -0.012955063103549887
-0.0809416912148737   -0.019945845617979685   -0.012955063103549887
-0.0809416912148737   -0.019945845617979685   -0.012955063103549887
0.05017307665437137   0.036607394733472604   0.03408725422882769
0.05017307665437137   0.036607394733472604   0.03408725422882769
0.05017307665437137   0.036607394733472604   0.03408725422882769
0.05017307665437137   0.036607394733472604   0.03408725422882769
-0.18938449748156133   -0.05490877189977093   -0.0232365370493521
-0.18938449748156133   -0.05490877189977093   -0.0232365370493521
-0.18938449748156133   -0.05490877189977093   -0.0232365370493521
-0.18938449748156133   -0.05490877189977093   -0.0232365370493521
-0.15477426447696693   0.01436010293814325   0.012397753352709
-0.15477426447696693   0.01436010293814325   0.012397753352709
-0.15477426447696693   0.01436010293814325   0.012397753352709
-0.15477426447696693   0.01436010293814325   0.012397753352709
0.053697616324619446   0.015495284602083208   -0.018393699084010236
0.053697616324619446   0.015495284602083208   -0.018393699084010236
0.053697616324619446   0.015495284602083208   -0.018393699084010236
0.053697616324619446   0.015495284602083208   -0.018393699084010236
-0.062159097045577386   0.0026306342464346103   -0.0015794918720725814
-0.062159097045577386   0.0026306342464346103   -0.0015794918720725814
-0.062159097045577386   0.0026306342464346103   -0.0015794918720725814
-0.062159097045577386   0.0026306342464346103   -0.0015794918720725814
0.07309636713400276   0.0635614554189893   0.03053388414600028
0.07309636713400276   0.0635614554189893   0.03053388414600028
0.07309636713400276   0.0635614554189893   0.03053388414600028
0.07309636713400276   0.0635614554189893   0.03053388414600028
-0.1725131425637961   -0.032046195156218926   -0.02989033898707468
-0.1725131425637961   -0.032046195156218926   -0.02989033898707468
-0.1725131425637961   -0.032046195156218926   -0.02989033898707468
-0.1725131425637961   -0.032046195156218926   -0.02989033898707468
-0.13694838452009556   0.04331071606023092   0.00749237425815916
-0.13694838452009556   0.04331071606023092   0.00749237425815916
-0.13694838452009556   0.04331071606023092   0.00749237425815916
-0.13694838452009556   0.04331071606023092   0.00749237425815916
0.07318372308498956   0.04303988174443815   -0.023485156370044925
0.07318372308498956   0.04303988174443815   -0.023485156370044925
0.07318372308498956   0.04303988174443815   -0.023485156370044925
0.07318372308498956   0.04303988174443815   -0.023485156370044925
-0.041381046462236004   0.027563047111263964   0.010550371718165174
-0.041381046462236004   0.027563047111263964   0.010550371718165174
-0.041381046462236004   0.027563047111263964   0.010550371718165174
-0.041381046462236004   0.027563047111263964   0.010550371718165174
-0.18749756521881517   -0.014785407425482556   0.013832772871806804
-0.18749756521881517   -0.014785407425482556   0.013832772871806804
-0.18749756521881517   -0.014785407425482556   0.013832772871806804
-0.18749756521881517   -0.014785407425482556   0.013832772871806804
-0.4036095574538345   -0.05487258695863605   0.003544448390152206
-0.4036095574538345   -0.05487258695863605   0.003544448390152206
-0.4036095574538345   -0.05487258695863605   0.003544448390152206
-0.4036095574538345   -0.05487258695863605   0.003544448390152206
-0.3881027629939705   -0.034413355823642446   -0.007601281278128596
-0.3881027629939705   -0.034413355823642446   -0.007601281278128596
-0.3881027629939705   -0.034413355823642446   -0.007601281278128596
-0.3881027629939705   -0.034413355823642446   -0.007601281278128596
-0.16917622537468538   0.014327834641330181   0.008568216943926534
-0.16917622537468538   0.014327834641330181   0.008568216943926534
-0.16917622537468538   0.014327834641330181   0.008568216943926534
-0.16917622537468538   0.014327834641330181   0.008568216943926534
-0.2875157322811884   -0.020602348848011154   -0.0075475833951685126
-0.2875157322811884   -0.020602348848011154   -0.0075475833951685126
-0.2875157322811884   -0.020602348848011154   -0.0075475833951685126
-0.2875157322811884   -0.020602348848011154   -0.0075475833951685126
-0.16939269557658218   0.012676378358846253   0.009137322216926551
-0.16939269557658218   0.012676378358846253   0.009137322216926551
-0.16939269557658218   0.012676378358846253   0.009137322216926551
-0.16939269557658218   0.012676378358846253   0.009137322216926551
-0.3864061406135888   -0.0312817473626736   -0.002249777837188948
-0.3864061406135888   -0.0312817473626736   -0.002249777837188948
-0.3864061406135888   -0.0312817473626736   -0.002249777837188948
-0.3864061406135888   -0.0312817473626736   -0.002249777837188948
-0.36946866878075335   -0.006234588499092475   -0.011953250801175964
-0.36946866878075335   -0.006234588499092475   -0.011953250801175964
-0.36946866878075335   -0.006234588499092475   -0.011953250801175964
-0.36946866878075335   -0.006234588499092475   -0.011953250801175964
-0.15163270174667623   0.039308411220607485   0.0031572587217002235
-0.15163270174667623   0.039308411220607485   0.0031572587217002235
-0.15163270174667623   0.039308411220607485   0.0031572587217002235
-0.15163270174667623   0.039308411220607485   0.0031572587217002235
-0.2682750445809052   0.004146311483783534   0.003914560132520107
-0.2682750445809052   0.004146311483783534   0.003914560132520107
-0.2682750445809052   0.004146311483783534   0.003914560132520107
-0.2682750445809052   0.004146311483783534   0.003914560132520107
-0.1511760109925349   0.040637014967824396   0.004112108745189986
-0.1511760109925349   0.040637014967824396   0.004112108745189986
-0.1511760109925349   0.040637014967824396   0.004112108745189986
-0.1511760109925349   0.040637014967824396   0.004112108745189986
-0.36874165219312643   -0.006379484904536575   -0.008173271457600603
-0.36874165219312643   -0.006379484904536575   -0.008173271457600603
-0.36874165219312643   -0.006379484904536575   -0.008173271457600603
-0.36874165219312643   -0.006379484904536575   -0.008173271457600603
-0.3515862339034301   0.02202307570600502   -0.01691690095987455
-0.3515862339034301   0.02202307570600502   -0.01691690095987455
-0.3515862339034301   0.02202307570600502   -0.01691690095987455
-0.3515862339034301   0.02202307570600502   -0.01691690095987455
-0.13485177116419195   0.06436248564485164   -0.003076328546939733
-0.13485177116419195   0.06436248564485164   -0.003076328546939733
-0.13485177116419195   0.06436248564485164   -0.003076328546939733
-0.13485177116419195   0.06436248564485164   -0.003076328546939733
-0.25003985623899316   0.028827659817747035   0.014628540682873482
-0.25003985623899316   0.028827659817747035   0.014628540682873482
-0.25003985623899316   0.028827659817747035   0.014628540682873482
-0.25003985623899316   0.028827659817747035   0.014628540682873482
-0.40338025610648975   -0.03867293591321048   -0.01150869591854605
-0.40338025610648975   -0.03867293591321048   -0.01150869591854605
-0.40338025610648975   -0.03867293591321048   -0.01150869591854605
-0.40338025610648975   -0.03867293591321048   -0.01150869591854605
-0.5990647533585514   -0.03391302791076528   0.023838023534386955
-0.5990647533585514   -0.03391302791076528   0.023838023534386955
-0.5990647533585514   -0.03391302791076528   0.023838023534386955
-0.5990647533585514   -0.03391302791076528   0.023838023534386955
-0.5993051766555105   -0.05711637729390433   -0.03215713054251737
-0.5993051766555105   -0.05711637729390433   -0.03215713054251737
-0.5993051766555105   -0.05711637729390433   -0.03215713054251737
-0.5993051766555105   -0.05711637729390433   -0.03215713054251737
-0.366577709521548   0.03640441241000375   0.029206217850337456
-0.366577709521548   0.03640441241000375   0.029206217850337456
-0.366577709521548   0.03640441241000375   0.029206217850337456
-0.366577709521548   0.03640441241000375   0.029206217850337456
-0.4893281010877159   -0.020933788577058368   -0.003181606611819685
-0.4893281010877159   -0.020933788577058368   -0.003181606611819685
-0.4893281010877159   -0.020933788577058368   -0.003181606611819685
-0.4893281010877159   -0.020933788577058368   -0.003181606611819685
-0.3851210715261037   -0.011057805093338521   -0.016048374669095252
-0.3851210715261037   -0.011057805093338521   -0.016048374669095252
-0.3851210715261037   -0.011057805093338521   -0.016048374669095252
-0.3851210715261037   -0.011057805093338521   -0.016048374669095252
-0.5795368198685777   -0.008429165008183484   0.01799744110643099
-0.5795368198685777   -0.008429165008183484   0.01799744110643099
-0.5795368198685777   -0.008429165008183484   0.01799744110643099
-0.5795368198685777   -0.008429165008183484   0.01799744110643099
-0.5759498883423401   -0.030235290218788236   -0.035781162600373714
-0.5759498883423401   -0.030235290218788236   -0.035781162600373714
-0.5759498883423401   -0.030235290218788236   -0.035781162600373714
-0.5759498883423401   -0.030235290218788236   -0.035781162600373714
-0.3493545531558965   0.05913820808094292   0.02324453074307281
-0.3493545531558965   0.05913820808094292   0.02324453074307281
-0.3493545531558965   0.05913820808094292   0.02324453074307281
-0.3493545531558965   0.05913820808094292   0.02324453074307281
-0.4662410566430185   0.004014832965867993   0.008630517193987115
-0.4662410566430185   0.004014832965867993   0.008630517193987115
-0.4662410566430185   0.004014832965867993   0.008630517193987115
-0.4662410566430185   0.004014832965867993   0.008630517193987115
-0.36728270917595335   0.01433564156609149   -0.021593682842361912
-0.36728270917595335   0.01433564156609149   -0.021593682842361912
-0.36728270917595335   0.01433564156609149   -0.021593682842361912
-0.36728270917595335   0.01433564156609149   -0.021593682842361912
-0.5566444252229062   0.0159445833954399   0.014566279382567465
-0.5566444252229062   0.0159445833954399   0.014566279382567465
-0.5566444252229062   0.0159445833954399   0.014566279382567465
-0.5566444252229062   0.0159445833954399   0.014566279382567465
-0.5550574311918092   -0.0009157227049083616   -0.03851749198997978
-0.5550574311918092   -0.0009157227049083616   -0.03851749198997978
-0.5550574311918092   -0.0009157227049083616   -0.03851749198997978
-0.5550574311918092   -0.0009157227049083616   -0.03851749198997978
-0.33231090766764065   0.08424502624722807   0.017237779677849487
-0.33231090766764065   0.08424502624722807   0.017237779677849487
-0.33231090766764065   0.08424502624722807   0.017237779677849487
-0.33231090766764065   0.08424502624722807   0.017237779677849487
-0.44897278834755666   0.027280334710992157   0.019216423980981993
-0.44897278834755666   0.027280334710992157   0.019216423980981993
-0.44897278834755666   0.027280334710992157   0.019216423980981993
-0.44897278834755666   0.027280334710992157   0.019216423980981993
-0.6151564888563068   -0.05552463695105053   -0.035009044914105475
-0.6151564888563068   -0.05552463695105053   -0.035009044914105475
-0.6151564888563068   -0.05552463695105053   -0.035009044914105475
-0.6151564888563068   -0.05552463695105053   -0.035009044914105475
-0.821915177944412   -0.014536708648023394   0.05168471407438615
-0.821915177944412   -0.014536708648023394   0.05168471407438615
-0.821915177944412   -0.014536708648023394   0.05168471407438615
-0.821915177944412   -0.014536708648023394   0.05168471407438615
-0.8105333182679983   -0.07438508874761011   -0.046739279609998116
-0.8105333182679983   -0.07438508874761011   -0.046739279609998116
-0.8105333182679983   -0.07438508874761011   -0.046739279609998116
-0.8105333182679983   -0.07438508874761011   -0.046739279609998116
-0.5589528035505752   0.0615377821751001   0.05095057551315526
-0.5589528035505752   0.0615377821751001   0.05095057551315526
-0.5589528035505752   0.0615377821751001   0.05095057551315526
-0.5589528035505752   0.0615377821751001   0.05095057551315526
-0.6713871561820205   -0.011920820434402124   0.005596550731148273
-0.6713871561820205   -0.011920820434402124   0.005596550731148273
-0.6713871561820205   -0.011920820434402124   0.005596550731148273
-0.6713871561820205   -0.011920820434402124   0.005596550731148273
-0.5953546101147406   -0.029921355184560613   -0.03959931994800829
-0.5953546101147406   -0.029921355184560613   -0.03959931994800829
-0.5953546101147406   -0.029921355184560613   -0.03959931994800829
-0.5953546101147406   -0.029921355184560613   -0.03959931994800829
-0.7730188047494957   0.01818675556638613   0.0482614436685059
-0.7730188047494957   0.01818675556638613   0.0482614436685059
-0.7730188047494957   0.01818675556638613   0.0482614436685059
-0.7730188047494957   0.01818675556638613   0.0482614436685059
-0.7735541562071666   -0.05843922235129288   -0.055633311667833876
-0.7735541562071666   -0.05843922235129288   -0.055633311667833876
-0.7735541562071666   -0.05843922235129288   -0.055633311667833876
-0.7735541562071666   -0.05843922235129288   -0.055633311667833876
-0.5399407456329125   0.07202230981064095   0.04200695091732851
-0.5399407456329125   0.07202230981064095   0.04200695091732851
-0.5399407456329125   0.07202230981064095   0.04200695091732851
-0.5399407456329125   0.07202230981064095   0.04200695091732851
-0.6504557273672721   0.0048168796206796705   0.015133249022917267
-0.6504557273672721   0.0048168796206796705   0.015133249022917267
-0.6504557273672721   0.0048168796206796705   0.015133249022917267
-0.6504557273672721   0.0048168796206796705   0.015133249022917267
-0.5752530503058222   -0.01679899280397644   -0.04573326983259601
-0.5752530503058222   -0.01679899280397644   -0.04573326983259601
-0.5752530503058222   -0.01679899280397644   -0.04573326983259601
-0.5752530503058222   -0.01679899280397644   -0.04573326983259601
-0.7368818653823108   0.031742066415270415   0.037546853689874184
-0.7368818653823108   0.031742066415270415   0.037546853689874184
-0.7368818653823108   0.031742066415270415   0.037546853689874184
-0.7368818653823108   0.031742066415270415   0.037546853689874184
-0.7279783973912304   -0.034637813723492866   -0.06204785020824351
-0.7279783973912304   -0.034637813723492866   -0.06204785020824351
-0.7279783973912304   -0.034637813723492866   -0.06204785020824351
-0.7279783973912304   -0.034637813723492866   -0.06204785020824351
-0.5232399067850768   0.08466345078977346   0.034990956549000064
-0.5232399067850768   0.08466345078977346   0.034990956549000064
-0.5232399067850768   0.08466345078977346   0.034990956549000064
-0.5232399067850768   0.08466345078977346   0.034990956549000064
-0.6111644255009394   0.02048954476677911   0.028574017498906243
-0.6111644255009394   0.02048954476677911   0.028574017498906243
-0.6111644255009394   0.02048954476677911   0.028574017498906243
-0.6111644255009394   0.02048954476677911   0.028574017498906243
0.6516919033254359   0.0592317875955069   0.05645850240737819
0.6516919033254359   0.0592317875955069   0.05645850240737819
0.6516919033254359   0.0592317875955069   0.05645850240737819
0.6516919033254359   0.0592317875955069   0.05645850240737819
0.23859253555935486   -0.1081835555053703   -0.03715907528660973
0.23859253555935486   -0.1081835555053703   -0.03715907528660973
0.23859253555935486   -0.1081835555053703   -0.03715907528660973
0.23859253555935486   -0.1081835555053703   -0.03715907528660973
0.29450025819683867   -0.0007104347078844969   0.040614361225826984
0.29450025819683867   -0.0007104347078844969   0.040614361225826984
0.29450025819683867   -0.0007104347078844969   0.040614361225826984
0.29450025819683867   -0.0007104347078844969   0.040614361225826984
0.6634471535654412   -0.014896649955962182   -0.04744563032847776
0.6634471535654412   -0.014896649955962182   -0.04744563032847776
0.6634471535654412   -0.014896649955962182   -0.04744563032847776
0.6634471535654412   -0.014896649955962182   -0.04744563032847776
0.4336385656575328   -0.0195420861584423   -0.04183235093181112
0.4336385656575328   -0.0195420861584423   -0.04183235093181112
0.4336385656575328   -0.0195420861584423   -0.04183235093181112
0.4336385656575328   -0.0195420861584423   -0.04183235093181112
0.7022357416693314   0.0825282681570417   0.04907239207796522
0.7022357416693314   0.0825282681570417   0.04907239207796522
0.7022357416693314   0.0825282681570417   0.04907239207796522
0.7022357416693314   0.0825282681570417   0.04907239207796522
0.25846125200603287   -0.0953857709078034   -0.04490533352827539
0.25846125200603287   -0.0953857709078034   -0.04490533352827539
0.25846125200603287   -0.0953857709078034   -0.04490533352827539
0.25846125200603287   -0.0953857709078034   -0.04490533352827539
0.3165267019732654   0.012065691725984401   0.033486199470499196
0.3165267019732654   0.012065691725984401   0.033486199470499196
0.3165267019732654   0.012065691725984401   0.033486199470499196
0.3165267019732654   0.012065691725984401   0.033486199470499196
0.7036529757770702   -0.0003784965528378925   -0.059750583388954094
0.7036529757770702   -0.0003784965528378925   -0.059750583388954094
0.7036529757770702   -0.0003784965528378925   -0.059750583388954094
0.7036529757770702   -0.0003784965528378925   -0.059750583388954094
0.4756396190775036   -0.003864904393822116   -0.025347456451339376
0.4756396190775036   -0.003864904393822116   -0.025347456451339376
0.4756396190775036   -0.003864904393822116   -0.025347456451339376
0.4756396190775036   -0.003864904393822116   -0.025347456451339376
0.7428679714667035   0.09818823785987124   0.03775766064649541
0.7428679714667035   0.09818823785987124   0.03775766064649541
0.7428679714667035   0.09818823785987124   0.03775766064649541
0.7428679714667035   0.09818823785987124   0.03775766064649541
0.2802335535554979   -0.08357919541485961   -0.05233465547749044
0.2802335535554979   -0.08357919541485961   -0.05233465547749044
0.2802335535554979   -0.08357919541485961   -0.05233465547749044
0.2802335535554979   -0.08357919541485961   -0.05233465547749044
0.33852341162202515   0.04023777687659013   0.029022360363792576
0.33852341162202515   0.04023777687659013   0.029022360363792576
0.33852341162202515   0.04023777687659013   0.029022360363792576
0.33852341162202515   0.04023777687659013   0.029022360363792576
0.7564583689657562   0.03748257966836045   -0.06444880273439449
0.7564583689657562   0.03748257966836045   -0.06444880273439449
0.7564583689657562   0.03748257966836045   -0.06444880273439449
0.7564583689657562   0.03748257966836045   -0.06444880273439449
0.5015133666258947   0.015215765065095269   -0.011097247960520858
0.5015133666258947   0.015215765065095269   -0.011097247960520858
0.5015133666258947   0.015215765065095269   -0.011097247960520858
0.5015133666258947   0.015215765065095269   -0.011097247960520858
0.28333019003624504   0.03318600588098491   0.04515963571148214
0.28333019003624504   0.03318600588098491   0.04515963571148214
0.28333019003624504   0.03318600588098491   0.04515963571148214
0.28333019003624504   0.03318600588098491   0.04515963571148214
-0.13821392972547228   -0.10094715102636734   -0.019472067399020673
-0.13821392972547228   -0.10094715102636734   -0.019472067399020673
-0.13821392972547228   -0.10094715102636734   -0.019472067399020673
-0.13821392972547228   -0.10094715102636734   -0.019472067399020673
-0.0997873156520681   -0.029610355970790564   0.013658360766025845
-0.0997873156520681   -0.029610355970790564   0.013658360766025845
-0.0997873156520681   -0.029610355970790564   0.013658360766025845
-0.0997873156520681   -0.029610355970790564   0.013658360766025845
0.2855201591675691   0.0009502256962431108   -0.00594679432464419
0.2855201591675691   0.0009502256962431108   -0.00594679432464419
0.2855201591675691   0.0009502256962431108   -0.00594679432464419
0.2855201591675691   0.0009502256962431108   -0.00594679432464419
0.07898372025700898   -0.021305228162746596   -0.01781121458137969
0.07898372025700898   -0.021305228162746596   -0.01781121458137969
0.07898372025700898   -0.021305228162746596   -0.01781121458137969
0.07898372025700898   -0.021305228162746596   -0.01781121458137969
0.3059614020305735   0.05687470379154726   0.04033494189507338
0.3059614020305735   0.05687470379154726   0.04033494189507338
0.3059614020305735   0.05687470379154726   0.04033494189507338
0.3059614020305735   0.05687470379154726   0.04033494189507338
-0.11856902451896828   -0.08387530006999055   -0.025985239469275084
-0.11856902451896828   -0.08387530006999055   -0.025985239469275084
-0.11856902451896828   -0.08387530006999055   -0.025985239469275084
-0.11856902451896828   -0.08387530006999055   -0.025985239469275084
-0.07926964381932654   -0.005693531247187777   0.008629481813611492
-0.07926964381932654   -0.005693531247187777   0.008629481813611492
-0.07926964381932654   -0.005693531247187777   0.008629481813611492
-0.07926964381932654   -0.005693531247187777   0.008629481813611492
0.3096762713235052   0.022404094525755695   -0.01110435657806909
0.3096762713235052   0.022404094525755695   -0.01110435657806909
0.3096762713235052   0.022404094525755695   -0.01110435657806909
0.3096762713235052   0.022404094525755695   -0.01110435657806909
0.09880295970256835   -0.0024094604971694085   -0.007081051966164884
0.09880295970256835   -0.0024094604971694085   -0.007081051966164884
0.09880295970256835   -0.0024094604971694085   -0.007081051966164884
0.09880295970256835   -0.0024094604971694085   -0.007081051966164884
0.3309360885427516   0.0817845697260788   0.0358142543178356
0.3309360885427516   0.0817845697260788   0.0358142543178356
0.3309360885427516   0.0817845697260788   0.0358142543178356
0.3309360885427516   0.0817845697260788   0.0358142543178356
-0.09886674437880034   -0.0634112897877339   -0.03163826244321145
-0.09886674437880034   -0.0634112897877339   -0.03163826244321145
-0.09886674437880034   -0.0634112897877339   -0.03163826244321145
-0.09886674437880034   -0.0634112897877339   -0.03163826244321145
-0.059007961201246927   0.022023503567224607   0.003624637030123855
-0.059007961201246927   0.022023503567224607   0.003624637030123855
-0.059007961201246927   0.022023503567224607   0.003624637030123855
-0.059007961201246927   0.022023503567224607   0.003624637030123855
0.33109187708515997   0.04795801353720247   -0.015855548981145613
0.33109187708515997   0.04795801353720247   -0.015855548981145613
0.33109187708515997   0.04795801353720247   -0.015855548981145613
0.33109187708515997   0.04795801353720247   -0.015855548981145613
0.12330615102420008   0.0207712979422764   0.005448627973636736
0.12330615102420008   0.0207712979422764   0.005448627973636736
0.12330615102420008   0.0207712979422764   0.005448627973636736
0.12330615102420008   0.0207712979422764   0.005448627973636736
-0.10884500394913398   0.007213763462945586   0.0192116469933599
-0.10884500394913398   0.007213763462945586   0.0192116469933599
-0.10884500394913398   0.007213763462945586   0.0192116469933599
-0.10884500394913398   0.007213763462945586   0.0192116469933599
-0.5075443857606597   -0.08915637569011782   -0.0025879694279036074
-0.5075443857606597   -0.08915637569011782   -0.0025879694279036074
-0.5075443857606597   -0.08915637569011782   -0.0025879694279036074
-0.5075443857606597   -0.08915637569011782   -0.0025879694279036074
-0.4832253671759524   -0.05257966285439317   -0.011920128733423182
-0.4832253671759524   -0.05257966285439317   -0.011920128733423182
-0.4832253671759524   -0.05257966285439317   -0.011920128733423182
-0.4832253671759524   -0.05257966285439317   -0.011920128733423182
-0.09136766158170152   0.013383048926717312   0.012763226220350787
-0.09136766158170152   0.013383048926717312   0.012763226220350787
-0.09136766158170152   0.013383048926717312   0.012763226220350787
-0.09136766158170152   0.013383048926717312   0.012763226220350787
-0.29826802049565043   -0.02739841633547558   -0.011122633312742687
-0.29826802049565043   -0.02739841633547558   -0.011122633312742687
-0.29826802049565043   -0.02739841633547558   -0.011122633312742687
-0.29826802049565043   -0.02739841633547558   -0.011122633312742687
-0.08731003146946241   0.03189526264603517   0.014539163062228525
-0.08731003146946241   0.03189526264603517   0.014539163062228525
-0.08731003146946241   0.03189526264603517   0.014539163062228525
-0.08731003146946241   0.03189526264603517   0.014539163062228525
-0.48617138228768053   -0.06998026157320009   -0.009249605573257177
-0.48617138228768053   -0.06998026157320009   -0.009249605573257177
-0.48617138228768053   -0.06998026157320009   -0.009249605573257177
-0.48617138228768053   -0.06998026157320009   -0.009249605573257177
-0.4606098187465204   -0.026338850752024343   -0.016101934141645426
-0.4606098187465204   -0.026338850752024343   -0.016101934141645426
-0.4606098187465204   -0.026338850752024343   -0.016101934141645426
-0.4606098187465204   -0.026338850752024343   -0.016101934141645426
-0.07139842511151281   0.035056753066065455   0.007235291039426828
-0.07139842511151281   0.035056753066065455   0.007235291039426828
-0.07139842511151281   0.035056753066065455   0.007235291039426828
-0.07139842511151281   0.035056753066065455   0.007235291039426828
-0.2754562748844005   -0.005444431919439947   -0.00016858030636550912
-0.2754562748844005   -0.005444431919439947   -0.00016858030636550912
-0.2754562748844005   -0.005444431919439947   -0.00016858030636550912
-0.2754562748844005   -0.005444431919439947   -0.00016858030636550912
-0.06650064092997614   0.05754963720186883   0.009231327811306858
-0.06650064092997614   0.05754963720186883   0.009231327811306858
-0.06650064092997614   0.05754963720186883   0.009231327811306858
-0.06650064092997614   0.05754963720186883   0.009231327811306858
-0.4644757513851746   -0.047799883344950306   -0.013970564741990238
-0.4644757513851746   -0.047799883344950306   -0.013970564741990238
-0.4644757513851746   -0.047799883344950306   -0.013970564741990238
-0.4644757513851746   -0.047799883344950306   -0.013970564741990238
-0.43955688959900985   -0.00018266325447705012   -0.021096954608765373
-0.43955688959900985   -0.00018266325447705012   -0.021096954608765373
-0.43955688959900985   -0.00018266325447705012   -0.021096954608765373
-0.43955688959900985   -0.00018266325447705012   -0.021096954608765373
-0.05234224657613852   0.057189848873352   0.0017868648495384838
-0.05234224657613852   0.057189848873352   0.0017868648495384838
-0.05234224657613852   0.057189848873352   0.0017868648495384838
-0.05234224657613852   0.057189848873352   0.0017868648495384838
-0.2545036860439091   0.016427613324562954   0.01025367928772477
-0.2545036860439091   0.016427613324562954   0.01025367928772477
-0.2545036860439091   0.016427613324562954   0.01025367928772477
-0.2545036860439091   0.016427613324562954   0.01025367928772477
-0.49455801989486453   -0.01928482423559441   -0.0075276915534454696
-0.49455801989486453   -0.01928482423559441   -0.0075276915534454696
-0.49455801989486453   -0.01928482423559441   -0.0075276915534454696
-0.49455801989486453   -0.01928482423559441   -0.0075276915534454696
-0.8685695682279431   -0.07227778419156039   0.016685656077100583
-0.8685695682279431   -0.07227778419156039   0.016685656077100583
-0.8685695682279431   -0.07227778419156039   0.016685656077100583
-0.8685695682279431   -0.07227778419156039   0.016685656077100583
-0.8567999451275703   -0.07465266680075096   -0.03585694259741397
-0.8567999451275703   -0.07465266680075096   -0.03585694259741397
-0.8567999451275703   -0.07465266680075096   -0.03585694259741397
-0.8567999451275703   -0.07465266680075096   -0.03585694259741397
-0.45718122459431154   0.033670819480834974   0.032050101839556595
-0.45718122459431154   0.033670819480834974   0.032050101839556595
-0.45718122459431154   0.033670819480834974   0.032050101839556595
-0.45718122459431154   0.033670819480834974   0.032050101839556595
-0.6646473159025642   -0.02897095953124687   -0.003880629911611949
-0.6646473159025642   -0.02897095953124687   -0.003880629911611949
-0.6646473159025642   -0.02897095953124687   -0.003880629911611949
-0.6646473159025642   -0.02897095953124687   -0.003880629911611949
-0.47114864581423616   0.007354787187960302   -0.011470971967191646
-0.47114864581423616   0.007354787187960302   -0.011470971967191646
-0.47114864581423616   0.007354787187960302   -0.011470971967191646
-0.47114864581423616   0.007354787187960302   -0.011470971967191646
-0.8427660551759923   -0.04827016577622181   0.007930006135953523
-0.8427660551759923   -0.04827016577622181   0.007930006135953523
-0.8427660551759923   -0.04827016577622181   0.007930006135953523
-0.8427660551759923   -0.04827016577622181   0.007930006135953523
-0.8272373912327172   -0.04901941012082067   -0.03966072218892436
-0.8272373912327172   -0.04901941012082067   -0.03966072218892436
-0.8272373912327172   -0.04901941012082067   -0.03966072218892436
-0.8272373912327172   -0.04901941012082067   -0.03966072218892436
-0.4361312402096663   0.05433136052801606   0.025620747262589276
-0.4361312402096663   0.05433136052801606   0.025620747262589276
-0.4361312402096663   0.05433136052801606   0.025620747262589276
-0.4361312402096663   0.05433136052801606   0.025620747262589276
-0.6345625908086174   -0.004707897789972104   0.007108571172411204
-0.6345625908086174   -0.004707897789972104   0.007108571172411204
-0.6345625908086174   -0.004707897789972104   0.007108571172411204
-0.6345625908086174   -0.004707897789972104   0.007108571172411204
-0.44924318848491884   0.031158373457826682   -0.016766007043486048
-0.44924318848491884   0.031158373457826682   -0.016766007043486048
-0.44924318848491884   0.031158373457826682   -0.016766007043486048
-0.44924318848491884   0.031158373457826682   -0.016766007043486048
-0.8134221744610403   -0.02514315455420718   0.005539106102847018
-0.8134221744610403   -0.02514315455420718   0.005539106102847018
-0.8134221744610403   -0.02514315455420718   0.005539106102847018
-0.8134221744610403   -0.02514315455420718   0.005539106102847018
-0.8008042498891046   -0.02124179018602776   -0.04170296026696572
-0.8008042498891046   -0.02124179018602776   -0.04170296026696572
-0.8008042498891046   -0.02124179018602776   -0.04170296026696572
-0.8008042498891046   -0.02124179018602776   -0.04170296026696572
-0.4157438681485742   0.07704141734551673   0.020744072043422872
-0.4157438681485742   0.07704141734551673   0.020744072043422872
-0.4157438681485742   0.07704141734551673   0.020744072043422872
-0.4157438681485742   0.07704141734551673   0.020744072043422872
-0.6142405920892595   0.016028786294538466   0.016586191026748284
-0.6142405920892595   0.016028786294538466   0.016586191026748284
-0.6142405920892595   0.016028786294538466   0.016586191026748284
-0.6142405920892595   0.016028786294538466   0.016586191026748284
-0.8721837795849916   -0.041383340642464156   -0.032279844257238184
-0.8721837795849916   -0.041383340642464156   -0.032279844257238184
-0.8721837795849916   -0.041383340642464156   -0.032279844257238184
-0.8721837795849916   -0.041383340642464156   -0.032279844257238184
-1.2433190344258624   -0.04486896237563867   0.055924062371908966
-1.2433190344258624   -0.04486896237563867   0.055924062371908966
-1.2433190344258624   -0.04486896237563867   0.055924062371908966
-1.2433190344258624   -0.04486896237563867   0.055924062371908966
-1.2195618002285347   -0.08933498541009335   -0.04280426573485236
-1.2195618002285347   -0.08933498541009335   -0.04280426573485236
-1.2195618002285347   -0.08933498541009335   -0.04280426573485236
-1.2195618002285347   -0.08933498541009335   -0.04280426573485236
-0.809432279369044   0.06946670725606144   0.05686201213840476
-0.809432279369044   0.06946670725606144   0.05686201213840476
-0.809432279369044   0.06946670725606144   0.05686201213840476
-0.809432279369044   0.06946670725606144   0.05686201213840476
-0.9901602282284161   -0.01223683736261627   0.01152180364408488
-0.9901602282284161   -0.01223683736261627   0.01152180364408488
-0.9901602282284161   -0.01223683736261627   0.01152180364408488
-0.9901602282284161   -0.01223683736261627   0.01152180364408488
-0.8444620075353838   -0.01293179834328223   -0.035888123093947684
-0.8444620075353838   -0.01293179834328223   -0.035888123093947684
-0.8444620075353838   -0.01293179834328223   -0.035888123093947684
-0.8444620075353838   -0.01293179834328223   -0.035888123093947684
-1.183946653385428   -0.006351061133984259   0.052287544204560374
-1.183946653385428   -0.006351061133984259   0.052287544204560374
-1.183946653385428   -0.006351061133984259   0.052287544204560374
-1.183946653385428   -0.006351061133984259   0.052287544204560374
-1.174790146658996   -0.07343228723268935   -0.050416633273208916
-1.174790146658996   -0.07343228723268935   -0.050416633273208916
-1.174790146658996   -0.07343228723268935   -0.050416633273208916
-1.174790146658996   -0.07343228723268935   -0.050416633273208916
-0.7846334079631962   0.07927434608675216   0.045065437951107526
-0.7846334079631962   0.07927434608675216   0.045065437951107526
-0.7846334079631962   0.07927434608675216   0.045065437951107526
-0.7846334079631962   0.07927434608675216   0.045065437951107526
-0.9671214908582061   0.005124164630857686   0.020655505134998184
-0.9671214908582061   0.005124164630857686   0.020655505134998184
-0.9671214908582061   0.005124164630857686   0.020655505134998184
-0.9671214908582061   0.005124164630857686   0.020655505134998184
-0.8176917062725717   -9.967833547186444e-05   -0.04085202917354569
-0.8176917062725717   -9.967833547186444e-05   -0.04085202917354569
-0.8176917062725717   -9.967833547186444e-05   -0.04085202917354569
-0.8176917062725717   -9.967833547186444e-05   -0.04085202917354569
-1.141146758355894   0.006526827183257672   0.037841193826332956
-1.141146758355894   0.006526827183257672   0.037841193826332956
-1.141146758355894   0.006526827183257672   0.037841193826332956
-1.141146758355894   0.006526827183257672   0.037841193826332956
-1.1258352127368938   -0.05434609117000941   -0.057461447298097566
-1.1258352127368938   -0.05434609117000941   -0.057461447298097566
-1.1258352127368938   -0.05434609117000941   -0.057461447298097566
-1.1258352127368938   -0.05434609117000941   -0.057461447298097566
-0.7628485162335243   0.0884595409714295   0.038374376853477526
-0.7628485162335243   0.0884595409714295   0.038374376853477526
-0.7628485162335243   0.0884595409714295   0.038374376853477526
-0.7628485162335243   0.0884595409714295   0.038374376853477526
-0.9177041260934835   0.019549443789299265   0.03447719590832905
-0.9177041260934835   0.019549443789299265   0.03447719590832905
-0.9177041260934835   0.019549443789299265   0.03447719590832905
-0.9177041260934835   0.019549443789299265   0.03447719590832905
1.093159441990175   0.08172590865379989   0.05782133907842104
1.093159441990175   0.08172590865379989   0.05782133907842104
1.093159441990175   0.08172590865379989   0.05782133907842104
1.093159441990175   0.08172590865379989   0.05782133907842104
0.4820549361056164   -0.12857028323931854   -0.026609771112769402
0.4820549361056164   -0.12857028323931854   -0.026609771112769402
0.4820549361056164   -0.12857028323931854   -0.026609771112769402
0.4820549361056164   -0.12857028323931854   -0.026609771112769402
0.5373877795504026   -0.022679231011187073   0.039700838410436465
0.5373877795504026   -0.022679231011187073   0.039700838410436465
0.5373877795504026   -0.022679231011187073   0.039700838410436465
0.5373877795504026   -0.022679231011187073   0.039700838410436465
1.1051517647853744   -0.0018566950841516217   -0.04168091639123852
1.1051517647853744   -0.0018566950841516217   -0.04168091639123852
1.1051517647853744   -0.0018566950841516217   -0.04168091639123852
1.1051517647853744   -0.0018566950841516217   -0.04168091639123852
0.7573282904904216   -0.022892232852714467   -0.05917552800859995
0.7573282904904216   -0.022892232852714467   -0.05917552800859995
0.7573282904904216   -0.022892232852714467   -0.05917552800859995
0.7573282904904216   -0.022892232852714467   -0.05917552800859995
1.143592976245739   0.10029610817589829   0.0483723376505269
1.143592976245739   0.10029610817589829   0.0483723376505269
1.143592976245739   0.10029610817589829   0.0483723376505269
1.143592976245739   0.10029610817589829   0.0483723376505269
0.5026396717863431   -0.12113893057493264   -0.03558000084611227
0.5026396717863431   -0.12113893057493264   -0.03558000084611227
0.5026396717863431   -0.12113893057493264   -0.03558000084611227
0.5026396717863431   -0.12113893057493264   -0.03558000084611227
0.559000009386919   -0.01094068617415736   0.032091434894630656
0.559000009386919   -0.01094068617415736   0.032091434894630656
0.559000009386919   -0.01094068617415736   0.032091434894630656
0.559000009386919   -0.01094068617415736   0.032091434894630656
1.142958862368345   0.011084274479226719   -0.05206212862576196
1.142958862368345   0.011084274479226719   -0.05206212862576196
1.142958862368345   0.011084274479226719   -0.05206212862576196
1.142958862368345   0.011084274479226719   -0.05206212862576196
0.8048315557068977   -0.009067534265230937   -0.04026234859446083
0.8048315557068977   -0.009067534265230937   -0.04026234859446083
0.8048315557068977   -0.009067534265230937   -0.04026234859446083
0.8048315557068977   -0.009067534265230937   -0.04026234859446083
1.1811727125830342   0.11424487239293477   0.03584652453397597
1.1811727125830342   0.11424487239293477   0.03584652453397597
1.1811727125830342   0.11424487239293477   0.03584652453397597
1.1811727125830342   0.11424487239293477   0.03584652453397597
0.5240169855044567   -0.11087045775563328   -0.04289391293620445
0.5240169855044567   -0.11087045775563328   -0.04289391293620445
0.5240169855044567   -0.11087045775563328   -0.04289391293620445
0.5240169855044567   -0.11087045775563328   -0.04289391293620445
0.5785818245207648   0.0204241655061959   0.02813567089977403
0.5785818245207648   0.0204241655061959   0.02813567089977403
0.5785818245207648   0.0204241655061959   0.02813567089977403
0.5785818245207648   0.0204241655061959   0.02813567089977403
1.1894857278260922   0.04895432651412407   -0.054513720566845586
1.1894857278260922   0.04895432651412407   -0.054513720566845586
1.1894857278260922   0.04895432651412407   -0.054513720566845586
1.1894857278260922   0.04895432651412407   -0.054513720566845586
0.8225427215890077   0.009554608563658806   -0.027180199454255392
0.8225427215890077   0.009554608563658806   -0.027180199454255392
0.8225427215890077   0.009554608563658806   -0.027180199454255392
0.8225427215890077   0.009554608563658806   -0.027180199454255392
0.5332536013903526   0.047836185909104864   0.05297708616248485
0.5332536013903526   0.047836185909104864   0.05297708616248485
0.5332536013903526   0.047836185909104864   0.05297708616248485
0.5332536013903526   0.047836185909104864   0.05297708616248485
-0.06622754185908424   -0.1583467493676269   -0.015163203737760797
-0.06622754185908424   -0.1583467493676269   -0.015163203737760797
-0.06622754185908424   -0.1583467493676269   -0.015163203737760797
-0.06622754185908424   -0.1583467493676269   -0.015163203737760797
-0.018600967426448657   -0.05599651010877086   0.013440653244303725
-0.018600967426448657   -0.05599651010877086   0.013440653244303725
-0.018600967426448657   -0.05599651010877086   0.013440653244303725
-0.018600967426448657   -0.05599651010877086   0.013440653244303725
0.5287219055277264   -0.02895453511137358   0.0026467723972415855
0.5287219055277264   -0.02895453511137358   0.0026467723972415855
0.5287219055277264   -0.02895453511137358   0.0026467723972415855
0.5287219055277264   -0.02895453511137358   0.0026467723972415855
0.2376657050483071   -0.04406483821670097   -0.028171090744996543
0.2376657050483071   -0.04406483821670097   -0.028171090744996543
0.2376657050483071   -0.04406483821670097   -0.028171090744996543
0.2376657050483071   -0.04406483821670097   -0.028171090744996543
0.5565135986838743   0.06572367756479541   0.04692702550181228
0.5565135986838743   0.06572367756479541   0.04692702550181228
0.5565135986838743   0.06572367756479541   0.04692702550181228
0.5565135986838743   0.06572367756479541   0.04692702550181228
-0.04444340908286844   -0.1487254712852117   -0.023042593861354328
-0.04444340908286844   -0.1487254712852117   -0.023042593861354328
-0.04444340908286844   -0.1487254712852117   -0.023042593861354328
-0.04444340908286844   -0.1487254712852117   -0.023042593861354328
0.003435981164227926   -0.03498429984813915   0.008193961711734055
0.003435981164227926   -0.03498429984813915   0.008193961711734055
0.003435981164227926   -0.03498429984813915   0.008193961711734055
0.003435981164227926   -0.03498429984813915   0.008193961711734055
0.5512993479982079   -0.013110232278606929   -0.0042423259444745245
0.5512993479982079   -0.013110232278606929   -0.0042423259444745245
0.5512993479982079   -0.013110232278606929   -0.0042423259444745245
0.5512993479982079   -0.013110232278606929   -0.0042423259444745245
0.25679676085436354   -0.03116124734287204   -0.018255508709508577
0.25679676085436354   -0.03116124734287204   -0.018255508709508577
0.25679676085436354   -0.03116124734287204   -0.018255508709508577
0.25679676085436354   -0.03116124734287204   -0.018255508709508577
0.5805843397339854   0.0871842163455222   0.041888184110283416
0.5805843397339854   0.0871842163455222   0.041888184110283416
0.5805843397339854   0.0871842163455222   0.041888184110283416
0.5805843397339854   0.0871842163455222   0.041888184110283416
-0.02468686177180423   -0.13411659967252812   -0.03328795314403774
-0.02468686177180423   -0.13411659967252812   -0.03328795314403774
-0.02468686177180423   -0.13411659967252812   -0.03328795314403774
-0.02468686177180423   -0.13411659967252812   -0.03328795314403774
0.020736073251654673   -0.010363672526233542   0.00289182453517963
0.020736073251654673   -0.010363672526233542   0.00289182453517963
0.020736073251654673   -0.010363672526233542   0.00289182453517963
0.020736073251654673   -0.010363672526233542   0.00289182453517963
0.5681987382086903   0.007106563074853592   -0.010462158229260363
0.5681987382086903   0.007106563074853592   -0.010462158229260363
0.5681987382086903   0.007106563074853592   -0.010462158229260363
0.5681987382086903   0.007106563074853592   -0.010462158229260363
0.2802620029674006   -0.011855710014735427   -0.007609484981729503
0.2802620029674006   -0.011855710014735427   -0.007609484981729503
0.2802620029674006   -0.011855710014735427   -0.007609484981729503
0.2802620029674006   -0.011855710014735427   -0.007609484981729503
-0.023575544681412295   0.013420827473255665   0.026329205309716306
-0.023575544681412295   0.013420827473255665   0.026329205309716306
-0.023575544681412295   0.013420827473255665   0.026329205309716306
-0.023575544681412295   0.013420827473255665   0.026329205309716306
-0.6102643354772058   -0.19865571301266707   -0.012175132905283263
-0.6102643354772058   -0.19865571301266707   -0.012175132905283263
-0.6102643354772058   -0.19865571301266707   -0.012175132905283263
-0.6102643354772058   -0.19865571301266707   -0.012175132905283263
-0.5621238462818402   -0.08589099014187898   -0.012850784422491926
-0.5621238462818402   -0.08589099014187898   -0.012850784422491926
-0.5621238462818402   -0.08589099014187898   -0.012850784422491926
-0.5621238462818402   -0.08589099014187898   -0.012850784422491926
-0.021306542554375366   -0.06797839875067252   0.011894666246571851
-0.021306542554375366   -0.06797839875067252   0.011894666246571851
-0.021306542554375366   -0.06797839875067252   0.011894666246571851
-0.021306542554375366   -0.06797839875067252   0.011894666246571851
-0.3056956065309577   -0.08023067835797736   -0.02515677831977478
-0.3056956065309577   -0.08023067835797736   -0.02515677831977478
-0.3056956065309577   -0.08023067835797736   -0.02515677831977478
-0.3056956065309577   -0.08023067835797736   -0.02515677831977478
0.0009023270092452318   0.03356377038636414   0.021396844927638173
0.0009023270092452318   0.03356377038636414   0.021396844927638173
0.0009023270092452318   0.03356377038636414   0.021396844927638173
0.0009023270092452318   0.03356377038636414   0.021396844927638173
-0.5829238644285609   -0.18602430786202084   -0.016717557435953448
-0.5829238644285609   -0.18602430786202084   -0.016717557435953448
-0.5829238644285609   -0.18602430786202084   -0.016717557435953448
-0.5829238644285609   -0.18602430786202084   -0.016717557435953448
-0.5347879839269946   -0.06256624127313776   -0.017490121841107514
-0.5347879839269946   -0.06256624127313776   -0.017490121841107514
-0.5347879839269946   -0.06256624127313776   -0.017490121841107514
-0.5347879839269946   -0.06256624127313776   -0.017490121841107514
-0.000778857154967616   -0.052749950428042494   0.004885420695659681
-0.000778857154967616   -0.052749950428042494   0.004885420695659681
-0.000778857154967616   -0.052749950428042494   0.004885420695659681
-0.000778857154967616   -0.052749950428042494   0.004885420695659681
-0.2791590804062538   -0.06345747795458784   -0.013958900463733378
-0.2791590804062538   -0.06345747795458784   -0.013958900463733378
-0.2791590804062538   -0.06345747795458784   -0.013958900463733378
-0.2791590804062538   -0.06345747795458784   -0.013958900463733378
0.023300810954614955   0.05588025352875971   0.016653557286770336
0.023300810954614955   0.05588025352875971   0.016653557286770336
0.023300810954614955   0.05588025352875971   0.016653557286770336
0.023300810954614955   0.05588025352875971   0.016653557286770336
-0.5588695573935173   -0.17119835058687943   -0.029265879859975426
-0.5588695573935173   -0.17119835058687943   -0.029265879859975426
-0.5588695573935173   -0.17119835058687943   -0.029265879859975426
-0.5588695573935173   -0.17119835058687943   -0.029265879859975426
-0.5154691420159834   -0.04032787127536561   -0.022674840454235422
-0.5154691420159834   -0.04032787127536561   -0.022674840454235422
-0.5154691420159834   -0.04032787127536561   -0.022674840454235422
-0.5154691420159834   -0.04032787127536561   -0.022674840454235422
0.012696157646448707   -0.0405694972426685   -0.00710192877441523
0.012696157646448707   -0.0405694972426685   -0.00710192877441523
0.012696157646448707   -0.0405694972426685   -0.00710192877441523
0.012696157646448707   -0.0405694972426685   -0.00710192877441523
-0.2596971241870314   -0.04780767113061203   -0.0069399774975842
-0.2596971241870314   -0.04780767113061203   -0.0069399774975842
-0.2596971241870314   -0.04780767113061203   -0.0069399774975842
-0.2596971241870314   -0.04780767113061203   -0.0069399774975842
-0.571539301131557   -0.01637499735470975   -0.0008306768350014558
-0.571539301131557   -0.01637499735470975   -0.0008306768350014558
-0.571539301131557   -0.01637499735470975   -0.0008306768350014558
-0.571539301131557   -0.01637499735470975   -0.0008306768350014558
-1.1568795502065146   -0.21357862770261363   -0.00977213023255658
-1.1568795502065146   -0.21357862770261363   -0.00977213023255658
-1.1568795502065146   -0.21357862770261363   -0.00977213023255658
-1.1568795502065146   -0.21357862770261363   -0.00977213023255658
-1.1052195991780334   -0.1099839942278561   -0.03818559212017699
-1.1052195991780334   -0.1099839942278561   -0.03818559212017699
-1.1052195991780334   -0.1099839942278561   -0.03818559212017699
-1.1052195991780334   -0.1099839942278561   -0.03818559212017699
-0.5514647111867759   -0.07063502803699287   0.02518892894793756
-0.5514647111867759   -0.07063502803699287   0.02518892894793756
-0.5514647111867759   -0.07063502803699287   0.02518892894793756
-0.5514647111867759   -0.07063502803699287   0.02518892894793756
-0.8388737250318299   -0.09648876670787138   -0.01772662653481502
-0.8388737250318299   -0.09648876670787138   -0.01772662653481502
-0.8388737250318299   -0.09648876670787138   -0.01772662653481502
-0.8388737250318299   -0.09648876670787138   -0.01772662653481502
-0.5413400550680985   0.009553724432527222   -0.0043765429281953025
-0.5413400550680985   0.009553724432527222   -0.0043765429281953025
-0.5413400550680985   0.009553724432527222   -0.0043765429281953025
-0.5413400550680985   0.009553724432527222   -0.0043765429281953025
-1.115778546949286   -0.19060703834994464   -0.010357286854341913
-1.115778546949286   -0.19060703834994464   -0.010357286854341913
-1.115778546949286   -0.19060703834994464   -0.010357286854341913
-1.115778546949286   -0.19060703834994464   -0.010357286854341913
-1.0661330263295186   -0.0856364761837162   -0.04421665017625059
-1.0661330263295186   -0.0856364761837162   -0.04421665017625059
-1.0661330263295186   -0.0856364761837162   -0.04421665017625059
-1.0661330263295186   -0.0856364761837162   -0.04421665017625059
-0.5249259073293407   -0.052360729735222634   0.021614749609250215
-0.5249259073293407   -0.052360729735222634   0.021614749609250215
-0.5249259073293407   -0.052360729735222634   0.021614749609250215
-0.5249259073293407   -0.052360729735222634   0.021614749609250215
-0.7986873491609582   -0.07312856404887814   -0.00579903580347654
-0.7986873491609582   -0.07312856404887814   -0.00579903580347654
-0.7986873491609582   -0.07312856404887814   -0.00579903580347654
-0.7986873491609582   -0.07312856404887814   -0.00579903580347654
-0.5139413399708631   0.032067135380455636   -0.00789027871404676
-0.5139413399708631   0.032067135380455636   -0.00789027871404676
-0.5139413399708631   0.032067135380455636   -0.00789027871404676
-0.5139413399708631   0.032067135380455636   -0.00789027871404676
-1.0789912327504148   -0.17193798036181257   -0.022206178102625464
-1.0789912327504148   -0.17193798036181257   -0.022206178102625464
-1.0789912327504148   -0.17193798036181257   -0.022206178102625464
-1.0789912327504148   -0.17193798036181257   -0.022206178102625464
-1.034440113559373   -0.05997272531930148   -0.04563039586983874
-1.034440113559373   -0.05997272531930148   -0.04563039586983874
-1.034440113559373   -0.05997272531930148   -0.04563039586983874
-1.034440113559373   -0.05997272531930148   -0.04563039586983874
-0.5096847039838353   -0.04074273542349581   0.006662213854637708
-0.5096847039838353   -0.04074273542349581   0.006662213854637708
-0.5096847039838353   -0.04074273542349581   0.006662213854637708
-0.5096847039838353   -0.04074273542349581   0.006662213854637708
-0.7765688789778047   -0.058891336067182706   -0.0019004464828589994
-0.7765688789778047   -0.058891336067182706   -0.0019004464828589994
-0.7765688789778047   -0.058891336067182706   -0.0019004464828589994
-0.7765688789778047   -0.058891336067182706   -0.0019004464828589994
-1.1253812321893801   -0.03803170664385827   -0.027827461205640662
-1.1253812321893801   -0.03803170664385827   -0.027827461205640662
-1.1253812321893801   -0.03803170664385827   -0.027827461205640662
-1.1253812321893801   -0.03803170664385827   -0.027827461205640662
-1.6969808038946204   -0.1445841879107958   0.06396485447277868
-1.6969808038946204   -0.1445841879107958   0.06396485447277868
-1.6969808038946204   -0.1445841879107958   0.06396485447277868
-1.6969808038946204   -0.1445841879107958   0.06396485447277868
-1.6389632496351432   -0.11526884048312841   -0.037284756291445134
-1.6389632496351432   -0.11526884048312841   -0.037284756291445134
-1.6389632496351432   -0.11526884048312841   -0.037284756291445134
-1.6389632496351432   -0.11526884048312841   -0.037284756291445134
-1.0577356227447146   0.03039826251518818   0.05885203330336297
-1.0577356227447146   0.03039826251518818   0.05885203330336297
-1.0577356227447146   0.03039826251518818   0.05885203330336297
-1.0577356227447146   0.03039826251518818   0.05885203330336297
-1.3180143459246956   -0.04531969532944799   0.0064187011961534465
-1.3180143459246956   -0.04531969532944799   0.0064187011961534465
-1.3180143459246956   -0.04531969532944799   0.0064187011961534465
-1.3180143459246956   -0.04531969532944799   0.0064187011961534465
-1.0822846435014222   -0.0026459413259080355   -0.030848866639064318
-1.0822846435014222   -0.0026459413259080355   -0.030848866639064318
-1.0822846435014222   -0.0026459413259080355   -0.030848866639064318
-1.0822846435014222   -0.0026459413259080355   -0.030848866639064318
-1.6104557308294787   -0.07826613859307291   0.06825013584682144
-1.6104557308294787   -0.07826613859307291   0.06825013584682144
-1.6104557308294787   -0.07826613859307291   0.06825013584682144
-1.6104557308294787   -0.07826613859307291   0.06825013584682144
-1.576711630919529   -0.09703482698941085   -0.044402204473344004
-1.576711630919529   -0.09703482698941085   -0.044402204473344004
-1.576711630919529   -0.09703482698941085   -0.044402204473344004
-1.576711630919529   -0.09703482698941085   -0.044402204473344004
-1.0190891625641707   0.04855349564508554   0.056812696821687214
-1.0190891625641707   0.04855349564508554   0.056812696821687214
-1.0190891625641707   0.04855349564508554   0.056812696821687214
-1.0190891625641707   0.04855349564508554   0.056812696821687214
-1.2813642730313302   -0.018279760846572457   0.02628199915952638
-1.2813642730313302   -0.018279760846572457   0.02628199915952638
-1.2813642730313302   -0.018279760846572457   0.02628199915952638
-1.2813642730313302   -0.018279760846572457   0.02628199915952638
-1.0445026367319548   0.011622647556959437   -0.033323825929097564
-1.0445026367319548   0.011622647556959437   -0.033323825929097564
-1.0445026367319548   0.011622647556959437   -0.033323825929097564
-1.0445026367319548   0.011622647556959437   -0.033323825929097564
-1.55049087153154   -0.059296693681080814   0.048963459158255576
-1.55049087153154   -0.059296693681080814   0.048963459158255576
-1.55049087153154   -0.059296693681080814   0.048963459158255576
-1.55049087153154   -0.059296693681080814   0.048963459158255576
-1.5123205078495199   -0.07984324690028521   -0.05366757088910043
-1.5123205078495199   -0.07984324690028521   -0.05366757088910043
-1.5123205078495199   -0.07984324690028521   -0.05366757088910043
-1.5123205078495199   -0.07984324690028521   -0.05366757088910043
-0.9904881918368736   0.07022871772575881   0.04392776969759661
-0.9904881918368736   0.07022871772575881   0.04392776969759661
-0.9904881918368736   0.07022871772575881   0.04392776969759661
-0.9904881918368736   0.07022871772575881   0.04392776969759661
-1.2120746116187773   0.00482326878797773   0.046213650765311434
-1.2120746116187773   0.00482326878797773   0.046213650765311434
-1.2120746116187773   0.00482326878797773   0.046213650765311434
-1.2120746116187773   0.00482326878797773   0.046213650765311434
1.492060913364194   0.08954928844084986   0.05398211002952569
1.492060913364194   0.08954928844084986   0.05398211002952569
1.492060913364194   0.08954928844084986   0.05398211002952569
1.492060913364194   0.08954928844084986   0.05398211002952569
0.7110690499204384   -0.13304560845491414   0.011968822520428635
0.7110690499204384   -0.13304560845491414   0.011968822520428635
0.7110690499204384   -0.13304560845491414   0.011968822520428635
0.7110690499204384   -0.13304560845491414   0.011968822520428635
0.7502115898970566   -0.05620981617176146   0.04149365305903006
0.7502115898970566   -0.05620981617176146   0.04149365305903006
0.7502115898970566   -0.05620981617176146   0.04149365305903006
0.7502115898970566   -0.05620981617176146   0.04149365305903006
1.4998664309886771   0.012952447525533872   -0.012104471181892229
1.4998664309886771   0.012952447525533872   -0.012104471181892229
1.4998664309886771   0.012952447525533872   -0.012104471181892229
1.4998664309886771   0.012952447525533872   -0.012104471181892229
1.048892360261544   -0.02851856749015652   -0.06962689984863302
1.048892360261544   -0.02851856749015652   -0.06962689984863302
1.048892360261544   -0.02851856749015652   -0.06962689984863302
1.048892360261544   -0.02851856749015652   -0.06962689984863302
1.528157145033761   0.0996173946313215   0.0426841519377402
1.528157145033761   0.0996173946313215   0.0426841519377402
1.528157145033761   0.0996173946313215   0.0426841519377402
1.528157145033761   0.0996173946313215   0.0426841519377402
0.7287018641951376   -0.13609377493438402   0.013828983312057883
0.7287018641951376   -0.13609377493438402   0.013828983312057883
0.7287018641951376   -0.13609377493438402   0.013828983312057883
0.7287018641951376   -0.13609377493438402   0.013828983312057883
0.7650152233786823   -0.047778592162582234   0.031567177154825286
0.7650152233786823   -0.047778592162582234   0.031567177154825286
0.7650152233786823   -0.047778592162582234   0.031567177154825286
0.7650152233786823   -0.047778592162582234   0.031567177154825286
1.526069975508421   0.02245400670491282   -0.0037842171494395227
1.526069975508421   0.02245400670491282   -0.0037842171494395227
1.526069975508421   0.02245400670491282   -0.0037842171494395227
1.526069975508421   0.02245400670491282   -0.0037842171494395227
1.0920809086121024   -0.022537123125682762   -0.04758712228792951
1.0920809086121024   -0.022537123125682762   -0.04758712228792951
1.0920809086121024   -0.022537123125682762   -0.04758712228792951
1.0920809086121024   -0.022537123125682762   -0.04758712228792951
1.550013129634759   0.10882055474591731   0.02956500544124608
1.550013129634759   0.10882055474591731   0.02956500544124608
1.550013129634759   0.10882055474591731   0.02956500544124608
1.550013129634759   0.10882055474591731   0.02956500544124608
0.7457888900547991   -0.1294283194011319   0.017085237773959067
0.7457888900547991   -0.1294283194011319   0.017085237773959067
0.7457888900547991   -0.1294283194011319   0.017085237773959067
0.7457888900547991   -0.1294283194011319   0.017085237773959067
0.7868128727283513   -0.014905863729286178   0.028858183313843905
0.7868128727283513   -0.014905863729286178   0.028858183313843905
0.7868128727283513   -0.014905863729286178   0.028858183313843905
0.7868128727283513   -0.014905863729286178   0.028858183313843905
1.5533398394955555   0.04426460508763691   -0.000710187415619748
1.5533398394955555   0.04426460508763691   -0.000710187415619748
1.5533398394955555   0.04426460508763691   -0.000710187415619748
1.5533398394955555   0.04426460508763691   -0.000710187415619748
1.0973737198552695   -0.01034761826066663   -0.03560038162187407
1.0973737198552695   -0.01034761826066663   -0.03560038162187407
1.0973737198552695   -0.01034761826066663   -0.03560038162187407
1.0973737198552695   -0.01034761826066663   -0.03560038162187407
0.7504895351375154   0.019362029007854137   0.056663611143044926
0.7504895351375154   0.019362029007854137   0.056663611143044926
0.7504895351375154   0.019362029007854137   0.056663611143044926
0.7504895351375154   0.019362029007854137   0.056663611143044926
0.03895940606548641   -0.26468574509386306   0.027067242209014644
0.03895940606548641   -0.26468574509386306   0.027067242209014644
0.03895940606548641   -0.26468574509386306   0.027067242209014644
0.03895940606548641   -0.26468574509386306   0.027067242209014644
0.08992538425842181   -0.11218317455503088   0.02530009644825961
0.08992538425842181   -0.11218317455503088   0.02530009644825961
0.08992538425842181   -0.11218317455503088   0.02530009644825961
0.08992538425842181   -0.11218317455503088   0.02530009644825961
0.7312659104625864   -0.1267182305041079   0.017273670219019474
0.7312659104625864   -0.1267182305041079   0.017273670219019474
0.7312659104625864   -0.1267182305041079   0.017273670219019474
0.7312659104625864   -0.1267182305041079   0.017273670219019474
0.38959210894837804   -0.11848634945326797   -0.04443881039448822
0.38959210894837804   -0.11848634945326797   -0.04443881039448822
0.38959210894837804   -0.11848634945326797   -0.04443881039448822
0.38959210894837804   -0.11848634945326797   -0.04443881039448822
0.768197463970457   0.027878219623816203   0.04733498763045991
0.768197463970457   0.027878219623816203   0.04733498763045991
0.768197463970457   0.027878219623816203   0.04733498763045991
0.768197463970457   0.027878219623816203   0.04733498763045991
0.06274517259515794   -0.25702828283833606   0.03424414641524555
0.06274517259515794   -0.25702828283833606   0.03424414641524555
0.06274517259515794   -0.25702828283833606   0.03424414641524555
0.06274517259515794   -0.25702828283833606   0.03424414641524555
0.11040081917320002   -0.09677833713055549   0.01831567862079061
0.11040081917320002   -0.09677833713055549   0.01831567862079061
0.11040081917320002   -0.09677833713055549   0.01831567862079061
0.11040081917320002   -0.09677833713055549   0.01831567862079061
0.7487985414008783   -0.11863491553071617   0.0213400906339396
0.7487985414008783   -0.11863491553071617   0.0213400906339396
0.7487985414008783   -0.11863491553071617   0.0213400906339396
0.7487985414008783   -0.11863491553071617   0.0213400906339396
0.40700424792836865   -0.11257741484044034   -0.022222180355633572
0.40700424792836865   -0.11257741484044034   -0.022222180355633572
0.40700424792836865   -0.11257741484044034   -0.022222180355633572
0.40700424792836865   -0.11257741484044034   -0.022222180355633572
0.7847181028737795   0.04240215031578498   0.03990083215194415
0.7847181028737795   0.04240215031578498   0.03990083215194415
0.7847181028737795   0.04240215031578498   0.03990083215194415
0.7847181028737795   0.04240215031578498   0.03990083215194415
0.08386131418703617   -0.24843534649032384   0.037275163049743446
0.08386131418703617   -0.24843534649032384   0.037275163049743446
0.08386131418703617   -0.24843534649032384   0.037275163049743446
0.08386131418703617   -0.24843534649032384   0.037275163049743446
0.14183841213859213   -0.07365102726958164   0.012110216118630824
0.14183841213859213   -0.07365102726958164   0.012110216118630824
0.14183841213859213   -0.07365102726958164   0.012110216118630824
0.14183841213859213   -0.07365102726958164   0.012110216118630824
0.7679790696107729   -0.10635469464059438   0.026137998637261725
0.7679790696107729   -0.10635469464059438   0.026137998637261725
0.7679790696107729   -0.10635469464059438   0.026137998637261725
0.7679790696107729   -0.10635469464059438   0.026137998637261725
0.43759625654465073   -0.09828347493074699   0.003639111025693191
0.43759625654465073   -0.09828347493074699   0.003639111025693191
0.43759625654465073   -0.09828347493074699   0.003639111025693191
0.43759625654465073   -0.09828347493074699   0.003639111025693191
0.08375451715034349   -0.05012125449851097   0.03647830703794793
0.08375451715034349   -0.05012125449851097   0.03647830703794793
0.08375451715034349   -0.05012125449851097   0.03647830703794793
0.08375451715034349   -0.05012125449851097   0.03647830703794793
-0.6385990507911438   -0.45440049195807186   0.03929543170796339
-0.6385990507911438   -0.45440049195807186   0.03929543170796339
-0.6385990507911438   -0.45440049195807186   0.03929543170796339
-0.6385990507911438   -0.45440049195807186   0.03929543170796339
-0.5580690434325432   -0.17719876932748324   0.002555314240686054
-0.5580690434325432   -0.17719876932748324   0.002555314240686054
-0.5580690434325432   -0.17719876932748324   0.002555314240686054
-0.5580690434325432   -0.17719876932748324   0.002555314240686054
0.04431695319055455   -0.33000094508242367   0.015075711636316144
0.04431695319055455   -0.33000094508242367   0.015075711636316144
0.04431695319055455   -0.33000094508242367   0.015075711636316144
0.04431695319055455   -0.33000094508242367   0.015075711636316144
-0.27546407123073136   -0.254737594751794   -0.053318976860932864
-0.27546407123073136   -0.254737594751794   -0.053318976860932864
-0.27546407123073136   -0.254737594751794   -0.053318976860932864
-0.27546407123073136   -0.254737594751794   -0.053318976860932864
0.10519532173395947   -0.03930303107344709   0.02876964034436418
0.10519532173395947   -0.03930303107344709   0.02876964034436418
0.10519532173395947   -0.03930303107344709   0.02876964034436418
0.10519532173395947   -0.03930303107344709   0.02876964034436418
-0.6048215634581436   -0.4537708348186445   0.045364779603848784
-0.6048215634581436   -0.4537708348186445   0.045364779603848784
-0.6048215634581436   -0.4537708348186445   0.045364779603848784
-0.6048215634581436   -0.4537708348186445   0.045364779603848784
-0.5270037482157894   -0.15899765344118535   -0.00012820330923283413
-0.5270037482157894   -0.15899765344118535   -0.00012820330923283413
-0.5270037482157894   -0.15899765344118535   -0.00012820330923283413
-0.5270037482157894   -0.15899765344118535   -0.00012820330923283413
0.06590692554216714   -0.32267856686436686   0.021746440199441233
0.06590692554216714   -0.32267856686436686   0.021746440199441233
0.06590692554216714   -0.32267856686436686   0.021746440199441233
0.06590692554216714   -0.32267856686436686   0.021746440199441233
-0.24398838124463829   -0.24597937833978706   -0.019845668249270018
-0.24398838124463829   -0.24597937833978706   -0.019845668249270018
-0.24398838124463829   -0.24597937833978706   -0.019845668249270018
-0.24398838124463829   -0.24597937833978706   -0.019845668249270018
0.12479857764146024   -0.024921934034650733   0.018448067866190625
0.12479857764146024   -0.024921934034650733   0.018448067866190625
0.12479857764146024   -0.024921934034650733   0.018448067866190625
0.12479857764146024   -0.024921934034650733   0.018448067866190625
-0.5731578691215219   -0.4440167550773291   0.054120293798258085
-0.5731578691215219   -0.4440167550773291   0.054120293798258085
-0.5731578691215219   -0.4440167550773291   0.054120293798258085
-0.5731578691215219   -0.4440167550773291   0.054120293798258085
-0.4757371863575681   -0.1380372160371571   -0.006007178742841492
-0.4757371863575681   -0.1380372160371571   -0.006007178742841492
-0.4757371863575681   -0.1380372160371571   -0.006007178742841492
-0.4757371863575681   -0.1380372160371571   -0.006007178742841492
0.09960543487508056   -0.30234729496160484   0.02964159749309611
0.09960543487508056   -0.30234729496160484   0.02964159749309611
0.09960543487508056   -0.30234729496160484   0.02964159749309611
0.09960543487508056   -0.30234729496160484   0.02964159749309611
-0.20315420763194197   -0.2264632866350334   0.015151940962626252
-0.20315420763194197   -0.2264632866350334   0.015151940962626252
-0.20315420763194197   -0.2264632866350334   0.015151940962626252
-0.20315420763194197   -0.2264632866350334   0.015151940962626252
-0.5702643249407187   -0.09082286900211198   0.01739143800412519
-0.5702643249407187   -0.09082286900211198   0.01739143800412519
-0.5702643249407187   -0.09082286900211198   0.01739143800412519
-0.5702643249407187   -0.09082286900211198   0.01739143800412519
-1.4196292263845702   -0.7069728485918221   -0.033021987266530245
-1.4196292263845702   -0.7069728485918221   -0.033021987266530245
-1.4196292263845702   -0.7069728485918221   -0.033021987266530245
-1.4196292263845702   -0.7069728485918221   -0.033021987266530245
-1.286780789797846   -0.23056600007380673   -0.03914985262506154
-1.286780789797846   -0.23056600007380673   -0.03914985262506154
-1.286780789797846   -0.23056600007380673   -0.03914985262506154
-1.286780789797846   -0.23056600007380673   -0.03914985262506154
-0.6388729762504786   -0.5906532201534875   0.01199010097701289
-0.6388729762504786   -0.5906532201534875   0.01199010097701289
-0.6388729762504786   -0.5906532201534875   0.01199010097701289
-0.6388729762504786   -0.5906532201534875   0.01199010097701289
-0.9777918262891655   -0.4181914323610991   -0.05603754714139332
-0.9777918262891655   -0.4181914323610991   -0.05603754714139332
-0.9777918262891655   -0.4181914323610991   -0.05603754714139332
-0.9777918262891655   -0.4181914323610991   -0.05603754714139332
-0.5335747789521659   -0.06877437826386722   0.01660224557895587
-0.5335747789521659   -0.06877437826386722   0.01660224557895587
-0.5335747789521659   -0.06877437826386722   0.01660224557895587
-0.5335747789521659   -0.06877437826386722   0.01660224557895587
-1.3888006433658635   -0.7491664982331316   -0.03064862230582316
-1.3888006433658635   -0.7491664982331316   -0.03064862230582316
-1.3888006433658635   -0.7491664982331316   -0.03064862230582316
-1.3888006433658635   -0.7491664982331316   -0.03064862230582316
-1.2453911136983744   -0.2087587494142786   -0.03991014241702672
-1.2453911136983744   -0.2087587494142786   -0.03991014241702672
-1.2453911136983744   -0.2087587494142786   -0.03991014241702672
-1.2453911136983744   -0.2087587494142786   -0.03991014241702672
-0.6087311138271523   -0.5859164344175024   0.018153749610274328
-0.6087311138271523   -0.5859164344175024   0.018153749610274328
-0.6087311138271523   -0.5859164344175024   0.018153749610274328
-0.6087311138271523   -0.5859164344175024   0.018153749610274328
-0.9343042769330266   -0.40676939191039285   -0.03915461046549246
-0.9343042769330266   -0.40676939191039285   -0.03915461046549246
-0.9343042769330266   -0.40676939191039285   -0.03915461046549246
-0.9343042769330266   -0.40676939191039285   -0.03915461046549246
-0.5043514177549776   -0.051451352192887725   0.005587147746530859
-0.5043514177549776   -0.051451352192887725   0.005587147746530859
-0.5043514177549776   -0.051451352192887725   0.005587147746530859
-0.5043514177549776   -0.051451352192887725   0.005587147746530859
-1.349652321917651   -0.7431053437859942   -0.02686958914168569
-1.349652321917651   -0.7431053437859942   -0.02686958914168569
-1.349652321917651   -0.7431053437859942   -0.02686958914168569
-1.349652321917651   -0.7431053437859942   -0.02686958914168569
-1.1807923677281922   -0.18534632577964433   -0.04524807418174771
-1.1807923677281922   -0.18534632577964433   -0.04524807418174771
-1.1807923677281922   -0.18534632577964433   -0.04524807418174771
-1.1807923677281922   -0.18534632577964433   -0.04524807418174771
-0.5435142098610101   -0.5264849074691892   0.04355539517198803
-0.5435142098610101   -0.5264849074691892   0.04355539517198803
-0.5435142098610101   -0.5264849074691892   0.04355539517198803
-0.5435142098610101   -0.5264849074691892   0.04355539517198803
-0.8858390775912297   -0.3684964182102106   -0.021593697721877782
-0.8858390775912297   -0.3684964182102106   -0.021593697721877782
-0.8858390775912297   -0.3684964182102106   -0.021593697721877782
-0.8858390775912297   -0.3684964182102106   -0.021593697721877782
-1.2889395915357644   -0.07756520721369894   -0.008981454400623652
-1.2889395915357644   -0.07756520721369894   -0.008981454400623652
-1.2889395915357644   -0.07756520721369894   -0.008981454400623652
-1.2889395915357644   -0.07756520721369894   -0.008981454400623652
-2.2731920956525657   -0.44999547250388644   0.023214733133133714
-2.2731920956525657   -0.44999547250388644   0.023214733133133714
-2.2731920956525657   -0.44999547250388644   0.023214733133133714
-2.2731920956525657   -0.44999547250388644   0.023214733133133714
-2.183903261864958   -0.2161523248722486   -0.047733264513577844
-2.183903261864958   -0.2161523248722486   -0.047733264513577844
-2.183903261864958   -0.2161523248722486   -0.047733264513577844
-2.183903261864958   -0.2161523248722486   -0.047733264513577844
-1.260847791473204   -0.2334831087581451   0.09343224768247843
-1.260847791473204   -0.2334831087581451   0.09343224768247843
-1.260847791473204   -0.2334831087581451   0.09343224768247843
-1.260847791473204   -0.2334831087581451   0.09343224768247843
-1.68079408656057   -0.26088890224567496   0.023873665146117246
-1.68079408656057   -0.26088890224567496   0.023873665146117246
-1.68079408656057   -0.26088890224567496   0.023873665146117246
-1.68079408656057   -0.26088890224567496   0.023873665146117246
-1.236182129562034   -0.017004963177425836   0.00028241165761222486
-1.236182129562034   -0.017004963177425836   0.00028241165761222486
-1.236182129562034   -0.017004963177425836   0.00028241165761222486
-1.236182129562034   -0.017004963177425836   0.00028241165761222486
-2.2170279829919117   -0.44108952966875403   0.011580334648141566
-2.2170279829919117   -0.44108952966875403   0.011580334648141566
-2.2170279829919117   -0.44108952966875403   0.011580334648141566
-2.2170279829919117   -0.44108952966875403   0.011580334648141566
-2.1348539829754487   -0.1980804845565261   -0.06059238377506242
-2.1348539829754487   -0.1980804845565261   -0.06059238377506242
-2.1348539829754487   -0.1980804845565261   -0.06059238377506242
-2.1348539829754487   -0.1980804845565261   -0.06059238377506242
-1.2182457042540233   -0.2218645914772608   0.10892274686771941
-1.2182457042540233   -0.2218645914772608   0.10892274686771941
-1.2182457042540233   -0.2218645914772608   0.10892274686771941
-1.2182457042540233   -0.2218645914772608   0.10892274686771941
-1.6550171315276634   -0.21490611759043293   0.022999306495330798
-1.6550171315276634   -0.21490611759043293   0.022999306495330798
-1.6550171315276634   -0.21490611759043293   0.022999306495330798
-1.6550171315276634   -0.21490611759043293   0.022999306495330798
-1.198233580004183   -0.0010118098994350566   -0.011869413460903588
-1.198233580004183   -0.0010118098994350566   -0.011869413460903588
-1.198233580004183   -0.0010118098994350566   -0.011869413460903588
-1.198233580004183   -0.0010118098994350566   -0.011869413460903588
-2.157932131255735   -0.4219992901647954   0.04793568043175778
-2.157932131255735   -0.4219992901647954   0.04793568043175778
-2.157932131255735   -0.4219992901647954   0.04793568043175778
-2.157932131255735   -0.4219992901647954   0.04793568043175778
-2.032985557226869   -0.16061618452153997   -0.06779937614890173
-2.032985557226869   -0.16061618452153997   -0.06779937614890173
-2.032985557226869   -0.16061618452153997   -0.06779937614890173
-2.032985557226869   -0.16061618452153997   -0.06779937614890173
-1.151947779706839   -0.20638653992690903   0.12001508007229378
-1.151947779706839   -0.20638653992690903   0.12001508007229378
-1.151947779706839   -0.20638653992690903   0.12001508007229378
-1.151947779706839   -0.20638653992690903   0.12001508007229378
-1.5562863531309055   -0.16432455354531486   0.047342931728894026
-1.5562863531309055   -0.16432455354531486   0.047342931728894026
-1.5562863531309055   -0.16432455354531486   0.047342931728894026
-1.5562863531309055   -0.16432455354531486   0.047342931728894026
1.6342910974230431   0.05379482402239161   0.02294893740435254
1.6342910974230431   0.05379482402239161   0.02294893740435254
1.6342910974230431   0.05379482402239161   0.02294893740435254
1.6342910974230431   0.05379482402239161   0.02294893740435254
0.8341074315656318   -0.0440821331767729   0.016790720525680772
0.8341074315656318   -0.0440821331767729   0.016790720525680772
0.8341074315656318   -0.0440821331767729   0.016790720525680772
0.8341074315656318   -0.0440821331767729   0.016790720525680772
0.8016292109501292   -0.11764177808575765   0.03316162080019809
0.8016292109501292   -0.11764177808575765   0.03316162080019809
0.8016292109501292   -0.11764177808575765   0.03316162080019809
0.8016292109501292   -0.11764177808575765   0.03316162080019809
1.622441941914988   0.09139632746534654   0.012116389003515665
1.622441941914988   0.09139632746534654   0.012116389003515665
1.622441941914988   0.09139632746534654   0.012116389003515665
1.622441941914988   0.09139632746534654   0.012116389003515665
1.1579323758126274   -0.01638166845286715   -0.042779582924633464
1.1579323758126274   -0.01638166845286715   -0.042779582924633464
1.1579323758126274   -0.01638166845286715   -0.042779582924633464
1.1579323758126274   -0.01638166845286715   -0.042779582924633464
1.6135746212380369   0.0416251686905047   0.017550944393601997
1.6135746212380369   0.0416251686905047   0.017550944393601997
1.6135746212380369   0.0416251686905047   0.017550944393601997
1.6135746212380369   0.0416251686905047   0.017550944393601997
0.8078452620559373   -0.07052188888205879   0.017121987125539834
0.8078452620559373   -0.07052188888205879   0.017121987125539834
0.8078452620559373   -0.07052188888205879   0.017121987125539834
0.8078452620559373   -0.07052188888205879   0.017121987125539834
0.7808999439923064   -0.12033925553827976   0.027419503150712496
0.7808999439923064   -0.12033925553827976   0.027419503150712496
0.7808999439923064   -0.12033925553827976   0.027419503150712496
0.7808999439923064   -0.12033925553827976   0.027419503150712496
1.6035129784341062   0.08746161439729433   0.021031423425385096
1.6035129784341062   0.08746161439729433   0.021031423425385096
1.6035129784341062   0.08746161439729433   0.021031423425385096
1.6035129784341062   0.08746161439729433   0.021031423425385096
1.154559458721728   -0.022593757850377233   -0.049468869450372724
1.154559458721728   -0.022593757850377233   -0.049468869450372724
1.154559458721728   -0.022593757850377233   -0.049468869450372724
1.154559458721728   -0.022593757850377233   -0.049468869450372724
1.5902842394942065   0.037102976297154366   0.005246366826013912
1.5902842394942065   0.037102976297154366   0.005246366826013912
1.5902842394942065   0.037102976297154366   0.005246366826013912
1.5902842394942065   0.037102976297154366   0.005246366826013912
0.7893591536731486   -0.07475014669720462   0.02412644271384827
0.7893591536731486   -0.07475014669720462   0.02412644271384827
0.7893591536731486   -0.07475014669720462   0.02412644271384827
0.7893591536731486   -0.07475014669720462   0.02412644271384827
0.759040850750471   -0.10971760043707504   0.023677773705904834
0.759040850750471   -0.10971760043707504   0.023677773705904834
0.759040850750471   -0.10971760043707504   0.023677773705904834
0.759040850750471   -0.10971760043707504   0.023677773705904834
1.5743555098437065   0.08851833688844146   0.030295830508116364
1.5743555098437065   0.08851833688844146   0.030295830508116364
1.5743555098437065   0.08851833688844146   0.030295830508116364
1.5743555098437065   0.08851833688844146   0.030295830508116364
1.11125482003238   -0.022740093562288566   -0.0667442169969298
1.11125482003238   -0.022740093562288566   -0.0667442169969298
1.11125482003238   -0.022740093562288566   -0.0667442169969298
1.11125482003238   -0.022740093562288566   -0.0667442169969298
0.8268710877394339   -0.10434290296441082   0.04086977118232839
0.8268710877394339   -0.10434290296441082   0.04086977118232839
0.8268710877394339   -0.10434290296441082   0.04086977118232839
0.8268710877394339   -0.10434290296441082   0.04086977118232839
0.15974618729605522   -0.09845081209570425   0.008646397202569649
0.15974618729605522   -0.09845081209570425   0.008646397202569649
0.15974618729605522   -0.09845081209570425   0.008646397202569649
0.15974618729605522   -0.09845081209570425   0.008646397202569649
0.10372895708676427   -0.246967390559016   0.04356482332023963
0.10372895708676427   -0.246967390559016   0.04356482332023963
0.10372895708676427   -0.246967390559016   0.04356482332023963
0.10372895708676427   -0.246967390559016   0.04356482332023963
0.8313248917157483   0.03245633945956447   0.03154190708297153
0.8313248917157483   0.03245633945956447   0.03154190708297153
0.8313248917157483   0.03245633945956447   0.03154190708297153
0.8313248917157483   0.03245633945956447   0.03154190708297153
0.47302972684334366   -0.10474626414965549   -0.0018339448940503517
0.47302972684334366   -0.10474626414965549   -0.0018339448940503517
0.47302972684334366   -0.10474626414965549   -0.0018339448940503517
0.47302972684334366   -0.10474626414965549   -0.0018339448940503517
0.8036061634579015   -0.10885332741515769   0.03425793266845553
0.8036061634579015   -0.10885332741515769   0.03425793266845553
0.8036061634579015   -0.10885332741515769   0.03425793266845553
0.8036061634579015   -0.10885332741515769   0.03425793266845553
0.12444506498434726   -0.1126603440445686   0.012838316293707151
0.12444506498434726   -0.1126603440445686   0.012838316293707151
0.12444506498434726   -0.1126603440445686   0.012838316293707151
0.12444506498434726   -0.1126603440445686   0.012838316293707151
0.07862409215356443   -0.24913823555005005   0.03899793978458406
0.07862409215356443   -0.24913823555005005   0.03899793978458406
0.07862409215356443   -0.24913823555005005   0.03899793978458406
0.07862409215356443   -0.24913823555005005   0.03899793978458406
0.8122100162992592   0.02627607783048369   0.037354531316712694
0.8122100162992592   0.02627607783048369   0.037354531316712694
0.8122100162992592   0.02627607783048369   0.037354531316712694
0.8122100162992592   0.02627607783048369   0.037354531316712694
0.4389202682411827   -0.11162742652808431   -0.0226367857386387
0.4389202682411827   -0.11162742652808431   -0.0226367857386387
0.4389202682411827   -0.11162742652808431   -0.0226367857386387
0.4389202682411827   -0.11162742652808431   -0.0226367857386387
0.7830794609957865   -0.11037598601046433   0.028353818640290462
0.7830794609957865   -0.11037598601046433   0.028353818640290462
0.7830794609957865   -0.11037598601046433   0.028353818640290462
0.7830794609957865   -0.11037598601046433   0.028353818640290462
0.1001427716345256   -0.12009804753161467   0.017551149170954516
0.1001427716345256   -0.12009804753161467   0.017551149170954516
0.1001427716345256   -0.12009804753161467   0.017551149170954516
0.1001427716345256   -0.12009804753161467   0.017551149170954516
0.0505361247019564   -0.2489702546454704   0.030503143521698167
0.0505361247019564   -0.2489702546454704   0.030503143521698167
0.0505361247019564   -0.2489702546454704   0.030503143521698167
0.0505361247019564   -0.2489702546454704   0.030503143521698167
0.7905163741294581   0.026691561682680387   0.044646228481086785
0.7905163741294581   0.026691561682680387   0.044646228481086785
0.7905163741294581   0.026691561682680387   0.044646228481086785
0.7905163741294581   0.026691561682680387   0.044646228481086785
0.4181137309039683   -0.11073101000193725   -0.04032018638137602
0.4181137309039683   -0.11073101000193725   -0.04032018638137602
0.4181137309039683   -0.11073101000193725   -0.04032018638137602
0.4181137309039683   -0.11073101000193725   -0.04032018638137602
0.12458361749221784   -0.3022887478545474   0.03667148394222407
0.12458361749221784   -0.3022887478545474   0.03667148394222407
0.12458361749221784   -0.3022887478545474   0.03667148394222407
0.12458361749221784   -0.3022887478545474   0.03667148394222407
-0.4886098286958496   -0.152645384975099   0.0004572637382160259
-0.4886098286958496   -0.152645384975099   0.0004572637382160259
-0.4886098286958496   -0.152645384975099   0.0004572637382160259
-0.4886098286958496   -0.152645384975099   0.0004572637382160259
-0.5899524405676032   -0.44988437055463437   0.04992797803335901
-0.5899524405676032   -0.44988437055463437   0.04992797803335901
-0.5899524405676032   -0.44988437055463437   0.04992797803335901
-0.5899524405676032   -0.44988437055463437   0.04992797803335901
0.1433194006092992   -0.025417959925385814   0.019967610299282134
0.1433194006092992   -0.025417959925385814   0.019967610299282134
0.1433194006092992   -0.025417959925385814   0.019967610299282134
0.1433194006092992   -0.025417959925385814   0.019967610299282134
-0.1999699075395044   -0.2292811279345008   0.008640507096208637
-0.1999699075395044   -0.2292811279345008   0.008640507096208637
-0.1999699075395044   -0.2292811279345008   0.008640507096208637
-0.1999699075395044   -0.2292811279345008   0.008640507096208637
0.08579421459837823   -0.31944657588688624   0.026370296206179575
0.08579421459837823   -0.31944657588688624   0.026370296206179575
0.08579421459837823   -0.31944657588688624   0.026370296206179575
0.08579421459837823   -0.31944657588688624   0.026370296206179575
-0.5422345508250688   -0.165663050861531   0.004296107052924044
-0.5422345508250688   -0.165663050861531   0.004296107052924044
-0.5422345508250688   -0.165663050861531   0.004296107052924044
-0.5422345508250688   -0.165663050861531   0.004296107052924044
-0.6249079201472381   -0.457052592704346   0.04069115668888959
-0.6249079201472381   -0.457052592704346   0.04069115668888959
-0.6249079201472381   -0.457052592704346   0.04069115668888959
-0.6249079201472381   -0.457052592704346   0.04069115668888959
0.11979373073937406   -0.03227685090837005   0.027984748071952226
0.11979373073937406   -0.03227685090837005   0.027984748071952226
0.11979373073937406   -0.03227685090837005   0.027984748071952226
0.11979373073937406   -0.03227685090837005   0.027984748071952226
-0.24365681466873665   -0.24318794125811127   -0.020531370277450126
-0.24365681466873665   -0.24318794125811127   -0.020531370277450126
-0.24365681466873665   -0.24318794125811127   -0.020531370277450126
-0.24365681466873665   -0.24318794125811127   -0.020531370277450126
0.05905259297898702   -0.32499856645379094   0.01700077481543981
0.05905259297898702   -0.32499856645379094   0.01700077481543981
0.05905259297898702   -0.32499856645379094   0.01700077481543981
0.05905259297898702   -0.32499856645379094   0.01700077481543981
-0.575843728109522   -0.17600782288159644   0.004967347054716367
-0.575843728109522   -0.17600782288159644   0.004967347054716367
-0.575843728109522   -0.17600782288159644   0.004967347054716367
-0.575843728109522   -0.17600782288159644   0.004967347054716367
-0.662805524164151   -0.4539156078198237   0.034210992241233334
-0.662805524164151   -0.4539156078198237   0.034210992241233334
-0.662805524164151   -0.4539156078198237   0.034210992241233334
-0.662805524164151   -0.4539156078198237   0.034210992241233334
0.09362177117797127   -0.036087864441387334   0.033048985697689506
0.09362177117797127   -0.036087864441387334   0.033048985697689506
0.09362177117797127   -0.036087864441387334   0.033048985697689506
0.09362177117797127   -0.036087864441387334   0.033048985697689506
-0.27911317963945204   -0.2484596085642123   -0.049695479033621426
-0.27911317963945204   -0.2484596085642123   -0.049695479033621426
-0.27911317963945204   -0.2484596085642123   -0.049695479033621426
-0.27911317963945204   -0.2484596085642123   -0.049695479033621426
-0.5531211342771367   -0.5183464687880766   0.04360181964476387
-0.5531211342771367   -0.5183464687880766   0.04360181964476387
-0.5531211342771367   -0.5183464687880766   0.04360181964476387
-0.5531211342771367   -0.5183464687880766   0.04360181964476387
-1.2253190145439983   -0.1900062939297702   -0.028318156878390927
-1.2253190145439983   -0.1900062939297702   -0.028318156878390927
-1.2253190145439983   -0.1900062939297702   -0.028318156878390927
-1.2253190145439983   -0.1900062939297702   -0.028318156878390927
-1.4024556997973339   -0.7535482578170883   -0.0389023637941362
-1.4024556997973339   -0.7535482578170883   -0.0389023637941362
-1.4024556997973339   -0.7535482578170883   -0.0389023637941362
-1.4024556997973339   -0.7535482578170883   -0.0389023637941362
-0.5149719095919937   -0.04230638516436595   0.017252647521133816
-0.5149719095919937   -0.04230638516436595   0.017252647521133816
-0.5149719095919937   -0.04230638516436595   0.017252647521133816
-0.5149719095919937   -0.04230638516436595   0.017252647521133816
-0.9150938800557047   -0.36137806972208225   -0.030943257874402857
-0.9150938800557047   -0.36137806972208225   -0.030943257874402857
-0.9150938800557047   -0.36137806972208225   -0.030943257874402857
-0.9150938800557047   -0.36137806972208225   -0.030943257874402857
-0.6244550094702723   -0.5872179119998109   0.01474867496518939
-0.6244550094702723   -0.5872179119998109   0.01474867496518939
-0.6244550094702723   -0.5872179119998109   0.01474867496518939
-0.6244550094702723   -0.5872179119998109   0.01474867496518939
-1.2902050479442384   -0.2058691790068259   -0.025328183338921142
-1.2902050479442384   -0.2058691790068259   -0.025328183338921142
-1.2902050479442384   -0.2058691790068259   -0.025328183338921142
-1.2902050479442384   -0.2058691790068259   -0.025328183338921142
-1.444048572832983   -0.7656079769283829   -0.04498650393829734
-1.444048572832983   -0.7656079769283829   -0.04498650393829734
-1.444048572832983   -0.7656079769283829   -0.04498650393829734
-1.444048572832983   -0.7656079769283829   -0.04498650393829734
-0.5472081582375692   -0.0535805185082053   0.02571789204108907
-0.5472081582375692   -0.0535805185082053   0.02571789204108907
-0.5472081582375692   -0.0535805185082053   0.02571789204108907
-0.5472081582375692   -0.0535805185082053   0.02571789204108907
-0.9659394510518996   -0.40046508491471594   -0.04394818155749747
-0.9659394510518996   -0.40046508491471594   -0.04394818155749747
-0.9659394510518996   -0.40046508491471594   -0.04394818155749747
-0.9659394510518996   -0.40046508491471594   -0.04394818155749747
-0.6602189651979671   -0.598690072389618   0.005773411120510857
-0.6602189651979671   -0.598690072389618   0.005773411120510857
-0.6602189651979671   -0.598690072389618   0.005773411120510857
-0.6602189651979671   -0.598690072389618   0.005773411120510857
-1.331275050077091   -0.22073570725147817   -0.02599115983575362
-1.331275050077091   -0.22073570725147817   -0.02599115983575362
-1.331275050077091   -0.22073570725147817   -0.02599115983575362
-1.331275050077091   -0.22073570725147817   -0.02599115983575362
-1.4795054090233917   -0.7325396394762396   -0.05072706570088287
-1.4795054090233917   -0.7325396394762396   -0.05072706570088287
-1.4795054090233917   -0.7325396394762396   -0.05072706570088287
-1.4795054090233917   -0.7325396394762396   -0.05072706570088287
-0.5879994410036717   -0.06950997402367586   0.023835774247470135
-0.5879994410036717   -0.06950997402367586   0.023835774247470135
-0.5879994410036717   -0.06950997402367586   0.023835774247470135
-0.5879994410036717   -0.06950997402367586   0.023835774247470135
-1.0128069649578701   -0.4137655236211332   -0.05640888364809074
-1.0128069649578701   -0.4137655236211332   -0.05640888364809074
-1.0128069649578701   -0.4137655236211332   -0.05640888364809074
-1.0128069649578701   -0.4137655236211332   -0.05640888364809074
-1.203977241611306   -0.21926547129267077   0.10764988514795215
-1.203977241611306   -0.21926547129267077   0.10764988514795215
-1.203977241611306   -0.21926547129267077   0.10764988514795215
-1.203977241611306   -0.21926547129267077   0.10764988514795215
-2.1184798002336747   -0.15833463037953704   -0.03744851508419933
-2.1184798002336747   -0.15833463037953704   -0.03744851508419933
-2.1184798002336747   -0.15833463037953704   -0.03744851508419933
-2.1184798002336747   -0.15833463037953704   -0.03744851508419933
-2.247942451571356   -0.443683061483584   0.029527144153436158
-2.247942451571356   -0.443683061483584   0.029527144153436158
-2.247942451571356   -0.443683061483584   0.029527144153436158
-2.247942451571356   -0.443683061483584   0.029527144153436158
-1.2382208682243074   0.018017337568661695   0.010706198685233634
-1.2382208682243074   0.018017337568661695   0.010706198685233634
-1.2382208682243074   0.018017337568661695   0.010706198685233634
-1.2382208682243074   0.018017337568661695   0.010706198685233634
-1.6210969409319456   -0.15584344273153936   0.03254349740311415
-1.6210969409319456   -0.15584344273153936   0.03254349740311415
-1.6210969409319456   -0.15584344273153936   0.03254349740311415
-1.6210969409319456   -0.15584344273153936   0.03254349740311415
-1.2719215266351018   -0.23528354707253057   0.09550379127244901
-1.2719215266351018   -0.23528354707253057   0.09550379127244901
-1.2719215266351018   -0.23528354707253057   0.09550379127244901
-1.2719215266351018   -0.23528354707253057   0.09550379127244901
-2.2086080782423703   -0.1847484619241982   -0.032735588761003034
-2.2086080782423703   -0.1847484619241982   -0.032735588761003034
-2.2086080782423703   -0.1847484619241982   -0.032735588761003034
-2.2086080782423703   -0.1847484619241982   -0.032735588761003034
-2.3027755582182103   -0.4625264234753287   -0.009856559158433087
-2.3027755582182103   -0.4625264234753287   -0.009856559158433087
-2.3027755582182103   -0.4625264234753287   -0.009856559158433087
-2.3027755582182103   -0.4625264234753287   -0.009856559158433087
-1.2769457232995525   0.0053518745075665786   0.019567892292893768
-1.2769457232995525   0.0053518745075665786   0.019567892292893768
-1.2769457232995525   0.0053518745075665786   0.019567892292893768
-1.2769457232995525   0.0053518745075665786   0.019567892292893768
-1.7178402841154214   -0.20568677798564167   0.013366848568347883
-1.7178402841154214   -0.20568677798564167   0.013366848568347883
-1.7178402841154214   -0.20568677798564167   0.013366848568347883
-1.7178402841154214   -0.20568677798564167   0.013366848568347883
-1.315565767399871   -0.24729103685016723   0.07911058314903491
-1.315565767399871   -0.24729103685016723   0.07911058314903491
-1.315565767399871   -0.24729103685016723   0.07911058314903491
-1.315565767399871   -0.24729103685016723   0.07911058314903491
-2.252807834688562   -0.19853583268825847   -0.024008532297222468
-2.252807834688562   -0.19853583268825847   -0.024008532297222468
-2.252807834688562   -0.19853583268825847   -0.024008532297222468
-2.252807834688562   -0.19853583268825847   -0.024008532297222468
-2.3503799561992986   -0.47011124640068636   -0.00017627580413315247
-2.3503799561992986   -0.47011124640068636   -0.00017627580413315247
-2.3503799561992986   -0.47011124640068636   -0.00017627580413315247
-2.3503799561992986   -0.47011124640068636   -0.00017627580413315247
-1.3313455938376304   -0.05050791842562566   0.008040289177309416
-1.3313455938376304   -0.05050791842562566   0.008040289177309416
-1.3313455938376304   -0.05050791842562566   0.008040289177309416
-1.3313455938376304   -0.05050791842562566   0.008040289177309416
-1.7385940198893208   -0.2484592976330476   0.021087420456895177
-1.7385940198893208   -0.2484592976330476   0.021087420456895177
-1.7385940198893208   -0.2484592976330476   0.021087420456895177
-1.7385940198893208   -0.2484592976330476   0.021087420456895177
1.4322894790218617   0.06599735249553468   -0.030993898569072406
1.4322894790218617   0.06599735249553468   -0.030993898569072406
1.4322894790218617   0.06599735249553468   -0.030993898569072406
1.4322894790218617   0.06599735249553468   -0.030993898569072406
0.7206786609695122   -0.014673222374837896   0.01520369749792621
0.7206786609695122   -0.014673222374837896   0.01520369749792621
0.7206786609695122   -0.014673222374837896   0.01520369749792621
0.7206786609695122   -0.014673222374837896   0.01520369749792621
0.6749474683023227   -0.10601126474607003   -0.027427098440840486
0.6749474683023227   -0.10601126474607003   -0.027427098440840486
0.6749474683023227   -0.10601126474607003   -0.027427098440840486
0.6749474683023227   -0.10601126474607003   -0.027427098440840486
1.4157375620875545   0.1033349115170776   0.01778812109213298
1.4157375620875545   0.1033349115170776   0.01778812109213298
1.4157375620875545   0.1033349115170776   0.01778812109213298
1.4157375620875545   0.1033349115170776   0.01778812109213298
1.0053020971725477   0.002469231191547905   -0.03882891691746887
1.0053020971725477   0.002469231191547905   -0.03882891691746887
1.0053020971725477   0.002469231191547905   -0.03882891691746887
1.0053020971725477   0.002469231191547905   -0.03882891691746887
1.3926036078898827   0.03674669598648583   -0.03129343436562093
1.3926036078898827   0.03674669598648583   -0.03129343436562093
1.3926036078898827   0.03674669598648583   -0.03129343436562093
1.3926036078898827   0.03674669598648583   -0.03129343436562093
0.6968001329319296   -0.040704338783542154   0.016529298744659436
0.6968001329319296   -0.040704338783542154   0.016529298744659436
0.6968001329319296   -0.040704338783542154   0.016529298744659436
0.6968001329319296   -0.040704338783542154   0.016529298744659436
0.6503190675188587   -0.1119158617416014   -0.02266204635378441
0.6503190675188587   -0.1119158617416014   -0.02266204635378441
0.6503190675188587   -0.1119158617416014   -0.02266204635378441
0.6503190675188587   -0.1119158617416014   -0.02266204635378441
1.3815352796044353   0.09496021502603622   0.02603038595561321
1.3815352796044353   0.09496021502603622   0.02603038595561321
1.3815352796044353   0.09496021502603622   0.02603038595561321
1.3815352796044353   0.09496021502603622   0.02603038595561321
0.9919089642416485   -0.010022806086464692   -0.046312272181765334
0.9919089642416485   -0.010022806086464692   -0.046312272181765334
0.9919089642416485   -0.010022806086464692   -0.046312272181765334
0.9919089642416485   -0.010022806086464692   -0.046312272181765334
1.3582284535609734   0.02924143240871563   -0.024784961644375395
1.3582284535609734   0.02924143240871563   -0.024784961644375395
1.3582284535609734   0.02924143240871563   -0.024784961644375395
1.3582284535609734   0.02924143240871563   -0.024784961644375395
0.6718441285523656   -0.04797884413422546   0.02102624120637451
0.6718441285523656   -0.04797884413422546   0.02102624120637451
0.6718441285523656   -0.04797884413422546   0.02102624120637451
0.6718441285523656   -0.04797884413422546   0.02102624120637451
0.6264738261535432   -0.11022633816806332   -0.015545861084244175
0.6264738261535432   -0.11022633816806332   -0.015545861084244175
0.6264738261535432   -0.11022633816806332   -0.015545861084244175
0.6264738261535432   -0.11022633816806332   -0.015545861084244175
1.3391938073750171   0.08931652431860035   0.03389529907447945
1.3391938073750171   0.08931652431860035   0.03389529907447945
1.3391938073750171   0.08931652431860035   0.03389529907447945
1.3391938073750171   0.08931652431860035   0.03389529907447945
0.9429396121875322   -0.017478106529153825   -0.060804379699051725
0.9429396121875322   -0.017478106529153825   -0.060804379699051725
0.9429396121875322   -0.017478106529153825   -0.060804379699051725
0.9429396121875322   -0.017478106529153825   -0.060804379699051725
0.7247073876755727   0.01412247522530205   0.006551633428083563
0.7247073876755727   0.01412247522530205   0.006551633428083563
0.7247073876755727   0.01412247522530205   0.006551633428083563
0.7247073876755727   0.01412247522530205   0.006551633428083563
0.0692832273414351   -0.043501667761643756   -0.0016955750545932704
0.0692832273414351   -0.043501667761643756   -0.0016955750545932704
0.0692832273414351   -0.043501667761643756   -0.0016955750545932704
0.0692832273414351   -0.043501667761643756   -0.0016955750545932704
0.026189034553128827   -0.14016061205721736   -0.026406993338318252
0.026189034553128827   -0.14016061205721736   -0.026406993338318252
0.026189034553128827   -0.14016061205721736   -0.026406993338318252
0.026189034553128827   -0.14016061205721736   -0.026406993338318252
0.7255487191542112   0.08371294788557701   0.035854943186949005
0.7255487191542112   0.08371294788557701   0.035854943186949005
0.7255487191542112   0.08371294788557701   0.035854943186949005
0.7255487191542112   0.08371294788557701   0.035854943186949005
0.3793413902876892   -0.01962412500803097   -0.015004789051962845
0.3793413902876892   -0.01962412500803097   -0.015004789051962845
0.3793413902876892   -0.01962412500803097   -0.015004789051962845
0.3793413902876892   -0.01962412500803097   -0.015004789051962845
0.704466904430391   0.003006770063819969   0.011152047389606297
0.704466904430391   0.003006770063819969   0.011152047389606297
0.704466904430391   0.003006770063819969   0.011152047389606297
0.704466904430391   0.003006770063819969   0.011152047389606297
0.04807334338958951   -0.05865194012281963   0.0015058789095874388
0.04807334338958951   -0.05865194012281963   0.0015058789095874388
0.04807334338958951   -0.05865194012281963   0.0015058789095874388
0.04807334338958951   -0.05865194012281963   0.0015058789095874388
0.002441975843290027   -0.14682758653038624   -0.018395750031667824
0.002441975843290027   -0.14682758653038624   -0.018395750031667824
0.002441975843290027   -0.14682758653038624   -0.018395750031667824
0.002441975843290027   -0.14682758653038624   -0.018395750031667824
0.6994805802564693   0.07168616635532625   0.03954348923734108
0.6994805802564693   0.07168616635532625   0.03954348923734108
0.6994805802564693   0.07168616635532625   0.03954348923734108
0.6994805802564693   0.07168616635532625   0.03954348923734108
0.3519984153837764   -0.030700378877530965   -0.021244145403892026
0.3519984153837764   -0.030700378877530965   -0.021244145403892026
0.3519984153837764   -0.030700378877530965   -0.021244145403892026
0.3519984153837764   -0.030700378877530965   -0.021244145403892026
0.6795851128271354   -0.004474454531735617   0.01622677297773982
0.6795851128271354   -0.004474454531735617   0.01622677297773982
0.6795851128271354   -0.004474454531735617   0.01622677297773982
0.6795851128271354   -0.004474454531735617   0.01622677297773982
0.022226337995675315   -0.0707780709202719   0.004476545120144285
0.022226337995675315   -0.0707780709202719   0.004476545120144285
0.022226337995675315   -0.0707780709202719   0.004476545120144285
0.022226337995675315   -0.0707780709202719   0.004476545120144285
-0.023046818304708457   -0.14746224412758768   -0.012559608136086895
-0.023046818304708457   -0.14746224412758768   -0.012559608136086895
-0.023046818304708457   -0.14746224412758768   -0.012559608136086895
-0.023046818304708457   -0.14746224412758768   -0.012559608136086895
0.6731791111620395   0.06405434936251819   0.04369987642765839
0.6731791111620395   0.06405434936251819   0.04369987642765839
0.6731791111620395   0.06405434936251819   0.04369987642765839
0.6731791111620395   0.06405434936251819   0.04369987642765839
0.33063131610197605   -0.0350948967637672   -0.026596458336004495
0.33063131610197605   -0.0350948967637672   -0.026596458336004495
0.33063131610197605   -0.0350948967637672   -0.026596458336004495
0.33063131610197605   -0.0350948967637672   -0.026596458336004495
0.0707397649437941   -0.04037485829641853   0.002460303491974569
0.0707397649437941   -0.04037485829641853   0.002460303491974569
0.0707397649437941   -0.04037485829641853   0.002460303491974569
0.0707397649437941   -0.04037485829641853   0.002460303491974569
-0.5604153358635777   -0.06473969962518836   -0.017624669129439323
-0.5604153358635777   -0.06473969962518836   -0.017624669129439323
-0.5604153358635777   -0.06473969962518836   -0.017624669129439323
-0.5604153358635777   -0.06473969962518836   -0.017624669129439323
-0.6083249348234343   -0.1857621720523387   -0.030109114902748844
-0.6083249348234343   -0.1857621720523387   -0.030109114902748844
-0.6083249348234343   -0.1857621720523387   -0.030109114902748844
-0.6083249348234343   -0.1857621720523387   -0.030109114902748844
0.07589379621104796   0.0613577755186683   0.020598427375391713
0.07589379621104796   0.0613577755186683   0.020598427375391713
0.07589379621104796   0.0613577755186683   0.020598427375391713
0.07589379621104796   0.0613577755186683   0.020598427375391713
-0.2562777062281645   -0.05463328073478653   -0.014883164512355442
-0.2562777062281645   -0.05463328073478653   -0.014883164512355442
-0.2562777062281645   -0.05463328073478653   -0.014883164512355442
-0.2562777062281645   -0.05463328073478653   -0.014883164512355442
0.05289339792433144   -0.0450882001917836   0.012042411652260988
0.05289339792433144   -0.0450882001917836   0.012042411652260988
0.05289339792433144   -0.0450882001917836   0.012042411652260988
0.05289339792433144   -0.0450882001917836   0.012042411652260988
-0.5835615387441486   -0.07755319854931766   -0.014501108009341618
-0.5835615387441486   -0.07755319854931766   -0.014501108009341618
-0.5835615387441486   -0.07755319854931766   -0.014501108009341618
-0.5835615387441486   -0.07755319854931766   -0.014501108009341618
-0.6361700696464785   -0.19306066448724335   -0.019970519436500394
-0.6361700696464785   -0.19306066448724335   -0.019970519436500394
-0.6361700696464785   -0.19306066448724335   -0.019970519436500394
-0.6361700696464785   -0.19306066448724335   -0.019970519436500394
0.049841001070789086   0.04848499258754162   0.023286796987899604
0.049841001070789086   0.04848499258754162   0.023286796987899604
0.049841001070789086   0.04848499258754162   0.023286796987899604
0.049841001070789086   0.04848499258754162   0.023286796987899604
-0.27931688966297935   -0.06229005941585781   -0.017848960908908616
-0.27931688966297935   -0.06229005941585781   -0.017848960908908616
-0.27931688966297935   -0.06229005941585781   -0.017848960908908616
-0.27931688966297935   -0.06229005941585781   -0.017848960908908616
0.028237841750705664   -0.05286148310457446   0.01661747607959857
0.028237841750705664   -0.05286148310457446   0.01661747607959857
0.028237841750705664   -0.05286148310457446   0.01661747607959857
0.028237841750705664   -0.05286148310457446   0.01661747607959857
-0.6141950795667882   -0.09134235803551088   -0.011813875489785582
-0.6141950795667882   -0.09134235803551088   -0.011813875489785582
-0.6141950795667882   -0.09134235803551088   -0.011813875489785582
-0.6141950795667882   -0.09134235803551088   -0.011813875489785582
-0.6670628795511564   -0.1983849744356344   -0.0177519135444181
-0.6670628795511564   -0.1983849744356344   -0.0177519135444181
-0.6670628795511564   -0.1983849744356344   -0.0177519135444181
-0.6670628795511564   -0.1983849744356344   -0.0177519135444181
0.021660466151052295   0.03749632089987894   0.026018249115250237
0.021660466151052295   0.03749632089987894   0.026018249115250237
0.021660466151052295   0.03749632089987894   0.026018249115250237
0.021660466151052295   0.03749632089987894   0.026018249115250237
-0.30924458869637544   -0.07145667288524907   -0.024998528042181136
-0.30924458869637544   -0.07145667288524907   -0.024998528042181136
-0.30924458869637544   -0.07145667288524907   -0.024998528042181136
-0.30924458869637544   -0.07145667288524907   -0.024998528042181136
-0.5517612226731945   -0.047874887283739814   0.0087810844810185
-0.5517612226731945   -0.047874887283739814   0.0087810844810185
-0.5517612226731945   -0.047874887283739814   0.0087810844810185
-0.5517612226731945   -0.047874887283739814   0.0087810844810185
-1.1751464402040013   -0.07577489366332776   -0.031031792621556302
-1.1751464402040013   -0.07577489366332776   -0.031031792621556302
-1.1751464402040013   -0.07577489366332776   -0.031031792621556302
-1.1751464402040013   -0.07577489366332776   -0.031031792621556302
-1.2295947443590034   -0.19470405253446066   -0.030112854562330007
-1.2295947443590034   -0.19470405253446066   -0.030112854562330007
-1.2295947443590034   -0.19470405253446066   -0.030112854562330007
-1.2295947443590034   -0.19470405253446066   -0.030112854562330007
-0.5545972203239173   0.04690032636579858   0.005866959176690119
-0.5545972203239173   0.04690032636579858   0.005866959176690119
-0.5545972203239173   0.04690032636579858   0.005866959176690119
-0.5545972203239173   0.04690032636579858   0.005866959176690119
-0.870549785819128   -0.06472056324009919   -0.012483946657052162
-0.870549785819128   -0.06472056324009919   -0.012483946657052162
-0.870549785819128   -0.06472056324009919   -0.012483946657052162
-0.870549785819128   -0.06472056324009919   -0.012483946657052162
-0.5715248930804487   -0.0528681058452634   0.020997027605101557
-0.5715248930804487   -0.0528681058452634   0.020997027605101557
-0.5715248930804487   -0.0528681058452634   0.020997027605101557
-0.5715248930804487   -0.0528681058452634   0.020997027605101557
-1.2092158029174636   -0.09148435163839094   -0.031437848250711324
-1.2092158029174636   -0.09148435163839094   -0.031437848250711324
-1.2092158029174636   -0.09148435163839094   -0.031437848250711324
-1.2092158029174636   -0.09148435163839094   -0.031437848250711324
-1.268107772642515   -0.20713645655504398   -0.021162183788220074
-1.268107772642515   -0.20713645655504398   -0.021162183788220074
-1.268107772642515   -0.20713645655504398   -0.021162183788220074
-1.268107772642515   -0.20713645655504398   -0.021162183788220074
-0.5855706820280021   0.03279837593740273   0.007167378231231772
-0.5855706820280021   0.03279837593740273   0.007167378231231772
-0.5855706820280021   0.03279837593740273   0.007167378231231772
-0.5855706820280021   0.03279837593740273   0.007167378231231772
-0.8948755113360225   -0.07158924037151283   -0.012510543553700366
-0.8948755113360225   -0.07158924037151283   -0.012510543553700366
-0.8948755113360225   -0.07158924037151283   -0.012510543553700366
-0.8948755113360225   -0.07158924037151283   -0.012510543553700366
-0.6022778165174674   -0.06537667685678492   0.021806758578089197
-0.6022778165174674   -0.06537667685678492   0.021806758578089197
-0.6022778165174674   -0.06537667685678492   0.021806758578089197
-0.6022778165174674   -0.06537667685678492   0.021806758578089197
-1.2490865801523385   -0.10664734576016124   -0.02654533213222101
-1.2490865801523385   -0.10664734576016124   -0.02654533213222101
-1.2490865801523385   -0.10664734576016124   -0.02654533213222101
-1.2490865801523385   -0.10664734576016124   -0.02654533213222101
-1.3116795216100874   -0.22353971618005425   -0.022632855928067713
-1.3116795216100874   -0.22353971618005425   -0.022632855928067713
-1.3116795216100874   -0.22353971618005425   -0.022632855928067713
-1.3116795216100874   -0.22353971618005425   -0.022632855928067713
-0.6190462037417118   0.015385099820688974   0.008561391246469666
-0.6190462037417118   0.015385099820688974   0.008561391246469666
-0.6190462037417118   0.015385099820688974   0.008561391246469666
-0.6190462037417118   0.015385099820688974   0.008561391246469666
-0.9381379741952777   -0.08842763662584115   -0.02036541097512942
-0.9381379741952777   -0.08842763662584115   -0.02036541097512942
-0.9381379741952777   -0.08842763662584115   -0.02036541097512942
-0.9381379741952777   -0.08842763662584115   -0.02036541097512942
-1.1354284650799165   0.05343498127930241   0.03834820805623923
-1.1354284650799165   0.05343498127930241   0.03834820805623923
-1.1354284650799165   0.05343498127930241   0.03834820805623923
-1.1354284650799165   0.05343498127930241   0.03834820805623923
-1.7603708214932452   -0.08769490086612197   -0.023571391547136722
-1.7603708214932452   -0.08769490086612197   -0.023571391547136722
-1.7603708214932452   -0.08769490086612197   -0.023571391547136722
-1.7603708214932452   -0.08769490086612197   -0.023571391547136722
-1.8035062608902048   -0.08931078846821267   0.039350961166759554
-1.8035062608902048   -0.08931078846821267   0.039350961166759554
-1.8035062608902048   -0.08931078846821267   0.039350961166759554
-1.8035062608902048   -0.08931078846821267   0.039350961166759554
-1.1791776797074767   0.03662623162534795   -0.009357815464515834
-1.1791776797074767   0.03662623162534795   -0.009357815464515834
-1.1791776797074767   0.03662623162534795   -0.009357815464515834
-1.1791776797074767   0.03662623162534795   -0.009357815464515834
-1.401121395144301   0.0010215486873311197   0.035582864324786356
-1.401121395144301   0.0010215486873311197   0.035582864324786356
-1.401121395144301   0.0010215486873311197   0.035582864324786356
-1.401121395144301   0.0010215486873311197   0.035582864324786356
-1.1669773661752223   0.03981566250487639   0.048454321317222146
-1.1669773661752223   0.03981566250487639   0.048454321317222146
-1.1669773661752223   0.03981566250487639   0.048454321317222146
-1.1669773661752223   0.03981566250487639   0.048454321317222146
-1.8148990376763101   -0.09169268260159302   -0.015231028630387
-1.8148990376763101   -0.09169268260159302   -0.015231028630387
-1.8148990376763101   -0.09169268260159302   -0.015231028630387
-1.8148990376763101   -0.09169268260159302   -0.015231028630387
-1.8579406634705178   -0.10405330694747528   0.05353692518871117
-1.8579406634705178   -0.10405330694747528   0.05353692518871117
-1.8579406634705178   -0.10405330694747528   0.05353692518871117
-1.8579406634705178   -0.10405330694747528   0.05353692518871117
-1.2190854255389518   0.02660666468489148   -0.009793569510352512
-1.2190854255389518   0.02660666468489148   -0.009793569510352512
-1.2190854255389518   0.02660666468489148   -0.009793569510352512
-1.2190854255389518   0.02660666468489148   -0.009793569510352512
-1.471429728396276   -0.016223409723307547   0.01952577213532941
-1.471429728396276   -0.016223409723307547   0.01952577213532941
-1.471429728396276   -0.016223409723307547   0.01952577213532941
-1.471429728396276   -0.016223409723307547   0.01952577213532941
-1.20793159609905   0.024797974969914982   0.04778426740413319
-1.20793159609905   0.024797974969914982   0.04778426740413319
-1.20793159609905   0.024797974969914982   0.04778426740413319
-1.20793159609905   0.024797974969914982   0.04778426740413319
-1.8711952203974964   -0.10434534471956514   -0.012443821674091221
-1.8711952203974964   -0.10434534471956514   -0.012443821674091221
-1.8711952203974964   -0.10434534471956514   -0.012443821674091221
-1.8711952203974964   -0.10434534471956514   -0.012443821674091221
-1.935348003848019   -0.16362326893901893   0.04646594662073205
-1.935348003848019   -0.16362326893901893   0.04646594662073205
-1.935348003848019   -0.16362326893901893   0.04646594662073205
-1.935348003848019   -0.16362326893901893   0.04646594662073205
-1.265098421531598   -0.004040700383044882   -0.009226371332649974
-1.265098421531598   -0.004040700383044882   -0.009226371332649974
-1.265098421531598   -0.004040700383044882   -0.009226371332649974
-1.265098421531598   -0.004040700383044882   -0.009226371332649974
-1.50123127895723   -0.03796093442479875   0.005436647606095954
-1.50123127895723   -0.03796093442479875   0.005436647606095954
-1.50123127895723   -0.03796093442479875   0.005436647606095954
-1.50123127895723   -0.03796093442479875   0.005436647606095954
1.161606298008844   0.06221931534171296   -0.04126125095868207
1.161606298008844   0.06221931534171296   -0.04126125095868207
1.161606298008844   0.06221931534171296   -0.04126125095868207
1.161606298008844   0.06221931534171296   -0.04126125095868207
0.575632968861324   -0.000750491093733402   0.014908337582189235
0.575632968861324   -0.000750491093733402   0.014908337582189235
0.575632968861324   -0.000750491093733402   0.014908337582189235
0.575632968861324   -0.000750491093733402   0.014908337582189235
0.5262676977635498   -0.08569318302062878   -0.03788248727242482
0.5262676977635498   -0.08569318302062878   -0.03788248727242482
0.5262676977635498   -0.08569318302062878   -0.03788248727242482
0.5262676977635498   -0.08569318302062878   -0.03788248727242482
1.1398099010647915   0.09385354304951385   0.018702430617176004
1.1398099010647915   0.09385354304951385   0.018702430617176004
1.1398099010647915   0.09385354304951385   0.018702430617176004
1.1398099010647915   0.09385354304951385   0.018702430617176004
0.8068423215677891   0.0071192901194870595   -0.026557842478677193
0.8068423215677891   0.0071192901194870595   -0.026557842478677193
0.8068423215677891   0.0071192901194870595   -0.026557842478677193
0.8068423215677891   0.0071192901194870595   -0.026557842478677193
1.1157099686767975   0.031819192468209884   -0.03976288074147926
1.1157099686767975   0.031819192468209884   -0.03976288074147926
1.1157099686767975   0.031819192468209884   -0.03976288074147926
1.1157099686767975   0.031819192468209884   -0.03976288074147926
0.5493378539159318   -0.024688608674936385   0.01646371914378434
0.5493378539159318   -0.024688608674936385   0.01646371914378434
0.5493378539159318   -0.024688608674936385   0.01646371914378434
0.5493378539159318   -0.024688608674936385   0.01646371914378434
0.5015789574361501   -0.09282493783156362   -0.032939056164100734
0.5015789574361501   -0.09282493783156362   -0.032939056164100734
0.5015789574361501   -0.09282493783156362   -0.032939056164100734
0.5015789574361501   -0.09282493783156362   -0.032939056164100734
1.1028865342816143   0.08404312142306655   0.025595091245568857
1.1028865342816143   0.08404312142306655   0.025595091245568857
1.1028865342816143   0.08404312142306655   0.025595091245568857
1.1028865342816143   0.08404312142306655   0.025595091245568857
0.7875873278033151   -0.005751974606369087   -0.03483669140084373
0.7875873278033151   -0.005751974606369087   -0.03483669140084373
0.7875873278033151   -0.005751974606369087   -0.03483669140084373
0.7875873278033151   -0.005751974606369087   -0.03483669140084373
1.0792988560114771   0.023039014483262815   -0.03133919316529563
1.0792988560114771   0.023039014483262815   -0.03133919316529563
1.0792988560114771   0.023039014483262815   -0.03133919316529563
1.0792988560114771   0.023039014483262815   -0.03133919316529563
0.5242399134326067   -0.032747553165438426   0.020288339152051804
0.5242399134326067   -0.032747553165438426   0.020288339152051804
0.5242399134326067   -0.032747553165438426   0.020288339152051804
0.5242399134326067   -0.032747553165438426   0.020288339152051804
0.4790433184092878   -0.09487527467554219   -0.026913206930504023
0.4790433184092878   -0.09487527467554219   -0.026913206930504023
0.4790433184092878   -0.09487527467554219   -0.026913206930504023
0.4790433184092878   -0.09487527467554219   -0.026913206930504023
1.0612615333932902   0.07549121231869768   0.03187510175761878
1.0612615333932902   0.07549121231869768   0.03187510175761878
1.0612615333932902   0.07549121231869768   0.03187510175761878
1.0612615333932902   0.07549121231869768   0.03187510175761878
0.7425060916916908   -0.014594984602506356   -0.04728964071501665
0.7425060916916908   -0.014594984602506356   -0.04728964071501665
0.7425060916916908   -0.014594984602506356   -0.04728964071501665
0.7425060916916908   -0.014594984602506356   -0.04728964071501665
0.5856080582818084   0.06075756012960436   0.003275733461273918
0.5856080582818084   0.06075756012960436   0.003275733461273918
0.5856080582818084   0.06075756012960436   0.003275733461273918
0.5856080582818084   0.06075756012960436   0.003275733461273918
0.019695136733306088   -0.019303076502745174   -0.002432317804972804
0.019695136733306088   -0.019303076502745174   -0.002432317804972804
0.019695136733306088   -0.019303076502745174   -0.002432317804972804
0.019695136733306088   -0.019303076502745174   -0.002432317804972804
-0.017516380949142436   -0.07723134729641608   -0.02580143261966286
-0.017516380949142436   -0.07723134729641608   -0.02580143261966286
-0.017516380949142436   -0.07723134729641608   -0.02580143261966286
-0.017516380949142436   -0.07723134729641608   -0.02580143261966286
0.5743487723509886   0.08502342178771921   0.03180628085641268
0.5743487723509886   0.08502342178771921   0.03180628085641268
0.5743487723509886   0.08502342178771921   0.03180628085641268
0.5743487723509886   0.08502342178771921   0.03180628085641268
0.28600565647723386   0.012113521093542252   -0.003255498589106962
0.28600565647723386   0.012113521093542252   -0.003255498589106962
0.28600565647723386   0.012113521093542252   -0.003255498589106962
0.28600565647723386   0.012113521093542252   -0.003255498589106962
0.5612982451724929   0.04500606483514549   0.00657100191650966
0.5612982451724929   0.04500606483514549   0.00657100191650966
0.5612982451724929   0.04500606483514549   0.00657100191650966
0.5612982451724929   0.04500606483514549   0.00657100191650966
-0.004233018718948749   -0.036981155292144074   0.0003651865270335609
-0.004233018718948749   -0.036981155292144074   0.0003651865270335609
-0.004233018718948749   -0.036981155292144074   0.0003651865270335609
-0.004233018718948749   -0.036981155292144074   0.0003651865270335609
-0.040903230908828525   -0.08876156594823756   -0.022311361115180138
-0.040903230908828525   -0.08876156594823756   -0.022311361115180138
-0.040903230908828525   -0.08876156594823756   -0.022311361115180138
-0.040903230908828525   -0.08876156594823756   -0.022311361115180138
0.5478549974287652   0.0704261136550567   0.03519009231234964
0.5478549974287652   0.0704261136550567   0.03519009231234964
0.5478549974287652   0.0704261136550567   0.03519009231234964
0.5478549974287652   0.0704261136550567   0.03519009231234964
0.2574240242842733   -0.002277922929333119   -0.0114310107392169
0.2574240242842733   -0.002277922929333119   -0.0114310107392169
0.2574240242842733   -0.002277922929333119   -0.0114310107392169
0.2574240242842733   -0.002277922929333119   -0.0114310107392169
0.5352948782556786   0.03291954177341293   0.009896068328565159
0.5352948782556786   0.03291954177341293   0.009896068328565159
0.5352948782556786   0.03291954177341293   0.009896068328565159
0.5352948782556786   0.03291954177341293   0.009896068328565159
-0.028320977503497165   -0.05123285983434313   0.003071199797582233
-0.028320977503497165   -0.05123285983434313   0.003071199797582233
-0.028320977503497165   -0.05123285983434313   0.003071199797582233
-0.028320977503497165   -0.05123285983434313   0.003071199797582233
-0.06405083885741591   -0.09568361577102967   -0.017759999220625513
-0.06405083885741591   -0.09568361577102967   -0.017759999220625513
-0.06405083885741591   -0.09568361577102967   -0.017759999220625513
-0.06405083885741591   -0.09568361577102967   -0.017759999220625513
0.5226563733001797   0.05812970924146015   0.03814708360694611
0.5226563733001797   0.05812970924146015   0.03814708360694611
0.5226563733001797   0.05812970924146015   0.03814708360694611
0.5226563733001797   0.05812970924146015   0.03814708360694611
0.23631432839328445   -0.011462998309123056   -0.017450123375333623
0.23631432839328445   -0.011462998309123056   -0.017450123375333623
0.23631432839328445   -0.011462998309123056   -0.017450123375333623
0.23631432839328445   -0.011462998309123056   -0.017450123375333623
0.038940354661737384   0.061295426143870395   0.013195269190570017
0.038940354661737384   0.061295426143870395   0.013195269190570017
0.038940354661737384   0.061295426143870395   0.013195269190570017
0.038940354661737384   0.061295426143870395   0.013195269190570017
-0.5190419815267446   -0.03368187037092599   -0.017846812448040927
-0.5190419815267446   -0.03368187037092599   -0.017846812448040927
-0.5190419815267446   -0.03368187037092599   -0.017846812448040927
-0.5190419815267446   -0.03368187037092599   -0.017846812448040927
-0.548072762027941   -0.07083006717881532   -0.016374227873037377
-0.548072762027941   -0.07083006717881532   -0.016374227873037377
-0.548072762027941   -0.07083006717881532   -0.016374227873037377
-0.548072762027941   -0.07083006717881532   -0.016374227873037377
0.020103421735413463   0.06963023250891873   0.015436000997781833
0.020103421735413463   0.06963023250891873   0.015436000997781833
0.020103421735413463   0.06963023250891873   0.015436000997781833
0.020103421735413463   0.06963023250891873   0.015436000997781833
-0.2517008180052479   0.007774043885748455   0.0009684043374558748
-0.2517008180052479   0.007774043885748455   0.0009684043374558748
-0.2517008180052479   0.007774043885748455   0.0009684043374558748
-0.2517008180052479   0.007774043885748455   0.0009684043374558748
0.016122674776085238   0.04859697124884108   0.016565527461218345
0.016122674776085238   0.04859697124884108   0.016565527461218345
0.016122674776085238   0.04859697124884108   0.016565527461218345
0.016122674776085238   0.04859697124884108   0.016565527461218345
-0.5434534115161554   -0.04915820236627519   -0.01494934012664952
-0.5434534115161554   -0.04915820236627519   -0.01494934012664952
-0.5434534115161554   -0.04915820236627519   -0.01494934012664952
-0.5434534115161554   -0.04915820236627519   -0.01494934012664952
-0.573169382415174   -0.08349671970204312   -0.01361138097409178
-0.573169382415174   -0.08349671970204312   -0.01361138097409178
-0.573169382415174   -0.08349671970204312   -0.01361138097409178
-0.573169382415174   -0.08349671970204312   -0.01361138097409178
-0.004020222056090263   0.054615116901866614   0.018727000298407015
-0.004020222056090263   0.054615116901866614   0.018727000298407015
-0.004020222056090263   0.054615116901866614   0.018727000298407015
-0.004020222056090263   0.054615116901866614   0.018727000298407015
-0.27574640671861067   -0.004630572826734881   -0.005172150353292949
-0.27574640671861067   -0.004630572826734881   -0.005172150353292949
-0.27574640671861067   -0.004630572826734881   -0.005172150353292949
-0.27574640671861067   -0.004630572826734881   -0.005172150353292949
-0.00741896036214054   0.0363711050311553   0.01997732063886694
-0.00741896036214054   0.0363711050311553   0.01997732063886694
-0.00741896036214054   0.0363711050311553   0.01997732063886694
-0.00741896036214054   0.0363711050311553   0.01997732063886694
-0.5692232134420244   -0.0647052771642316   -0.012671978646149924
-0.5692232134420244   -0.0647052771642316   -0.012671978646149924
-0.5692232134420244   -0.0647052771642316   -0.012671978646149924
-0.5692232134420244   -0.0647052771642316   -0.012671978646149924
-0.5980941866142363   -0.09346177555694106   -0.00901758040356122
-0.5980941866142363   -0.09346177555694106   -0.00901758040356122
-0.5980941866142363   -0.09346177555694106   -0.00901758040356122
-0.5980941866142363   -0.09346177555694106   -0.00901758040356122
-0.029013334815149908   0.04047050409796368   0.021273401121713047
-0.029013334815149908   0.04047050409796368   0.021273401121713047
-0.029013334815149908   0.04047050409796368   0.021273401121713047
-0.029013334815149908   0.04047050409796368   0.021273401121713047
-0.3016198985773182   -0.017245575718157047   -0.011884474102538137
-0.3016198985773182   -0.017245575718157047   -0.011884474102538137
-0.3016198985773182   -0.017245575718157047   -0.011884474102538137
-0.3016198985773182   -0.017245575718157047   -0.011884474102538137
-0.4894660802726982   0.07236475128124893   0.023986072170024027
-0.4894660802726982   0.07236475128124893   0.023986072170024027
-0.4894660802726982   0.07236475128124893   0.023986072170024027
-0.4894660802726982   0.07236475128124893   0.023986072170024027
-1.0400446348587686   -0.04629462856557501   -0.029227349667859996
-1.0400446348587686   -0.04629462856557501   -0.029227349667859996
-1.0400446348587686   -0.04629462856557501   -0.029227349667859996
-1.0400446348587686   -0.04629462856557501   -0.029227349667859996
-1.0626747556433755   -0.05683861242581678   -0.004750199461928527
-1.0626747556433755   -0.05683861242581678   -0.004750199461928527
-1.0626747556433755   -0.05683861242581678   -0.004750199461928527
-1.0626747556433755   -0.05683861242581678   -0.004750199461928527
-0.5202561079285665   0.05269353258270609   -0.0008145571376784941
-0.5202561079285665   0.05269353258270609   -0.0008145571376784941
-0.5202561079285665   0.05269353258270609   -0.0008145571376784941
-0.5202561079285665   0.05269353258270609   -0.0008145571376784941
-0.772488492065019   0.00785712378484063   0.00563847971188481
-0.772488492065019   0.00785712378484063   0.00563847971188481
-0.772488492065019   0.00785712378484063   0.00563847971188481
-0.772488492065019   0.00785712378484063   0.00563847971188481
-0.5133776094515812   0.05935429189243216   0.026917175937521833
-0.5133776094515812   0.05935429189243216   0.026917175937521833
-0.5133776094515812   0.05935429189243216   0.026917175937521833
-0.5133776094515812   0.05935429189243216   0.026917175937521833
-1.068688877865892   -0.06263499548107612   -0.029024427519263964
-1.068688877865892   -0.06263499548107612   -0.029024427519263964
-1.068688877865892   -0.06263499548107612   -0.029024427519263964
-1.068688877865892   -0.06263499548107612   -0.029024427519263964
-1.0935794412166182   -0.07108290902410386   -0.0042302873876848696
-1.0935794412166182   -0.07108290902410386   -0.0042302873876848696
-1.0935794412166182   -0.07108290902410386   -0.0042302873876848696
-1.0935794412166182   -0.07108290902410386   -0.0042302873876848696
-0.545651593998113   0.0383651479658009   0.002115693443374575
-0.545651593998113   0.0383651479658009   0.002115693443374575
-0.545651593998113   0.0383651479658009   0.002115693443374575
-0.545651593998113   0.0383651479658009   0.002115693443374575
-0.7941075012289679   -0.0034792424116345255   0.0006032818978393001
-0.7941075012289679   -0.0034792424116345255   0.0006032818978393001
-0.7941075012289679   -0.0034792424116345255   0.0006032818978393001
-0.7941075012289679   -0.0034792424116345255   0.0006032818978393001
-0.5381162223312104   0.04707277681604277   0.031084922927640354
-0.5381162223312104   0.04707277681604277   0.031084922927640354
-0.5381162223312104   0.04707277681604277   0.031084922927640354
-0.5381162223312104   0.04707277681604277   0.031084922927640354
-1.0993548980138552   -0.07803062300468211   -0.026159857393298305
-1.0993548980138552   -0.07803062300468211   -0.026159857393298305
-1.0993548980138552   -0.07803062300468211   -0.026159857393298305
-1.0993548980138552   -0.07803062300468211   -0.026159857393298305
-1.1220305330828808   -0.08633851563551256   0.0029276433066002736
-1.1220305330828808   -0.08633851563551256   0.0029276433066002736
-1.1220305330828808   -0.08633851563551256   0.0029276433066002736
-1.1220305330828808   -0.08633851563551256   0.0029276433066002736
-0.5725645357766274   0.021306738256479857   0.0038621599710717686
-0.5725645357766274   0.021306738256479857   0.0038621599710717686
-0.5725645357766274   0.021306738256479857   0.0038621599710717686
-0.5725645357766274   0.021306738256479857   0.0038621599710717686
-0.8279035765889086   -0.019414488102170863   -0.006175135546862533
-0.8279035765889086   -0.019414488102170863   -0.006175135546862533
-0.8279035765889086   -0.019414488102170863   -0.006175135546862533
-0.8279035765889086   -0.019414488102170863   -0.006175135546862533
-1.0031985947095705   0.07516288941879096   0.033545333093753266
-1.0031985947095705   0.07516288941879096   0.033545333093753266
-1.0031985947095705   0.07516288941879096   0.033545333093753266
-1.0031985947095705   0.07516288941879096   0.033545333093753266
-1.535388801562922   -0.0710398505994504   -0.026899241034468988
-1.535388801562922   -0.0710398505994504   -0.026899241034468988
-1.535388801562922   -0.0710398505994504   -0.026899241034468988
-1.535388801562922   -0.0710398505994504   -0.026899241034468988
-1.5563745683562655   -0.031237724125843802   0.028519294428314412
-1.5563745683562655   -0.031237724125843802   0.028519294428314412
-1.5563745683562655   -0.031237724125843802   0.028519294428314412
-1.5563745683562655   -0.031237724125843802   0.028519294428314412
-1.0470428056822922   0.031615830030933934   -0.015044892113262903
-1.0470428056822922   0.031615830030933934   -0.015044892113262903
-1.0470428056822922   0.031615830030933934   -0.015044892113262903
-1.0470428056822922   0.031615830030933934   -0.015044892113262903
-1.2286793902257749   0.015604679807556698   0.028265246993693968
-1.2286793902257749   0.015604679807556698   0.028265246993693968
-1.2286793902257749   0.015604679807556698   0.028265246993693968
-1.2286793902257749   0.015604679807556698   0.028265246993693968
-1.0273312388175242   0.07657736445378382   0.0385514077877111
-1.0273312388175242   0.07657736445378382   0.0385514077877111
-1.0273312388175242   0.07657736445378382   0.0385514077877111
-1.0273312388175242   0.07657736445378382   0.0385514077877111
-1.5749231011837441   -0.0750362245114023   -0.020424869323492134
-1.5749231011837441   -0.0750362245114023   -0.020424869323492134
-1.5749231011837441   -0.0750362245114023   -0.020424869323492134
-1.5749231011837441   -0.0750362245114023   -0.020424869323492134
-1.5947618888093296   -0.03869054847338338   0.03939682796865071
-1.5947618888093296   -0.03869054847338338   0.03939682796865071
-1.5947618888093296   -0.03869054847338338   0.03939682796865071
-1.5947618888093296   -0.03869054847338338   0.03939682796865071
-1.0765177657325853   0.023381989170635997   -0.013386808162259428
-1.0765177657325853   0.023381989170635997   -0.013386808162259428
-1.0765177657325853   0.023381989170635997   -0.013386808162259428
-1.0765177657325853   0.023381989170635997   -0.013386808162259428
-1.2815573281939454   0.007705561370065395   0.018203296979686825
-1.2815573281939454   0.007705561370065395   0.018203296979686825
-1.2815573281939454   0.007705561370065395   0.018203296979686825
-1.2815573281939454   0.007705561370065395   0.018203296979686825
-1.054745358608892   0.0710040294152855   0.04785318721155765
-1.054745358608892   0.0710040294152855   0.04785318721155765
-1.054745358608892   0.0710040294152855   0.04785318721155765
-1.054745358608892   0.0710040294152855   0.04785318721155765
-1.6154090465646684   -0.08518733934967332   -0.017342169931722967
-1.6154090465646684   -0.08518733934967332   -0.017342169931722967
-1.6154090465646684   -0.08518733934967332   -0.017342169931722967
-1.6154090465646684   -0.08518733934967332   -0.017342169931722967
-1.6468308184884695   -0.07071070830996862   0.03915598598963346
-1.6468308184884695   -0.07071070830996862   0.03915598598963346
-1.6468308184884695   -0.07071070830996862   0.03915598598963346
-1.6468308184884695   -0.07071070830996862   0.03915598598963346
-1.1081347544129054   -0.0013518957557195899   -0.012580083223315483
-1.1081347544129054   -0.0013518957557195899   -0.012580083223315483
-1.1081347544129054   -0.0013518957557195899   -0.012580083223315483
-1.1081347544129054   -0.0013518957557195899   -0.012580083223315483
-1.2968623121137357   -0.003683654381174406   0.014889905908530551
-1.2968623121137357   -0.003683654381174406   0.014889905908530551
-1.2968623121137357   -0.003683654381174406   0.014889905908530551
-1.2968623121137357   -0.003683654381174406   0.014889905908530551
0.8814072558320374   0.04903430976678741   -0.041941945085920085
0.8814072558320374   0.04903430976678741   -0.041941945085920085
0.8814072558320374   0.04903430976678741   -0.041941945085920085
0.8814072558320374   0.04903430976678741   -0.041941945085920085
0.4190043263067406   0.008276225924685188   0.0159607267154257
0.4190043263067406   0.008276225924685188   0.0159607267154257
0.4190043263067406   0.008276225924685188   0.0159607267154257
0.4190043263067406   0.008276225924685188   0.0159607267154257
0.3724216809355591   -0.07133474110064308   -0.03985077000434568
0.3724216809355591   -0.07133474110064308   -0.03985077000434568
0.3724216809355591   -0.07133474110064308   -0.03985077000434568
0.3724216809355591   -0.07133474110064308   -0.03985077000434568
0.8623922066574724   0.0809455803814719   0.01974094524650697
0.8623922066574724   0.0809455803814719   0.01974094524650697
0.8623922066574724   0.0809455803814719   0.01974094524650697
0.8623922066574724   0.0809455803814719   0.01974094524650697
0.6010729786301359   0.008123609584679517   -0.0177775270254809
0.6010729786301359   0.008123609584679517   -0.0177775270254809
0.6010729786301359   0.008123609584679517   -0.0177775270254809
0.6010729786301359   0.008123609584679517   -0.0177775270254809
0.8387166230403482   0.021963435691379624   -0.03965482814902139
0.8387166230403482   0.021963435691379624   -0.03965482814902139
0.8387166230403482   0.021963435691379624   -0.03965482814902139
0.8387166230403482   0.021963435691379624   -0.03965482814902139
0.3956317579476278   -0.01281810301560686   0.01768297697095781
0.3956317579476278   -0.01281810301560686   0.01768297697095781
0.3956317579476278   -0.01281810301560686   0.01768297697095781
0.3956317579476278   -0.01281810301560686   0.01768297697095781
0.35066576967188645   -0.07831942181458365   -0.03399686033295418
0.35066576967188645   -0.07831942181458365   -0.03399686033295418
0.35066576967188645   -0.07831942181458365   -0.03399686033295418
0.35066576967188645   -0.07831942181458365   -0.03399686033295418
0.8285623197242359   0.07095813135376049   0.025982011970871414
0.8285623197242359   0.07095813135376049   0.025982011970871414
0.8285623197242359   0.07095813135376049   0.025982011970871414
0.8285623197242359   0.07095813135376049   0.025982011970871414
0.5816410535994883   -0.003999167788962976   -0.024926379395439416
0.5816410535994883   -0.003999167788962976   -0.024926379395439416
0.5816410535994883   -0.003999167788962976   -0.024926379395439416
0.5816410535994883   -0.003999167788962976   -0.024926379395439416
0.8054356981028009   0.013079452484735854   -0.031772417267271064
0.8054356981028009   0.013079452484735854   -0.031772417267271064
0.8054356981028009   0.013079452484735854   -0.031772417267271064
0.8054356981028009   0.013079452484735854   -0.031772417267271064
0.3732020570207837   -0.021031077218096036   0.021396231815040936
0.3732020570207837   -0.021031077218096036   0.021396231815040936
0.3732020570207837   -0.021031077218096036   0.021396231815040936
0.3732020570207837   -0.021031077218096036   0.021396231815040936
0.33106423384111616   -0.08258617205197144   -0.0283145205435529
0.33106423384111616   -0.08258617205197144   -0.0283145205435529
0.33106423384111616   -0.08258617205197144   -0.0283145205435529
0.33106423384111616   -0.08258617205197144   -0.0283145205435529
0.7904079997944866   0.06017101292386082   0.030880862098611392
0.7904079997944866   0.06017101292386082   0.030880862098611392
0.7904079997944866   0.06017101292386082   0.030880862098611392
0.7904079997944866   0.06017101292386082   0.030880862098611392
0.543097437543413   -0.013147180695863667   -0.035527306878600805
0.543097437543413   -0.013147180695863667   -0.035527306878600805
0.543097437543413   -0.013147180695863667   -0.035527306878600805
0.543097437543413   -0.013147180695863667   -0.035527306878600805
0.42605665134864495   0.061962837959365746   -0.0024642601097263593
0.42605665134864495   0.061962837959365746   -0.0024642601097263593
0.42605665134864495   0.061962837959365746   -0.0024642601097263593
0.42605665134864495   0.061962837959365746   -0.0024642601097263593
-0.027971479070931633   -0.006135397751558207   -0.0002542495681797742
-0.027971479070931633   -0.006135397751558207   -0.0002542495681797742
-0.027971479070931633   -0.006135397751558207   -0.0002542495681797742
-0.027971479070931633   -0.006135397751558207   -0.0002542495681797742
-0.060787655942139814   -0.0534362210938454   -0.02535550525828203
-0.060787655942139814   -0.0534362210938454   -0.02535550525828203
-0.060787655942139814   -0.0534362210938454   -0.02535550525828203
-0.060787655942139814   -0.0534362210938454   -0.02535550525828203
0.4150230436986362   0.0735933980846046   0.0282279046257887
0.4150230436986362   0.0735933980846046   0.0282279046257887
0.4150230436986362   0.0735933980846046   0.0282279046257887
0.4150230436986362   0.0735933980846046   0.0282279046257887
0.18517998069063288   0.01814316110010293   0.0013300382463464072
0.18517998069063288   0.01814316110010293   0.0013300382463464072
0.18517998069063288   0.01814316110010293   0.0013300382463464072
0.18517998069063288   0.01814316110010293   0.0013300382463464072
0.40387817051890296   0.04482286051030499   0.0012740763014272172
0.40387817051890296   0.04482286051030499   0.0012740763014272172
0.40387817051890296   0.04482286051030499   0.0012740763014272172
0.40387817051890296   0.04482286051030499   0.0012740763014272172
-0.049452638721075554   -0.024475539478213924   0.0023588992314077925
-0.049452638721075554   -0.024475539478213924   0.0023588992314077925
-0.049452638721075554   -0.024475539478213924   0.0023588992314077925
-0.049452638721075554   -0.024475539478213924   0.0023588992314077925
-0.08127873225407647   -0.06663353725863341   -0.020974432573289847
-0.08127873225407647   -0.06663353725863341   -0.020974432573289847
-0.08127873225407647   -0.06663353725863341   -0.020974432573289847
-0.08127873225407647   -0.06663353725863341   -0.020974432573289847
0.39086443685939437   0.05781993369463821   0.03085712009536015
0.39086443685939437   0.05781993369463821   0.03085712009536015
0.39086443685939437   0.05781993369463821   0.03085712009536015
0.39086443685939437   0.05781993369463821   0.03085712009536015
0.1599137170471061   0.0025415279790200057   -0.006501281832177746
0.1599137170471061   0.0025415279790200057   -0.006501281832177746
0.1599137170471061   0.0025415279790200057   -0.006501281832177746
0.1599137170471061   0.0025415279790200057   -0.006501281832177746
0.38008974089195224   0.030663132229818632   0.004140441722972333
0.38008974089195224   0.030663132229818632   0.004140441722972333
0.38008974089195224   0.030663132229818632   0.004140441722972333
0.38008974089195224   0.030663132229818632   0.004140441722972333
-0.07066215939776743   -0.0396348589049515   0.005109753354573413
-0.07066215939776743   -0.0396348589049515   0.005109753354573413
-0.07066215939776743   -0.0396348589049515   0.005109753354573413
-0.07066215939776743   -0.0396348589049515   0.005109753354573413
-0.10150001820295619   -0.0777027010996296   -0.01685857659536686
-0.10150001820295619   -0.0777027010996296   -0.01685857659536686
-0.10150001820295619   -0.0777027010996296   -0.01685857659536686
-0.10150001820295619   -0.0777027010996296   -0.01685857659536686
0.36855900951863   0.04324945669484531   0.03332372909719847
0.36855900951863   0.04324945669484531   0.03332372909719847
0.36855900951863   0.04324945669484531   0.03332372909719847
0.36855900951863   0.04324945669484531   0.03332372909719847
0.14055440756895304   -0.00926574199181453   -0.013019219322010464
0.14055440756895304   -0.00926574199181453   -0.013019219322010464
0.14055440756895304   -0.00926574199181453   -0.013019219322010464
0.14055440756895304   -0.00926574199181453   -0.013019219322010464
-0.009885844404163891   0.07377202062168207   0.010266505392418648
-0.009885844404163891   0.07377202062168207   0.010266505392418648
-0.009885844404163891   0.07377202062168207   0.010266505392418648
-0.009885844404163891   0.07377202062168207   0.010266505392418648
-0.4654376919600001   -0.020287275002953145   -0.015436735280146788
-0.4654376919600001   -0.020287275002953145   -0.015436735280146788
-0.4654376919600001   -0.020287275002953145   -0.015436735280146788
-0.4654376919600001   -0.020287275002953145   -0.015436735280146788
-0.48658569098830684   -0.03720690238396783   -0.012060560742961347
-0.48658569098830684   -0.03720690238396783   -0.012060560742961347
-0.48658569098830684   -0.03720690238396783   -0.012060560742961347
-0.48658569098830684   -0.03720690238396783   -0.012060560742961347
-0.030679364709403044   0.05943206413093236   0.012317665680624057
-0.030679364709403044   0.05943206413093236   0.012317665680624057
-0.030679364709403044   0.05943206413093236   0.012317665680624057
-0.030679364709403044   0.05943206413093236   0.012317665680624057
-0.2475584693506116   0.019049339484577044   0.00485404711437484
-0.2475584693506116   0.019049339484577044   0.00485404711437484
-0.2475584693506116   0.019049339484577044   0.00485404711437484
-0.2475584693506116   0.019049339484577044   0.00485404711437484
-0.030274131498699935   0.059352250696300166   0.014423645168771789
-0.030274131498699935   0.059352250696300166   0.014423645168771789
-0.030274131498699935   0.059352250696300166   0.014423645168771789
-0.030274131498699935   0.059352250696300166   0.014423645168771789
-0.48659615459627725   -0.03673231934660304   -0.012587461820178718
-0.48659615459627725   -0.03673231934660304   -0.012587461820178718
-0.48659615459627725   -0.03673231934660304   -0.012587461820178718
-0.48659615459627725   -0.03673231934660304   -0.012587461820178718
-0.5075751691472343   -0.051489252929130806   -0.008239901765436026
-0.5075751691472343   -0.051489252929130806   -0.008239901765436026
-0.5075751691472343   -0.051489252929130806   -0.008239901765436026
-0.5075751691472343   -0.051489252929130806   -0.008239901765436026
-0.05204421688575446   0.04319076292964493   0.015373844080043782
-0.05204421688575446   0.04319076292964493   0.015373844080043782
-0.05204421688575446   0.04319076292964493   0.015373844080043782
-0.05204421688575446   0.04319076292964493   0.015373844080043782
-0.26876408585868805   0.004950409028850911   -0.0014962769934664527
-0.26876408585868805   0.004950409028850911   -0.0014962769934664527
-0.26876408585868805   0.004950409028850911   -0.0014962769934664527
-0.26876408585868805   0.004950409028850911   -0.0014962769934664527
-0.05121467350894869   0.044977742775297536   0.017734581118420065
-0.05121467350894869   0.044977742775297536   0.017734581118420065
-0.05121467350894869   0.044977742775297536   0.017734581118420065
-0.05121467350894869   0.044977742775297536   0.017734581118420065
-0.5082904562731997   -0.053161976523943125   -0.010143613800451163
-0.5082904562731997   -0.053161976523943125   -0.010143613800451163
-0.5082904562731997   -0.053161976523943125   -0.010143613800451163
-0.5082904562731997   -0.053161976523943125   -0.010143613800451163
-0.5283149968492342   -0.06453579636681121   -0.004456439168107815
-0.5283149968492342   -0.06453579636681121   -0.004456439168107815
-0.5283149968492342   -0.06453579636681121   -0.004456439168107815
-0.5283149968492342   -0.06453579636681121   -0.004456439168107815
-0.07349799055556118   0.027482751364978304   0.017966109177000242
-0.07349799055556118   0.027482751364978304   0.017966109177000242
-0.07349799055556118   0.027482751364978304   0.017966109177000242
-0.07349799055556118   0.027482751364978304   0.017966109177000242
-0.290942974968483   -0.009266193066296217   -0.00856971398294215
-0.290942974968483   -0.009266193066296217   -0.00856971398294215
-0.290942974968483   -0.009266193066296217   -0.00856971398294215
-0.290942974968483   -0.009266193066296217   -0.00856971398294215
-0.43692050926174264   0.08462337260753244   0.022238530600651153
-0.43692050926174264   0.08462337260753244   0.022238530600651153
-0.43692050926174264   0.08462337260753244   0.022238530600651153
-0.43692050926174264   0.08462337260753244   0.022238530600651153
-0.8930078961822742   -0.034751557434146735   -0.027806642580256273
-0.8930078961822742   -0.034751557434146735   -0.027806642580256273
-0.8930078961822742   -0.034751557434146735   -0.027806642580256273
-0.8930078961822742   -0.034751557434146735   -0.027806642580256273
-0.9045604286331986   -0.023519517367302983   0.002424513816908412
-0.9045604286331986   -0.023519517367302983   0.002424513816908412
-0.9045604286331986   -0.023519517367302983   0.002424513816908412
-0.9045604286331986   -0.023519517367302983   0.002424513816908412
-0.4688993900763011   0.04269638444660291   -0.0035323430134957742
-0.4688993900763011   0.04269638444660291   -0.0035323430134957742
-0.4688993900763011   0.04269638444660291   -0.0035323430134957742
-0.4688993900763011   0.04269638444660291   -0.0035323430134957742
-0.6714517443505281   0.018110918143701638   0.00822386291759808
-0.6714517443505281   0.018110918143701638   0.00822386291759808
-0.6714517443505281   0.018110918143701638   0.00822386291759808
-0.6714517443505281   0.018110918143701638   0.00822386291759808
-0.4573467070016367   0.07068651296409333   0.026240943842327925
-0.4573467070016367   0.07068651296409333   0.026240943842327925
-0.4573467070016367   0.07068651296409333   0.026240943842327925
-0.4573467070016367   0.07068651296409333   0.026240943842327925
-0.916008987951557   -0.05140552212848867   -0.02693227801369772
-0.916008987951557   -0.05140552212848867   -0.02693227801369772
-0.916008987951557   -0.05140552212848867   -0.02693227801369772
-0.916008987951557   -0.05140552212848867   -0.02693227801369772
-0.9290036288690036   -0.03795882648102733   0.0038478560801238765
-0.9290036288690036   -0.03795882648102733   0.0038478560801238765
-0.9290036288690036   -0.03795882648102733   0.0038478560801238765
-0.9290036288690036   -0.03795882648102733   0.0038478560801238765
-0.49018423801363514   0.027653429673134625   -0.0004279286997023804
-0.49018423801363514   0.027653429673134625   -0.0004279286997023804
-0.49018423801363514   0.027653429673134625   -0.0004279286997023804
-0.49018423801363514   0.027653429673134625   -0.0004279286997023804
-0.6893645493017603   0.005545376731003859   0.002315616406159994
-0.6893645493017603   0.005545376731003859   0.002315616406159994
-0.6893645493017603   0.005545376731003859   0.002315616406159994
-0.6893645493017603   0.005545376731003859   0.002315616406159994
-0.47814758480039904   0.057437137103826114   0.029971629935786684
-0.47814758480039904   0.057437137103826114   0.029971629935786684
-0.47814758480039904   0.057437137103826114   0.029971629935786684
-0.47814758480039904   0.057437137103826114   0.029971629935786684
-0.9404220160951712   -0.06712426792465045   -0.024078638607091703
-0.9404220160951712   -0.06712426792465045   -0.024078638607091703
-0.9404220160951712   -0.06712426792465045   -0.024078638607091703
-0.9404220160951712   -0.06712426792465045   -0.024078638607091703
-0.9511691501424351   -0.05351034714011621   0.00838134735389924
-0.9511691501424351   -0.05351034714011621   0.00838134735389924
-0.9511691501424351   -0.05351034714011621   0.00838134735389924
-0.9511691501424351   -0.05351034714011621   0.00838134735389924
-0.5120662866619591   0.01043141664573223   0.0018198987557320294
-0.5120662866619591   0.01043141664573223   0.0018198987557320294
-0.5120662866619591   0.01043141664573223   0.0018198987557320294
-0.5120662866619591   0.01043141664573223   0.0018198987557320294
-0.7167011744726277   -0.010238150231133142   -0.0051955352437176375
-0.7167011744726277   -0.010238150231133142   -0.0051955352437176375
-0.7167011744726277   -0.010238150231133142   -0.0051955352437176375
-0.7167011744726277   -0.010238150231133142   -0.0051955352437176375
-0.8590352121612606   0.07589313292159056   0.03141208716907433
-0.8590352121612606   0.07589313292159056   0.03141208716907433
-0.8590352121612606   0.07589313292159056   0.03141208716907433
-0.8590352121612606   0.07589313292159056   0.03141208716907433
-1.2998498199901671   -0.06000550777189556   -0.03057562780310187
-1.2998498199901671   -0.06000550777189556   -0.03057562780310187
-1.2998498199901671   -0.06000550777189556   -0.03057562780310187
-1.2998498199901671   -0.06000550777189556   -0.03057562780310187
-1.314232357338822   -0.013026144053830624   0.02893478911947464
-1.314232357338822   -0.013026144053830624   0.02893478911947464
-1.314232357338822   -0.013026144053830624   0.02893478911947464
-1.314232357338822   -0.013026144053830624   0.02893478911947464
-0.8995895901827535   0.02160988216279444   -0.017850693460963532
-0.8995895901827535   0.02160988216279444   -0.017850693460963532
-0.8995895901827535   0.02160988216279444   -0.017850693460963532
-0.8995895901827535   0.02160988216279444   -0.017850693460963532
-1.0448017157342602   0.01701861216543682   0.025620602166847195
-1.0448017157342602   0.01701861216543682   0.025620602166847195
-1.0448017157342602   0.01701861216543682   0.025620602166847195
-1.0448017157342602   0.01701861216543682   0.025620602166847195
-0.8778033319311964   0.07584233266310181   0.03684814729651112
-0.8778033319311964   0.07584233266310181   0.03684814729651112
-0.8778033319311964   0.07584233266310181   0.03684814729651112
-0.8778033319311964   0.07584233266310181   0.03684814729651112
-1.335653822008844   -0.06689380097260217   -0.024304877311856196
-1.335653822008844   -0.06689380097260217   -0.024304877311856196
-1.335653822008844   -0.06689380097260217   -0.024304877311856196
-1.335653822008844   -0.06689380097260217   -0.024304877311856196
-1.3462379940214144   -0.020646682762951507   0.03619006045866284
-1.3462379940214144   -0.020646682762951507   0.03619006045866284
-1.3462379940214144   -0.020646682762951507   0.03619006045866284
-1.3462379940214144   -0.020646682762951507   0.03619006045866284
-0.9225667953974758   0.013363276694932175   -0.0152900797381973
-0.9225667953974758   0.013363276694932175   -0.0152900797381973
-0.9225667953974758   0.013363276694932175   -0.0152900797381973
-0.9225667953974758   0.013363276694932175   -0.0152900797381973
-1.089581036110554   0.008519756244229792   0.015621595354111832
-1.089581036110554   0.008519756244229792   0.015621595354111832
-1.089581036110554   0.008519756244229792   0.015621595354111832
-1.089581036110554   0.008519756244229792   0.015621595354111832
-0.8994571078875785   0.07016317439443942   0.043458460111781685
-0.8994571078875785   0.07016317439443942   0.043458460111781685
-0.8994571078875785   0.07016317439443942   0.043458460111781685
-0.8994571078875785   0.07016317439443942   0.043458460111781685
-1.3687423285046922   -0.07684122743583802   -0.020137067284831923
-1.3687423285046922   -0.07684122743583802   -0.020137067284831923
-1.3687423285046922   -0.07684122743583802   -0.020137067284831923
-1.3687423285046922   -0.07684122743583802   -0.020137067284831923
-1.3884814658046938   -0.04780110267851995   0.03552059355450188
-1.3884814658046938   -0.04780110267851995   0.03552059355450188
-1.3884814658046938   -0.04780110267851995   0.03552059355450188
-1.3884814658046938   -0.04780110267851995   0.03552059355450188
-0.9468366937318811   -0.009608330986618896   -0.01385838674682735
-0.9468366937318811   -0.009608330986618896   -0.01385838674682735
-0.9468366937318811   -0.009608330986618896   -0.01385838674682735
-0.9468366937318811   -0.009608330986618896   -0.01385838674682735
-1.101034696045333   -0.0020699809073133624   0.01230255138476534
-1.101034696045333   -0.0020699809073133624   0.01230255138476534
-1.101034696045333   -0.0020699809073133624   0.01230255138476534
-1.101034696045333   -0.0020699809073133624   0.01230255138476534
0.6062723124667702   0.03437838320835465   -0.04079647302625655
0.6062723124667702   0.03437838320835465   -0.04079647302625655
0.6062723124667702   0.03437838320835465   -0.04079647302625655
0.6062723124667702   0.03437838320835465   -0.04079647302625655
0.2589563347751447   0.01641039387669469   0.01747961655391151
0.2589563347751447   0.01641039387669469   0.01747961655391151
0.2589563347751447   0.01641039387669469   0.01747961655391151
0.2589563347751447   0.01641039387669469   0.01747961655391151
0.21692919227793545   -0.059705333957074336   -0.038050612066687244
0.21692919227793545   -0.059705333957074336   -0.038050612066687244
0.21692919227793545   -0.059705333957074336   -0.038050612066687244
0.21692919227793545   -0.059705333957074336   -0.038050612066687244
0.5921255492731525   0.0687825937088872   0.021240966619750938
0.5921255492731525   0.0687825937088872   0.021240966619750938
0.5921255492731525   0.0687825937088872   0.021240966619750938
0.5921255492731525   0.0687825937088872   0.021240966619750938
0.39640687889003573   0.008782484770165633   -0.010828087417577736
0.39640687889003573   0.008782484770165633   -0.010828087417577736
0.39640687889003573   0.008782484770165633   -0.010828087417577736
0.39640687889003573   0.008782484770165633   -0.010828087417577736
0.5686333946071273   0.010631821934840788   -0.03806903493633408
0.5686333946071273   0.010631821934840788   -0.03806903493633408
0.5686333946071273   0.010631821934840788   -0.03806903493633408
0.5686333946071273   0.010631821934840788   -0.03806903493633408
0.23997975059700039   -0.0019961585299832565   0.01949300410155081
0.23997975059700039   -0.0019961585299832565   0.01949300410155081
0.23997975059700039   -0.0019961585299832565   0.01949300410155081
0.23997975059700039   -0.0019961585299832565   0.01949300410155081
0.19903556782991882   -0.06662307240538512   -0.03239725493053963
0.19903556782991882   -0.06662307240538512   -0.03239725493053963
0.19903556782991882   -0.06662307240538512   -0.03239725493053963
0.19903556782991882   -0.06662307240538512   -0.03239725493053963
0.5626807180419569   0.05896524390535593   0.0273924121509975
0.5626807180419569   0.05896524390535593   0.0273924121509975
0.5626807180419569   0.05896524390535593   0.0273924121509975
0.5626807180419569   0.05896524390535593   0.0273924121509975
0.37794263307561604   -0.0026365279719991336   -0.017599612553426593
0.37794263307561604   -0.0026365279719991336   -0.017599612553426593
0.37794263307561604   -0.0026365279719991336   -0.017599612553426593
0.37794263307561604   -0.0026365279719991336   -0.017599612553426593
0.5395697421923416   0.0017698073457181468   -0.030967030537445952
0.5395697421923416   0.0017698073457181468   -0.030967030537445952
0.5395697421923416   0.0017698073457181468   -0.030967030537445952
0.5395697421923416   0.0017698073457181468   -0.030967030537445952
0.2214931409045644   -0.010081038620717624   0.02334857665802222
0.2214931409045644   -0.010081038620717624   0.02334857665802222
0.2214931409045644   -0.010081038620717624   0.02334857665802222
0.2214931409045644   -0.010081038620717624   0.02334857665802222
0.1830458465066535   -0.07287848866902213   -0.027004492577970322
0.1830458465066535   -0.07287848866902213   -0.027004492577970322
0.1830458465066535   -0.07287848866902213   -0.027004492577970322
0.1830458465066535   -0.07287848866902213   -0.027004492577970322
0.5282985314695363   0.0460782356058739   0.031278068886894606
0.5282985314695363   0.0460782356058739   0.031278068886894606
0.5282985314695363   0.0460782356058739   0.031278068886894606
0.5282985314695363   0.0460782356058739   0.031278068886894606
0.34660283499055955   -0.011994629588443204   -0.0269153174886735
0.34660283499055955   -0.011994629588443204   -0.0269153174886735
0.34660283499055955   -0.011994629588443204   -0.0269153174886735
0.34660283499055955   -0.011994629588443204   -0.0269153174886735
0.26075769305597274   0.05020053912867258   -0.007303737293930213
0.26075769305597274   0.05020053912867258   -0.007303737293930213
0.26075769305597274   0.05020053912867258   -0.007303737293930213
0.26075769305597274   0.05020053912867258   -0.007303737293930213
-0.07989554228759357   0.00425178442779485   0.00234084594306664
-0.07989554228759357   0.00425178442779485   0.00234084594306664
-0.07989554228759357   0.00425178442779485   0.00234084594306664
-0.07989554228759357   0.00425178442779485   0.00234084594306664
-0.10862770475177623   -0.04147293287650315   -0.023453001729337685
-0.10862770475177623   -0.04147293287650315   -0.023453001729337685
-0.10862770475177623   -0.04147293287650315   -0.023453001729337685
-0.10862770475177623   -0.04147293287650315   -0.023453001729337685
0.2535856866144401   0.060335931260278766   0.02519059439848741
0.2535856866144401   0.060335931260278766   0.02519059439848741
0.2535856866144401   0.060335931260278766   0.02519059439848741
0.2535856866144401   0.060335931260278766   0.02519059439848741
0.07966990052008509   0.017436758612670397   0.003059586608932745
0.07966990052008509   0.017436758612670397   0.003059586608932745
0.07966990052008509   0.017436758612670397   0.003059586608932745
0.07966990052008509   0.017436758612670397   0.003059586608932745
0.24221805009306221   0.0326037392072555   -0.003915396155382829
0.24221805009306221   0.0326037392072555   -0.003915396155382829
0.24221805009306221   0.0326037392072555   -0.003915396155382829
0.24221805009306221   0.0326037392072555   -0.003915396155382829
-0.09742974559705428   -0.013910418190141615   0.00497427935791056
-0.09742974559705428   -0.013910418190141615   0.00497427935791056
-0.09742974559705428   -0.013910418190141615   0.00497427935791056
-0.09742974559705428   -0.013910418190141615   0.00497427935791056
-0.12526852256417553   -0.05537491264318925   -0.018984152170207266
-0.12526852256417553   -0.05537491264318925   -0.018984152170207266
-0.12526852256417553   -0.05537491264318925   -0.018984152170207266
-0.12526852256417553   -0.05537491264318925   -0.018984152170207266
0.2331738378299744   0.04428330784184366   0.027387714822510997
0.2331738378299744   0.04428330784184366   0.027387714822510997
0.2331738378299744   0.04428330784184366   0.027387714822510997
0.2331738378299744   0.04428330784184366   0.027387714822510997
0.059137809086930324   0.001700348231163629   -0.004499533013978693
0.059137809086930324   0.001700348231163629   -0.004499533013978693
0.059137809086930324   0.001700348231163629   -0.004499533013978693
0.059137809086930324   0.001700348231163629   -0.004499533013978693
0.2221656087073909   0.017695599546210212   -0.0010657224947763682
0.2221656087073909   0.017695599546210212   -0.0010657224947763682
0.2221656087073909   0.017695599546210212   -0.0010657224947763682
0.2221656087073909   0.017695599546210212   -0.0010657224947763682
-0.11468770202538396   -0.02921461293134829   0.0077596508119095985
-0.11468770202538396   -0.02921461293134829   0.0077596508119095985
-0.11468770202538396   -0.02921461293134829   0.0077596508119095985
-0.11468770202538396   -0.02921461293134829   0.0077596508119095985
-0.14168673493815712   -0.06843549584422368   -0.014855289141359342
-0.14168673493815712   -0.06843549584422368   -0.014855289141359342
-0.14168673493815712   -0.06843549584422368   -0.014855289141359342
-0.14168673493815712   -0.06843549584422368   -0.014855289141359342
0.21475406116662238   0.02886760301523284   0.02979048903762391
0.21475406116662238   0.02886760301523284   0.02979048903762391
0.21475406116662238   0.02886760301523284   0.02979048903762391
0.21475406116662238   0.02886760301523284   0.02979048903762391
0.04266939925270179   -0.011347446688358877   -0.011172109415555617
0.04266939925270179   -0.011347446688358877   -0.011172109415555617
0.04266939925270179   -0.011347446688358877   -0.011172109415555617
0.04266939925270179   -0.011347446688358877   -0.011172109415555617
-0.06733376033490936   0.06358430533745364   0.00581723479682705
-0.06733376033490936   0.06358430533745364   0.00581723479682705
-0.06733376033490936   0.06358430533745364   0.00581723479682705
-0.06733376033490936   0.06358430533745364   0.00581723479682705
-0.4137052717134772   -0.010533516725884942   -0.012588615623372972
-0.4137052717134772   -0.010533516725884942   -0.012588615623372972
-0.4137052717134772   -0.010533516725884942   -0.012588615623372972
-0.4137052717134772   -0.010533516725884942   -0.012588615623372972
-0.43013022154760755   -0.02477624751275917   -0.009273035699629097
-0.43013022154760755   -0.02477624751275917   -0.009273035699629097
-0.43013022154760755   -0.02477624751275917   -0.009273035699629097
-0.43013022154760755   -0.02477624751275917   -0.009273035699629097
-0.08448785115196422   0.046001088423821376   0.009772244969397815
-0.08448785115196422   0.046001088423821376   0.009772244969397815
-0.08448785115196422   0.046001088423821376   0.009772244969397815
-0.08448785115196422   0.046001088423821376   0.009772244969397815
-0.2483065490498961   0.018276007781488995   0.004917562050544687
-0.2483065490498961   0.018276007781488995   0.004917562050544687
-0.2483065490498961   0.018276007781488995   0.004917562050544687
-0.2483065490498961   0.018276007781488995   0.004917562050544687
-0.0839780923651346   0.04831100910760715   0.010011118219760199
-0.0839780923651346   0.04831100910760715   0.010011118219760199
-0.0839780923651346   0.04831100910760715   0.010011118219760199
-0.0839780923651346   0.04831100910760715   0.010011118219760199
-0.4306888925824693   -0.027135080444577034   -0.009707557942119836
-0.4306888925824693   -0.027135080444577034   -0.009707557942119836
-0.4306888925824693   -0.027135080444577034   -0.009707557942119836
-0.4306888925824693   -0.027135080444577034   -0.009707557942119836
-0.4469441513558889   -0.03992303358431949   -0.0052952040196439405
-0.4469441513558889   -0.03992303358431949   -0.0052952040196439405
-0.4469441513558889   -0.03992303358431949   -0.0052952040196439405
-0.4469441513558889   -0.03992303358431949   -0.0052952040196439405
-0.10195078273666316   0.029481232296790175   0.012748402027375143
-0.10195078273666316   0.029481232296790175   0.012748402027375143
-0.10195078273666316   0.029481232296790175   0.012748402027375143
-0.10195078273666316   0.029481232296790175   0.012748402027375143
-0.26559271953109026   0.003523409882958309   -0.0015782336718578455
-0.26559271953109026   0.003523409882958309   -0.0015782336718578455
-0.26559271953109026   0.003523409882958309   -0.0015782336718578455
-0.26559271953109026   0.003523409882958309   -0.0015782336718578455
-0.10108134552780026   0.03301994371576913   0.013556876652710586
-0.10108134552780026   0.03301994371576913   0.013556876652710586
-0.10108134552780026   0.03301994371576913   0.013556876652710586
-0.10108134552780026   0.03301994371576913   0.013556876652710586
-0.44808510364432735   -0.04373326008287917   -0.007189738963276755
-0.44808510364432735   -0.04373326008287917   -0.007189738963276755
-0.44808510364432735   -0.04373326008287917   -0.007189738963276755
-0.44808510364432735   -0.04373326008287917   -0.007189738963276755
-0.4634722896663259   -0.05439046596607525   -0.0014256783675028143
-0.4634722896663259   -0.05439046596607525   -0.0014256783675028143
-0.4634722896663259   -0.05439046596607525   -0.0014256783675028143
-0.4634722896663259   -0.05439046596607525   -0.0014256783675028143
-0.11926810391640927   0.013429897585984917   0.015372472537171373
-0.11926810391640927   0.013429897585984917   0.015372472537171373
-0.11926810391640927   0.013429897585984917   0.015372472537171373
-0.11926810391640927   0.013429897585984917   0.015372472537171373
-0.2835932053607364   -0.011244704359021945   -0.008620680829416177
-0.2835932053607364   -0.011244704359021945   -0.008620680829416177
-0.2835932053607364   -0.011244704359021945   -0.008620680829416177
-0.2835932053607364   -0.011244704359021945   -0.008620680829416177
-0.3903343812621387   0.07507578170618212   0.01865653820125255
-0.3903343812621387   0.07507578170618212   0.01865653820125255
-0.3903343812621387   0.07507578170618212   0.01865653820125255
-0.3903343812621387   0.07507578170618212   0.01865653820125255
-0.741702337856541   -0.025252882397290483   -0.025592902869854044
-0.741702337856541   -0.025252882397290483   -0.025592902869854044
-0.741702337856541   -0.025252882397290483   -0.025592902869854044
-0.741702337856541   -0.025252882397290483   -0.025592902869854044
-0.747867801111649   -0.011204678722528977   0.005930752176192704
-0.747867801111649   -0.011204678722528977   0.005930752176192704
-0.747867801111649   -0.011204678722528977   0.005930752176192704
-0.747867801111649   -0.011204678722528977   0.005930752176192704
-0.4184079640496057   0.029987045852532535   -0.005425041574915371
-0.4184079640496057   0.029987045852532535   -0.005425041574915371
-0.4184079640496057   0.029987045852532535   -0.005425041574915371
-0.4184079640496057   0.029987045852532535   -0.005425041574915371
-0.5711613268645473   0.01731606922279505   0.007134315527638491
-0.5711613268645473   0.01731606922279505   0.007134315527638491
-0.5711613268645473   0.01731606922279505   0.007134315527638491
-0.5711613268645473   0.01731606922279505   0.007134315527638491
-0.40667235988543327   0.060413553422643596   0.022826471675839795
-0.40667235988543327   0.060413553422643596   0.022826471675839795
-0.40667235988543327   0.060413553422643596   0.022826471675839795
-0.40667235988543327   0.060413553422643596   0.022826471675839795
-0.7601193640138013   -0.04214714503061989   -0.02438459602648195
-0.7601193640138013   -0.04214714503061989   -0.02438459602648195
-0.7601193640138013   -0.04214714503061989   -0.02438459602648195
-0.7601193640138013   -0.04214714503061989   -0.02438459602648195
-0.7676919947392397   -0.026208428042867826   0.007770539445889922
-0.7676919947392397   -0.026208428042867826   0.007770539445889922
-0.7676919947392397   -0.026208428042867826   0.007770539445889922
-0.7676919947392397   -0.026208428042867826   0.007770539445889922
-0.43540257302917834   0.01476077664343979   -0.002271122613858468
-0.43540257302917834   0.01476077664343979   -0.002271122613858468
-0.43540257302917834   0.01476077664343979   -0.002271122613858468
-0.43540257302917834   0.01476077664343979   -0.002271122613858468
-0.5856994948916459   0.003947135268561247   0.0006241694030083775
-0.5856994948916459   0.003947135268561247   0.0006241694030083775
-0.5856994948916459   0.003947135268561247   0.0006241694030083775
-0.5856994948916459   0.003947135268561247   0.0006241694030083775
-0.4232442443237792   0.046486061385302715   0.02679523617128212
-0.4232442443237792   0.046486061385302715   0.02679523617128212
-0.4232442443237792   0.046486061385302715   0.02679523617128212
-0.4232442443237792   0.046486061385302715   0.02679523617128212
-0.7798970506735435   -0.05798044001363027   -0.021482728254874312
-0.7798970506735435   -0.05798044001363027   -0.021482728254874312
-0.7798970506735435   -0.05798044001363027   -0.021482728254874312
-0.7798970506735435   -0.05798044001363027   -0.021482728254874312
-0.7853371273605798   -0.042202179896028105   0.01192275674555104
-0.7853371273605798   -0.042202179896028105   0.01192275674555104
-0.7853371273605798   -0.042202179896028105   0.01192275674555104
-0.7853371273605798   -0.042202179896028105   0.01192275674555104
-0.4526954943363102   -0.00213916883200449   0.00020700114850161905
-0.4526954943363102   -0.00213916883200449   0.00020700114850161905
-0.4526954943363102   -0.00213916883200449   0.00020700114850161905
-0.4526954943363102   -0.00213916883200449   0.00020700114850161905
-0.6075624694483419   -0.011590661410900191   -0.006940093856254621
-0.6075624694483419   -0.011590661410900191   -0.006940093856254621
-0.6075624694483419   -0.011590661410900191   -0.006940093856254621
-0.6075624694483419   -0.011590661410900191   -0.006940093856254621
-0.7117521925785173   0.06959177624637469   0.029313164876599393
-0.7117521925785173   0.06959177624637469   0.029313164876599393
-0.7117521925785173   0.06959177624637469   0.029313164876599393
-0.7117521925785173   0.06959177624637469   0.029313164876599393
-1.050472899497929   -0.04840691988449877   -0.033167946138943805
-1.050472899497929   -0.04840691988449877   -0.033167946138943805
-1.050472899497929   -0.04840691988449877   -0.033167946138943805
-1.050472899497929   -0.04840691988449877   -0.033167946138943805
-1.06055829493144   -0.001205171189728571   0.02904274452507699
-1.06055829493144   -0.001205171189728571   0.02904274452507699
-1.06055829493144   -0.001205171189728571   0.02904274452507699
-1.06055829493144   -0.001205171189728571   0.02904274452507699
-0.7487283095307601   0.010309210069447045   -0.019885678711350767
-0.7487283095307601   0.010309210069447045   -0.019885678711350767
-0.7487283095307601   0.010309210069447045   -0.019885678711350767
-0.7487283095307601   0.010309210069447045   -0.019885678711350767
-0.8535740119560229   0.016096289076136666   0.021641368155676403
-0.8535740119560229   0.016096289076136666   0.021641368155676403
-0.8535740119560229   0.016096289076136666   0.021641368155676403
-0.8535740119560229   0.016096289076136666   0.021641368155676403
-0.7265565278654634   0.0667026010461407   0.03457983863844688
-0.7265565278654634   0.0667026010461407   0.03457983863844688
-0.7265565278654634   0.0667026010461407   0.03457983863844688
-0.7265565278654634   0.0667026010461407   0.03457983863844688
-1.083171638806655   -0.05804012437633799   -0.027189021664381106
-1.083171638806655   -0.05804012437633799   -0.027189021664381106
-1.083171638806655   -0.05804012437633799   -0.027189021664381106
-1.083171638806655   -0.05804012437633799   -0.027189021664381106
-1.0885768766627542   -0.009461322104285158   0.03659700753102516
-1.0885768766627542   -0.009461322104285158   0.03659700753102516
-1.0885768766627542   -0.009461322104285158   0.03659700753102516
-1.0885768766627542   -0.009461322104285158   0.03659700753102516
-0.7670001952047004   0.001960368611867186   -0.016939259536164174
-0.7670001952047004   0.001960368611867186   -0.016939259536164174
-0.7670001952047004   0.001960368611867186   -0.016939259536164174
-0.7670001952047004   0.001960368611867186   -0.016939259536164174
-0.8914215547752912   0.006612282916825696   0.011380246382112956
-0.8914215547752912   0.006612282916825696   0.011380246382112956
-0.8914215547752912   0.006612282916825696   0.011380246382112956
-0.8914215547752912   0.006612282916825696   0.011380246382112956
-0.7437923328223436   0.06032355779591547   0.040736863191587
-0.7437923328223436   0.06032355779591547   0.040736863191587
-0.7437923328223436   0.06032355779591547   0.040736863191587
-0.7437923328223436   0.06032355779591547   0.040736863191587
-1.1121032079248176   -0.0681429801680323   -0.02235299071554444
-1.1121032079248176   -0.0681429801680323   -0.02235299071554444
-1.1121032079248176   -0.0681429801680323   -0.02235299071554444
-1.1121032079248176   -0.0681429801680323   -0.02235299071554444
-1.126059516931802   -0.03534132309777199   0.036699475897358905
-1.126059516931802   -0.03534132309777199   0.036699475897358905
-1.126059516931802   -0.03534132309777199   0.036699475897358905
-1.126059516931802   -0.03534132309777199   0.036699475897358905
-0.7861241038517645   -0.01923521226551586   -0.014979093340895817
-0.7861241038517645   -0.01923521226551586   -0.014979093340895817
-0.7861241038517645   -0.01923521226551586   -0.014979093340895817
-0.7861241038517645   -0.01923521226551586   -0.014979093340895817
-0.9020459132295929   -0.004224439711441208   0.006514786182130541
-0.9020459132295929   -0.004224439711441208   0.006514786182130541
-0.9020459132295929   -0.004224439711441208   0.006514786182130541
-0.9020459132295929   -0.004224439711441208   0.006514786182130541
0.33473674554404764   0.02007488556887864   -0.03997833575407174
0.33473674554404764   0.02007488556887864   -0.03997833575407174
0.33473674554404764   0.02007488556887864   -0.03997833575407174
0.33473674554404764   0.02007488556887864   -0.03997833575407174
0.09769043706583093   0.0239668174578091   0.019093377615921076
0.09769043706583093   0.0239668174578091   0.019093377615921076
0.09769043706583093   0.0239668174578091   0.019093377615921076
0.09769043706583093   0.0239668174578091   0.019093377615921076
0.06049391669140953   -0.048844703436506785   -0.035263886525476004
0.06049391669140953   -0.048844703436506785   -0.035263886525476004
0.06049391669140953   -0.048844703436506785   -0.035263886525476004
0.06049391669140953   -0.048844703436506785   -0.035263886525476004
0.3255928389757606   0.05685674893005049   0.022971604092485227
0.3255928389757606   0.05685674893005049   0.022971604092485227
0.3255928389757606   0.05685674893005049   0.022971604092485227
0.3255928389757606   0.05685674893005049   0.022971604092485227
0.19269164093673644   0.00948975417086987   -0.004446297505886741
0.19269164093673644   0.00948975417086987   -0.004446297505886741
0.19269164093673644   0.00948975417086987   -0.004446297505886741
0.19269164093673644   0.00948975417086987   -0.004446297505886741
0.30213366216023807   -0.0007979027072181274   -0.03666962834786127
0.30213366216023807   -0.0007979027072181274   -0.03666962834786127
0.30213366216023807   -0.0007979027072181274   -0.03666962834786127
0.30213366216023807   -0.0007979027072181274   -0.03666962834786127
0.08322119313211941   0.008078047825948948   0.02144974441561869
0.08322119313211941   0.008078047825948948   0.02144974441561869
0.08322119313211941   0.008078047825948948   0.02144974441561869
0.08322119313211941   0.008078047825948948   0.02144974441561869
0.04645605197536452   -0.05575070054324793   -0.029962644025429485
0.04645605197536452   -0.05575070054324793   -0.029962644025429485
0.04645605197536452   -0.05575070054324793   -0.029962644025429485
0.04645605197536452   -0.05575070054324793   -0.029962644025429485
0.30035849828145944   0.047328803649187894   0.029527786121623448
0.30035849828145944   0.047328803649187894   0.029527786121623448
0.30035849828145944   0.047328803649187894   0.029527786121623448
0.30035849828145944   0.047328803649187894   0.029527786121623448
0.1751092699549568   -0.001304679404242226   -0.011439079091928123
0.1751092699549568   -0.001304679404242226   -0.011439079091928123
0.1751092699549568   -0.001304679404242226   -0.011439079091928123
0.1751092699549568   -0.001304679404242226   -0.011439079091928123
0.27702834851327074   -0.009668786870501378   -0.03012537219963357
0.27702834851327074   -0.009668786870501378   -0.03012537219963357
0.27702834851327074   -0.009668786870501378   -0.03012537219963357
0.27702834851327074   -0.009668786870501378   -0.03012537219963357
0.06880459884001895   0.0002652870729119468   0.0257641026816842
0.06880459884001895   0.0002652870729119468   0.0257641026816842
0.06880459884001895   0.0002652870729119468   0.0257641026816842
0.06880459884001895   0.0002652870729119468   0.0257641026816842
0.033907892813029555   -0.06404787390628607   -0.024961840017398436
0.033907892813029555   -0.06404787390628607   -0.024961840017398436
0.033907892813029555   -0.06404787390628607   -0.024961840017398436
0.033907892813029555   -0.06404787390628607   -0.024961840017398436
0.2691013221803552   0.032108985456731534   0.032797514827024435
0.2691013221803552   0.032108985456731534   0.032797514827024435
0.2691013221803552   0.032108985456731534   0.032797514827024435
0.2691013221803552   0.032108985456731534   0.032797514827024435
0.1507183356924977   -0.010903757016609443   -0.02000396669325835
0.1507183356924977   -0.010903757016609443   -0.02000396669325835
0.1507183356924977   -0.010903757016609443   -0.02000396669325835
0.1507183356924977   -0.010903757016609443   -0.02000396669325835
0.09402294075682884   0.03625987879484154   -0.011537165266122286
0.09402294075682884   0.03625987879484154   -0.011537165266122286
0.09402294075682884   0.03625987879484154   -0.011537165266122286
0.09402294075682884   0.03625987879484154   -0.011537165266122286
-0.13502797659613697   0.011587376413257064   0.004612069885714547
-0.13502797659613697   0.011587376413257064   0.004612069885714547
-0.13502797659613697   0.011587376413257064   0.004612069885714547
-0.13502797659613697   0.011587376413257064   0.004612069885714547
-0.15899232453503004   -0.031337045133029824   -0.020596276418585396
-0.15899232453503004   -0.031337045133029824   -0.020596276418585396
-0.15899232453503004   -0.031337045133029824   -0.020596276418585396
-0.15899232453503004   -0.031337045133029824   -0.020596276418585396
0.09069346367760864   0.04499043793524861   0.021898707033765195
0.09069346367760864   0.04499043793524861   0.021898707033765195
0.09069346367760864   0.04499043793524861   0.021898707033765195
0.09069346367760864   0.04499043793524861   0.021898707033765195
-0.02812940961705841   0.014724367778919712   0.003759364993323751
-0.02812940961705841   0.014724367778919712   0.003759364993323751
-0.02812940961705841   0.014724367778919712   0.003759364993323751
-0.02812940961705841   0.014724367778919712   0.003759364993323751
0.0793720831891845   0.01875961683409065   -0.008477374307197584
0.0793720831891845   0.01875961683409065   -0.008477374307197584
0.0793720831891845   0.01875961683409065   -0.008477374307197584
0.0793720831891845   0.01875961683409065   -0.008477374307197584
-0.14829673204867005   -0.00573201203393604   0.007276652914120669
-0.14829673204867005   -0.00573201203393604   0.007276652914120669
-0.14829673204867005   -0.00573201203393604   0.007276652914120669
-0.14829673204867005   -0.00573201203393604   0.007276652914120669
-0.17154876566850527   -0.04536692086044243   -0.016140825190439804
-0.17154876566850527   -0.04536692086044243   -0.016140825190439804
-0.17154876566850527   -0.04536692086044243   -0.016140825190439804
-0.17154876566850527   -0.04536692086044243   -0.016140825190439804
0.07421935634945823   0.02922450817324599   0.023878669128546533
0.07421935634945823   0.02922450817324599   0.023878669128546533
0.07421935634945823   0.02922450817324599   0.023878669128546533
0.07421935634945823   0.02922450817324599   0.023878669128546533
-0.04365167304210631   -0.00042372722855644855   -0.003501125096896632
-0.04365167304210631   -0.00042372722855644855   -0.003501125096896632
-0.04365167304210631   -0.00042372722855644855   -0.003501125096896632
-0.04365167304210631   -0.00042372722855644855   -0.003501125096896632
0.06323112140805542   0.003708018426594224   -0.005546015831817203
0.06323112140805542   0.003708018426594224   -0.005546015831817203
0.06323112140805542   0.003708018426594224   -0.005546015831817203
0.06323112140805542   0.003708018426594224   -0.005546015831817203
-0.16137076467318134   -0.020660665059869795   0.010042923985607188
-0.16137076467318134   -0.020660665059869795   0.010042923985607188
-0.16137076467318134   -0.020660665059869795   0.010042923985607188
-0.16137076467318134   -0.020660665059869795   0.010042923985607188
-0.18400829051307918   -0.05926591040427518   -0.012114726380214633
-0.18400829051307918   -0.05926591040427518   -0.012114726380214633
-0.18400829051307918   -0.05926591040427518   -0.012114726380214633
-0.18400829051307918   -0.05926591040427518   -0.012114726380214633
0.05979497044643402   0.013763795545793614   0.026661878697544213
0.05979497044643402   0.013763795545793614   0.026661878697544213
0.05979497044643402   0.013763795545793614   0.026661878697544213
0.05979497044643402   0.013763795545793614   0.026661878697544213
-0.057069923763585266   -0.013966484777360812   -0.010351747853896007
-0.057069923763585266   -0.013966484777360812   -0.010351747853896007
-0.057069923763585266   -0.013966484777360812   -0.010351747853896007
-0.057069923763585266   -0.013966484777360812   -0.010351747853896007
-0.12802127921311487   0.04947299295139875   0.001759940262683158
-0.12802127921311487   0.04947299295139875   0.001759940262683158
-0.12802127921311487   0.04947299295139875   0.001759940262683158
-0.12802127921311487   0.04947299295139875   0.001759940262683158
-0.36460671403598505   -0.004445499019817292   -0.010045162613274695
-0.36460671403598505   -0.004445499019817292   -0.010045162613274695
-0.36460671403598505   -0.004445499019817292   -0.010045162613274695
-0.36460671403598505   -0.004445499019817292   -0.010045162613274695
-0.3759230302249302   -0.015443217896613196   -0.006014107559809027
-0.3759230302249302   -0.015443217896613196   -0.006014107559809027
-0.3759230302249302   -0.015443217896613196   -0.006014107559809027
-0.3759230302249302   -0.015443217896613196   -0.006014107559809027
-0.1412876768061099   0.0296227187765944   0.00696719831638723
-0.1412876768061099   0.0296227187765944   0.00696719831638723
-0.1412876768061099   0.0296227187765944   0.00696719831638723
-0.1412876768061099   0.0296227187765944   0.00696719831638723
-0.2518582758312567   0.014485136568015096   0.0038899691455719226
-0.2518582758312567   0.014485136568015096   0.0038899691455719226
-0.2518582758312567   0.014485136568015096   0.0038899691455719226
-0.2518582758312567   0.014485136568015096   0.0038899691455719226
-0.1406211442008732   0.03400374736999483   0.0059188327491740585
-0.1406211442008732   0.03400374736999483   0.0059188327491740585
-0.1406211442008732   0.03400374736999483   0.0059188327491740585
-0.1406211442008732   0.03400374736999483   0.0059188327491740585
-0.3771382743922378   -0.0203729580520845   -0.0071605882408793745
-0.3771382743922378   -0.0203729580520845   -0.0071605882408793745
-0.3771382743922378   -0.0203729580520845   -0.0071605882408793745
-0.3771382743922378   -0.0203729580520845   -0.0071605882408793745
-0.38842625034319167   -0.030759525324021153   -0.0019799184701529485
-0.38842625034319167   -0.030759525324021153   -0.0019799184701529485
-0.38842625034319167   -0.030759525324021153   -0.0019799184701529485
-0.38842625034319167   -0.030759525324021153   -0.0019799184701529485
-0.1545404517980784   0.013632926608518607   0.009900896692729736
-0.1545404517980784   0.013632926608518607   0.009900896692729736
-0.1545404517980784   0.013632926608518607   0.009900896692729736
-0.1545404517980784   0.013632926608518607   0.009900896692729736
-0.2649017061165504   -6.580285274399023e-05   -0.002616585607366023
-0.2649017061165504   -6.580285274399023e-05   -0.002616585607366023
-0.2649017061165504   -6.580285274399023e-05   -0.002616585607366023
-0.2649017061165504   -6.580285274399023e-05   -0.002616585607366023
-0.15364640099761423   0.018494369749866256   0.009509707553706642
-0.15364640099761423   0.018494369749866256   0.009509707553706642
-0.15364640099761423   0.018494369749866256   0.009509707553706642
-0.15364640099761423   0.018494369749866256   0.009509707553706642
-0.3901000598034122   -0.03640072712512009   -0.004707763970160636
-0.3901000598034122   -0.03640072712512009   -0.004707763970160636
-0.3901000598034122   -0.03640072712512009   -0.004707763970160636
-0.3901000598034122   -0.03640072712512009   -0.004707763970160636
-0.4006870396836801   -0.04554279052689355   0.0019279677400498279
-0.4006870396836801   -0.04554279052689355   0.0019279677400498279
-0.4006870396836801   -0.04554279052689355   0.0019279677400498279
-0.4006870396836801   -0.04554279052689355   0.0019279677400498279
-0.16756931276487166   -0.0017675795189125848   0.012581831475460381
-0.16756931276487166   -0.0017675795189125848   0.012581831475460381
-0.16756931276487166   -0.0017675795189125848   0.012581831475460381
-0.16756931276487166   -0.0017675795189125848   0.012581831475460381
-0.2786276995003733   -0.01465011838684803   -0.009682212978516139
-0.2786276995003733   -0.01465011838684803   -0.009682212978516139
-0.2786276995003733   -0.01465011838684803   -0.009682212978516139
-0.2786276995003733   -0.01465011838684803   -0.009682212978516139
-0.3462136163958274   0.0620486731519686   0.015426153415727707
-0.3462136163958274   0.0620486731519686   0.015426153415727707
-0.3462136163958274   0.0620486731519686   0.015426153415727707
-0.3462136163958274   0.0620486731519686   0.015426153415727707
-0.5892621490411285   -0.017634534838288765   -0.022883512906090458
-0.5892621490411285   -0.017634534838288765   -0.022883512906090458
-0.5892621490411285   -0.017634534838288765   -0.022883512906090458
-0.5892621490411285   -0.017634534838288765   -0.022883512906090458
-0.5903785939282651   -0.0014349868012128453   0.009435425035017056
-0.5903785939282651   -0.0014349868012128453   0.009435425035017056
-0.5903785939282651   -0.0014349868012128453   0.009435425035017056
-0.5903785939282651   -0.0014349868012128453   0.009435425035017056
-0.3700214010902026   0.015241517031135646   -0.00719069681392762
-0.3700214010902026   0.015241517031135646   -0.00719069681392762
-0.3700214010902026   0.015241517031135646   -0.00719069681392762
-0.3700214010902026   0.015241517031135646   -0.00719069681392762
-0.4715422258203999   0.014522414765145139   0.00510776914639775
-0.4715422258203999   0.014522414765145139   0.00510776914639775
-0.4715422258203999   0.014522414765145139   0.00510776914639775
-0.4715422258203999   0.014522414765145139   0.00510776914639775
-0.3583098269149602   0.04701118317760852   0.019597507915819087
-0.3583098269149602   0.04701118317760852   0.019597507915819087
-0.3583098269149602   0.04701118317760852   0.019597507915819087
-0.3583098269149602   0.04701118317760852   0.019597507915819087
-0.6031424469655627   -0.034256931809741056   -0.021561895142951027
-0.6031424469655627   -0.034256931809741056   -0.021561895142951027
-0.6031424469655627   -0.034256931809741056   -0.021561895142951027
-0.6031424469655627   -0.034256931809741056   -0.021561895142951027
-0.605773995423685   -0.016538022888704915   0.01160630211992469
-0.605773995423685   -0.016538022888704915   0.01160630211992469
-0.605773995423685   -0.016538022888704915   0.01160630211992469
-0.605773995423685   -0.016538022888704915   0.01160630211992469
-0.38259033420368654   0.0005137879134135687   -0.004073651010069505
-0.38259033420368654   0.0005137879134135687   -0.004073651010069505
-0.38259033420368654   0.0005137879134135687   -0.004073651010069505
-0.38259033420368654   0.0005137879134135687   -0.004073651010069505
-0.4826152992855653   0.0009682958904832506   -0.001711771273267236
-0.4826152992855653   0.0009682958904832506   -0.001711771273267236
-0.4826152992855653   0.0009682958904832506   -0.001711771273267236
-0.4826152992855653   0.0009682958904832506   -0.001711771273267236
-0.3705677768842257   0.032910454246110304   0.023642469254541467
-0.3705677768842257   0.032910454246110304   0.023642469254541467
-0.3705677768842257   0.032910454246110304   0.023642469254541467
-0.3705677768842257   0.032910454246110304   0.023642469254541467
-0.6184529807952942   -0.04959111727355062   -0.018735530353282882
-0.6184529807952942   -0.04959111727355062   -0.018735530353282882
-0.6184529807952942   -0.04959111727355062   -0.018735530353282882
-0.6184529807952942   -0.04959111727355062   -0.018735530353282882
-0.6190667136178474   -0.03229054946480628   0.015821317266029887
-0.6190667136178474   -0.03229054946480628   0.015821317266029887
-0.6190667136178474   -0.03229054946480628   0.015821317266029887
-0.6190667136178474   -0.03229054946480628   0.015821317266029887
-0.3953180491319181   -0.01524887801433654   -0.001520992013705296
-0.3953180491319181   -0.01524887801433654   -0.001520992013705296
-0.3953180491319181   -0.01524887801433654   -0.001520992013705296
-0.3953180491319181   -0.01524887801433654   -0.001520992013705296
-0.4991196000547528   -0.013820141535546254   -0.009151889406179212
-0.4991196000547528   -0.013820141535546254   -0.009151889406179212
-0.4991196000547528   -0.013820141535546254   -0.009151889406179212
-0.4991196000547528   -0.013820141535546254   -0.009151889406179212
-0.5634763243181208   0.06109016629448258   0.027320909576185014
-0.5634763243181208   0.06109016629448258   0.027320909576185014
-0.5634763243181208   0.06109016629448258   0.027320909576185014
-0.5634763243181208   0.06109016629448258   0.027320909576185014
-0.793582269940392   -0.036580099686177314   -0.03465270270828168
-0.793582269940392   -0.036580099686177314   -0.03465270270828168
-0.793582269940392   -0.036580099686177314   -0.03465270270828168
-0.793582269940392   -0.036580099686177314   -0.03465270270828168
-0.7993617833571373   0.009902899228817347   0.028716240911877806
-0.7993617833571373   0.009902899228817347   0.028716240911877806
-0.7993617833571373   0.009902899228817347   0.028716240911877806
-0.7993617833571373   0.009902899228817347   0.028716240911877806
-0.5965477365389109   -0.0016929594845427332   -0.02115231533489772
-0.5965477365389109   -0.0016929594845427332   -0.02115231533489772
-0.5965477365389109   -0.0016929594845427332   -0.02115231533489772
-0.5965477365389109   -0.0016929594845427332   -0.02115231533489772
-0.6586409564339551   0.014590278312322541   0.015995678484597674
-0.6586409564339551   0.014590278312322541   0.015995678484597674
-0.6586409564339551   0.014590278312322541   0.015995678484597674
-0.6586409564339551   0.014590278312322541   0.015995678484597674
-0.5743927813332848   0.05561612641079314   0.03231337479790434
-0.5743927813332848   0.05561612641079314   0.03231337479790434
-0.5743927813332848   0.05561612641079314   0.03231337479790434
-0.5743927813332848   0.05561612641079314   0.03231337479790434
-0.8226377341483124   -0.04852718225206634   -0.029233431563114316
-0.8226377341483124   -0.04852718225206634   -0.029233431563114316
-0.8226377341483124   -0.04852718225206634   -0.029233431563114316
-0.8226377341483124   -0.04852718225206634   -0.029233431563114316
-0.823350609927344   0.0014112285124176227   0.03666545468923164
-0.823350609927344   0.0014112285124176227   0.03666545468923164
-0.823350609927344   0.0014112285124176227   0.03666545468923164
-0.823350609927344   0.0014112285124176227   0.03666545468923164
-0.6103985684408604   -0.009910710648835058   -0.018143875205829545
-0.6103985684408604   -0.009910710648835058   -0.018143875205829545
-0.6103985684408604   -0.009910710648835058   -0.018143875205829545
-0.6103985684408604   -0.009910710648835058   -0.018143875205829545
-0.6893505963401763   0.004554518748725839   0.005828806536648468
-0.6893505963401763   0.004554518748725839   0.005828806536648468
-0.6893505963401763   0.004554518748725839   0.005828806536648468
-0.6893505963401763   0.004554518748725839   0.005828806536648468
-0.5873082154547541   0.048971710236886706   0.03842546883898713
-0.5873082154547541   0.048971710236886706   0.03842546883898713
-0.5873082154547541   0.048971710236886706   0.03842546883898713
-0.5873082154547541   0.048971710236886706   0.03842546883898713
-0.8474997714757075   -0.05853000093556013   -0.02413912360460769
-0.8474997714757075   -0.05853000093556013   -0.02413912360460769
-0.8474997714757075   -0.05853000093556013   -0.02413912360460769
-0.8474997714757075   -0.05853000093556013   -0.02413912360460769
-0.8565146730301176   -0.022748796847500835   0.037843552927501835
-0.8565146730301176   -0.022748796847500835   0.037843552927501835
-0.8565146730301176   -0.022748796847500835   0.037843552927501835
-0.8565146730301176   -0.022748796847500835   0.037843552927501835
-0.6246948257810233   -0.028786764265787676   -0.015823028748876113
-0.6246948257810233   -0.028786764265787676   -0.015823028748876113
-0.6246948257810233   -0.028786764265787676   -0.015823028748876113
-0.6246948257810233   -0.028786764265787676   -0.015823028748876113
-0.6992893526252968   -0.00613424919333358   -0.00020255372084779233
-0.6992893526252968   -0.00613424919333358   -0.00020255372084779233
-0.6992893526252968   -0.00613424919333358   -0.00020255372084779233
-0.6992893526252968   -0.00613424919333358   -0.00020255372084779233
0.06264656963838419   0.00514746722597449   -0.03995950611580524
0.06264656963838419   0.00514746722597449   -0.03995950611580524
0.06264656963838419   0.00514746722597449   -0.03995950611580524
0.06264656963838419   0.00514746722597449   -0.03995950611580524
-0.06369689104041203   0.029905343389523373   0.020401476504775102
-0.06369689104041203   0.029905343389523373   0.020401476504775102
-0.06369689104041203   0.029905343389523373   0.020401476504775102
-0.06369689104041203   0.029905343389523373   0.020401476504775102
-0.09626553670383639   -0.038549461614882055   -0.03220107295254985
-0.09626553670383639   -0.038549461614882055   -0.03220107295254985
-0.09626553670383639   -0.038549461614882055   -0.03220107295254985
-0.09626553670383639   -0.038549461614882055   -0.03220107295254985
0.057712384574507565   0.04254895724408997   0.025030548766545417
0.057712384574507565   0.04254895724408997   0.025030548766545417
0.057712384574507565   0.04254895724408997   0.025030548766545417
0.057712384574507565   0.04254895724408997   0.025030548766545417
-0.01136316252368505   0.009341346809882812   0.0034581395438394247
-0.01136316252368505   0.009341346809882812   0.0034581395438394247
-0.01136316252368505   0.009341346809882812   0.0034581395438394247
-0.01136316252368505   0.009341346809882812   0.0034581395438394247
0.03442225542816972   -0.013121597118484684   -0.0357495426025691
0.03442225542816972   -0.013121597118484684   -0.0357495426025691
0.03442225542816972   -0.013121597118484684   -0.0357495426025691
0.03442225542816972   -0.013121597118484684   -0.0357495426025691
-0.07434674294859012   0.015749757356601037   0.023093676852198427
-0.07434674294859012   0.015749757356601037   0.023093676852198427
-0.07434674294859012   0.015749757356601037   0.023093676852198427
-0.07434674294859012   0.015749757356601037   0.023093676852198427
-0.10700920423085286   -0.04551321146045026   -0.027314586914255028
-0.10700920423085286   -0.04551321146045026   -0.027314586914255028
-0.10700920423085286   -0.04551321146045026   -0.027314586914255028
-0.10700920423085286   -0.04551321146045026   -0.027314586914255028
0.03562375548989011   0.03309901907474997   0.03435305006921238
0.03562375548989011   0.03309901907474997   0.03435305006921238
0.03562375548989011   0.03309901907474997   0.03435305006921238
0.03562375548989011   0.03309901907474997   0.03435305006921238
-0.028750979475719113   -0.0010949735420448976   -0.0045750916209177555
-0.028750979475719113   -0.0010949735420448976   -0.0045750916209177555
-0.028750979475719113   -0.0010949735420448976   -0.0045750916209177555
-0.028750979475719113   -0.0010949735420448976   -0.0045750916209177555
0.01178899075349135   -0.02219583832361392   -0.029525916214417525
0.01178899075349135   -0.02219583832361392   -0.029525916214417525
0.01178899075349135   -0.02219583832361392   -0.029525916214417525
0.01178899075349135   -0.02219583832361392   -0.029525916214417525
-0.085079875352832   0.00787621007953556   0.02894263593586243
-0.085079875352832   0.00787621007953556   0.02894263593586243
-0.085079875352832   0.00787621007953556   0.02894263593586243
-0.085079875352832   0.00787621007953556   0.02894263593586243
-0.1168480192729878   -0.05617112653171012   -0.0226537036618408
-0.1168480192729878   -0.05617112653171012   -0.0226537036618408
-0.1168480192729878   -0.05617112653171012   -0.0226537036618408
-0.1168480192729878   -0.05617112653171012   -0.0226537036618408
0.0049463048076922355   0.01332146965863069   0.03918732221384954
0.0049463048076922355   0.01332146965863069   0.03918732221384954
0.0049463048076922355   0.01332146965863069   0.03918732221384954
0.0049463048076922355   0.01332146965863069   0.03918732221384954
-0.04752236036922392   -0.011583258264562217   -0.013856809289202748
-0.04752236036922392   -0.011583258264562217   -0.013856809289202748
-0.04752236036922392   -0.011583258264562217   -0.013856809289202748
-0.04752236036922392   -0.011583258264562217   -0.013856809289202748
-0.0729445932251532   0.01991275075369119   -0.015844441783098562
-0.0729445932251532   0.01991275075369119   -0.015844441783098562
-0.0729445932251532   0.01991275075369119   -0.015844441783098562
-0.0729445932251532   0.01991275075369119   -0.015844441783098562
-0.19105018431504292   0.008046427344327534   0.005303534464634718
-0.19105018431504292   0.008046427344327534   0.005303534464634718
-0.19105018431504292   0.008046427344327534   0.005303534464634718
-0.19105018431504292   0.008046427344327534   0.005303534464634718
-0.2078766934086816   -0.02245662983401216   -0.01676647472624842
-0.2078766934086816   -0.02245662983401216   -0.01676647472624842
-0.2078766934086816   -0.02245662983401216   -0.01676647472624842
-0.2078766934086816   -0.02245662983401216   -0.01676647472624842
-0.07503515799840475   0.019373837103711947   0.01602752185601427
-0.07503515799840475   0.019373837103711947   0.01602752185601427
-0.07503515799840475   0.019373837103711947   0.01602752185601427
-0.07503515799840475   0.019373837103711947   0.01602752185601427
-0.13645651219511437   0.00582379904362447   0.00311966169777831
-0.13645651219511437   0.00582379904362447   0.00311966169777831
-0.13645651219511437   0.00582379904362447   0.00311966169777831
-0.13645651219511437   0.00582379904362447   0.00311966169777831
-0.08411106087345029   0.0030451337793196837   -0.013023289194820525
-0.08411106087345029   0.0030451337793196837   -0.013023289194820525
-0.08411106087345029   0.0030451337793196837   -0.013023289194820525
-0.08411106087345029   0.0030451337793196837   -0.013023289194820525
-0.199930404969898   -0.007257540945882053   0.007765878579537521
-0.199930404969898   -0.007257540945882053   0.007765878579537521
-0.199930404969898   -0.007257540945882053   0.007765878579537521
-0.199930404969898   -0.007257540945882053   0.007765878579537521
-0.21624660205196797   -0.0361227094465614   -0.012391460569064178
-0.21624660205196797   -0.0361227094465614   -0.012391460569064178
-0.21624660205196797   -0.0361227094465614   -0.012391460569064178
-0.21624660205196797   -0.0361227094465614   -0.012391460569064178
-0.0879753181536754   0.004269684726099867   0.018071947285081134
-0.0879753181536754   0.004269684726099867   0.018071947285081134
-0.0879753181536754   0.004269684726099867   0.018071947285081134
-0.0879753181536754   0.004269684726099867   0.018071947285081134
-0.14702860156138287   -0.007905022244497534   -0.003773826418371905
-0.14702860156138287   -0.007905022244497534   -0.003773826418371905
-0.14702860156138287   -0.007905022244497534   -0.003773826418371905
-0.14702860156138287   -0.007905022244497534   -0.003773826418371905
-0.09672765267969538   -0.011687196318398017   -0.009732844300519895
-0.09672765267969538   -0.011687196318398017   -0.009732844300519895
-0.09672765267969538   -0.011687196318398017   -0.009732844300519895
-0.09672765267969538   -0.011687196318398017   -0.009732844300519895
-0.20870767767994364   -0.021379238556058996   0.010559690400555072
-0.20870767767994364   -0.021379238556058996   0.010559690400555072
-0.20870767767994364   -0.021379238556058996   0.010559690400555072
-0.20870767767994364   -0.021379238556058996   0.010559690400555072
-0.22467165537644715   -0.05016555165302694   -0.008518231473677399
-0.22467165537644715   -0.05016555165302694   -0.008518231473677399
-0.22467165537644715   -0.05016555165302694   -0.008518231473677399
-0.22467165537644715   -0.05016555165302694   -0.008518231473677399
-0.09880084362895421   -0.011010126865094899   0.022421174891711897
-0.09880084362895421   -0.011010126865094899   0.022421174891711897
-0.09880084362895421   -0.011010126865094899   0.022421174891711897
-0.09880084362895421   -0.011010126865094899   0.022421174891711897
-0.1575742169829457   -0.02145892440078444   -0.010777868211133582
-0.1575742169829457   -0.02145892440078444   -0.010777868211133582
-0.1575742169829457   -0.02145892440078444   -0.010777868211133582
-0.1575742169829457   -0.02145892440078444   -0.010777868211133582
-0.1875265667986153   0.032644310690442754   -0.0016762612993441763
-0.1875265667986153   0.032644310690442754   -0.0016762612993441763
-0.1875265667986153   0.032644310690442754   -0.0016762612993441763
-0.1875265667986153   0.032644310690442754   -0.0016762612993441763
-0.3171580449308542   -0.010918725985871298   -0.008994716486143814
-0.3171580449308542   -0.010918725985871298   -0.008994716486143814
-0.3171580449308542   -0.010918725985871298   -0.008994716486143814
-0.3171580449308542   -0.010918725985871298   -0.008994716486143814
-0.3205116855942847   -0.008003056321360488   -0.0019376683852430736
-0.3205116855942847   -0.008003056321360488   -0.0019376683852430736
-0.3205116855942847   -0.008003056321360488   -0.0019376683852430736
-0.3205116855942847   -0.008003056321360488   -0.0019376683852430736
-0.19913646485833086   0.0020008710869829915   0.002477167104508224
-0.19913646485833086   0.0020008710869829915   0.002477167104508224
-0.19913646485833086   0.0020008710869829915   0.002477167104508224
-0.19913646485833086   0.0020008710869829915   0.002477167104508224
-0.25554443938627813   0.003675666226331642   0.0010923102014647069
-0.25554443938627813   0.003675666226331642   0.0010923102014647069
-0.25554443938627813   0.003675666226331642   0.0010923102014647069
-0.25554443938627813   0.003675666226331642   0.0010923102014647069
-0.19598863160592483   0.017777107536720294   0.0024400969168009816
-0.19598863160592483   0.017777107536720294   0.0024400969168009816
-0.19598863160592483   0.017777107536720294   0.0024400969168009816
-0.19598863160592483   0.017777107536720294   0.0024400969168009816
-0.32474747472588195   -0.02486724865028897   -0.006252421714300509
-0.32474747472588195   -0.02486724865028897   -0.006252421714300509
-0.32474747472588195   -0.02486724865028897   -0.006252421714300509
-0.32474747472588195   -0.02486724865028897   -0.006252421714300509
-0.32836275268408643   -0.02268530350520353   0.0021320470101270934
-0.32836275268408643   -0.02268530350520353   0.0021320470101270934
-0.32836275268408643   -0.02268530350520353   0.0021320470101270934
-0.32836275268408643   -0.02268530350520353   0.0021320470101270934
-0.20800798028574657   -0.01243577740838571   0.0051147162238670725
-0.20800798028574657   -0.01243577740838571   0.0051147162238670725
-0.20800798028574657   -0.01243577740838571   0.0051147162238670725
-0.20800798028574657   -0.01243577740838571   0.0051147162238670725
-0.26405104984468053   -0.009677633882015396   -0.005237992494429328
-0.26405104984468053   -0.009677633882015396   -0.005237992494429328
-0.26405104984468053   -0.009677633882015396   -0.005237992494429328
-0.26405104984468053   -0.009677633882015396   -0.005237992494429328
-0.20476806239821274   0.002819109000479922   0.006059419252670667
-0.20476806239821274   0.002819109000479922   0.006059419252670667
-0.20476806239821274   0.002819109000479922   0.006059419252670667
-0.20476806239821274   0.002819109000479922   0.006059419252670667
-0.33291471750888796   -0.03925223685133751   -0.0040608437677505695
-0.33291471750888796   -0.03925223685133751   -0.0040608437677505695
-0.33291471750888796   -0.03925223685133751   -0.0040608437677505695
-0.33291471750888796   -0.03925223685133751   -0.0040608437677505695
-0.33600772113737887   -0.03676401838634588   0.006038045510801074
-0.33600772113737887   -0.03676401838634588   0.006038045510801074
-0.33600772113737887   -0.03676401838634588   0.006038045510801074
-0.33600772113737887   -0.03676401838634588   0.006038045510801074
-0.216532459701441   -0.02604865538261916   0.008060850630943563
-0.216532459701441   -0.02604865538261916   0.008060850630943563
-0.216532459701441   -0.02604865538261916   0.008060850630943563
-0.216532459701441   -0.02604865538261916   0.008060850630943563
-0.2732047390351035   -0.023111013599487785   -0.01211709076309174
-0.2732047390351035   -0.023111013599487785   -0.01211709076309174
-0.2732047390351035   -0.023111013599487785   -0.01211709076309174
-0.2732047390351035   -0.023111013599487785   -0.01211709076309174
-0.3011504300546574   0.04715786493501507   0.012966766973957506
-0.3011504300546574   0.04715786493501507   0.012966766973957506
-0.3011504300546574   0.04715786493501507   0.012966766973957506
-0.3011504300546574   0.04715786493501507   0.012966766973957506
-0.43838281213256275   -0.018210381112979734   -0.0201575835485983
-0.43838281213256275   -0.018210381112979734   -0.0201575835485983
-0.43838281213256275   -0.018210381112979734   -0.0201575835485983
-0.43838281213256275   -0.018210381112979734   -0.0201575835485983
-0.4325475976547378   0.006845497863315911   0.013355403911509005
-0.4325475976547378   0.006845497863315911   0.013355403911509005
-0.4325475976547378   0.006845497863315911   0.013355403911509005
-0.4325475976547378   0.006845497863315911   0.013355403911509005
-0.32156368871503055   -0.006257200220439824   -0.0089435400898927
-0.32156368871503055   -0.006257200220439824   -0.0089435400898927
-0.32156368871503055   -0.006257200220439824   -0.0089435400898927
-0.32156368871503055   -0.006257200220439824   -0.0089435400898927
-0.37210358180175407   0.007430560478198123   0.0018254180772068612
-0.37210358180175407   0.007430560478198123   0.0018254180772068612
-0.37210358180175407   0.007430560478198123   0.0018254180772068612
-0.37210358180175407   0.007430560478198123   0.0018254180772068612
-0.3086301577088637   0.03237607334524105   0.01709084137526055
-0.3086301577088637   0.03237607334524105   0.01709084137526055
-0.3086301577088637   0.03237607334524105   0.01709084137526055
-0.3086301577088637   0.03237607334524105   0.01709084137526055
-0.44707031440714207   -0.03337696144860107   -0.01903572053860269
-0.44707031440714207   -0.03337696144860107   -0.01903572053860269
-0.44707031440714207   -0.03337696144860107   -0.01903572053860269
-0.44707031440714207   -0.03337696144860107   -0.01903572053860269
-0.4430641820799981   -0.007609606896471693   0.015783222816815774
-0.4430641820799981   -0.007609606896471693   0.015783222816815774
-0.4430641820799981   -0.007609606896471693   0.015783222816815774
-0.4430641820799981   -0.007609606896471693   0.015783222816815774
-0.32934631013355053   -0.019393587230516936   -0.006077456511880021
-0.32934631013355053   -0.019393587230516936   -0.006077456511880021
-0.32934631013355053   -0.019393587230516936   -0.006077456511880021
-0.32934631013355053   -0.019393587230516936   -0.006077456511880021
-0.37924355348479016   -0.005435013988760215   -0.005036225496023599
-0.37924355348479016   -0.005435013988760215   -0.005036225496023599
-0.37924355348479016   -0.005435013988760215   -0.005036225496023599
-0.37924355348479016   -0.005435013988760215   -0.005036225496023599
-0.3162692853246039   0.018812953293092724   0.021101127009243596
-0.3162692853246039   0.018812953293092724   0.021101127009243596
-0.3162692853246039   0.018812953293092724   0.021101127009243596
-0.3162692853246039   0.018812953293092724   0.021101127009243596
-0.4573961452737925   -0.047071085804934285   -0.01641511424370943
-0.4573961452737925   -0.047071085804934285   -0.01641511424370943
-0.4573961452737925   -0.047071085804934285   -0.01641511424370943
-0.4573961452737925   -0.047071085804934285   -0.01641511424370943
-0.4516114936527051   -0.022180385843503986   0.020114913361244453
-0.4516114936527051   -0.022180385843503986   0.020114913361244453
-0.4516114936527051   -0.022180385843503986   0.020114913361244453
-0.4516114936527051   -0.022180385843503986   0.020114913361244453
-0.3371593741536779   -0.032854091858835976   -0.003630146098208071
-0.3371593741536779   -0.032854091858835976   -0.003630146098208071
-0.3371593741536779   -0.032854091858835976   -0.003630146098208071
-0.3371593741536779   -0.032854091858835976   -0.003630146098208071
-0.3900043249964767   -0.018573711828575826   -0.01207500845905475
-0.3900043249964767   -0.018573711828575826   -0.01207500845905475
-0.3900043249964767   -0.018573711828575826   -0.01207500845905475
-0.3900043249964767   -0.018573711828575826   -0.01207500845905475
-0.41535393280212163   0.051126162234382155   0.025650269756245292
-0.41535393280212163   0.051126162234382155   0.025650269756245292
-0.41535393280212163   0.051126162234382155   0.025650269756245292
-0.41535393280212163   0.051126162234382155   0.025650269756245292
-0.5354014737336691   -0.026844577958967206   -0.03363513741568286
-0.5354014737336691   -0.026844577958967206   -0.03363513741568286
-0.5354014737336691   -0.026844577958967206   -0.03363513741568286
-0.5354014737336691   -0.026844577958967206   -0.03363513741568286
-0.5358482610909636   0.020332731741445786   0.02827666534712823
-0.5358482610909636   0.020332731741445786   0.02827666534712823
-0.5358482610909636   0.020332731741445786   0.02827666534712823
-0.5358482610909636   0.020332731741445786   0.02827666534712823
-0.44369744168472164   -0.014974904282222645   -0.020573414092878863
-0.44369744168472164   -0.014974904282222645   -0.020573414092878863
-0.44369744168472164   -0.014974904282222645   -0.020573414092878863
-0.44369744168472164   -0.014974904282222645   -0.020573414092878863
-0.46302353995835704   0.012067367452870431   0.009018093403046545
-0.46302353995835704   0.012067367452870431   0.009018093403046545
-0.46302353995835704   0.012067367452870431   0.009018093403046545
-0.46302353995835704   0.012067367452870431   0.009018093403046545
-0.42182946681568967   0.043532890600905455   0.03025866536915269
-0.42182946681568967   0.043532890600905455   0.03025866536915269
-0.42182946681568967   0.043532890600905455   0.03025866536915269
-0.42182946681568967   0.043532890600905455   0.03025866536915269
-0.5593693569920554   -0.03982818417374087   -0.02916789824313621
-0.5593693569920554   -0.03982818417374087   -0.02916789824313621
-0.5593693569920554   -0.03982818417374087   -0.02916789824313621
-0.5593693569920554   -0.03982818417374087   -0.02916789824313621
-0.5549736521427768   0.012087512405869652   0.03642232376957982
-0.5549736521427768   0.012087512405869652   0.03642232376957982
-0.5549736521427768   0.012087512405869652   0.03642232376957982
-0.5549736521427768   0.012087512405869652   0.03642232376957982
-0.45280728164386763   -0.022528466835653044   -0.01801341506335828
-0.45280728164386763   -0.022528466835653044   -0.01801341506335828
-0.45280728164386763   -0.022528466835653044   -0.01801341506335828
-0.45280728164386763   -0.022528466835653044   -0.01801341506335828
-0.48581631020839977   0.0020497039753339663   -0.0005196112001739951
-0.48581631020839977   0.0020497039753339663   -0.0005196112001739951
-0.48581631020839977   0.0020497039753339663   -0.0005196112001739951
-0.48581631020839977   0.0020497039753339663   -0.0005196112001739951
-0.4300345982542406   0.037045971199571356   0.03627556384955222
-0.4300345982542406   0.037045971199571356   0.03627556384955222
-0.4300345982542406   0.037045971199571356   0.03627556384955222
-0.4300345982542406   0.037045971199571356   0.03627556384955222
-0.5794278954676205   -0.04916848556457025   -0.02459289488419136
-0.5794278954676205   -0.04916848556457025   -0.02459289488419136
-0.5794278954676205   -0.04916848556457025   -0.02459289488419136
-0.5794278954676205   -0.04916848556457025   -0.02459289488419136
-0.5832067805901823   -0.009624431797842184   0.03850058840004094
-0.5832067805901823   -0.009624431797842184   0.03850058840004094
-0.5832067805901823   -0.009624431797842184   0.03850058840004094
-0.5832067805901823   -0.009624431797842184   0.03850058840004094
-0.4619563591536282   -0.03823071677349396   -0.015559083213388496
-0.4619563591536282   -0.03823071677349396   -0.015559083213388496
-0.4619563591536282   -0.03823071677349396   -0.015559083213388496
-0.4619563591536282   -0.03823071677349396   -0.015559083213388496
-0.494525858685716   -0.007888170891562948   -0.007275903752403754
-0.494525858685716   -0.007888170891562948   -0.007275903752403754
-0.494525858685716   -0.007888170891562948   -0.007275903752403754
-0.494525858685716   -0.007888170891562948   -0.007275903752403754
-0.2228780090110256   -0.014511083109823124   -0.04249953802134383
-0.2228780090110256   -0.014511083109823124   -0.04249953802134383
-0.2228780090110256   -0.014511083109823124   -0.04249953802134383
-0.2228780090110256   -0.014511083109823124   -0.04249953802134383
-0.22216223412702213   0.032444731309445266   0.019093606785975725
-0.22216223412702213   0.032444731309445266   0.019093606785975725
-0.22216223412702213   0.032444731309445266   0.019093606785975725
-0.22216223412702213   0.032444731309445266   0.019093606785975725
-0.2502433501848206   -0.02981882943904896   -0.02885264988982108
-0.2502433501848206   -0.02981882943904896   -0.02885264988982108
-0.2502433501848206   -0.02981882943904896   -0.02885264988982108
-0.2502433501848206   -0.02981882943904896   -0.02885264988982108
-0.22760010667398148   0.01723883395459698   0.02862150961244676
-0.22760010667398148   0.01723883395459698   0.02862150961244676
-0.22760010667398148   0.01723883395459698   0.02862150961244676
-0.22760010667398148   0.01723883395459698   0.02862150961244676
-0.219131620058897   0.005533855241737211   0.019481262078294127
-0.219131620058897   0.005533855241737211   0.019481262078294127
-0.219131620058897   0.005533855241737211   0.019481262078294127
-0.219131620058897   0.005533855241737211   0.019481262078294127
-0.2501332877270552   -0.031156166090996872   -0.035649395607326016
-0.2501332877270552   -0.031156166090996872   -0.035649395607326016
-0.2501332877270552   -0.031156166090996872   -0.035649395607326016
-0.2501332877270552   -0.031156166090996872   -0.035649395607326016
-0.23049226533792622   0.01579407440036587   0.024289870505235924
-0.23049226533792622   0.01579407440036587   0.024289870505235924
-0.23049226533792622   0.01579407440036587   0.024289870505235924
-0.23049226533792622   0.01579407440036587   0.024289870505235924
-0.258739742815168   -0.03753256824852971   -0.024441388242143303
-0.258739742815168   -0.03753256824852971   -0.024441388242143303
-0.258739742815168   -0.03753256824852971   -0.024441388242143303
-0.258739742815168   -0.03753256824852971   -0.024441388242143303
-0.24938139697896133   0.006754979785847028   0.053283654606190396
-0.24938139697896133   0.006754979785847028   0.053283654606190396
-0.24938139697896133   0.006754979785847028   0.053283654606190396
-0.24938139697896133   0.006754979785847028   0.053283654606190396
-0.23916313709388543   -0.00771139230640866   0.007818135990545337
-0.23916313709388543   -0.00771139230640866   0.007818135990545337
-0.23916313709388543   -0.00771139230640866   0.007818135990545337
-0.23916313709388543   -0.00771139230640866   0.007818135990545337
-0.2752552972627673   -0.04151131241251842   -0.027819554614472126
-0.2752552972627673   -0.04151131241251842   -0.027819554614472126
-0.2752552972627673   -0.04151131241251842   -0.027819554614472126
-0.2752552972627673   -0.04151131241251842   -0.027819554614472126
-0.23947511789786408   0.004124448583331414   0.03022471951251509
-0.23947511789786408   0.004124448583331414   0.03022471951251509
-0.23947511789786408   0.004124448583331414   0.03022471951251509
-0.23947511789786408   0.004124448583331414   0.03022471951251509
-0.26570514348619373   -0.052497725400267446   -0.019257204786770517
-0.26570514348619373   -0.052497725400267446   -0.019257204786770517
-0.26570514348619373   -0.052497725400267446   -0.019257204786770517
-0.26570514348619373   -0.052497725400267446   -0.019257204786770517
-0.28321608544636334   -0.027891781713985164   0.049852482489271314
-0.28321608544636334   -0.027891781713985164   0.049852482489271314
-0.28321608544636334   -0.027891781713985164   0.049852482489271314
-0.28321608544636334   -0.027891781713985164   0.049852482489271314
-0.25661835748552436   -0.02336022490872232   -0.010699370267946772
-0.25661835748552436   -0.02336022490872232   -0.010699370267946772
-0.25661835748552436   -0.02336022490872232   -0.010699370267946772
-0.25661835748552436   -0.02336022490872232   -0.010699370267946772
-0.23820112878751712   -0.00681307957042121   -0.021843055636634835
-0.23820112878751712   -0.00681307957042121   -0.021843055636634835
-0.23820112878751712   -0.00681307957042121   -0.021843055636634835
-0.23820112878751712   -0.00681307957042121   -0.021843055636634835
-0.24260215174634897   -0.02985448186542299   -0.001278241465305874
-0.24260215174634897   -0.02985448186542299   -0.001278241465305874
-0.24260215174634897   -0.02985448186542299   -0.001278241465305874
-0.24260215174634897   -0.02985448186542299   -0.001278241465305874
-0.24444996835593014   -0.01990809468903918   -0.01096732675021597
-0.24444996835593014   -0.01990809468903918   -0.01096732675021597
-0.24444996835593014   -0.01990809468903918   -0.01096732675021597
-0.24444996835593014   -0.01990809468903918   -0.01096732675021597
-0.24665667456014562   -0.040369894702464215   -0.00036820650303087026
-0.24665667456014562   -0.040369894702464215   -0.00036820650303087026
-0.24665667456014562   -0.040369894702464215   -0.00036820650303087026
-0.24665667456014562   -0.040369894702464215   -0.00036820650303087026
-0.24091599353255697   -0.02529122137399341   -0.0007897762043148175
-0.24091599353255697   -0.02529122137399341   -0.0007897762043148175
-0.24091599353255697   -0.02529122137399341   -0.0007897762043148175
-0.24091599353255697   -0.02529122137399341   -0.0007897762043148175
-0.24667993860372284   -0.0219429230610284   -0.018911498362354014
-0.24667993860372284   -0.0219429230610284   -0.018911498362354014
-0.24667993860372284   -0.0219429230610284   -0.018911498362354014
-0.24667993860372284   -0.0219429230610284   -0.018911498362354014
-0.245984637686444   -0.039892999704568805   0.0013442316127445573
-0.245984637686444   -0.039892999704568805   0.0013442316127445573
-0.245984637686444   -0.039892999704568805   0.0013442316127445573
-0.245984637686444   -0.039892999704568805   0.0013442316127445573
-0.24862042228634787   -0.03289359260037812   -0.00709933521465167
-0.24862042228634787   -0.03289359260037812   -0.00709933521465167
-0.24862042228634787   -0.03289359260037812   -0.00709933521465167
-0.24862042228634787   -0.03289359260037812   -0.00709933521465167
-0.25570707679235466   -0.052415599759069245   0.0056049733824632235
-0.25570707679235466   -0.052415599759069245   0.0056049733824632235
-0.25570707679235466   -0.052415599759069245   0.0056049733824632235
-0.25570707679235466   -0.052415599759069245   0.0056049733824632235
-0.2465432482540015   -0.035794070170147615   -0.00682007698119744
-0.2465432482540015   -0.035794070170147615   -0.00682007698119744
-0.2465432482540015   -0.035794070170147615   -0.00682007698119744
-0.2465432482540015   -0.035794070170147615   -0.00682007698119744
-0.256318355049387   -0.03582226303534354   -0.014044754626424343
-0.256318355049387   -0.03582226303534354   -0.014044754626424343
-0.256318355049387   -0.03582226303534354   -0.014044754626424343
-0.256318355049387   -0.03582226303534354   -0.014044754626424343
-0.2500005017394056   -0.05147828703419486   0.00458496195387083
-0.2500005017394056   -0.05147828703419486   0.00458496195387083
-0.2500005017394056   -0.05147828703419486   0.00458496195387083
-0.2500005017394056   -0.05147828703419486   0.00458496195387083
-0.2523743287222184   -0.046863143001487216   -0.003270420696985516
-0.2523743287222184   -0.046863143001487216   -0.003270420696985516
-0.2523743287222184   -0.046863143001487216   -0.003270420696985516
-0.2523743287222184   -0.046863143001487216   -0.003270420696985516
-0.2626434573119665   -0.06767721769077588   0.01123071837487315
-0.2626434573119665   -0.06767721769077588   0.01123071837487315
-0.2626434573119665   -0.06767721769077588   0.01123071837487315
-0.2626434573119665   -0.06767721769077588   0.01123071837487315
-0.25424429293522616   -0.04844740922554303   -0.014475397606685723
-0.25424429293522616   -0.04844740922554303   -0.014475397606685723
-0.25424429293522616   -0.04844740922554303   -0.014475397606685723
-0.25424429293522616   -0.04844740922554303   -0.014475397606685723
-0.23591286560125263   0.006326662213524216   -0.0040129548187677905
-0.23591286560125263   0.006326662213524216   -0.0040129548187677905
-0.23591286560125263   0.006326662213524216   -0.0040129548187677905
-0.23591286560125263   0.006326662213524216   -0.0040129548187677905
-0.2678981446423508   -0.050872603341565036   -0.012866521887539707
-0.2678981446423508   -0.050872603341565036   -0.012866521887539707
-0.2678981446423508   -0.050872603341565036   -0.012866521887539707
-0.2678981446423508   -0.050872603341565036   -0.012866521887539707
-0.25703452245145414   -0.009407736678292922   0.003332185871251954
-0.25703452245145414   -0.009407736678292922   0.003332185871251954
-0.25703452245145414   -0.009407736678292922   0.003332185871251954
-0.25703452245145414   -0.009407736678292922   0.003332185871251954
-0.2508156543624207   -0.0547948382135604   -0.00790901325814766
-0.2508156543624207   -0.0547948382135604   -0.00790901325814766
-0.2508156543624207   -0.0547948382135604   -0.00790901325814766
-0.2508156543624207   -0.0547948382135604   -0.00790901325814766
-0.2527378847042506   -0.02805101577650502   -0.00567925829263812
-0.2527378847042506   -0.02805101577650502   -0.00567925829263812
-0.2527378847042506   -0.02805101577650502   -0.00567925829263812
-0.2527378847042506   -0.02805101577650502   -0.00567925829263812
-0.23960092718663206   -0.006594581598443172   -3.563399432141706e-05
-0.23960092718663206   -0.006594581598443172   -3.563399432141706e-05
-0.23960092718663206   -0.006594581598443172   -3.563399432141706e-05
-0.23960092718663206   -0.006594581598443172   -3.563399432141706e-05
-0.26966529594404215   -0.05902403961020941   -0.010205378659771362
-0.26966529594404215   -0.05902403961020941   -0.010205378659771362
-0.26966529594404215   -0.05902403961020941   -0.010205378659771362
-0.26966529594404215   -0.05902403961020941   -0.010205378659771362
-0.26005183553849287   -0.02243277138860557   0.007173601575514065
-0.26005183553849287   -0.02243277138860557   0.007173601575514065
-0.26005183553849287   -0.02243277138860557   0.007173601575514065
-0.26005183553849287   -0.02243277138860557   0.007173601575514065
-0.2547197514519734   -0.06505448536975976   -0.005435088273399592
-0.2547197514519734   -0.06505448536975976   -0.005435088273399592
-0.2547197514519734   -0.06505448536975976   -0.005435088273399592
-0.2547197514519734   -0.06505448536975976   -0.005435088273399592
-0.25593520345837656   -0.037966708192630746   -0.010850743896927157
-0.25593520345837656   -0.037966708192630746   -0.010850743896927157
-0.25593520345837656   -0.037966708192630746   -0.010850743896927157
-0.25593520345837656   -0.037966708192630746   -0.010850743896927157
-0.24382427717822824   -0.019853683738784822   0.0038414814643531713
-0.24382427717822824   -0.019853683738784822   0.0038414814643531713
-0.24382427717822824   -0.019853683738784822   0.0038414814643531713
-0.24382427717822824   -0.019853683738784822   0.0038414814643531713
-0.27252922919797146   -0.06921549240531616   -0.008430645705168186
-0.27252922919797146   -0.06921549240531616   -0.008430645705168186
-0.27252922919797146   -0.06921549240531616   -0.008430645705168186
-0.27252922919797146   -0.06921549240531616   -0.008430645705168186
-0.2625208221160458   -0.03467168901615804   0.01093404487785403
-0.2625208221160458   -0.03467168901615804   0.01093404487785403
-0.2625208221160458   -0.03467168901615804   0.01093404487785403
-0.2625208221160458   -0.03467168901615804   0.01093404487785403
-0.25764865775582685   -0.07488016418661723   -0.0016250446798978212
-0.25764865775582685   -0.07488016418661723   -0.0016250446798978212
-0.25764865775582685   -0.07488016418661723   -0.0016250446798978212
-0.25764865775582685   -0.07488016418661723   -0.0016250446798978212
-0.2597362800083402   -0.04833367673098106   -0.01653180780890776
-0.2597362800083402   -0.04833367673098106   -0.01653180780890776
-0.2597362800083402   -0.04833367673098106   -0.01653180780890776
-0.2597362800083402   -0.04833367673098106   -0.01653180780890776
-0.2473563729626848   0.026516975053800407   0.012452758115424484
-0.2473563729626848   0.026516975053800407   0.012452758115424484
-0.2473563729626848   0.026516975053800407   0.012452758115424484
-0.2473563729626848   0.026516975053800407   0.012452758115424484
-0.2932239802807376   -0.038067458891826306   -0.017968554130584194
-0.2932239802807376   -0.038067458891826306   -0.017968554130584194
-0.2932239802807376   -0.038067458891826306   -0.017968554130584194
-0.2932239802807376   -0.038067458891826306   -0.017968554130584194
-0.27752802281380096   0.007780969880560103   0.017211644513862027
-0.27752802281380096   0.007780969880560103   0.017211644513862027
-0.27752802281380096   0.007780969880560103   0.017211644513862027
-0.27752802281380096   0.007780969880560103   0.017211644513862027
-0.26644472469741703   -0.04227103733884584   -0.010855524698009308
-0.26644472469741703   -0.04227103733884584   -0.010855524698009308
-0.26644472469741703   -0.04227103733884584   -0.010855524698009308
-0.26644472469741703   -0.04227103733884584   -0.010855524698009308
-0.271100796632863   -0.01122907327088725   -0.0033907587392422132
-0.271100796632863   -0.01122907327088725   -0.0033907587392422132
-0.271100796632863   -0.01122907327088725   -0.0033907587392422132
-0.271100796632863   -0.01122907327088725   -0.0033907587392422132
-0.24993413351630628   0.013118914675855284   0.016307479192843276
-0.24993413351630628   0.013118914675855284   0.016307479192843276
-0.24993413351630628   0.013118914675855284   0.016307479192843276
-0.24993413351630628   0.013118914675855284   0.016307479192843276
-0.29592105066980157   -0.04949141880903089   -0.017481106076550047
-0.29592105066980157   -0.04949141880903089   -0.017481106076550047
-0.29592105066980157   -0.04949141880903089   -0.017481106076550047
-0.29592105066980157   -0.04949141880903089   -0.017481106076550047
-0.28271297474032453   -0.00494708428396104   0.01952172282768882
-0.28271297474032453   -0.00494708428396104   0.01952172282768882
-0.28271297474032453   -0.00494708428396104   0.01952172282768882
-0.28271297474032453   -0.00494708428396104   0.01952172282768882
-0.2690794693977264   -0.05176161140066086   -0.008635727708598467
-0.2690794693977264   -0.05176161140066086   -0.008635727708598467
-0.2690794693977264   -0.05176161140066086   -0.008635727708598467
-0.2690794693977264   -0.05176161140066086   -0.008635727708598467
-0.2737412308643275   -0.021983017562878245   -0.009458020458735067
-0.2737412308643275   -0.021983017562878245   -0.009458020458735067
-0.2737412308643275   -0.021983017562878245   -0.009458020458735067
-0.2737412308643275   -0.021983017562878245   -0.009458020458735067
-0.2527600814168421   0.0011492249785271039   0.020050375816631716
-0.2527600814168421   0.0011492249785271039   0.020050375816631716
-0.2527600814168421   0.0011492249785271039   0.020050375816631716
-0.2527600814168421   0.0011492249785271039   0.020050375816631716
-0.3006631506329915   -0.059488708574929605   -0.015687532344677173
-0.3006631506329915   -0.059488708574929605   -0.015687532344677173
-0.3006631506329915   -0.059488708574929605   -0.015687532344677173
-0.3006631506329915   -0.059488708574929605   -0.015687532344677173
-0.28616001566482413   -0.01716554705583987   0.023813219427903334
-0.28616001566482413   -0.01716554705583987   0.023813219427903334
-0.28616001566482413   -0.01716554705583987   0.023813219427903334
-0.28616001566482413   -0.01716554705583987   0.023813219427903334
-0.27135539858059676   -0.06129812113369047   -0.006612405327368114
-0.27135539858059676   -0.06129812113369047   -0.006612405327368114
-0.27135539858059676   -0.06129812113369047   -0.006612405327368114
-0.27135539858059676   -0.06129812113369047   -0.006612405327368114
-0.27833360648487676   -0.03213293141350811   -0.015341896594182369
-0.27833360648487676   -0.03213293141350811   -0.015341896594182369
-0.27833360648487676   -0.03213293141350811   -0.015341896594182369
-0.27833360648487676   -0.03213293141350811   -0.015341896594182369
-0.26942869759266824   0.038054237363299916   0.02488616305463653
-0.26942869759266824   0.038054237363299916   0.02488616305463653
-0.26942869759266824   0.038054237363299916   0.02488616305463653
-0.26942869759266824   0.038054237363299916   0.02488616305463653
-0.28900961060750524   -0.02308532565935935   -0.026005163031552526
-0.28900961060750524   -0.02308532565935935   -0.026005163031552526
-0.28900961060750524   -0.02308532565935935   -0.026005163031552526
-0.28900961060750524   -0.02308532565935935   -0.026005163031552526
-0.28264231533045014   0.02688325601932831   0.027662261060619836
-0.28264231533045014   0.02688325601932831   0.027662261060619836
-0.28264231533045014   0.02688325601932831   0.027662261060619836
-0.28264231533045014   0.02688325601932831   0.027662261060619836
-0.29157800986698396   -0.029359543835020693   -0.015897777036472233
-0.29157800986698396   -0.029359543835020693   -0.015897777036472233
-0.29157800986698396   -0.029359543835020693   -0.015897777036472233
-0.29157800986698396   -0.029359543835020693   -0.015897777036472233
-0.27350123914003144   0.006739465820804598   0.001144718512385342
-0.27350123914003144   0.006739465820804598   0.001144718512385342
-0.27350123914003144   0.006739465820804598   0.001144718512385342
-0.27350123914003144   0.006739465820804598   0.001144718512385342
-0.2708814392402477   0.029456737898069976   0.028768794364110388
-0.2708814392402477   0.029456737898069976   0.028768794364110388
-0.2708814392402477   0.029456737898069976   0.028768794364110388
-0.2708814392402477   0.029456737898069976   0.028768794364110388
-0.3048775323952343   -0.03347167215181036   -0.023158896092154893
-0.3048775323952343   -0.03347167215181036   -0.023158896092154893
-0.3048775323952343   -0.03347167215181036   -0.023158896092154893
-0.3048775323952343   -0.03347167215181036   -0.023158896092154893
-0.2950875551855494   0.01973852214506759   0.03560180338192666
-0.2950875551855494   0.01973852214506759   0.03560180338192666
-0.2950875551855494   0.01973852214506759   0.03560180338192666
-0.2950875551855494   0.01973852214506759   0.03560180338192666
-0.2955168199320859   -0.03495217603989839   -0.014492411375180609
-0.2955168199320859   -0.03495217603989839   -0.014492411375180609
-0.2955168199320859   -0.03495217603989839   -0.014492411375180609
-0.2955168199320859   -0.03495217603989839   -0.014492411375180609
-0.28691856498833596   -0.0019101476561476788   -0.0060382329411524695
-0.28691856498833596   -0.0019101476561476788   -0.0060382329411524695
-0.28691856498833596   -0.0019101476561476788   -0.0060382329411524695
-0.28691856498833596   -0.0019101476561476788   -0.0060382329411524695
-0.2739993348106812   0.023720310985037324   0.03442252720690715
-0.2739993348106812   0.023720310985037324   0.03442252720690715
-0.2739993348106812   0.023720310985037324   0.03442252720690715
-0.2739993348106812   0.023720310985037324   0.03442252720690715
-0.3186038563520473   -0.04093278092496257   -0.021308399380524774
-0.3186038563520473   -0.04093278092496257   -0.021308399380524774
-0.3186038563520473   -0.04093278092496257   -0.021308399380524774
-0.3186038563520473   -0.04093278092496257   -0.021308399380524774
-0.3169525000776735   0.0014885916101219365   0.03803359962873631
-0.3169525000776735   0.0014885916101219365   0.03803359962873631
-0.3169525000776735   0.0014885916101219365   0.03803359962873631
-0.3169525000776735   0.0014885916101219365   0.03803359962873631
-0.29911785377614   -0.04555065577182889   -0.012590862412686723
-0.29911785377614   -0.04555065577182889   -0.012590862412686723
-0.29911785377614   -0.04555065577182889   -0.012590862412686723
-0.29911785377614   -0.04555065577182889   -0.012590862412686723
-0.29327534714438863   -0.009882527178373596   -0.012501934157971354
-0.29327534714438863   -0.009882527178373596   -0.012501934157971354
-0.29327534714438863   -0.009882527178373596   -0.012501934157971354
-0.29327534714438863   -0.009882527178373596   -0.012501934157971354
-0.572987895486073   -0.0524165471955607   -0.054387124380003135
-0.572987895486073   -0.0524165471955607   -0.054387124380003135
-0.572987895486073   -0.0524165471955607   -0.054387124380003135
-0.572987895486073   -0.0524165471955607   -0.054387124380003135
-0.36417803914938895   0.030826884524128906   0.012799503109670495
-0.36417803914938895   0.030826884524128906   0.012799503109670495
-0.36417803914938895   0.030826884524128906   0.012799503109670495
-0.36417803914938895   0.030826884524128906   0.012799503109670495
-0.382489600791786   -0.024328676409610922   -0.024326548090788287
-0.382489600791786   -0.024328676409610922   -0.024326548090788287
-0.382489600791786   -0.024328676409610922   -0.024326548090788287
-0.382489600791786   -0.024328676409610922   -0.024326548090788287
-0.609534664915689   -0.06902275306252866   0.060796621426722555
-0.609534664915689   -0.06902275306252866   0.060796621426722555
-0.609534664915689   -0.06902275306252866   0.060796621426722555
-0.609534664915689   -0.06902275306252866   0.060796621426722555
-0.4432970160395969   -0.016993423613235165   0.05904066085269681
-0.4432970160395969   -0.016993423613235165   0.05904066085269681
-0.4432970160395969   -0.016993423613235165   0.05904066085269681
-0.4432970160395969   -0.016993423613235165   0.05904066085269681
-0.6313095174839992   -0.0772061908544721   -0.039894203622880944
-0.6313095174839992   -0.0772061908544721   -0.039894203622880944
-0.6313095174839992   -0.0772061908544721   -0.039894203622880944
-0.6313095174839992   -0.0772061908544721   -0.039894203622880944
-0.3760386919598685   -0.03146918235405956   0.015068502013247654
-0.3760386919598685   -0.03146918235405956   0.015068502013247654
-0.3760386919598685   -0.03146918235405956   0.015068502013247654
-0.3760386919598685   -0.03146918235405956   0.015068502013247654
-0.38847489079875736   -0.03522244145078222   -0.017509957757159793
-0.38847489079875736   -0.03522244145078222   -0.017509957757159793
-0.38847489079875736   -0.03522244145078222   -0.017509957757159793
-0.38847489079875736   -0.03522244145078222   -0.017509957757159793
-0.6291037466733723   -0.09639815503559829   0.0014089784043413382
-0.6291037466733723   -0.09639815503559829   0.0014089784043413382
-0.6291037466733723   -0.09639815503559829   0.0014089784043413382
-0.6291037466733723   -0.09639815503559829   0.0014089784043413382
-0.4910420444022837   -0.058163213009960704   0.013674598575308849
-0.4910420444022837   -0.058163213009960704   0.013674598575308849
-0.4910420444022837   -0.058163213009960704   0.013674598575308849
-0.4910420444022837   -0.058163213009960704   0.013674598575308849
-0.6339930725574291   -0.08725937288449329   -0.032176433167043376
-0.6339930725574291   -0.08725937288449329   -0.032176433167043376
-0.6339930725574291   -0.08725937288449329   -0.032176433167043376
-0.6339930725574291   -0.08725937288449329   -0.032176433167043376
-0.3882161817911369   -0.04899184047832333   -0.0024470136915192755
-0.3882161817911369   -0.04899184047832333   -0.0024470136915192755
-0.3882161817911369   -0.04899184047832333   -0.0024470136915192755
-0.3882161817911369   -0.04899184047832333   -0.0024470136915192755
-0.38884317636402393   -0.06154422164046683   -0.01278262622547639
-0.38884317636402393   -0.06154422164046683   -0.01278262622547639
-0.38884317636402393   -0.06154422164046683   -0.01278262622547639
-0.38884317636402393   -0.06154422164046683   -0.01278262622547639
-0.6443650437848468   -0.1471391025354059   0.009522598246355228
-0.6443650437848468   -0.1471391025354059   0.009522598246355228
-0.6443650437848468   -0.1471391025354059   0.009522598246355228
-0.6443650437848468   -0.1471391025354059   0.009522598246355228
-0.4906435152976578   -0.07992572359101652   0.0010666919024379532
-0.4906435152976578   -0.07992572359101652   0.0010666919024379532
-0.4906435152976578   -0.07992572359101652   0.0010666919024379532
-0.4906435152976578   -0.07992572359101652   0.0010666919024379532
-0.3932373784939441   -0.06671661728306287   -0.0349536918059102
-0.3932373784939441   -0.06671661728306287   -0.0349536918059102
-0.3932373784939441   -0.06671661728306287   -0.0349536918059102
-0.3932373784939441   -0.06671661728306287   -0.0349536918059102
-0.27075488267517384   -0.1756452003650049   -0.03289888427328904
-0.27075488267517384   -0.1756452003650049   -0.03289888427328904
-0.27075488267517384   -0.1756452003650049   -0.03289888427328904
-0.27075488267517384   -0.1756452003650049   -0.03289888427328904
-0.23778189107172706   -0.03894787009961845   -0.002132866977220538
-0.23778189107172706   -0.03894787009961845   -0.002132866977220538
-0.23778189107172706   -0.03894787009961845   -0.002132866977220538
-0.23778189107172706   -0.03894787009961845   -0.002132866977220538
-0.41826476765638865   -0.18612319943904776   -0.04140785938436478
-0.41826476765638865   -0.18612319943904776   -0.04140785938436478
-0.41826476765638865   -0.18612319943904776   -0.04140785938436478
-0.41826476765638865   -0.18612319943904776   -0.04140785938436478
-0.32619482692611285   -0.12398838548345445   -0.009525781729488748
-0.32619482692611285   -0.12398838548345445   -0.009525781729488748
-0.32619482692611285   -0.12398838548345445   -0.009525781729488748
-0.32619482692611285   -0.12398838548345445   -0.009525781729488748
-0.3929915648233075   -0.07483020032174281   -0.026334844336261938
-0.3929915648233075   -0.07483020032174281   -0.026334844336261938
-0.3929915648233075   -0.07483020032174281   -0.026334844336261938
-0.3929915648233075   -0.07483020032174281   -0.026334844336261938
-0.26464525685858703   -0.15183103217070223   -0.023566533840438678
-0.26464525685858703   -0.15183103217070223   -0.023566533840438678
-0.26464525685858703   -0.15183103217070223   -0.023566533840438678
-0.26464525685858703   -0.15183103217070223   -0.023566533840438678
-0.2405734167107202   -0.050446715905702516   0.0003157325676624958
-0.2405734167107202   -0.050446715905702516   0.0003157325676624958
-0.2405734167107202   -0.050446715905702516   0.0003157325676624958
-0.2405734167107202   -0.050446715905702516   0.0003157325676624958
-0.4198435394718786   -0.18514750962934054   -0.024428132944210555
-0.4198435394718786   -0.18514750962934054   -0.024428132944210555
-0.4198435394718786   -0.18514750962934054   -0.024428132944210555
-0.4198435394718786   -0.18514750962934054   -0.024428132944210555
-0.322631514213637   -0.11621907555679298   -0.01012155051846323
-0.322631514213637   -0.11621907555679298   -0.01012155051846323
-0.322631514213637   -0.11621907555679298   -0.01012155051846323
-0.322631514213637   -0.11621907555679298   -0.01012155051846323
-0.399114991536207   -0.08617063163614197   -0.01976227125904802
-0.399114991536207   -0.08617063163614197   -0.01976227125904802
-0.399114991536207   -0.08617063163614197   -0.01976227125904802
-0.399114991536207   -0.08617063163614197   -0.01976227125904802
-0.2646041957380696   -0.15272582499057838   -0.017559053484208713
-0.2646041957380696   -0.15272582499057838   -0.017559053484208713
-0.2646041957380696   -0.15272582499057838   -0.017559053484208713
-0.2646041957380696   -0.15272582499057838   -0.017559053484208713
-0.24057884072818667   -0.06474734139208731   0.003815483284536199
-0.24057884072818667   -0.06474734139208731   0.003815483284536199
-0.24057884072818667   -0.06474734139208731   0.003815483284536199
-0.24057884072818667   -0.06474734139208731   0.003815483284536199
-0.41888776688182927   -0.18813903153415124   -0.03641076892082333
-0.41888776688182927   -0.18813903153415124   -0.03641076892082333
-0.41888776688182927   -0.18813903153415124   -0.03641076892082333
-0.41888776688182927   -0.18813903153415124   -0.03641076892082333
-0.3275923961036392   -0.12498931682906256   -0.01881179111593645
-0.3275923961036392   -0.12498931682906256   -0.01881179111593645
-0.3275923961036392   -0.12498931682906256   -0.01881179111593645
-0.3275923961036392   -0.12498931682906256   -0.01881179111593645
-0.2382474577134996   -0.04297546128689281   -0.0030314985430297675
-0.2382474577134996   -0.04297546128689281   -0.0030314985430297675
-0.2382474577134996   -0.04297546128689281   -0.0030314985430297675
-0.2382474577134996   -0.04297546128689281   -0.0030314985430297675
-0.2003917740921121   -0.13450279335991733   -0.023217495492604986
-0.2003917740921121   -0.13450279335991733   -0.023217495492604986
-0.2003917740921121   -0.13450279335991733   -0.023217495492604986
-0.2003917740921121   -0.13450279335991733   -0.023217495492604986
-0.17272022084649055   -0.03575545015703729   0.009192493508537696
-0.17272022084649055   -0.03575545015703729   0.009192493508537696
-0.17272022084649055   -0.03575545015703729   0.009192493508537696
-0.17272022084649055   -0.03575545015703729   0.009192493508537696
-0.26390489961245667   -0.14607994349395345   -0.025615836286535465
-0.26390489961245667   -0.14607994349395345   -0.025615836286535465
-0.26390489961245667   -0.14607994349395345   -0.025615836286535465
-0.26390489961245667   -0.14607994349395345   -0.025615836286535465
-0.21785938531767063   -0.09106458407130832   -0.010701964065690878
-0.21785938531767063   -0.09106458407130832   -0.010701964065690878
-0.21785938531767063   -0.09106458407130832   -0.010701964065690878
-0.21785938531767063   -0.09106458407130832   -0.010701964065690878
-0.2396647556177598   -0.05090155647866631   0.0004064966716617963
-0.2396647556177598   -0.05090155647866631   0.0004064966716617963
-0.2396647556177598   -0.05090155647866631   0.0004064966716617963
-0.2396647556177598   -0.05090155647866631   0.0004064966716617963
-0.1983736488844006   -0.13234712121553696   -0.022482975622509088
-0.1983736488844006   -0.13234712121553696   -0.022482975622509088
-0.1983736488844006   -0.13234712121553696   -0.022482975622509088
-0.1983736488844006   -0.13234712121553696   -0.022482975622509088
-0.17285356127103438   -0.045210285874497505   0.011919719021972662
-0.17285356127103438   -0.045210285874497505   0.011919719021972662
-0.17285356127103438   -0.045210285874497505   0.011919719021972662
-0.17285356127103438   -0.045210285874497505   0.011919719021972662
-0.26480835918244733   -0.14839395652133783   -0.022911739175337918
-0.26480835918244733   -0.14839395652133783   -0.022911739175337918
-0.26480835918244733   -0.14839395652133783   -0.022911739175337918
-0.26480835918244733   -0.14839395652133783   -0.022911739175337918
-0.21753174320570365   -0.09461072030051848   -0.01388957416692175
-0.21753174320570365   -0.09461072030051848   -0.01388957416692175
-0.21753174320570365   -0.09461072030051848   -0.01388957416692175
-0.21753174320570365   -0.09461072030051848   -0.01388957416692175
-0.241758799413485   -0.060489047231465025   0.004431150379600986
-0.241758799413485   -0.060489047231465025   0.004431150379600986
-0.241758799413485   -0.060489047231465025   0.004431150379600986
-0.241758799413485   -0.060489047231465025   0.004431150379600986
-0.19668148810884492   -0.1338935622332204   -0.01853663880835333
-0.19668148810884492   -0.1338935622332204   -0.01853663880835333
-0.19668148810884492   -0.1338935622332204   -0.01853663880835333
-0.19668148810884492   -0.1338935622332204   -0.01853663880835333
-0.17089972147393062   -0.0542267678438695   0.014893000751929317
-0.17089972147393062   -0.0542267678438695   0.014893000751929317
-0.17089972147393062   -0.0542267678438695   0.014893000751929317
-0.17089972147393062   -0.0542267678438695   0.014893000751929317
-0.2617420404524379   -0.15025533274986697   -0.016492523978940125
-0.2617420404524379   -0.15025533274986697   -0.016492523978940125
-0.2617420404524379   -0.15025533274986697   -0.016492523978940125
-0.2617420404524379   -0.15025533274986697   -0.016492523978940125
-0.21696126143780795   -0.09929547571618653   -0.016113489620399997
-0.21696126143780795   -0.09929547571618653   -0.016113489620399997
-0.21696126143780795   -0.09929547571618653   -0.016113489620399997
-0.21696126143780795   -0.09929547571618653   -0.016113489620399997
-0.1667589415518756   -0.0059099712918368776   0.016353845140500964
-0.1667589415518756   -0.0059099712918368776   0.016353845140500964
-0.1667589415518756   -0.0059099712918368776   0.016353845140500964
-0.1667589415518756   -0.0059099712918368776   0.016353845140500964
-0.15822698814776165   -0.07130964610870794   -0.013949120478104616
-0.15822698814776165   -0.07130964610870794   -0.013949120478104616
-0.15822698814776165   -0.07130964610870794   -0.013949120478104616
-0.15822698814776165   -0.07130964610870794   -0.013949120478104616
-0.136502387864059   -0.010326681048280235   0.018923919921460745
-0.136502387864059   -0.010326681048280235   0.018923919921460745
-0.136502387864059   -0.010326681048280235   0.018923919921460745
-0.136502387864059   -0.010326681048280235   0.018923919921460745
-0.1858339034099886   -0.08227167231816078   -0.009859697147829125
-0.1858339034099886   -0.08227167231816078   -0.009859697147829125
-0.1858339034099886   -0.08227167231816078   -0.009859697147829125
-0.1858339034099886   -0.08227167231816078   -0.009859697147829125
-0.16236629820188   -0.042053242375769344   -0.005810692494436335
-0.16236629820188   -0.042053242375769344   -0.005810692494436335
-0.16236629820188   -0.042053242375769344   -0.005810692494436335
-0.16236629820188   -0.042053242375769344   -0.005810692494436335
-0.16691917140995668   -0.016421969695765   0.018864260229934607
-0.16691917140995668   -0.016421969695765   0.018864260229934607
-0.16691917140995668   -0.016421969695765   0.018864260229934607
-0.16691917140995668   -0.016421969695765   0.018864260229934607
-0.15692643040285295   -0.07768569420943805   -0.015837279611351125
-0.15692643040285295   -0.07768569420943805   -0.015837279611351125
-0.15692643040285295   -0.07768569420943805   -0.015837279611351125
-0.15692643040285295   -0.07768569420943805   -0.015837279611351125
-0.13676856127392475   -0.019502863668015152   0.020347102830828363
-0.13676856127392475   -0.019502863668015152   0.020347102830828363
-0.13676856127392475   -0.019502863668015152   0.020347102830828363
-0.13676856127392475   -0.019502863668015152   0.020347102830828363
-0.1858471238172311   -0.08729177768128382   -0.010966601902224659
-0.1858471238172311   -0.08729177768128382   -0.010966601902224659
-0.1858471238172311   -0.08729177768128382   -0.010966601902224659
-0.1858471238172311   -0.08729177768128382   -0.010966601902224659
-0.16171928584813475   -0.049414736696289485   -0.009870347857563026
-0.16171928584813475   -0.049414736696289485   -0.009870347857563026
-0.16171928584813475   -0.049414736696289485   -0.009870347857563026
-0.16171928584813475   -0.049414736696289485   -0.009870347857563026
-0.16696724026834003   -0.02531984366739544   0.021460881828342236
-0.16696724026834003   -0.02531984366739544   0.021460881828342236
-0.16696724026834003   -0.02531984366739544   0.021460881828342236
-0.16696724026834003   -0.02531984366739544   0.021460881828342236
-0.15656280582577756   -0.08238915868486527   -0.015737824911585502
-0.15656280582577756   -0.08238915868486527   -0.015737824911585502
-0.15656280582577756   -0.08238915868486527   -0.015737824911585502
-0.15656280582577756   -0.08238915868486527   -0.015737824911585502
-0.13567346630511257   -0.02812252538119075   0.023583641159646285
-0.13567346630511257   -0.02812252538119075   0.023583641159646285
-0.13567346630511257   -0.02812252538119075   0.023583641159646285
-0.13567346630511257   -0.02812252538119075   0.023583641159646285
-0.1829901701709562   -0.09230528983578054   -0.00748072074128776
-0.1829901701709562   -0.09230528983578054   -0.00748072074128776
-0.1829901701709562   -0.09230528983578054   -0.00748072074128776
-0.1829901701709562   -0.09230528983578054   -0.00748072074128776
-0.16131153527261088   -0.055760764731782   -0.012703853154888034
-0.16131153527261088   -0.055760764731782   -0.012703853154888034
-0.16131153527261088   -0.055760764731782   -0.012703853154888034
-0.16131153527261088   -0.055760764731782   -0.012703853154888034
-0.13235932681922744   0.018551393096479442   0.02552814695937899
-0.13235932681922744   0.018551393096479442   0.02552814695937899
-0.13235932681922744   0.018551393096479442   0.02552814695937899
-0.13235932681922744   0.018551393096479442   0.02552814695937899
-0.08869497469568981   -0.02353366872174127   -0.008616205821128316
-0.08869497469568981   -0.02353366872174127   -0.008616205821128316
-0.08869497469568981   -0.02353366872174127   -0.008616205821128316
-0.08869497469568981   -0.02353366872174127   -0.008616205821128316
-0.07762462893123573   0.021654653590140613   0.025219829153601367
-0.07762462893123573   0.021654653590140613   0.025219829153601367
-0.07762462893123573   0.021654653590140613   0.025219829153601367
-0.07762462893123573   0.021654653590140613   0.025219829153601367
-0.1462857504614453   -0.03585052532887584   -0.0044690487848750154
-0.1462857504614453   -0.03585052532887584   -0.0044690487848750154
-0.1462857504614453   -0.03585052532887584   -0.0044690487848750154
-0.1462857504614453   -0.03585052532887584   -0.0044690487848750154
-0.10968338844045139   -0.002316454806769782   -0.004568352991202534
-0.10968338844045139   -0.002316454806769782   -0.004568352991202534
-0.10968338844045139   -0.002316454806769782   -0.004568352991202534
-0.10968338844045139   -0.002316454806769782   -0.004568352991202534
-0.13031953921941486   0.01164500176755651   0.027866480328844676
-0.13031953921941486   0.01164500176755651   0.027866480328844676
-0.13031953921941486   0.01164500176755651   0.027866480328844676
-0.13031953921941486   0.01164500176755651   0.027866480328844676
-0.09375084708027627   -0.026000880413299322   -0.007755727588153769
-0.09375084708027627   -0.026000880413299322   -0.007755727588153769
-0.09375084708027627   -0.026000880413299322   -0.007755727588153769
-0.09375084708027627   -0.026000880413299322   -0.007755727588153769
-0.0811173234028762   0.01717052246699524   0.03172158463007785
-0.0811173234028762   0.01717052246699524   0.03172158463007785
-0.0811173234028762   0.01717052246699524   0.03172158463007785
-0.0811173234028762   0.01717052246699524   0.03172158463007785
-0.14571124664284957   -0.03817673638695657   -0.005692451294854249
-0.14571124664284957   -0.03817673638695657   -0.005692451294854249
-0.14571124664284957   -0.03817673638695657   -0.005692451294854249
-0.14571124664284957   -0.03817673638695657   -0.005692451294854249
-0.11304158618607027   -0.0072109370089142935   -0.006506901413371161
-0.11304158618607027   -0.0072109370089142935   -0.006506901413371161
-0.11304158618607027   -0.0072109370089142935   -0.006506901413371161
-0.11304158618607027   -0.0072109370089142935   -0.006506901413371161
-0.12898809075207993   0.00766780868795533   0.03207878308408202
-0.12898809075207993   0.00766780868795533   0.03207878308408202
-0.12898809075207993   0.00766780868795533   0.03207878308408202
-0.12898809075207993   0.00766780868795533   0.03207878308408202
-0.09898550310574618   -0.029819046420018275   -0.010629744997266183
-0.09898550310574618   -0.029819046420018275   -0.010629744997266183
-0.09898550310574618   -0.029819046420018275   -0.010629744997266183
-0.09898550310574618   -0.029819046420018275   -0.010629744997266183
-0.09277850377913462   0.004837533514499556   0.03301073402195018
-0.09277850377913462   0.004837533514499556   0.03301073402195018
-0.09277850377913462   0.004837533514499556   0.03301073402195018
-0.09277850377913462   0.004837533514499556   0.03301073402195018
-0.14377706184674863   -0.04029501462576508   -0.004761847303959822
-0.14377706184674863   -0.04029501462576508   -0.004761847303959822
-0.14377706184674863   -0.04029501462576508   -0.004761847303959822
-0.14377706184674863   -0.04029501462576508   -0.004761847303959822
-0.11469492304407287   -0.01077077223581377   -0.009610578692135238
-0.11469492304407287   -0.01077077223581377   -0.009610578692135238
-0.11469492304407287   -0.01077077223581377   -0.009610578692135238
-0.11469492304407287   -0.01077077223581377   -0.009610578692135238
-1.3560641876246757   -0.19276165863893352   -0.11325706423035511
-1.3560641876246757   -0.19276165863893352   -0.11325706423035511
-1.3560641876246757   -0.19276165863893352   -0.11325706423035511
-1.3560641876246757   -0.19276165863893352   -0.11325706423035511
-0.47144585406030515   -0.7483885614937651   -0.08852096491574102
-0.47144585406030515   -0.7483885614937651   -0.08852096491574102
-0.47144585406030515   -0.7483885614937651   -0.08852096491574102
-0.47144585406030515   -0.7483885614937651   -0.08852096491574102
-0.36342229937250997   -0.03187765563249299   0.0004097430337219772
-0.36342229937250997   -0.03187765563249299   0.0004097430337219772
-0.36342229937250997   -0.03187765563249299   0.0004097430337219772
-0.36342229937250997   -0.03187765563249299   0.0004097430337219772
-1.4497223779668122   -0.8782537206691853   -0.4655952197271995
-1.4497223779668122   -0.8782537206691853   -0.4655952197271995
-1.4497223779668122   -0.8782537206691853   -0.4655952197271995
-1.4497223779668122   -0.8782537206691853   -0.4655952197271995
-0.8873797789924568   -0.43671400485925616   -0.06366156106834789
-0.8873797789924568   -0.43671400485925616   -0.06366156106834789
-0.8873797789924568   -0.43671400485925616   -0.06366156106834789
-0.8873797789924568   -0.43671400485925616   -0.06366156106834789
-1.260160040324648   -0.24209550238898314   -0.15394174979659056
-1.260160040324648   -0.24209550238898314   -0.15394174979659056
-1.260160040324648   -0.24209550238898314   -0.15394174979659056
-1.260160040324648   -0.24209550238898314   -0.15394174979659056
-0.5093865911385732   -0.6244378280365952   -0.1368515433924881
-0.5093865911385732   -0.6244378280365952   -0.1368515433924881
-0.5093865911385732   -0.6244378280365952   -0.1368515433924881
-0.5093865911385732   -0.6244378280365952   -0.1368515433924881
-0.3709933226596425   -0.042274566088437125   0.013916499126417398
-0.3709933226596425   -0.042274566088437125   0.013916499126417398
-0.3709933226596425   -0.042274566088437125   0.013916499126417398
-0.3709933226596425   -0.042274566088437125   0.013916499126417398
-1.3567703038887124   -0.7842170731053121   -0.4281974753988049
-1.3567703038887124   -0.7842170731053121   -0.4281974753988049
-1.3567703038887124   -0.7842170731053121   -0.4281974753988049
-1.3567703038887124   -0.7842170731053121   -0.4281974753988049
-0.8359335360942658   -0.39405705347068753   0.03363556036598332
-0.8359335360942658   -0.39405705347068753   0.03363556036598332
-0.8359335360942658   -0.39405705347068753   0.03363556036598332
-0.8359335360942658   -0.39405705347068753   0.03363556036598332
-1.1833848196174819   -0.23052799227906937   -0.11495913486890422
-1.1833848196174819   -0.23052799227906937   -0.11495913486890422
-1.1833848196174819   -0.23052799227906937   -0.11495913486890422
-1.1833848196174819   -0.23052799227906937   -0.11495913486890422
-0.4959083377062563   -0.5474931776900642   -0.10543996450502155
-0.4959083377062563   -0.5474931776900642   -0.10543996450502155
-0.4959083377062563   -0.5474931776900642   -0.10543996450502155
-0.4959083377062563   -0.5474931776900642   -0.10543996450502155
-0.4268925439216268   -0.1100269852254427   -0.022389315067041036
-0.4268925439216268   -0.1100269852254427   -0.022389315067041036
-0.4268925439216268   -0.1100269852254427   -0.022389315067041036
-0.4268925439216268   -0.1100269852254427   -0.022389315067041036
-1.2366924698051043   -0.6601282689332999   -0.37936414774768085
-1.2366924698051043   -0.6601282689332999   -0.37936414774768085
-1.2366924698051043   -0.6601282689332999   -0.37936414774768085
-1.2366924698051043   -0.6601282689332999   -0.37936414774768085
-0.7744769202331031   -0.3418290706545329   0.1436193247057544
-0.7744769202331031   -0.3418290706545329   0.1436193247057544
-0.7744769202331031   -0.3418290706545329   0.1436193247057544
-0.7744769202331031   -0.3418290706545329   0.1436193247057544
-0.347694585570612   -0.1900700007347028   -0.02808318322634038
-0.347694585570612   -0.1900700007347028   -0.02808318322634038
-0.347694585570612   -0.1900700007347028   -0.02808318322634038
-0.347694585570612   -0.1900700007347028   -0.02808318322634038
-0.16152374042386305   -0.23858562617886458   -0.039945934557013896
-0.16152374042386305   -0.23858562617886458   -0.039945934557013896
-0.16152374042386305   -0.23858562617886458   -0.039945934557013896
-0.16152374042386305   -0.23858562617886458   -0.039945934557013896
-0.1419990426409304   -0.12186689353934325   0.003607945098691872
-0.1419990426409304   -0.12186689353934325   0.003607945098691872
-0.1419990426409304   -0.12186689353934325   0.003607945098691872
-0.1419990426409304   -0.12186689353934325   0.003607945098691872
-0.4265409392976588   -0.3476657021333769   0.000604589908865874
-0.4265409392976588   -0.3476657021333769   0.000604589908865874
-0.4265409392976588   -0.3476657021333769   0.000604589908865874
-0.4265409392976588   -0.3476657021333769   0.000604589908865874
-0.2287630718104982   -0.16840617339499836   0.07356723199008247
-0.2287630718104982   -0.16840617339499836   0.07356723199008247
-0.2287630718104982   -0.16840617339499836   0.07356723199008247
-0.2287630718104982   -0.16840617339499836   0.07356723199008247
-0.39614818460163465   -0.17703148225008458   -0.018065856494310518
-0.39614818460163465   -0.17703148225008458   -0.018065856494310518
-0.39614818460163465   -0.17703148225008458   -0.018065856494310518
-0.39614818460163465   -0.17703148225008458   -0.018065856494310518
-0.18451505636112678   -0.30462437244680796   -0.02621464459482136
-0.18451505636112678   -0.30462437244680796   -0.02621464459482136
-0.18451505636112678   -0.30462437244680796   -0.02621464459482136
-0.18451505636112678   -0.30462437244680796   -0.02621464459482136
-0.1535932529532029   -0.12626021985604957   0.0037580294035686676
-0.1535932529532029   -0.12626021985604957   0.0037580294035686676
-0.1535932529532029   -0.12626021985604957   0.0037580294035686676
-0.1535932529532029   -0.12626021985604957   0.0037580294035686676
-0.4476842093445804   -0.3434908324669466   -0.06832166791975969
-0.4476842093445804   -0.3434908324669466   -0.06832166791975969
-0.4476842093445804   -0.3434908324669466   -0.06832166791975969
-0.4476842093445804   -0.3434908324669466   -0.06832166791975969
-0.27320583833388085   -0.2157765425354459   0.03338273861380629
-0.27320583833388085   -0.2157765425354459   0.03338273861380629
-0.27320583833388085   -0.2157765425354459   0.03338273861380629
-0.27320583833388085   -0.2157765425354459   0.03338273861380629
-0.40905150595908446   -0.1848610608581546   -0.033787922601074945
-0.40905150595908446   -0.1848610608581546   -0.033787922601074945
-0.40905150595908446   -0.1848610608581546   -0.033787922601074945
-0.40905150595908446   -0.1848610608581546   -0.033787922601074945
-0.19110649502052784   -0.2837705301466704   -0.026297870642431394
-0.19110649502052784   -0.2837705301466704   -0.026297870642431394
-0.19110649502052784   -0.2837705301466704   -0.026297870642431394
-0.19110649502052784   -0.2837705301466704   -0.026297870642431394
-0.17154282645648833   -0.13027938811549344   0.0055425077471246455
-0.17154282645648833   -0.13027938811549344   0.0055425077471246455
-0.17154282645648833   -0.13027938811549344   0.0055425077471246455
-0.17154282645648833   -0.13027938811549344   0.0055425077471246455
-0.4790740063477436   -0.33395762477313334   -0.05936598764993266
-0.4790740063477436   -0.33395762477313334   -0.05936598764993266
-0.4790740063477436   -0.33395762477313334   -0.05936598764993266
-0.4790740063477436   -0.33395762477313334   -0.05936598764993266
-0.2861557236948759   -0.20341709523527052   0.03527968137435059
-0.2861557236948759   -0.20341709523527052   0.03527968137435059
-0.2861557236948759   -0.20341709523527052   0.03527968137435059
-0.2861557236948759   -0.20341709523527052   0.03527968137435059
-0.1268526445041602   -0.11348890380939898   0.008312822672034873
-0.1268526445041602   -0.11348890380939898   0.008312822672034873
-0.1268526445041602   -0.11348890380939898   0.008312822672034873
-0.1268526445041602   -0.11348890380939898   0.008312822672034873
-0.07811249161805582   -0.07550421406608329   -0.019556013376667368
-0.07811249161805582   -0.07550421406608329   -0.019556013376667368
-0.07811249161805582   -0.07550421406608329   -0.019556013376667368
-0.07811249161805582   -0.07550421406608329   -0.019556013376667368
-0.07553733324359335   -0.10161715905526639   0.00833051953802895
-0.07553733324359335   -0.10161715905526639   0.00833051953802895
-0.07553733324359335   -0.10161715905526639   0.00833051953802895
-0.07553733324359335   -0.10161715905526639   0.00833051953802895
-0.1406634742228633   -0.10293695855772583   -0.008644147792586127
-0.1406634742228633   -0.10293695855772583   -0.008644147792586127
-0.1406634742228633   -0.10293695855772583   -0.008644147792586127
-0.1406634742228633   -0.10293695855772583   -0.008644147792586127
-0.08884751735596175   -0.08293663995031617   0.036939365719023357
-0.08884751735596175   -0.08293663995031617   0.036939365719023357
-0.08884751735596175   -0.08293663995031617   0.036939365719023357
-0.08884751735596175   -0.08293663995031617   0.036939365719023357
-0.1393989122666486   -0.11425603173444308   0.008997735165200714
-0.1393989122666486   -0.11425603173444308   0.008997735165200714
-0.1393989122666486   -0.11425603173444308   0.008997735165200714
-0.1393989122666486   -0.11425603173444308   0.008997735165200714
-0.07806535525939877   -0.09156154593814052   -0.014365203658124055
-0.07806535525939877   -0.09156154593814052   -0.014365203658124055
-0.07806535525939877   -0.09156154593814052   -0.014365203658124055
-0.07806535525939877   -0.09156154593814052   -0.014365203658124055
-0.07650672096466474   -0.10466595229354647   0.00742664374583623
-0.07650672096466474   -0.10466595229354647   0.00742664374583623
-0.07650672096466474   -0.10466595229354647   0.00742664374583623
-0.07650672096466474   -0.10466595229354647   0.00742664374583623
-0.14954961458892302   -0.11998943073338231   0.017705432102304648
-0.14954961458892302   -0.11998943073338231   0.017705432102304648
-0.14954961458892302   -0.11998943073338231   0.017705432102304648
-0.14954961458892302   -0.11998943073338231   0.017705432102304648
-0.09681433545487597   -0.09245350089607732   0.031168401802823563
-0.09681433545487597   -0.09245350089607732   0.031168401802823563
-0.09681433545487597   -0.09245350089607732   0.031168401802823563
-0.09681433545487597   -0.09245350089607732   0.031168401802823563
-0.15036506823308005   -0.11849600322230974   0.012134736370442916
-0.15036506823308005   -0.11849600322230974   0.012134736370442916
-0.15036506823308005   -0.11849600322230974   0.012134736370442916
-0.15036506823308005   -0.11849600322230974   0.012134736370442916
-0.08221523300725005   -0.11268334549136333   -0.013098523269273455
-0.08221523300725005   -0.11268334549136333   -0.013098523269273455
-0.08221523300725005   -0.11268334549136333   -0.013098523269273455
-0.08221523300725005   -0.11268334549136333   -0.013098523269273455
-0.07759290284113812   -0.1080365023890115   0.010452490214029792
-0.07759290284113812   -0.1080365023890115   0.010452490214029792
-0.07759290284113812   -0.1080365023890115   0.010452490214029792
-0.07759290284113812   -0.1080365023890115   0.010452490214029792
-0.17523273122383315   -0.1473478269594425   0.0041614227543532376
-0.17523273122383315   -0.1473478269594425   0.0041614227543532376
-0.17523273122383315   -0.1473478269594425   0.0041614227543532376
-0.17523273122383315   -0.1473478269594425   0.0041614227543532376
-0.1083194961953744   -0.10530214589009795   0.014554502419782848
-0.1083194961953744   -0.10530214589009795   0.014554502419782848
-0.1083194961953744   -0.10530214589009795   0.014554502419782848
-0.1083194961953744   -0.10530214589009795   0.014554502419782848
-0.06375410858437727   -0.04523242379606937   0.021964111521711516
-0.06375410858437727   -0.04523242379606937   0.021964111521711516
-0.06375410858437727   -0.04523242379606937   0.021964111521711516
-0.06375410858437727   -0.04523242379606937   0.021964111521711516
-0.045112703453075866   -0.0009272557984551684   -0.004416852421449703
-0.045112703453075866   -0.0009272557984551684   -0.004416852421449703
-0.045112703453075866   -0.0009272557984551684   -0.004416852421449703
-0.045112703453075866   -0.0009272557984551684   -0.004416852421449703
-0.042783401116473746   -0.04896804916657774   0.013607916316578912
-0.042783401116473746   -0.04896804916657774   0.013607916316578912
-0.042783401116473746   -0.04896804916657774   0.013607916316578912
-0.042783401116473746   -0.04896804916657774   0.013607916316578912
-0.05932127531487099   -0.009591185475676594   -0.0026151643979490597
-0.05932127531487099   -0.009591185475676594   -0.0026151643979490597
-0.05932127531487099   -0.009591185475676594   -0.0026151643979490597
-0.05932127531487099   -0.009591185475676594   -0.0026151643979490597
-0.048747876061429656   -0.02509206481007385   0.010892631464087041
-0.048747876061429656   -0.02509206481007385   0.010892631464087041
-0.048747876061429656   -0.02509206481007385   0.010892631464087041
-0.048747876061429656   -0.02509206481007385   0.010892631464087041
-0.06305327643602883   -0.051597398824739585   0.020731043345324746
-0.06305327643602883   -0.051597398824739585   0.020731043345324746
-0.06305327643602883   -0.051597398824739585   0.020731043345324746
-0.06305327643602883   -0.051597398824739585   0.020731043345324746
-0.037961246714737086   -0.005871682536935916   -0.0053776783043795896
-0.037961246714737086   -0.005871682536935916   -0.0053776783043795896
-0.037961246714737086   -0.005871682536935916   -0.0053776783043795896
-0.037961246714737086   -0.005871682536935916   -0.0053776783043795896
-0.03931329078826358   -0.053278326317035954   0.012566821890047115
-0.03931329078826358   -0.053278326317035954   0.012566821890047115
-0.03931329078826358   -0.053278326317035954   0.012566821890047115
-0.03931329078826358   -0.053278326317035954   0.012566821890047115
-0.05989304469511187   -0.01812707903525612   0.0039561518353102045
-0.05989304469511187   -0.01812707903525612   0.0039561518353102045
-0.05989304469511187   -0.01812707903525612   0.0039561518353102045
-0.05989304469511187   -0.01812707903525612   0.0039561518353102045
-0.04485876628111156   -0.028791124788734843   0.012892917329460372
-0.04485876628111156   -0.028791124788734843   0.012892917329460372
-0.04485876628111156   -0.028791124788734843   0.012892917329460372
-0.04485876628111156   -0.028791124788734843   0.012892917329460372
-0.06349613841606215   -0.05588794948462046   0.023701553679923135
-0.06349613841606215   -0.05588794948462046   0.023701553679923135
-0.06349613841606215   -0.05588794948462046   0.023701553679923135
-0.06349613841606215   -0.05588794948462046   0.023701553679923135
-0.03607902607799169   -0.01588628487835   -0.008653895997279386
-0.03607902607799169   -0.01588628487835   -0.008653895997279386
-0.03607902607799169   -0.01588628487835   -0.008653895997279386
-0.03607902607799169   -0.01588628487835   -0.008653895997279386
-0.03305646365677859   -0.058056405555053696   0.013829994148176506
-0.03305646365677859   -0.058056405555053696   0.013829994148176506
-0.03305646365677859   -0.058056405555053696   0.013829994148176506
-0.03305646365677859   -0.058056405555053696   0.013829994148176506
-0.06479929555972476   -0.0387810909053493   0.005165115137434448
-0.06479929555972476   -0.0387810909053493   0.005165115137434448
-0.06479929555972476   -0.0387810909053493   0.005165115137434448
-0.06479929555972476   -0.0387810909053493   0.005165115137434448
-0.04331695948838561   -0.036281826434029614   0.011039246139725525
-0.04331695948838561   -0.036281826434029614   0.011039246139725525
-0.04331695948838561   -0.036281826434029614   0.011039246139725525
-0.04331695948838561   -0.036281826434029614   0.011039246139725525
-0.04119132041154622   -0.007880946085947232   0.02214375307369061
-0.04119132041154622   -0.007880946085947232   0.02214375307369061
-0.04119132041154622   -0.007880946085947232   0.02214375307369061
-0.04119132041154622   -0.007880946085947232   0.02214375307369061
-0.007517501158847198   0.004647274301348669   -0.0004474106678831215
-0.007517501158847198   0.004647274301348669   -0.0004474106678831215
-0.007517501158847198   0.004647274301348669   -0.0004474106678831215
-0.007517501158847198   0.004647274301348669   -0.0004474106678831215
0.002056960540057099   -0.002541656643258364   0.013732583641717644
0.002056960540057099   -0.002541656643258364   0.013732583641717644
0.002056960540057099   -0.002541656643258364   0.013732583641717644
0.002056960540057099   -0.002541656643258364   0.013732583641717644
-0.035356859997528675   0.00337733776281318   -0.0016047650180866422
-0.035356859997528675   0.00337733776281318   -0.0016047650180866422
-0.035356859997528675   0.00337733776281318   -0.0016047650180866422
-0.035356859997528675   0.00337733776281318   -0.0016047650180866422
-0.020832142614223163   -0.0015981341970866337   -0.0016847663624516985
-0.020832142614223163   -0.0015981341970866337   -0.0016847663624516985
-0.020832142614223163   -0.0015981341970866337   -0.0016847663624516985
-0.020832142614223163   -0.0015981341970866337   -0.0016847663624516985
-0.03262775509844463   -0.0076179142093927964   0.02303601144953954
-0.03262775509844463   -0.0076179142093927964   0.02303601144953954
-0.03262775509844463   -0.0076179142093927964   0.02303601144953954
-0.03262775509844463   -0.0076179142093927964   0.02303601144953954
0.0005511400808769574   0.009676879768851513   -0.006015055066300611
0.0005511400808769574   0.009676879768851513   -0.006015055066300611
0.0005511400808769574   0.009676879768851513   -0.006015055066300611
0.0005511400808769574   0.009676879768851513   -0.006015055066300611
0.006825374050154897   -0.003144774422152479   0.01693073783616174
0.006825374050154897   -0.003144774422152479   0.01693073783616174
0.006825374050154897   -0.003144774422152479   0.01693073783616174
0.006825374050154897   -0.003144774422152479   0.01693073783616174
-0.031152814125518447   0.002443778471571216   -0.0023528995848343883
-0.031152814125518447   0.002443778471571216   -0.0023528995848343883
-0.031152814125518447   0.002443778471571216   -0.0023528995848343883
-0.031152814125518447   0.002443778471571216   -0.0023528995848343883
-0.013808389526736907   -0.00043977644190413504   0.0021535677979052123
-0.013808389526736907   -0.00043977644190413504   0.0021535677979052123
-0.013808389526736907   -0.00043977644190413504   0.0021535677979052123
-0.013808389526736907   -0.00043977644190413504   0.0021535677979052123
-0.027924274561204453   -0.008528446974996117   0.024762023683302898
-0.027924274561204453   -0.008528446974996117   0.024762023683302898
-0.027924274561204453   -0.008528446974996117   0.024762023683302898
-0.027924274561204453   -0.008528446974996117   0.024762023683302898
0.004685324107198784   0.008915940645772731   -0.005830226946544035
0.004685324107198784   0.008915940645772731   -0.005830226946544035
0.004685324107198784   0.008915940645772731   -0.005830226946544035
0.004685324107198784   0.008915940645772731   -0.005830226946544035
0.011633269663524173   -0.004967724057083592   0.016464274029174823
0.011633269663524173   -0.004967724057083592   0.016464274029174823
0.011633269663524173   -0.004967724057083592   0.016464274029174823
0.011633269663524173   -0.004967724057083592   0.016464274029174823
-0.024280347914288833   0.0023092255787003583   -0.0026550582731287424
-0.024280347914288833   0.0023092255787003583   -0.0026550582731287424
-0.024280347914288833   0.0023092255787003583   -0.0026550582731287424
-0.024280347914288833   0.0023092255787003583   -0.0026550582731287424
-0.007559456589662328   0.0002369835238517897   0.005497987696915496
-0.007559456589662328   0.0002369835238517897   0.005497987696915496
-0.007559456589662328   0.0002369835238517897   0.005497987696915496
-0.007559456589662328   0.0002369835238517897   0.005497987696915496
              </DataArray>   
             <DataArray type="Float64" NumberOfComponents="3" Name="Displacements" format="ascii">   
0.0   0.0   0.0
-0.0037798758972986696   -0.0024833625100025296   -0.0012664316147622129
0.0   0.0   0.0
0.0   0.0   0.0
-0.0037798758972986696   -0.0024833625100025296   -0.0012664316147622129
-0.002404948777393607   -0.0022323286991454846   -0.0009304939640054503
0.0   0.0   0.0
-0.002357214046336613   -0.00234414978559047   -0.0007796162269431608
0.0   0.0   0.0
0.0   0.0   0.0
-0.002357214046336613   -0.00234414978559047   -0.0007796162269431608
0.0   0.0   0.0
0.0   0.0   0.0
-0.002357214046336613   -0.00234414978559047   -0.0007796162269431608
-0.003955605543195908   -0.0026455027896770044   -0.0010168600443785979
-0.0037798758972986696   -0.0024833625100025296   -0.0012664316147622129
0.0   0.0   0.0
-0.002357214046336613   -0.00234414978559047   -0.0007796162269431608
-0.0037798758972986696   -0.0024833625100025296   -0.0012664316147622129
0.0   0.0   0.0
0.0   0.0   0.0
-0.003955605543195908   -0.0026455027896770044   -0.0010168600443785979
0.0   0.0   0.0
0.0   0.0   0.0
-0.003955605543195908   -0.0026455027896770044   -0.0010168600443785979
-0.002357214046336613   -0.00234414978559047   -0.0007796162269431608
0.0   0.0   0.0
-0.0023636751406081336   -0.002401476092382929   -0.0006289771087945627
0.0   0.0   0.0
0.0   0.0   0.0
-0.0023636751406081336   -0.002401476092382929   -0.0006289771087945627
0.0   0.0   0.0
0.0   0.0   0.0
-0.0023636751406081336   -0.002401476092382929   -0.0006289771087945627
-0.004078933056799109   -0.0027243575465412213   -0.0007777720709804358
-0.003955605543195908   -0.0026455027896770044   -0.0010168600443785979
0.0   0.0   0.0
-0.0023636751406081336   -0.002401476092382929   -0.0006289771087945627
-0.003955605543195908   -0.0026455027896770044   -0.0010168600443785979
0.0   0.0   0.0
0.0   0.0   0.0
-0.004078933056799109   -0.0027243575465412213   -0.0007777720709804358
0.0   0.0   0.0
0.0   0.0   0.0
-0.004078933056799109   -0.0027243575465412213   -0.0007777720709804358
-0.0023636751406081336   -0.002401476092382929   -0.0006289771087945627
0.0   0.0   0.0
-0.0023622223155123855   -0.0024162361022445587   -0.00047324080520829115
0.0   0.0   0.0
0.0   0.0   0.0
-0.0023622223155123855   -0.0024162361022445587   -0.00047324080520829115
0.0   0.0   0.0
0.0   0.0   0.0
-0.0023622223155123855   -0.0024162361022445587   -0.00047324080520829115
-0.004344799742996162   -0.0027841489714485507   -0.0005004222911997719
-0.004078933056799109   -0.0027243575465412213   -0.0007777720709804358
0.0   0.0   0.0
-0.0023622223155123855   -0.0024162361022445587   -0.00047324080520829115
-0.004078933056799109   -0.0027243575465412213   -0.0007777720709804358
0.0   0.0   0.0
0.0   0.0   0.0
-0.002404948777393607   -0.0022323286991454846   -0.0009304939640054503
0.0   0.0   0.0
0.0   0.0   0.0
-0.002404948777393607   -0.0022323286991454846   -0.0009304939640054503
-0.001095442544342075   -0.0021402996641439313   -0.0007078329525138773
0.0   0.0   0.0
-0.0010533992093594861   -0.0022130601471176247   -0.0006365825703825103
0.0   0.0   0.0
0.0   0.0   0.0
-0.0010533992093594861   -0.0022130601471176247   -0.0006365825703825103
0.0   0.0   0.0
0.0   0.0   0.0
-0.0010533992093594861   -0.0022130601471176247   -0.0006365825703825103
-0.002357214046336613   -0.00234414978559047   -0.0007796162269431608
-0.002404948777393607   -0.0022323286991454846   -0.0009304939640054503
0.0   0.0   0.0
-0.0010533992093594861   -0.0022130601471176247   -0.0006365825703825103
-0.002404948777393607   -0.0022323286991454846   -0.0009304939640054503
0.0   0.0   0.0
0.0   0.0   0.0
-0.002357214046336613   -0.00234414978559047   -0.0007796162269431608
0.0   0.0   0.0
0.0   0.0   0.0
-0.002357214046336613   -0.00234414978559047   -0.0007796162269431608
-0.0010533992093594861   -0.0022130601471176247   -0.0006365825703825103
0.0   0.0   0.0
-0.0010297100733796364   -0.0022408014195633603   -0.0005672138194892057
0.0   0.0   0.0
0.0   0.0   0.0
-0.0010297100733796364   -0.0022408014195633603   -0.0005672138194892057
0.0   0.0   0.0
0.0   0.0   0.0
-0.0010297100733796364   -0.0022408014195633603   -0.0005672138194892057
-0.0023636751406081336   -0.002401476092382929   -0.0006289771087945627
-0.002357214046336613   -0.00234414978559047   -0.0007796162269431608
0.0   0.0   0.0
-0.0010297100733796364   -0.0022408014195633603   -0.0005672138194892057
-0.002357214046336613   -0.00234414978559047   -0.0007796162269431608
0.0   0.0   0.0
0.0   0.0   0.0
-0.0023636751406081336   -0.002401476092382929   -0.0006289771087945627
0.0   0.0   0.0
0.0   0.0   0.0
-0.0023636751406081336   -0.002401476092382929   -0.0006289771087945627
-0.0010297100733796364   -0.0022408014195633603   -0.0005672138194892057
0.0   0.0   0.0
-0.0010081084232930859   -0.0022292458017755916   -0.0004955209859681973
0.0   0.0   0.0
0.0   0.0   0.0
-0.0010081084232930859   -0.0022292458017755916   -0.0004955209859681973
0.0   0.0   0.0
0.0   0.0   0.0
-0.0010081084232930859   -0.0022292458017755916   -0.0004955209859681973
-0.0023622223155123855   -0.0024162361022445587   -0.00047324080520829115
-0.0023636751406081336   -0.002401476092382929   -0.0006289771087945627
0.0   0.0   0.0
-0.0010081084232930859   -0.0022292458017755916   -0.0004955209859681973
-0.0023636751406081336   -0.002401476092382929   -0.0006289771087945627
0.0   0.0   0.0
0.0   0.0   0.0
-0.001095442544342075   -0.0021402996641439313   -0.0007078329525138773
0.0   0.0   0.0
0.0   0.0   0.0
-0.001095442544342075   -0.0021402996641439313   -0.0007078329525138773
0.00014163531636423373   -0.002152120264388398   -0.0005660089706788857
0.0   0.0   0.0
0.00016855803809405633   -0.002189806510957027   -0.0005758139847742676
0.0   0.0   0.0
0.0   0.0   0.0
0.00016855803809405633   -0.002189806510957027   -0.0005758139847742676
0.0   0.0   0.0
0.0   0.0   0.0
0.00016855803809405633   -0.002189806510957027   -0.0005758139847742676
-0.0010533992093594861   -0.0022130601471176247   -0.0006365825703825103
-0.001095442544342075   -0.0021402996641439313   -0.0007078329525138773
0.0   0.0   0.0
0.00016855803809405633   -0.002189806510957027   -0.0005758139847742676
-0.001095442544342075   -0.0021402996641439313   -0.0007078329525138773
0.0   0.0   0.0
0.0   0.0   0.0
-0.0010533992093594861   -0.0022130601471176247   -0.0006365825703825103
0.0   0.0   0.0
0.0   0.0   0.0
-0.0010533992093594861   -0.0022130601471176247   -0.0006365825703825103
0.00016855803809405633   -0.002189806510957027   -0.0005758139847742676
0.0   0.0   0.0
0.00018983182917952683   -0.002186659327717203   -0.000584688865115668
0.0   0.0   0.0
0.0   0.0   0.0
0.00018983182917952683   -0.002186659327717203   -0.000584688865115668
0.0   0.0   0.0
0.0   0.0   0.0
0.00018983182917952683   -0.002186659327717203   -0.000584688865115668
-0.0010297100733796364   -0.0022408014195633603   -0.0005672138194892057
-0.0010533992093594861   -0.0022130601471176247   -0.0006365825703825103
0.0   0.0   0.0
0.00018983182917952683   -0.002186659327717203   -0.000584688865115668
-0.0010533992093594861   -0.0022130601471176247   -0.0006365825703825103
0.0   0.0   0.0
0.0   0.0   0.0
-0.0010297100733796364   -0.0022408014195633603   -0.0005672138194892057
0.0   0.0   0.0
0.0   0.0   0.0
-0.0010297100733796364   -0.0022408014195633603   -0.0005672138194892057
0.00018983182917952683   -0.002186659327717203   -0.000584688865115668
0.0   0.0   0.0
0.0002183938516546741   -0.0021393336651017412   -0.0005938321020109987
0.0   0.0   0.0
0.0   0.0   0.0
0.0002183938516546741   -0.0021393336651017412   -0.0005938321020109987
0.0   0.0   0.0
0.0   0.0   0.0
0.0002183938516546741   -0.0021393336651017412   -0.0005938321020109987
-0.0010081084232930859   -0.0022292458017755916   -0.0004955209859681973
-0.0010297100733796364   -0.0022408014195633603   -0.0005672138194892057
0.0   0.0   0.0
0.0002183938516546741   -0.0021393336651017412   -0.0005938321020109987
-0.0010297100733796364   -0.0022408014195633603   -0.0005672138194892057
0.0   0.0   0.0
0.0   0.0   0.0
0.00014163531636423373   -0.002152120264388398   -0.0005660089706788857
0.0   0.0   0.0
0.0   0.0   0.0
0.00014163531636423373   -0.002152120264388398   -0.0005660089706788857
0.0014846234274069924   -0.002256599552897127   -0.0004959545924713124
0.0   0.0   0.0
0.0014874751376259506   -0.0022685384989995622   -0.0005910497334553549
0.0   0.0   0.0
0.0   0.0   0.0
0.0014874751376259506   -0.0022685384989995622   -0.0005910497334553549
0.0   0.0   0.0
0.0   0.0   0.0
0.0014874751376259506   -0.0022685384989995622   -0.0005910497334553549
0.00016855803809405633   -0.002189806510957027   -0.0005758139847742676
0.00014163531636423373   -0.002152120264388398   -0.0005660089706788857
0.0   0.0   0.0
0.0014874751376259506   -0.0022685384989995622   -0.0005910497334553549
0.00014163531636423373   -0.002152120264388398   -0.0005660089706788857
0.0   0.0   0.0
0.0   0.0   0.0
0.00016855803809405633   -0.002189806510957027   -0.0005758139847742676
0.0   0.0   0.0
0.0   0.0   0.0
0.00016855803809405633   -0.002189806510957027   -0.0005758139847742676
0.0014874751376259506   -0.0022685384989995622   -0.0005910497334553549
0.0   0.0   0.0
0.0014812870225403834   -0.002236146143122631   -0.0006823059015554577
0.0   0.0   0.0
0.0   0.0   0.0
0.0014812870225403834   -0.002236146143122631   -0.0006823059015554577
0.0   0.0   0.0
0.0   0.0   0.0
0.0014812870225403834   -0.002236146143122631   -0.0006823059015554577
0.00018983182917952683   -0.002186659327717203   -0.000584688865115668
0.00016855803809405633   -0.002189806510957027   -0.0005758139847742676
0.0   0.0   0.0
0.0014812870225403834   -0.002236146143122631   -0.0006823059015554577
0.00016855803809405633   -0.002189806510957027   -0.0005758139847742676
0.0   0.0   0.0
0.0   0.0   0.0
0.00018983182917952683   -0.002186659327717203   -0.000584688865115668
0.0   0.0   0.0
0.0   0.0   0.0
0.00018983182917952683   -0.002186659327717203   -0.000584688865115668
0.0014812870225403834   -0.002236146143122631   -0.0006823059015554577
0.0   0.0   0.0
0.0015101504773995947   -0.0021495281720597978   -0.0007718477824496223
0.0   0.0   0.0
0.0   0.0   0.0
0.0015101504773995947   -0.0021495281720597978   -0.0007718477824496223
0.0   0.0   0.0
0.0   0.0   0.0
0.0015101504773995947   -0.0021495281720597978   -0.0007718477824496223
0.0002183938516546741   -0.0021393336651017412   -0.0005938321020109987
0.00018983182917952683   -0.002186659327717203   -0.000584688865115668
0.0   0.0   0.0
0.0015101504773995947   -0.0021495281720597978   -0.0007718477824496223
0.00018983182917952683   -0.002186659327717203   -0.000584688865115668
0.0   0.0   0.0
0.0   0.0   0.0
0.0014846234274069924   -0.002256599552897127   -0.0004959545924713124
0.0   0.0   0.0
0.0   0.0   0.0
0.0014846234274069924   -0.002256599552897127   -0.0004959545924713124
0.0033528692568299337   -0.0025215395585805956   -0.00046817651210432335
0.0   0.0   0.0
0.0031491604261577716   -0.002493893164413503   -0.0006838576372667489
0.0   0.0   0.0
0.0   0.0   0.0
0.0031491604261577716   -0.002493893164413503   -0.0006838576372667489
0.0   0.0   0.0
0.0   0.0   0.0
0.0031491604261577716   -0.002493893164413503   -0.0006838576372667489
0.0014874751376259506   -0.0022685384989995622   -0.0005910497334553549
0.0014846234274069924   -0.002256599552897127   -0.0004959545924713124
0.0   0.0   0.0
0.0031491604261577716   -0.002493893164413503   -0.0006838576372667489
0.0014846234274069924   -0.002256599552897127   -0.0004959545924713124
0.0   0.0   0.0
0.0   0.0   0.0
0.0014874751376259506   -0.0022685384989995622   -0.0005910497334553549
0.0   0.0   0.0
0.0   0.0   0.0
0.0014874751376259506   -0.0022685384989995622   -0.0005910497334553549
0.0031491604261577716   -0.002493893164413503   -0.0006838576372667489
0.0   0.0   0.0
0.003055304583922052   -0.0024420457615590033   -0.0008662671540807984
0.0   0.0   0.0
0.0   0.0   0.0
0.003055304583922052   -0.0024420457615590033   -0.0008662671540807984
0.0   0.0   0.0
0.0   0.0   0.0
0.003055304583922052   -0.0024420457615590033   -0.0008662671540807984
0.0014812870225403834   -0.002236146143122631   -0.0006823059015554577
0.0014874751376259506   -0.0022685384989995622   -0.0005910497334553549
0.0   0.0   0.0
0.003055304583922052   -0.0024420457615590033   -0.0008662671540807984
0.0014874751376259506   -0.0022685384989995622   -0.0005910497334553549
0.0   0.0   0.0
0.0   0.0   0.0
0.0014812870225403834   -0.002236146143122631   -0.0006823059015554577
0.0   0.0   0.0
0.0   0.0   0.0
0.0014812870225403834   -0.002236146143122631   -0.0006823059015554577
0.003055304583922052   -0.0024420457615590033   -0.0008662671540807984
0.0   0.0   0.0
0.002915452059821337   -0.0023094794243231818   -0.0010593480205538142
0.0   0.0   0.0
0.0   0.0   0.0
0.002915452059821337   -0.0023094794243231818   -0.0010593480205538142
0.0   0.0   0.0
0.0   0.0   0.0
0.002915452059821337   -0.0023094794243231818   -0.0010593480205538142
0.0015101504773995947   -0.0021495281720597978   -0.0007718477824496223
0.0014812870225403834   -0.002236146143122631   -0.0006823059015554577
0.0   0.0   0.0
0.002915452059821337   -0.0023094794243231818   -0.0010593480205538142
0.0014812870225403834   -0.002236146143122631   -0.0006823059015554577
0.0   0.0   0.0
-0.0037798758972986696   -0.0024833625100025296   -0.0012664316147622129
-0.007057513419004962   -0.006927205920461822   -0.0017063377310403858
-0.002404948777393607   -0.0022323286991454846   -0.0009304939640054503
-0.003955605543195908   -0.0026455027896770044   -0.0010168600443785979
-0.007057513419004962   -0.006927205920461822   -0.0017063377310403858
-0.004504423487143252   -0.006701526067467417   -0.0014047718508631447
-0.002404948777393607   -0.0022323286991454846   -0.0009304939640054503
-0.004509419244714861   -0.006815885990483166   -0.0012652915283547317
-0.003955605543195908   -0.0026455027896770044   -0.0010168600443785979
-0.002357214046336613   -0.00234414978559047   -0.0007796162269431608
-0.004509419244714861   -0.006815885990483166   -0.0012652915283547317
-0.002404948777393607   -0.0022323286991454846   -0.0009304939640054503
-0.003955605543195908   -0.0026455027896770044   -0.0010168600443785979
-0.004509419244714861   -0.006815885990483166   -0.0012652915283547317
-0.00726852868196744   -0.007086817308507881   -0.001479893160588961
-0.007057513419004962   -0.006927205920461822   -0.0017063377310403858
-0.003955605543195908   -0.0026455027896770044   -0.0010168600443785979
-0.004509419244714861   -0.006815885990483166   -0.0012652915283547317
-0.007057513419004962   -0.006927205920461822   -0.0017063377310403858
-0.002404948777393607   -0.0022323286991454846   -0.0009304939640054503
-0.003955605543195908   -0.0026455027896770044   -0.0010168600443785979
-0.00726852868196744   -0.007086817308507881   -0.001479893160588961
-0.002357214046336613   -0.00234414978559047   -0.0007796162269431608
-0.004078933056799109   -0.0027243575465412213   -0.0007777720709804358
-0.00726852868196744   -0.007086817308507881   -0.001479893160588961
-0.004509419244714861   -0.006815885990483166   -0.0012652915283547317
-0.002357214046336613   -0.00234414978559047   -0.0007796162269431608
-0.004526828929084478   -0.006885630939354185   -0.0011312779806447735
-0.004078933056799109   -0.0027243575465412213   -0.0007777720709804358
-0.0023636751406081336   -0.002401476092382929   -0.0006289771087945627
-0.004526828929084478   -0.006885630939354185   -0.0011312779806447735
-0.002357214046336613   -0.00234414978559047   -0.0007796162269431608
-0.004078933056799109   -0.0027243575465412213   -0.0007777720709804358
-0.004526828929084478   -0.006885630939354185   -0.0011312779806447735
-0.0074150029370553365   -0.007176987968509561   -0.0012581947075003368
-0.00726852868196744   -0.007086817308507881   -0.001479893160588961
-0.004078933056799109   -0.0027243575465412213   -0.0007777720709804358
-0.004526828929084478   -0.006885630939354185   -0.0011312779806447735
-0.00726852868196744   -0.007086817308507881   -0.001479893160588961
-0.002357214046336613   -0.00234414978559047   -0.0007796162269431608
-0.004078933056799109   -0.0027243575465412213   -0.0007777720709804358
-0.0074150029370553365   -0.007176987968509561   -0.0012581947075003368
-0.0023636751406081336   -0.002401476092382929   -0.0006289771087945627
-0.004344799742996162   -0.0027841489714485507   -0.0005004222911997719
-0.0074150029370553365   -0.007176987968509561   -0.0012581947075003368
-0.004526828929084478   -0.006885630939354185   -0.0011312779806447735
-0.0023636751406081336   -0.002401476092382929   -0.0006289771087945627
-0.004512978966128568   -0.0069218741485934454   -0.0010058580351807772
-0.004344799742996162   -0.0027841489714485507   -0.0005004222911997719
-0.0023622223155123855   -0.0024162361022445587   -0.00047324080520829115
-0.004512978966128568   -0.0069218741485934454   -0.0010058580351807772
-0.0023636751406081336   -0.002401476092382929   -0.0006289771087945627
-0.004344799742996162   -0.0027841489714485507   -0.0005004222911997719
-0.004512978966128568   -0.0069218741485934454   -0.0010058580351807772
-0.007588114742744245   -0.007229507562461774   -0.0010565376633147746
-0.0074150029370553365   -0.007176987968509561   -0.0012581947075003368
-0.004344799742996162   -0.0027841489714485507   -0.0005004222911997719
-0.004512978966128568   -0.0069218741485934454   -0.0010058580351807772
-0.0074150029370553365   -0.007176987968509561   -0.0012581947075003368
-0.0023636751406081336   -0.002401476092382929   -0.0006289771087945627
-0.002404948777393607   -0.0022323286991454846   -0.0009304939640054503
-0.004504423487143252   -0.006701526067467417   -0.0014047718508631447
-0.001095442544342075   -0.0021402996641439313   -0.0007078329525138773
-0.002357214046336613   -0.00234414978559047   -0.0007796162269431608
-0.004504423487143252   -0.006701526067467417   -0.0014047718508631447
-0.0020906043215512984   -0.006596511541946344   -0.0011989452964634344
-0.001095442544342075   -0.0021402996641439313   -0.0007078329525138773
-0.002072238040100808   -0.0066692613141334945   -0.0011274383035488873
-0.002357214046336613   -0.00234414978559047   -0.0007796162269431608
-0.0010533992093594861   -0.0022130601471176247   -0.0006365825703825103
-0.002072238040100808   -0.0066692613141334945   -0.0011274383035488873
-0.001095442544342075   -0.0021402996641439313   -0.0007078329525138773
-0.002357214046336613   -0.00234414978559047   -0.0007796162269431608
-0.002072238040100808   -0.0066692613141334945   -0.0011274383035488873
-0.004509419244714861   -0.006815885990483166   -0.0012652915283547317
-0.004504423487143252   -0.006701526067467417   -0.0014047718508631447
-0.002357214046336613   -0.00234414978559047   -0.0007796162269431608
-0.002072238040100808   -0.0066692613141334945   -0.0011274383035488873
-0.004504423487143252   -0.006701526067467417   -0.0014047718508631447
-0.001095442544342075   -0.0021402996641439313   -0.0007078329525138773
-0.002357214046336613   -0.00234414978559047   -0.0007796162269431608
-0.004509419244714861   -0.006815885990483166   -0.0012652915283547317
-0.0010533992093594861   -0.0022130601471176247   -0.0006365825703825103
-0.0023636751406081336   -0.002401476092382929   -0.0006289771087945627
-0.004509419244714861   -0.006815885990483166   -0.0012652915283547317
-0.002072238040100808   -0.0066692613141334945   -0.0011274383035488873
-0.0010533992093594861   -0.0022130601471176247   -0.0006365825703825103
-0.0020559253856182458   -0.006704556559101166   -0.001062630185121219
-0.0023636751406081336   -0.002401476092382929   -0.0006289771087945627
-0.0010297100733796364   -0.0022408014195633603   -0.0005672138194892057
-0.0020559253856182458   -0.006704556559101166   -0.001062630185121219
-0.0010533992093594861   -0.0022130601471176247   -0.0006365825703825103
-0.0023636751406081336   -0.002401476092382929   -0.0006289771087945627
-0.0020559253856182458   -0.006704556559101166   -0.001062630185121219
-0.004526828929084478   -0.006885630939354185   -0.0011312779806447735
-0.004509419244714861   -0.006815885990483166   -0.0012652915283547317
-0.0023636751406081336   -0.002401476092382929   -0.0006289771087945627
-0.0020559253856182458   -0.006704556559101166   -0.001062630185121219
-0.004509419244714861   -0.006815885990483166   -0.0012652915283547317
-0.0010533992093594861   -0.0022130601471176247   -0.0006365825703825103
-0.0023636751406081336   -0.002401476092382929   -0.0006289771087945627
-0.004526828929084478   -0.006885630939354185   -0.0011312779806447735
-0.0010297100733796364   -0.0022408014195633603   -0.0005672138194892057
-0.0023622223155123855   -0.0024162361022445587   -0.00047324080520829115
-0.004526828929084478   -0.006885630939354185   -0.0011312779806447735
-0.0020559253856182458   -0.006704556559101166   -0.001062630185121219
-0.0010297100733796364   -0.0022408014195633603   -0.0005672138194892057
-0.0020317359484099766   -0.006703726873099501   -0.0010062241182081156
-0.0023622223155123855   -0.0024162361022445587   -0.00047324080520829115
-0.0010081084232930859   -0.0022292458017755916   -0.0004955209859681973
-0.0020317359484099766   -0.006703726873099501   -0.0010062241182081156
-0.0010297100733796364   -0.0022408014195633603   -0.0005672138194892057
-0.0023622223155123855   -0.0024162361022445587   -0.00047324080520829115
-0.0020317359484099766   -0.006703726873099501   -0.0010062241182081156
-0.004512978966128568   -0.0069218741485934454   -0.0010058580351807772
-0.004526828929084478   -0.006885630939354185   -0.0011312779806447735
-0.0023622223155123855   -0.0024162361022445587   -0.00047324080520829115
-0.0020317359484099766   -0.006703726873099501   -0.0010062241182081156
-0.004526828929084478   -0.006885630939354185   -0.0011312779806447735
-0.0010297100733796364   -0.0022408014195633603   -0.0005672138194892057
-0.001095442544342075   -0.0021402996641439313   -0.0007078329525138773
-0.0020906043215512984   -0.006596511541946344   -0.0011989452964634344
0.00014163531636423373   -0.002152120264388398   -0.0005660089706788857
-0.0010533992093594861   -0.0022130601471176247   -0.0006365825703825103
-0.0020906043215512984   -0.006596511541946344   -0.0011989452964634344
0.00023683933462373513   -0.00659965801814498   -0.0010689022541215795
0.00014163531636423373   -0.002152120264388398   -0.0005660089706788857
0.00025935669333190635   -0.006634066501641849   -0.001064106410293046
-0.0010533992093594861   -0.0022130601471176247   -0.0006365825703825103
0.00016855803809405633   -0.002189806510957027   -0.0005758139847742676
0.00025935669333190635   -0.006634066501641849   -0.001064106410293046
0.00014163531636423373   -0.002152120264388398   -0.0005660089706788857
-0.0010533992093594861   -0.0022130601471176247   -0.0006365825703825103
0.00025935669333190635   -0.006634066501641849   -0.001064106410293046
-0.002072238040100808   -0.0066692613141334945   -0.0011274383035488873
-0.0020906043215512984   -0.006596511541946344   -0.0011989452964634344
-0.0010533992093594861   -0.0022130601471176247   -0.0006365825703825103
0.00025935669333190635   -0.006634066501641849   -0.001064106410293046
-0.0020906043215512984   -0.006596511541946344   -0.0011989452964634344
0.00014163531636423373   -0.002152120264388398   -0.0005660089706788857
-0.0010533992093594861   -0.0022130601471176247   -0.0006365825703825103
-0.002072238040100808   -0.0066692613141334945   -0.0011274383035488873
0.00016855803809405633   -0.002189806510957027   -0.0005758139847742676
-0.0010297100733796364   -0.0022408014195633603   -0.0005672138194892057
-0.002072238040100808   -0.0066692613141334945   -0.0011274383035488873
0.00025935669333190635   -0.006634066501641849   -0.001064106410293046
0.00016855803809405633   -0.002189806510957027   -0.0005758139847742676
0.00027461233391520406   -0.0066318973090451405   -0.001066912425154632
-0.0010297100733796364   -0.0022408014195633603   -0.0005672138194892057
0.00018983182917952683   -0.002186659327717203   -0.000584688865115668
0.00027461233391520406   -0.0066318973090451405   -0.001066912425154632
0.00016855803809405633   -0.002189806510957027   -0.0005758139847742676
-0.0010297100733796364   -0.0022408014195633603   -0.0005672138194892057
0.00027461233391520406   -0.0066318973090451405   -0.001066912425154632
-0.0020559253856182458   -0.006704556559101166   -0.001062630185121219
-0.002072238040100808   -0.0066692613141334945   -0.0011274383035488873
-0.0010297100733796364   -0.0022408014195633603   -0.0005672138194892057
0.00027461233391520406   -0.0066318973090451405   -0.001066912425154632
-0.002072238040100808   -0.0066692613141334945   -0.0011274383035488873
0.00016855803809405633   -0.002189806510957027   -0.0005758139847742676
-0.0010297100733796364   -0.0022408014195633603   -0.0005672138194892057
-0.0020559253856182458   -0.006704556559101166   -0.001062630185121219
0.00018983182917952683   -0.002186659327717203   -0.000584688865115668
-0.0010081084232930859   -0.0022292458017755916   -0.0004955209859681973
-0.0020559253856182458   -0.006704556559101166   -0.001062630185121219
0.00027461233391520406   -0.0066318973090451405   -0.001066912425154632
0.00018983182917952683   -0.002186659327717203   -0.000584688865115668
0.00029095477764598787   -0.006592035871227933   -0.0010774400849741159
-0.0010081084232930859   -0.0022292458017755916   -0.0004955209859681973
0.0002183938516546741   -0.0021393336651017412   -0.0005938321020109987
0.00029095477764598787   -0.006592035871227933   -0.0010774400849741159
0.00018983182917952683   -0.002186659327717203   -0.000584688865115668
-0.0010081084232930859   -0.0022292458017755916   -0.0004955209859681973
0.00029095477764598787   -0.006592035871227933   -0.0010774400849741159
-0.0020317359484099766   -0.006703726873099501   -0.0010062241182081156
-0.0020559253856182458   -0.006704556559101166   -0.001062630185121219
-0.0010081084232930859   -0.0022292458017755916   -0.0004955209859681973
0.00029095477764598787   -0.006592035871227933   -0.0010774400849741159
-0.0020559253856182458   -0.006704556559101166   -0.001062630185121219
0.00018983182917952683   -0.002186659327717203   -0.000584688865115668
0.00014163531636423373   -0.002152120264388398   -0.0005660089706788857
0.00023683933462373513   -0.00659965801814498   -0.0010689022541215795
0.0014846234274069924   -0.002256599552897127   -0.0004959545924713124
0.00016855803809405633   -0.002189806510957027   -0.0005758139847742676
0.00023683933462373513   -0.00659965801814498   -0.0010689022541215795
0.0027034613445133973   -0.006707067783947566   -0.0010083798778216947
0.0014846234274069924   -0.002256599552897127   -0.0004959545924713124
0.002716401564305747   -0.006706625905492481   -0.0010724562170412789
0.00016855803809405633   -0.002189806510957027   -0.0005758139847742676
0.0014874751376259506   -0.0022685384989995622   -0.0005910497334553549
0.002716401564305747   -0.006706625905492481   -0.0010724562170412789
0.0014846234274069924   -0.002256599552897127   -0.0004959545924713124
0.00016855803809405633   -0.002189806510957027   -0.0005758139847742676
0.002716401564305747   -0.006706625905492481   -0.0010724562170412789
0.00025935669333190635   -0.006634066501641849   -0.001064106410293046
0.00023683933462373513   -0.00659965801814498   -0.0010689022541215795
0.00016855803809405633   -0.002189806510957027   -0.0005758139847742676
0.002716401564305747   -0.006706625905492481   -0.0010724562170412789
0.00023683933462373513   -0.00659965801814498   -0.0010689022541215795
0.0014846234274069924   -0.002256599552897127   -0.0004959545924713124
0.00016855803809405633   -0.002189806510957027   -0.0005758139847742676
0.00025935669333190635   -0.006634066501641849   -0.001064106410293046
0.0014874751376259506   -0.0022685384989995622   -0.0005910497334553549
0.00018983182917952683   -0.002186659327717203   -0.000584688865115668
0.00025935669333190635   -0.006634066501641849   -0.001064106410293046
0.002716401564305747   -0.006706625905492481   -0.0010724562170412789
0.0014874751376259506   -0.0022685384989995622   -0.0005910497334553549
0.002704241041242619   -0.006670327507941201   -0.0011451329389528023
0.00018983182917952683   -0.002186659327717203   -0.000584688865115668
0.0014812870225403834   -0.002236146143122631   -0.0006823059015554577
0.002704241041242619   -0.006670327507941201   -0.0011451329389528023
0.0014874751376259506   -0.0022685384989995622   -0.0005910497334553549
0.00018983182917952683   -0.002186659327717203   -0.000584688865115668
0.002704241041242619   -0.006670327507941201   -0.0011451329389528023
0.00027461233391520406   -0.0066318973090451405   -0.001066912425154632
0.00025935669333190635   -0.006634066501641849   -0.001064106410293046
0.00018983182917952683   -0.002186659327717203   -0.000584688865115668
0.002704241041242619   -0.006670327507941201   -0.0011451329389528023
0.00025935669333190635   -0.006634066501641849   -0.001064106410293046
0.0014874751376259506   -0.0022685384989995622   -0.0005910497334553549
0.00018983182917952683   -0.002186659327717203   -0.000584688865115668
0.00027461233391520406   -0.0066318973090451405   -0.001066912425154632
0.0014812870225403834   -0.002236146143122631   -0.0006823059015554577
0.0002183938516546741   -0.0021393336651017412   -0.0005938321020109987
0.00027461233391520406   -0.0066318973090451405   -0.001066912425154632
0.002704241041242619   -0.006670327507941201   -0.0011451329389528023
0.0014812870225403834   -0.002236146143122631   -0.0006823059015554577
0.0026974144642762125   -0.006588262992074544   -0.0012237197825569533
0.0002183938516546741   -0.0021393336651017412   -0.0005938321020109987
0.0015101504773995947   -0.0021495281720597978   -0.0007718477824496223
0.0026974144642762125   -0.006588262992074544   -0.0012237197825569533
0.0014812870225403834   -0.002236146143122631   -0.0006823059015554577
0.0002183938516546741   -0.0021393336651017412   -0.0005938321020109987
0.0026974144642762125   -0.006588262992074544   -0.0012237197825569533
0.00029095477764598787   -0.006592035871227933   -0.0010774400849741159
0.00027461233391520406   -0.0066318973090451405   -0.001066912425154632
0.0002183938516546741   -0.0021393336651017412   -0.0005938321020109987
0.0026974144642762125   -0.006588262992074544   -0.0012237197825569533
0.00027461233391520406   -0.0066318973090451405   -0.001066912425154632
0.0014812870225403834   -0.002236146143122631   -0.0006823059015554577
0.0014846234274069924   -0.002256599552897127   -0.0004959545924713124
0.0027034613445133973   -0.006707067783947566   -0.0010083798778216947
0.0033528692568299337   -0.0025215395585805956   -0.00046817651210432335
0.0014874751376259506   -0.0022685384989995622   -0.0005910497334553549
0.0027034613445133973   -0.006707067783947566   -0.0010083798778216947
0.005680479807617215   -0.00690664641744251   -0.0009923927261946241
0.0033528692568299337   -0.0025215395585805956   -0.00046817651210432335
0.0055655022207198495   -0.006887624191709595   -0.0011366016069920214
0.0014874751376259506   -0.0022685384989995622   -0.0005910497334553549
0.0031491604261577716   -0.002493893164413503   -0.0006838576372667489
0.0055655022207198495   -0.006887624191709595   -0.0011366016069920214
0.0033528692568299337   -0.0025215395585805956   -0.00046817651210432335
0.0014874751376259506   -0.0022685384989995622   -0.0005910497334553549
0.0055655022207198495   -0.006887624191709595   -0.0011366016069920214
0.002716401564305747   -0.006706625905492481   -0.0010724562170412789
0.0027034613445133973   -0.006707067783947566   -0.0010083798778216947
0.0014874751376259506   -0.0022685384989995622   -0.0005910497334553549
0.0055655022207198495   -0.006887624191709595   -0.0011366016069920214
0.0027034613445133973   -0.006707067783947566   -0.0010083798778216947
0.0033528692568299337   -0.0025215395585805956   -0.00046817651210432335
0.0014874751376259506   -0.0022685384989995622   -0.0005910497334553549
0.002716401564305747   -0.006706625905492481   -0.0010724562170412789
0.0031491604261577716   -0.002493893164413503   -0.0006838576372667489
0.0014812870225403834   -0.002236146143122631   -0.0006823059015554577
0.002716401564305747   -0.006706625905492481   -0.0010724562170412789
0.0055655022207198495   -0.006887624191709595   -0.0011366016069920214
0.0031491604261577716   -0.002493893164413503   -0.0006838576372667489
0.00546269843464181   -0.006831686931587781   -0.0012989015183905916
0.0014812870225403834   -0.002236146143122631   -0.0006823059015554577
0.003055304583922052   -0.0024420457615590033   -0.0008662671540807984
0.00546269843464181   -0.006831686931587781   -0.0012989015183905916
0.0031491604261577716   -0.002493893164413503   -0.0006838576372667489
0.0014812870225403834   -0.002236146143122631   -0.0006823059015554577
0.00546269843464181   -0.006831686931587781   -0.0012989015183905916
0.002704241041242619   -0.006670327507941201   -0.0011451329389528023
0.002716401564305747   -0.006706625905492481   -0.0010724562170412789
0.0014812870225403834   -0.002236146143122631   -0.0006823059015554577
0.00546269843464181   -0.006831686931587781   -0.0012989015183905916
0.002716401564305747   -0.006706625905492481   -0.0010724562170412789
0.0031491604261577716   -0.002493893164413503   -0.0006838576372667489
0.0014812870225403834   -0.002236146143122631   -0.0006823059015554577
0.002704241041242619   -0.006670327507941201   -0.0011451329389528023
0.003055304583922052   -0.0024420457615590033   -0.0008662671540807984
0.0015101504773995947   -0.0021495281720597978   -0.0007718477824496223
0.002704241041242619   -0.006670327507941201   -0.0011451329389528023
0.00546269843464181   -0.006831686931587781   -0.0012989015183905916
0.003055304583922052   -0.0024420457615590033   -0.0008662671540807984
0.005308399741785789   -0.006707365719409271   -0.0014678911324071326
0.0015101504773995947   -0.0021495281720597978   -0.0007718477824496223
0.002915452059821337   -0.0023094794243231818   -0.0010593480205538142
0.005308399741785789   -0.006707365719409271   -0.0014678911324071326
0.003055304583922052   -0.0024420457615590033   -0.0008662671540807984
0.0015101504773995947   -0.0021495281720597978   -0.0007718477824496223
0.005308399741785789   -0.006707365719409271   -0.0014678911324071326
0.0026974144642762125   -0.006588262992074544   -0.0012237197825569533
0.002704241041242619   -0.006670327507941201   -0.0011451329389528023
0.0015101504773995947   -0.0021495281720597978   -0.0007718477824496223
0.005308399741785789   -0.006707365719409271   -0.0014678911324071326
0.002704241041242619   -0.006670327507941201   -0.0011451329389528023
0.003055304583922052   -0.0024420457615590033   -0.0008662671540807984
-0.007057513419004962   -0.006927205920461822   -0.0017063377310403858
-0.009666851153792696   -0.012984610765050409   -0.0019438876430777586
-0.004504423487143252   -0.006701526067467417   -0.0014047718508631447
-0.00726852868196744   -0.007086817308507881   -0.001479893160588961
-0.009666851153792696   -0.012984610765050409   -0.0019438876430777586
-0.006215468590833709   -0.012812251993396397   -0.0016994962745165113
-0.004504423487143252   -0.006701526067467417   -0.0014047718508631447
-0.006228687637097666   -0.012910890293042411   -0.0015913455511358384
-0.00726852868196744   -0.007086817308507881   -0.001479893160588961
-0.004509419244714861   -0.006815885990483166   -0.0012652915283547317
-0.006228687637097666   -0.012910890293042411   -0.0015913455511358384
-0.004504423487143252   -0.006701526067467417   -0.0014047718508631447
-0.00726852868196744   -0.007086817308507881   -0.001479893160588961
-0.006228687637097666   -0.012910890293042411   -0.0015913455511358384
-0.009838185944560195   -0.013119440185642803   -0.0017751577972798653
-0.009666851153792696   -0.012984610765050409   -0.0019438876430777586
-0.00726852868196744   -0.007086817308507881   -0.001479893160588961
-0.006228687637097666   -0.012910890293042411   -0.0015913455511358384
-0.009666851153792696   -0.012984610765050409   -0.0019438876430777586
-0.004504423487143252   -0.006701526067467417   -0.0014047718508631447
-0.00726852868196744   -0.007086817308507881   -0.001479893160588961
-0.009838185944560195   -0.013119440185642803   -0.0017751577972798653
-0.004509419244714861   -0.006815885990483166   -0.0012652915283547317
-0.0074150029370553365   -0.007176987968509561   -0.0012581947075003368
-0.009838185944560195   -0.013119440185642803   -0.0017751577972798653
-0.006228687637097666   -0.012910890293042411   -0.0015913455511358384
-0.004509419244714861   -0.006815885990483166   -0.0012652915283547317
-0.006244303961185427   -0.012979571326756938   -0.0014910367682297856
-0.0074150029370553365   -0.007176987968509561   -0.0012581947075003368
-0.004526828929084478   -0.006885630939354185   -0.0011312779806447735
-0.006244303961185427   -0.012979571326756938   -0.0014910367682297856
-0.004509419244714861   -0.006815885990483166   -0.0012652915283547317
-0.0074150029370553365   -0.007176987968509561   -0.0012581947075003368
-0.006244303961185427   -0.012979571326756938   -0.0014910367682297856
-0.009946009922521861   -0.013204030044106111   -0.0016179216575972328
-0.009838185944560195   -0.013119440185642803   -0.0017751577972798653
-0.0074150029370553365   -0.007176987968509561   -0.0012581947075003368
-0.006244303961185427   -0.012979571326756938   -0.0014910367682297856
-0.009838185944560195   -0.013119440185642803   -0.0017751577972798653
-0.004509419244714861   -0.006815885990483166   -0.0012652915283547317
-0.0074150029370553365   -0.007176987968509561   -0.0012581947075003368
-0.009946009922521861   -0.013204030044106111   -0.0016179216575972328
-0.004526828929084478   -0.006885630939354185   -0.0011312779806447735
-0.007588114742744245   -0.007229507562461774   -0.0010565376633147746
-0.009946009922521861   -0.013204030044106111   -0.0016179216575972328
-0.006244303961185427   -0.012979571326756938   -0.0014910367682297856
-0.004526828929084478   -0.006885630939354185   -0.0011312779806447735
-0.0062321662785272715   -0.013024814522644451   -0.0013968982112957872
-0.007588114742744245   -0.007229507562461774   -0.0010565376633147746
-0.004512978966128568   -0.0069218741485934454   -0.0010058580351807772
-0.0062321662785272715   -0.013024814522644451   -0.0013968982112957872
-0.004526828929084478   -0.006885630939354185   -0.0011312779806447735
-0.007588114742744245   -0.007229507562461774   -0.0010565376633147746
-0.0062321662785272715   -0.013024814522644451   -0.0013968982112957872
-0.01006869142945032   -0.013264958564427047   -0.0014732544609056106
-0.009946009922521861   -0.013204030044106111   -0.0016179216575972328
-0.007588114742744245   -0.007229507562461774   -0.0010565376633147746
-0.0062321662785272715   -0.013024814522644451   -0.0013968982112957872
-0.009946009922521861   -0.013204030044106111   -0.0016179216575972328
-0.004526828929084478   -0.006885630939354185   -0.0011312779806447735
-0.004504423487143252   -0.006701526067467417   -0.0014047718508631447
-0.006215468590833709   -0.012812251993396397   -0.0016994962745165113
-0.0020906043215512984   -0.006596511541946344   -0.0011989452964634344
-0.004509419244714861   -0.006815885990483166   -0.0012652915283547317
-0.006215468590833709   -0.012812251993396397   -0.0016994962745165113
-0.002961884227328787   -0.012726277011738868   -0.001529723813057754
-0.0020906043215512984   -0.006596511541946344   -0.0011989452964634344
-0.002954062383056507   -0.012789314898438308   -0.0014685603988058476
-0.004509419244714861   -0.006815885990483166   -0.0012652915283547317
-0.002072238040100808   -0.0066692613141334945   -0.0011274383035488873
-0.002954062383056507   -0.012789314898438308   -0.0014685603988058476
-0.0020906043215512984   -0.006596511541946344   -0.0011989452964634344
-0.004509419244714861   -0.006815885990483166   -0.0012652915283547317
-0.002954062383056507   -0.012789314898438308   -0.0014685603988058476
-0.006228687637097666   -0.012910890293042411   -0.0015913455511358384
-0.006215468590833709   -0.012812251993396397   -0.0016994962745165113
-0.004509419244714861   -0.006815885990483166   -0.0012652915283547317
-0.002954062383056507   -0.012789314898438308   -0.0014685603988058476
-0.006215468590833709   -0.012812251993396397   -0.0016994962745165113
-0.0020906043215512984   -0.006596511541946344   -0.0011989452964634344
-0.004509419244714861   -0.006815885990483166   -0.0012652915283547317
-0.006228687637097666   -0.012910890293042411   -0.0015913455511358384
-0.002072238040100808   -0.0066692613141334945   -0.0011274383035488873
-0.004526828929084478   -0.006885630939354185   -0.0011312779806447735
-0.006228687637097666   -0.012910890293042411   -0.0015913455511358384
-0.002954062383056507   -0.012789314898438308   -0.0014685603988058476
-0.002072238040100808   -0.0066692613141334945   -0.0011274383035488873
-0.0029445745135787955   -0.012826357775238965   -0.00141486170634428
-0.004526828929084478   -0.006885630939354185   -0.0011312779806447735
-0.0020559253856182458   -0.006704556559101166   -0.001062630185121219
-0.0029445745135787955   -0.012826357775238965   -0.00141486170634428
-0.002072238040100808   -0.0066692613141334945   -0.0011274383035488873
-0.004526828929084478   -0.006885630939354185   -0.0011312779806447735
-0.0029445745135787955   -0.012826357775238965   -0.00141486170634428
-0.006244303961185427   -0.012979571326756938   -0.0014910367682297856
-0.006228687637097666   -0.012910890293042411   -0.0015913455511358384
-0.004526828929084478   -0.006885630939354185   -0.0011312779806447735
-0.0029445745135787955   -0.012826357775238965   -0.00141486170634428
-0.006228687637097666   -0.012910890293042411   -0.0015913455511358384
-0.002072238040100808   -0.0066692613141334945   -0.0011274383035488873
-0.004526828929084478   -0.006885630939354185   -0.0011312779806447735
-0.006244303961185427   -0.012979571326756938   -0.0014910367682297856
-0.0020559253856182458   -0.006704556559101166   -0.001062630185121219
-0.004512978966128568   -0.0069218741485934454   -0.0010058580351807772
-0.006244303961185427   -0.012979571326756938   -0.0014910367682297856
-0.0029445745135787955   -0.012826357775238965   -0.00141486170634428
-0.0020559253856182458   -0.006704556559101166   -0.001062630185121219
-0.002929230330839045   -0.012837935115904872   -0.0013686067183542928
-0.004512978966128568   -0.0069218741485934454   -0.0010058580351807772
-0.0020317359484099766   -0.006703726873099501   -0.0010062241182081156
-0.002929230330839045   -0.012837935115904872   -0.0013686067183542928
-0.0020559253856182458   -0.006704556559101166   -0.001062630185121219
-0.004512978966128568   -0.0069218741485934454   -0.0010058580351807772
-0.002929230330839045   -0.012837935115904872   -0.0013686067183542928
-0.0062321662785272715   -0.013024814522644451   -0.0013968982112957872
-0.006244303961185427   -0.012979571326756938   -0.0014910367682297856
-0.004512978966128568   -0.0069218741485934454   -0.0010058580351807772
-0.002929230330839045   -0.012837935115904872   -0.0013686067183542928
-0.006244303961185427   -0.012979571326756938   -0.0014910367682297856
-0.0020559253856182458   -0.006704556559101166   -0.001062630185121219
-0.0020906043215512984   -0.006596511541946344   -0.0011989452964634344
-0.002961884227328787   -0.012726277011738868   -0.001529723813057754
0.00023683933462373513   -0.00659965801814498   -0.0010689022541215795
-0.002072238040100808   -0.0066692613141334945   -0.0011274383035488873
-0.002961884227328787   -0.012726277011738868   -0.001529723813057754
0.00019597098150236152   -0.012721693497565217   -0.0014245572322604317
0.00023683933462373513   -0.00659965801814498   -0.0010689022541215795
0.00021003262318952402   -0.012749678602807842   -0.0014101320741276109
-0.002072238040100808   -0.0066692613141334945   -0.0011274383035488873
0.00025935669333190635   -0.006634066501641849   -0.001064106410293046
0.00021003262318952402   -0.012749678602807842   -0.0014101320741276109
0.00023683933462373513   -0.00659965801814498   -0.0010689022541215795
-0.002072238040100808   -0.0066692613141334945   -0.0011274383035488873
0.00021003262318952402   -0.012749678602807842   -0.0014101320741276109
-0.002954062383056507   -0.012789314898438308   -0.0014685603988058476
-0.002961884227328787   -0.012726277011738868   -0.001529723813057754
-0.002072238040100808   -0.0066692613141334945   -0.0011274383035488873
0.00021003262318952402   -0.012749678602807842   -0.0014101320741276109
-0.002961884227328787   -0.012726277011738868   -0.001529723813057754
0.00023683933462373513   -0.00659965801814498   -0.0010689022541215795
-0.002072238040100808   -0.0066692613141334945   -0.0011274383035488873
-0.002954062383056507   -0.012789314898438308   -0.0014685603988058476
0.00025935669333190635   -0.006634066501641849   -0.001064106410293046
-0.0020559253856182458   -0.006704556559101166   -0.001062630185121219
-0.002954062383056507   -0.012789314898438308   -0.0014685603988058476
0.00021003262318952402   -0.012749678602807842   -0.0014101320741276109
0.00025935669333190635   -0.006634066501641849   -0.001064106410293046
0.00021919147739337658   -0.012751772203806707   -0.0014029780619382625
-0.0020559253856182458   -0.006704556559101166   -0.001062630185121219
0.00027461233391520406   -0.0066318973090451405   -0.001066912425154632
0.00021919147739337658   -0.012751772203806707   -0.0014029780619382625
0.00025935669333190635   -0.006634066501641849   -0.001064106410293046
-0.0020559253856182458   -0.006704556559101166   -0.001062630185121219
0.00021919147739337658   -0.012751772203806707   -0.0014029780619382625
-0.0029445745135787955   -0.012826357775238965   -0.00141486170634428
-0.002954062383056507   -0.012789314898438308   -0.0014685603988058476
-0.0020559253856182458   -0.006704556559101166   -0.001062630185121219
0.00021919147739337658   -0.012751772203806707   -0.0014029780619382625
-0.002954062383056507   -0.012789314898438308   -0.0014685603988058476
0.00025935669333190635   -0.006634066501641849   -0.001064106410293046
-0.0020559253856182458   -0.006704556559101166   -0.001062630185121219
-0.0029445745135787955   -0.012826357775238965   -0.00141486170634428
0.00027461233391520406   -0.0066318973090451405   -0.001066912425154632
-0.0020317359484099766   -0.006703726873099501   -0.0010062241182081156
-0.0029445745135787955   -0.012826357775238965   -0.00141486170634428
0.00021919147739337658   -0.012751772203806707   -0.0014029780619382625
0.00027461233391520406   -0.0066318973090451405   -0.001066912425154632
0.00022593304171396282   -0.012727588849157916   -0.0014035354886404571
-0.0020317359484099766   -0.006703726873099501   -0.0010062241182081156
0.00029095477764598787   -0.006592035871227933   -0.0010774400849741159
0.00022593304171396282   -0.012727588849157916   -0.0014035354886404571
0.00027461233391520406   -0.0066318973090451405   -0.001066912425154632
-0.0020317359484099766   -0.006703726873099501   -0.0010062241182081156
0.00022593304171396282   -0.012727588849157916   -0.0014035354886404571
-0.002929230330839045   -0.012837935115904872   -0.0013686067183542928
-0.0029445745135787955   -0.012826357775238965   -0.00141486170634428
-0.0020317359484099766   -0.006703726873099501   -0.0010062241182081156
0.00022593304171396282   -0.012727588849157916   -0.0014035354886404571
-0.0029445745135787955   -0.012826357775238965   -0.00141486170634428
0.00027461233391520406   -0.0066318973090451405   -0.001066912425154632
0.00023683933462373513   -0.00659965801814498   -0.0010689022541215795
0.00019597098150236152   -0.012721693497565217   -0.0014245572322604317
0.0027034613445133973   -0.006707067783947566   -0.0010083798778216947
0.00025935669333190635   -0.006634066501641849   -0.001064106410293046
0.00019597098150236152   -0.012721693497565217   -0.0014245572322604317
0.003488721683164385   -0.012793659643683748   -0.0013822119516390602
0.0027034613445133973   -0.006707067783947566   -0.0010083798778216947
0.0035010970590960925   -0.012789500894575593   -0.0014154922837466884
0.00025935669333190635   -0.006634066501641849   -0.001064106410293046
0.002716401564305747   -0.006706625905492481   -0.0010724562170412789
0.0035010970590960925   -0.012789500894575593   -0.0014154922837466884
0.0027034613445133973   -0.006707067783947566   -0.0010083798778216947
0.00025935669333190635   -0.006634066501641849   -0.001064106410293046
0.0035010970590960925   -0.012789500894575593   -0.0014154922837466884
0.00021003262318952402   -0.012749678602807842   -0.0014101320741276109
0.00019597098150236152   -0.012721693497565217   -0.0014245572322604317
0.00025935669333190635   -0.006634066501641849   -0.001064106410293046
0.0035010970590960925   -0.012789500894575593   -0.0014154922837466884
0.00019597098150236152   -0.012721693497565217   -0.0014245572322604317
0.0027034613445133973   -0.006707067783947566   -0.0010083798778216947
0.00025935669333190635   -0.006634066501641849   -0.001064106410293046
0.00021003262318952402   -0.012749678602807842   -0.0014101320741276109
0.002716401564305747   -0.006706625905492481   -0.0010724562170412789
0.00027461233391520406   -0.0066318973090451405   -0.001066912425154632
0.00021003262318952402   -0.012749678602807842   -0.0014101320741276109
0.0035010970590960925   -0.012789500894575593   -0.0014154922837466884
0.002716401564305747   -0.006706625905492481   -0.0010724562170412789
0.003492705578513026   -0.01276002065110795   -0.0014555094879835683
0.00027461233391520406   -0.0066318973090451405   -0.001066912425154632
0.002704241041242619   -0.006670327507941201   -0.0011451329389528023
0.003492705578513026   -0.01276002065110795   -0.0014555094879835683
0.002716401564305747   -0.006706625905492481   -0.0010724562170412789
0.00027461233391520406   -0.0066318973090451405   -0.001066912425154632
0.003492705578513026   -0.01276002065110795   -0.0014555094879835683
0.00021919147739337658   -0.012751772203806707   -0.0014029780619382625
0.00021003262318952402   -0.012749678602807842   -0.0014101320741276109
0.00027461233391520406   -0.0066318973090451405   -0.001066912425154632
0.003492705578513026   -0.01276002065110795   -0.0014555094879835683
0.00021003262318952402   -0.012749678602807842   -0.0014101320741276109
0.002716401564305747   -0.006706625905492481   -0.0010724562170412789
0.00027461233391520406   -0.0066318973090451405   -0.001066912425154632
0.00021919147739337658   -0.012751772203806707   -0.0014029780619382625
0.002704241041242619   -0.006670327507941201   -0.0011451329389528023
0.00029095477764598787   -0.006592035871227933   -0.0010774400849741159
0.00021919147739337658   -0.012751772203806707   -0.0014029780619382625
0.003492705578513026   -0.01276002065110795   -0.0014555094879835683
0.002704241041242619   -0.006670327507941201   -0.0011451329389528023
0.0034798689235589183   -0.012698932480047885   -0.0015030630123213705
0.00029095477764598787   -0.006592035871227933   -0.0010774400849741159
0.0026974144642762125   -0.006588262992074544   -0.0012237197825569533
0.0034798689235589183   -0.012698932480047885   -0.0015030630123213705
0.002704241041242619   -0.006670327507941201   -0.0011451329389528023
0.00029095477764598787   -0.006592035871227933   -0.0010774400849741159
0.0034798689235589183   -0.012698932480047885   -0.0015030630123213705
0.00022593304171396282   -0.012727588849157916   -0.0014035354886404571
0.00021919147739337658   -0.012751772203806707   -0.0014029780619382625
0.00029095477764598787   -0.006592035871227933   -0.0010774400849741159
0.0034798689235589183   -0.012698932480047885   -0.0015030630123213705
0.00021919147739337658   -0.012751772203806707   -0.0014029780619382625
0.002704241041242619   -0.006670327507941201   -0.0011451329389528023
0.0027034613445133973   -0.006707067783947566   -0.0010083798778216947
0.003488721683164385   -0.012793659643683748   -0.0013822119516390602
0.005680479807617215   -0.00690664641744251   -0.0009923927261946241
0.002716401564305747   -0.006706625905492481   -0.0010724562170412789
0.003488721683164385   -0.012793659643683748   -0.0013822119516390602
0.007238918687594459   -0.012924095042329596   -0.0013834282402442621
0.005680479807617215   -0.00690664641744251   -0.0009923927261946241
0.007176663365238214   -0.012901391532668626   -0.0014705059827039007
0.002716401564305747   -0.006706625905492481   -0.0010724562170412789
0.0055655022207198495   -0.006887624191709595   -0.0011366016069920214
0.007176663365238214   -0.012901391532668626   -0.0014705059827039007
0.005680479807617215   -0.00690664641744251   -0.0009923927261946241
0.002716401564305747   -0.006706625905492481   -0.0010724562170412789
0.007176663365238214   -0.012901391532668626   -0.0014705059827039007
0.0035010970590960925   -0.012789500894575593   -0.0014154922837466884
0.003488721683164385   -0.012793659643683748   -0.0013822119516390602
0.002716401564305747   -0.006706625905492481   -0.0010724562170412789
0.007176663365238214   -0.012901391532668626   -0.0014705059827039007
0.003488721683164385   -0.012793659643683748   -0.0013822119516390602
0.005680479807617215   -0.00690664641744251   -0.0009923927261946241
0.002716401564305747   -0.006706625905492481   -0.0010724562170412789
0.0035010970590960925   -0.012789500894575593   -0.0014154922837466884
0.0055655022207198495   -0.006887624191709595   -0.0011366016069920214
0.002704241041242619   -0.006670327507941201   -0.0011451329389528023
0.0035010970590960925   -0.012789500894575593   -0.0014154922837466884
0.007176663365238214   -0.012901391532668626   -0.0014705059827039007
0.0055655022207198495   -0.006887624191709595   -0.0011366016069920214
0.0071144185974064715   -0.012856031589736087   -0.001569732371825627
0.002704241041242619   -0.006670327507941201   -0.0011451329389528023
0.00546269843464181   -0.006831686931587781   -0.0012989015183905916
0.0071144185974064715   -0.012856031589736087   -0.001569732371825627
0.0055655022207198495   -0.006887624191709595   -0.0011366016069920214
0.002704241041242619   -0.006670327507941201   -0.0011451329389528023
0.0071144185974064715   -0.012856031589736087   -0.001569732371825627
0.003492705578513026   -0.01276002065110795   -0.0014555094879835683
0.0035010970590960925   -0.012789500894575593   -0.0014154922837466884
0.002704241041242619   -0.006670327507941201   -0.0011451329389528023
0.0071144185974064715   -0.012856031589736087   -0.001569732371825627
0.0035010970590960925   -0.012789500894575593   -0.0014154922837466884
0.0055655022207198495   -0.006887624191709595   -0.0011366016069920214
0.002704241041242619   -0.006670327507941201   -0.0011451329389528023
0.003492705578513026   -0.01276002065110795   -0.0014555094879835683
0.00546269843464181   -0.006831686931587781   -0.0012989015183905916
0.0026974144642762125   -0.006588262992074544   -0.0012237197825569533
0.003492705578513026   -0.01276002065110795   -0.0014555094879835683
0.0071144185974064715   -0.012856031589736087   -0.001569732371825627
0.00546269843464181   -0.006831686931587781   -0.0012989015183905916
0.007003371753306623   -0.012761042324503152   -0.001681120506450196
0.0026974144642762125   -0.006588262992074544   -0.0012237197825569533
0.005308399741785789   -0.006707365719409271   -0.0014678911324071326
0.007003371753306623   -0.012761042324503152   -0.001681120506450196
0.00546269843464181   -0.006831686931587781   -0.0012989015183905916
0.0026974144642762125   -0.006588262992074544   -0.0012237197825569533
0.007003371753306623   -0.012761042324503152   -0.001681120506450196
0.0034798689235589183   -0.012698932480047885   -0.0015030630123213705
0.003492705578513026   -0.01276002065110795   -0.0014555094879835683
0.0026974144642762125   -0.006588262992074544   -0.0012237197825569533
0.007003371753306623   -0.012761042324503152   -0.001681120506450196
0.003492705578513026   -0.01276002065110795   -0.0014555094879835683
0.00546269843464181   -0.006831686931587781   -0.0012989015183905916
-0.009666851153792696   -0.012984610765050409   -0.0019438876430777586
-0.011540543188696606   -0.020163332964275717   -0.0020736286659835865
-0.006215468590833709   -0.012812251993396397   -0.0016994962745165113
-0.009838185944560195   -0.013119440185642803   -0.0017751577972798653
-0.011540543188696606   -0.020163332964275717   -0.0020736286659835865
-0.007491821703089485   -0.020053770693175064   -0.0018745478799539138
-0.006215468590833709   -0.012812251993396397   -0.0016994962745165113
-0.007500383697796815   -0.020138548631299616   -0.0017971877588941272
-0.009838185944560195   -0.013119440185642803   -0.0017751577972798653
-0.006228687637097666   -0.012910890293042411   -0.0015913455511358384
-0.007500383697796815   -0.020138548631299616   -0.0017971877588941272
-0.006215468590833709   -0.012812251993396397   -0.0016994962745165113
-0.009838185944560195   -0.013119440185642803   -0.0017751577972798653
-0.007500383697796815   -0.020138548631299616   -0.0017971877588941272
-0.011655702113304984   -0.020278049038782688   -0.001961711390266352
-0.011540543188696606   -0.020163332964275717   -0.0020736286659835865
-0.009838185944560195   -0.013119440185642803   -0.0017751577972798653
-0.007500383697796815   -0.020138548631299616   -0.0017971877588941272
-0.011540543188696606   -0.020163332964275717   -0.0020736286659835865
-0.006215468590833709   -0.012812251993396397   -0.0016994962745165113
-0.009838185944560195   -0.013119440185642803   -0.0017751577972798653
-0.011655702113304984   -0.020278049038782688   -0.001961711390266352
-0.006228687637097666   -0.012910890293042411   -0.0015913455511358384
-0.009946009922521861   -0.013204030044106111   -0.0016179216575972328
-0.011655702113304984   -0.020278049038782688   -0.001961711390266352
-0.007500383697796815   -0.020138548631299616   -0.0017971877588941272
-0.006228687637097666   -0.012910890293042411   -0.0015913455511358384
-0.007506348303972929   -0.020205800429298666   -0.001727544565873237
-0.009946009922521861   -0.013204030044106111   -0.0016179216575972328
-0.006244303961185427   -0.012979571326756938   -0.0014910367682297856
-0.007506348303972929   -0.020205800429298666   -0.001727544565873237
-0.006228687637097666   -0.012910890293042411   -0.0015913455511358384
-0.009946009922521861   -0.013204030044106111   -0.0016179216575972328
-0.007506348303972929   -0.020205800429298666   -0.001727544565873237
-0.011721557072821765   -0.020359262020509878   -0.0018605527952575804
-0.011655702113304984   -0.020278049038782688   -0.001961711390266352
-0.009946009922521861   -0.013204030044106111   -0.0016179216575972328
-0.007506348303972929   -0.020205800429298666   -0.001727544565873237
-0.011655702113304984   -0.020278049038782688   -0.001961711390266352
-0.006228687637097666   -0.012910890293042411   -0.0015913455511358384
-0.009946009922521861   -0.013204030044106111   -0.0016179216575972328
-0.011721557072821765   -0.020359262020509878   -0.0018605527952575804
-0.006244303961185427   -0.012979571326756938   -0.0014910367682297856
-0.01006869142945032   -0.013264958564427047   -0.0014732544609056106
-0.011721557072821765   -0.020359262020509878   -0.0018605527952575804
-0.007506348303972929   -0.020205800429298666   -0.001727544565873237
-0.006244303961185427   -0.012979571326756938   -0.0014910367682297856
-0.007490362650090319   -0.020261107699875474   -0.0016645896139321082
-0.01006869142945032   -0.013264958564427047   -0.0014732544609056106
-0.0062321662785272715   -0.013024814522644451   -0.0013968982112957872
-0.007490362650090319   -0.020261107699875474   -0.0016645896139321082
-0.006244303961185427   -0.012979571326756938   -0.0014910367682297856
-0.01006869142945032   -0.013264958564427047   -0.0014732544609056106
-0.007490362650090319   -0.020261107699875474   -0.0016645896139321082
-0.011789353444750433   -0.02043214404058583   -0.0017714343613856977
-0.011721557072821765   -0.020359262020509878   -0.0018605527952575804
-0.01006869142945032   -0.013264958564427047   -0.0014732544609056106
-0.007490362650090319   -0.020261107699875474   -0.0016645896139321082
-0.011721557072821765   -0.020359262020509878   -0.0018605527952575804
-0.006244303961185427   -0.012979571326756938   -0.0014910367682297856
-0.006215468590833709   -0.012812251993396397   -0.0016994962745165113
-0.007491821703089485   -0.020053770693175064   -0.0018745478799539138
-0.002961884227328787   -0.012726277011738868   -0.001529723813057754
-0.006228687637097666   -0.012910890293042411   -0.0015913455511358384
-0.007491821703089485   -0.020053770693175064   -0.0018745478799539138
-0.003696629866282476   -0.019997070784297598   -0.0017367106407089894
-0.002961884227328787   -0.012726277011738868   -0.001529723813057754
-0.003689170360950708   -0.02005023378106853   -0.0016855824475824912
-0.006228687637097666   -0.012910890293042411   -0.0015913455511358384
-0.002954062383056507   -0.012789314898438308   -0.0014685603988058476
-0.003689170360950708   -0.02005023378106853   -0.0016855824475824912
-0.002961884227328787   -0.012726277011738868   -0.001529723813057754
-0.006228687637097666   -0.012910890293042411   -0.0015913455511358384
-0.003689170360950708   -0.02005023378106853   -0.0016855824475824912
-0.007500383697796815   -0.020138548631299616   -0.0017971877588941272
-0.007491821703089485   -0.020053770693175064   -0.0018745478799539138
-0.006228687637097666   -0.012910890293042411   -0.0015913455511358384
-0.003689170360950708   -0.02005023378106853   -0.0016855824475824912
-0.007491821703089485   -0.020053770693175064   -0.0018745478799539138
-0.002961884227328787   -0.012726277011738868   -0.001529723813057754
-0.006228687637097666   -0.012910890293042411   -0.0015913455511358384
-0.007500383697796815   -0.020138548631299616   -0.0017971877588941272
-0.002954062383056507   -0.012789314898438308   -0.0014685603988058476
-0.006244303961185427   -0.012979571326756938   -0.0014910367682297856
-0.007500383697796815   -0.020138548631299616   -0.0017971877588941272
-0.003689170360950708   -0.02005023378106853   -0.0016855824475824912
-0.002954062383056507   -0.012789314898438308   -0.0014685603988058476
-0.0036791462817533016   -0.02008870587808138   -0.0016420528793574653
-0.006244303961185427   -0.012979571326756938   -0.0014910367682297856
-0.0029445745135787955   -0.012826357775238965   -0.00141486170634428
-0.0036791462817533016   -0.02008870587808138   -0.0016420528793574653
-0.002954062383056507   -0.012789314898438308   -0.0014685603988058476
-0.006244303961185427   -0.012979571326756938   -0.0014910367682297856
-0.0036791462817533016   -0.02008870587808138   -0.0016420528793574653
-0.007506348303972929   -0.020205800429298666   -0.001727544565873237
-0.007500383697796815   -0.020138548631299616   -0.0017971877588941272
-0.006244303961185427   -0.012979571326756938   -0.0014910367682297856
-0.0036791462817533016   -0.02008870587808138   -0.0016420528793574653
-0.007500383697796815   -0.020138548631299616   -0.0017971877588941272
-0.002954062383056507   -0.012789314898438308   -0.0014685603988058476
-0.006244303961185427   -0.012979571326756938   -0.0014910367682297856
-0.007506348303972929   -0.020205800429298666   -0.001727544565873237
-0.0029445745135787955   -0.012826357775238965   -0.00141486170634428
-0.0062321662785272715   -0.013024814522644451   -0.0013968982112957872
-0.007506348303972929   -0.020205800429298666   -0.001727544565873237
-0.0036791462817533016   -0.02008870587808138   -0.0016420528793574653
-0.0029445745135787955   -0.012826357775238965   -0.00141486170634428
-0.0036644005790967414   -0.02011273974842066   -0.0016062495327422554
-0.0062321662785272715   -0.013024814522644451   -0.0013968982112957872
-0.002929230330839045   -0.012837935115904872   -0.0013686067183542928
-0.0036644005790967414   -0.02011273974842066   -0.0016062495327422554
-0.0029445745135787955   -0.012826357775238965   -0.00141486170634428
-0.0062321662785272715   -0.013024814522644451   -0.0013968982112957872
-0.0036644005790967414   -0.02011273974842066   -0.0016062495327422554
-0.007490362650090319   -0.020261107699875474   -0.0016645896139321082
-0.007506348303972929   -0.020205800429298666   -0.001727544565873237
-0.0062321662785272715   -0.013024814522644451   -0.0013968982112957872
-0.0036644005790967414   -0.02011273974842066   -0.0016062495327422554
-0.007506348303972929   -0.020205800429298666   -0.001727544565873237
-0.0029445745135787955   -0.012826357775238965   -0.00141486170634428
-0.002961884227328787   -0.012726277011738868   -0.001529723813057754
-0.003696629866282476   -0.019997070784297598   -0.0017367106407089894
0.00019597098150236152   -0.012721693497565217   -0.0014245572322604317
-0.002954062383056507   -0.012789314898438308   -0.0014685603988058476
-0.003696629866282476   -0.019997070784297598   -0.0017367106407089894
-4.607156927480838e-06   -0.019987274229521953   -0.0016565351197602952
0.00019597098150236152   -0.012721693497565217   -0.0014245572322604317
9.0645145767326e-06   -0.020008637959235454   -0.0016318481995539853
-0.002954062383056507   -0.012789314898438308   -0.0014685603988058476
0.00021003262318952402   -0.012749678602807842   -0.0014101320741276109
9.0645145767326e-06   -0.020008637959235454   -0.0016318481995539853
0.00019597098150236152   -0.012721693497565217   -0.0014245572322604317
-0.002954062383056507   -0.012789314898438308   -0.0014685603988058476
9.0645145767326e-06   -0.020008637959235454   -0.0016318481995539853
-0.003689170360950708   -0.02005023378106853   -0.0016855824475824912
-0.003696629866282476   -0.019997070784297598   -0.0017367106407089894
-0.002954062383056507   -0.012789314898438308   -0.0014685603988058476
9.0645145767326e-06   -0.020008637959235454   -0.0016318481995539853
-0.003696629866282476   -0.019997070784297598   -0.0017367106407089894
0.00019597098150236152   -0.012721693497565217   -0.0014245572322604317
-0.002954062383056507   -0.012789314898438308   -0.0014685603988058476
-0.003689170360950708   -0.02005023378106853   -0.0016855824475824912
0.00021003262318952402   -0.012749678602807842   -0.0014101320741276109
-0.0029445745135787955   -0.012826357775238965   -0.00141486170634428
-0.003689170360950708   -0.02005023378106853   -0.0016855824475824912
9.0645145767326e-06   -0.020008637959235454   -0.0016318481995539853
0.00021003262318952402   -0.012749678602807842   -0.0014101320741276109
1.892128672065702e-05   -0.020015208930106766   -0.0016146652038170719
-0.0029445745135787955   -0.012826357775238965   -0.00141486170634428
0.00021919147739337658   -0.012751772203806707   -0.0014029780619382625
1.892128672065702e-05   -0.020015208930106766   -0.0016146652038170719
0.00021003262318952402   -0.012749678602807842   -0.0014101320741276109
-0.0029445745135787955   -0.012826357775238965   -0.00141486170634428
1.892128672065702e-05   -0.020015208930106766   -0.0016146652038170719
-0.0036791462817533016   -0.02008870587808138   -0.0016420528793574653
-0.003689170360950708   -0.02005023378106853   -0.0016855824475824912
-0.0029445745135787955   -0.012826357775238965   -0.00141486170634428
1.892128672065702e-05   -0.020015208930106766   -0.0016146652038170719
-0.003689170360950708   -0.02005023378106853   -0.0016855824475824912
0.00021003262318952402   -0.012749678602807842   -0.0014101320741276109
-0.0029445745135787955   -0.012826357775238965   -0.00141486170634428
-0.0036791462817533016   -0.02008870587808138   -0.0016420528793574653
0.00021919147739337658   -0.012751772203806707   -0.0014029780619382625
-0.002929230330839045   -0.012837935115904872   -0.0013686067183542928
-0.0036791462817533016   -0.02008870587808138   -0.0016420528793574653
1.892128672065702e-05   -0.020015208930106766   -0.0016146652038170719
0.00021919147739337658   -0.012751772203806707   -0.0014029780619382625
2.5345551771336594e-05   -0.02000678392210454   -0.001605316841397011
-0.002929230330839045   -0.012837935115904872   -0.0013686067183542928
0.00022593304171396282   -0.012727588849157916   -0.0014035354886404571
2.5345551771336594e-05   -0.02000678392210454   -0.001605316841397011
0.00021919147739337658   -0.012751772203806707   -0.0014029780619382625
-0.002929230330839045   -0.012837935115904872   -0.0013686067183542928
2.5345551771336594e-05   -0.02000678392210454   -0.001605316841397011
-0.0036644005790967414   -0.02011273974842066   -0.0016062495327422554
-0.0036791462817533016   -0.02008870587808138   -0.0016420528793574653
-0.002929230330839045   -0.012837935115904872   -0.0013686067183542928
2.5345551771336594e-05   -0.02000678392210454   -0.001605316841397011
-0.0036791462817533016   -0.02008870587808138   -0.0016420528793574653
0.00021919147739337658   -0.012751772203806707   -0.0014029780619382625
0.00019597098150236152   -0.012721693497565217   -0.0014245572322604317
-4.607156927480838e-06   -0.019987274229521953   -0.0016565351197602952
0.003488721683164385   -0.012793659643683748   -0.0013822119516390602
0.00021003262318952402   -0.012749678602807842   -0.0014101320741276109
-4.607156927480838e-06   -0.019987274229521953   -0.0016565351197602952
0.003814402676245328   -0.02002036313135465   -0.0016337145793178997
0.003488721683164385   -0.012793659643683748   -0.0013822119516390602
0.0038310700979112392   -0.02001176225849587   -0.0016360226987632647
0.00021003262318952402   -0.012749678602807842   -0.0014101320741276109
0.0035010970590960925   -0.012789500894575593   -0.0014154922837466884
0.0038310700979112392   -0.02001176225849587   -0.0016360226987632647
0.003488721683164385   -0.012793659643683748   -0.0013822119516390602
0.00021003262318952402   -0.012749678602807842   -0.0014101320741276109
0.0038310700979112392   -0.02001176225849587   -0.0016360226987632647
9.0645145767326e-06   -0.020008637959235454   -0.0016318481995539853
-4.607156927480838e-06   -0.019987274229521953   -0.0016565351197602952
0.00021003262318952402   -0.012749678602807842   -0.0014101320741276109
0.0038310700979112392   -0.02001176225849587   -0.0016360226987632647
-4.607156927480838e-06   -0.019987274229521953   -0.0016565351197602952
0.003488721683164385   -0.012793659643683748   -0.0013822119516390602
0.00021003262318952402   -0.012749678602807842   -0.0014101320741276109
9.0645145767326e-06   -0.020008637959235454   -0.0016318481995539853
0.0035010970590960925   -0.012789500894575593   -0.0014154922837466884
0.00021919147739337658   -0.012751772203806707   -0.0014029780619382625
9.0645145767326e-06   -0.020008637959235454   -0.0016318481995539853
0.0038310700979112392   -0.02001176225849587   -0.0016360226987632647
0.0035010970590960925   -0.012789500894575593   -0.0014154922837466884
0.0038328284138283964   -0.019989518136922537   -0.0016454295897431058
0.00021919147739337658   -0.012751772203806707   -0.0014029780619382625
0.003492705578513026   -0.01276002065110795   -0.0014555094879835683
0.0038328284138283964   -0.019989518136922537   -0.0016454295897431058
0.0035010970590960925   -0.012789500894575593   -0.0014154922837466884
0.00021919147739337658   -0.012751772203806707   -0.0014029780619382625
0.0038328284138283964   -0.019989518136922537   -0.0016454295897431058
1.892128672065702e-05   -0.020015208930106766   -0.0016146652038170719
9.0645145767326e-06   -0.020008637959235454   -0.0016318481995539853
0.00021919147739337658   -0.012751772203806707   -0.0014029780619382625
0.0038328284138283964   -0.019989518136922537   -0.0016454295897431058
9.0645145767326e-06   -0.020008637959235454   -0.0016318481995539853
0.0035010970590960925   -0.012789500894575593   -0.0014154922837466884
0.00021919147739337658   -0.012751772203806707   -0.0014029780619382625
1.892128672065702e-05   -0.020015208930106766   -0.0016146652038170719
0.003492705578513026   -0.01276002065110795   -0.0014555094879835683
0.00022593304171396282   -0.012727588849157916   -0.0014035354886404571
1.892128672065702e-05   -0.020015208930106766   -0.0016146652038170719
0.0038328284138283964   -0.019989518136922537   -0.0016454295897431058
0.003492705578513026   -0.01276002065110795   -0.0014555094879835683
0.003824967938981408   -0.019948080320317176   -0.0016622071812775856
0.00022593304171396282   -0.012727588849157916   -0.0014035354886404571
0.0034798689235589183   -0.012698932480047885   -0.0015030630123213705
0.003824967938981408   -0.019948080320317176   -0.0016622071812775856
0.003492705578513026   -0.01276002065110795   -0.0014555094879835683
0.00022593304171396282   -0.012727588849157916   -0.0014035354886404571
0.003824967938981408   -0.019948080320317176   -0.0016622071812775856
2.5345551771336594e-05   -0.02000678392210454   -0.001605316841397011
1.892128672065702e-05   -0.020015208930106766   -0.0016146652038170719
0.00022593304171396282   -0.012727588849157916   -0.0014035354886404571
0.003824967938981408   -0.019948080320317176   -0.0016622071812775856
1.892128672065702e-05   -0.020015208930106766   -0.0016146652038170719
0.003492705578513026   -0.01276002065110795   -0.0014555094879835683
0.003488721683164385   -0.012793659643683748   -0.0013822119516390602
0.003814402676245328   -0.02002036313135465   -0.0016337145793178997
0.007238918687594459   -0.012924095042329596   -0.0013834282402442621
0.0035010970590960925   -0.012789500894575593   -0.0014154922837466884
0.003814402676245328   -0.02002036313135465   -0.0016337145793178997
0.008031482590850618   -0.020081092593735805   -0.0016558055305057316
0.007238918687594459   -0.012924095042329596   -0.0013834282402442621
0.008024863284341866   -0.020052179416487178   -0.0016871891334756103
0.0035010970590960925   -0.012789500894575593   -0.0014154922837466884
0.007176663365238214   -0.012901391532668626   -0.0014705059827039007
0.008024863284341866   -0.020052179416487178   -0.0016871891334756103
0.007238918687594459   -0.012924095042329596   -0.0013834282402442621
0.0035010970590960925   -0.012789500894575593   -0.0014154922837466884
0.008024863284341866   -0.020052179416487178   -0.0016871891334756103
0.0038310700979112392   -0.02001176225849587   -0.0016360226987632647
0.003814402676245328   -0.02002036313135465   -0.0016337145793178997
0.0035010970590960925   -0.012789500894575593   -0.0014154922837466884
0.008024863284341866   -0.020052179416487178   -0.0016871891334756103
0.003814402676245328   -0.02002036313135465   -0.0016337145793178997
0.007238918687594459   -0.012924095042329596   -0.0013834282402442621
0.0035010970590960925   -0.012789500894575593   -0.0014154922837466884
0.0038310700979112392   -0.02001176225849587   -0.0016360226987632647
0.007176663365238214   -0.012901391532668626   -0.0014705059827039007
0.003492705578513026   -0.01276002065110795   -0.0014555094879835683
0.0038310700979112392   -0.02001176225849587   -0.0016360226987632647
0.008024863284341866   -0.020052179416487178   -0.0016871891334756103
0.007176663365238214   -0.012901391532668626   -0.0014705059827039007
0.008005465396997568   -0.02001592714878494   -0.001730093257609571
0.003492705578513026   -0.01276002065110795   -0.0014555094879835683
0.0071144185974064715   -0.012856031589736087   -0.001569732371825627
0.008005465396997568   -0.02001592714878494   -0.001730093257609571
0.007176663365238214   -0.012901391532668626   -0.0014705059827039007
0.003492705578513026   -0.01276002065110795   -0.0014555094879835683
0.008005465396997568   -0.02001592714878494   -0.001730093257609571
0.0038328284138283964   -0.019989518136922537   -0.0016454295897431058
0.0038310700979112392   -0.02001176225849587   -0.0016360226987632647
0.003492705578513026   -0.01276002065110795   -0.0014555094879835683
0.008005465396997568   -0.02001592714878494   -0.001730093257609571
0.0038310700979112392   -0.02001176225849587   -0.0016360226987632647
0.007176663365238214   -0.012901391532668626   -0.0014705059827039007
0.003492705578513026   -0.01276002065110795   -0.0014555094879835683
0.0038328284138283964   -0.019989518136922537   -0.0016454295897431058
0.0071144185974064715   -0.012856031589736087   -0.001569732371825627
0.0034798689235589183   -0.012698932480047885   -0.0015030630123213705
0.0038328284138283964   -0.019989518136922537   -0.0016454295897431058
0.008005465396997568   -0.02001592714878494   -0.001730093257609571
0.0071144185974064715   -0.012856031589736087   -0.001569732371825627
0.007951392285716162   -0.019946979491105896   -0.001784434297241591
0.0034798689235589183   -0.012698932480047885   -0.0015030630123213705
0.007003371753306623   -0.012761042324503152   -0.001681120506450196
0.007951392285716162   -0.019946979491105896   -0.001784434297241591
0.0071144185974064715   -0.012856031589736087   -0.001569732371825627
0.0034798689235589183   -0.012698932480047885   -0.0015030630123213705
0.007951392285716162   -0.019946979491105896   -0.001784434297241591
0.003824967938981408   -0.019948080320317176   -0.0016622071812775856
0.0038328284138283964   -0.019989518136922537   -0.0016454295897431058
0.0034798689235589183   -0.012698932480047885   -0.0015030630123213705
0.007951392285716162   -0.019946979491105896   -0.001784434297241591
0.0038328284138283964   -0.019989518136922537   -0.0016454295897431058
0.0071144185974064715   -0.012856031589736087   -0.001569732371825627
-0.011540543188696606   -0.020163332964275717   -0.0020736286659835865
-0.01267342599198729   -0.027973780679848546   -0.0021121790880390596
-0.007491821703089485   -0.020053770693175064   -0.0018745478799539138
-0.011655702113304984   -0.020278049038782688   -0.001961711390266352
-0.01267342599198729   -0.027973780679848546   -0.0021121790880390596
-0.008329142989041595   -0.027929224035639938   -0.001953762679434662
-0.007491821703089485   -0.020053770693175064   -0.0018745478799539138
-0.008325435459768278   -0.02800147099599735   -0.0019063502161135873
-0.011655702113304984   -0.020278049038782688   -0.001961711390266352
-0.007500383697796815   -0.020138548631299616   -0.0017971877588941272
-0.008325435459768278   -0.02800147099599735   -0.0019063502161135873
-0.007491821703089485   -0.020053770693175064   -0.0018745478799539138
-0.011655702113304984   -0.020278049038782688   -0.001961711390266352
-0.008325435459768278   -0.02800147099599735   -0.0019063502161135873
-0.012726925621411405   -0.02807092157088026   -0.002054579911213369
-0.01267342599198729   -0.027973780679848546   -0.0021121790880390596
-0.011655702113304984   -0.020278049038782688   -0.001961711390266352
-0.008325435459768278   -0.02800147099599735   -0.0019063502161135873
-0.01267342599198729   -0.027973780679848546   -0.0021121790880390596
-0.007491821703089485   -0.020053770693175064   -0.0018745478799539138
-0.011655702113304984   -0.020278049038782688   -0.001961711390266352
-0.012726925621411405   -0.02807092157088026   -0.002054579911213369
-0.007500383697796815   -0.020138548631299616   -0.0017971877588941272
-0.011721557072821765   -0.020359262020509878   -0.0018605527952575804
-0.012726925621411405   -0.02807092157088026   -0.002054579911213369
-0.008325435459768278   -0.02800147099599735   -0.0019063502161135873
-0.007500383697796815   -0.020138548631299616   -0.0017971877588941272
-0.008313874512022729   -0.028068169011967122   -0.0018668119727753047
-0.011721557072821765   -0.020359262020509878   -0.0018605527952575804
-0.007506348303972929   -0.020205800429298666   -0.001727544565873237
-0.008313874512022729   -0.028068169011967122   -0.0018668119727753047
-0.007500383697796815   -0.020138548631299616   -0.0017971877588941272
-0.011721557072821765   -0.020359262020509878   -0.0018605527952575804
-0.008313874512022729   -0.028068169011967122   -0.0018668119727753047
-0.012743638289537621   -0.028150212939628355   -0.0020083128091367055
-0.012726925621411405   -0.02807092157088026   -0.002054579911213369
-0.011721557072821765   -0.020359262020509878   -0.0018605527952575804
-0.008313874512022729   -0.028068169011967122   -0.0018668119727753047
-0.012726925621411405   -0.02807092157088026   -0.002054579911213369
-0.007500383697796815   -0.020138548631299616   -0.0017971877588941272
-0.011721557072821765   -0.020359262020509878   -0.0018605527952575804
-0.012743638289537621   -0.028150212939628355   -0.0020083128091367055
-0.007506348303972929   -0.020205800429298666   -0.001727544565873237
-0.011789353444750433   -0.02043214404058583   -0.0017714343613856977
-0.012743638289537621   -0.028150212939628355   -0.0020083128091367055
-0.008313874512022729   -0.028068169011967122   -0.0018668119727753047
-0.007506348303972929   -0.020205800429298666   -0.001727544565873237
-0.008285985883491638   -0.028134406919513764   -0.001834591898018229
-0.011789353444750433   -0.02043214404058583   -0.0017714343613856977
-0.007490362650090319   -0.020261107699875474   -0.0016645896139321082
-0.008285985883491638   -0.028134406919513764   -0.001834591898018229
-0.007506348303972929   -0.020205800429298666   -0.001727544565873237
-0.011789353444750433   -0.02043214404058583   -0.0017714343613856977
-0.008285985883491638   -0.028134406919513764   -0.001834591898018229
-0.012748869040733286   -0.02823640700632873   -0.0019743559068053744
-0.012743638289537621   -0.028150212939628355   -0.0020083128091367055
-0.011789353444750433   -0.02043214404058583   -0.0017714343613856977
-0.008285985883491638   -0.028134406919513764   -0.001834591898018229
-0.012743638289537621   -0.028150212939628355   -0.0020083128091367055
-0.007506348303972929   -0.020205800429298666   -0.001727544565873237
-0.007491821703089485   -0.020053770693175064   -0.0018745478799539138
-0.008329142989041595   -0.027929224035639938   -0.001953762679434662
-0.003696629866282476   -0.019997070784297598   -0.0017367106407089894
-0.007500383697796815   -0.020138548631299616   -0.0017971877588941272
-0.008329142989041595   -0.027929224035639938   -0.001953762679434662
-0.004293701444550192   -0.02790355866377397   -0.0018459282202019666
-0.003696629866282476   -0.019997070784297598   -0.0017367106407089894
-0.0042782400152271685   -0.027947252289885947   -0.0018045249624222485
-0.007500383697796815   -0.020138548631299616   -0.0017971877588941272
-0.003689170360950708   -0.02005023378106853   -0.0016855824475824912
-0.0042782400152271685   -0.027947252289885947   -0.0018045249624222485
-0.003696629866282476   -0.019997070784297598   -0.0017367106407089894
-0.007500383697796815   -0.020138548631299616   -0.0017971877588941272
-0.0042782400152271685   -0.027947252289885947   -0.0018045249624222485
-0.008325435459768278   -0.02800147099599735   -0.0019063502161135873
-0.008329142989041595   -0.027929224035639938   -0.001953762679434662
-0.007500383697796815   -0.020138548631299616   -0.0017971877588941272
-0.0042782400152271685   -0.027947252289885947   -0.0018045249624222485
-0.008329142989041595   -0.027929224035639938   -0.001953762679434662
-0.003696629866282476   -0.019997070784297598   -0.0017367106407089894
-0.007500383697796815   -0.020138548631299616   -0.0017971877588941272
-0.008325435459768278   -0.02800147099599735   -0.0019063502161135873
-0.003689170360950708   -0.02005023378106853   -0.0016855824475824912
-0.007506348303972929   -0.020205800429298666   -0.001727544565873237
-0.008325435459768278   -0.02800147099599735   -0.0019063502161135873
-0.0042782400152271685   -0.027947252289885947   -0.0018045249624222485
-0.003689170360950708   -0.02005023378106853   -0.0016855824475824912
-0.004259374205766665   -0.027987387016895512   -0.0017710001666491118
-0.007506348303972929   -0.020205800429298666   -0.001727544565873237
-0.0036791462817533016   -0.02008870587808138   -0.0016420528793574653
-0.004259374205766665   -0.027987387016895512   -0.0017710001666491118
-0.003689170360950708   -0.02005023378106853   -0.0016855824475824912
-0.007506348303972929   -0.020205800429298666   -0.001727544565873237
-0.004259374205766665   -0.027987387016895512   -0.0017710001666491118
-0.008313874512022729   -0.028068169011967122   -0.0018668119727753047
-0.008325435459768278   -0.02800147099599735   -0.0019063502161135873
-0.007506348303972929   -0.020205800429298666   -0.001727544565873237
-0.004259374205766665   -0.027987387016895512   -0.0017710001666491118
-0.008325435459768278   -0.02800147099599735   -0.0019063502161135873
-0.003689170360950708   -0.02005023378106853   -0.0016855824475824912
-0.007506348303972929   -0.020205800429298666   -0.001727544565873237
-0.008313874512022729   -0.028068169011967122   -0.0018668119727753047
-0.0036791462817533016   -0.02008870587808138   -0.0016420528793574653
-0.007490362650090319   -0.020261107699875474   -0.0016645896139321082
-0.008313874512022729   -0.028068169011967122   -0.0018668119727753047
-0.004259374205766665   -0.027987387016895512   -0.0017710001666491118
-0.0036791462817533016   -0.02008870587808138   -0.0016420528793574653
-0.004236777758516111   -0.02802409565006618   -0.0017455453740060122
-0.007490362650090319   -0.020261107699875474   -0.0016645896139321082
-0.0036644005790967414   -0.02011273974842066   -0.0016062495327422554
-0.004236777758516111   -0.02802409565006618   -0.0017455453740060122
-0.0036791462817533016   -0.02008870587808138   -0.0016420528793574653
-0.007490362650090319   -0.020261107699875474   -0.0016645896139321082
-0.004236777758516111   -0.02802409565006618   -0.0017455453740060122
-0.008285985883491638   -0.028134406919513764   -0.001834591898018229
-0.008313874512022729   -0.028068169011967122   -0.0018668119727753047
-0.007490362650090319   -0.020261107699875474   -0.0016645896139321082
-0.004236777758516111   -0.02802409565006618   -0.0017455453740060122
-0.008313874512022729   -0.028068169011967122   -0.0018668119727753047
-0.0036791462817533016   -0.02008870587808138   -0.0016420528793574653
-0.003696629866282476   -0.019997070784297598   -0.0017367106407089894
-0.004293701444550192   -0.02790355866377397   -0.0018459282202019666
-4.607156927480838e-06   -0.019987274229521953   -0.0016565351197602952
-0.003689170360950708   -0.02005023378106853   -0.0016855824475824912
-0.004293701444550192   -0.02790355866377397   -0.0018459282202019666
-0.0003674798799791744   -0.02788879318690581   -0.0017902641636683367
-4.607156927480838e-06   -0.019987274229521953   -0.0016565351197602952
-0.000346017365576692   -0.027903389935312523   -0.0017552888976616879
-0.003689170360950708   -0.02005023378106853   -0.0016855824475824912
9.0645145767326e-06   -0.020008637959235454   -0.0016318481995539853
-0.000346017365576692   -0.027903389935312523   -0.0017552888976616879
-4.607156927480838e-06   -0.019987274229521953   -0.0016565351197602952
-0.003689170360950708   -0.02005023378106853   -0.0016855824475824912
-0.000346017365576692   -0.027903389935312523   -0.0017552888976616879
-0.0042782400152271685   -0.027947252289885947   -0.0018045249624222485
-0.004293701444550192   -0.02790355866377397   -0.0018459282202019666
-0.003689170360950708   -0.02005023378106853   -0.0016855824475824912
-0.000346017365576692   -0.027903389935312523   -0.0017552888976616879
-0.004293701444550192   -0.02790355866377397   -0.0018459282202019666
-4.607156927480838e-06   -0.019987274229521953   -0.0016565351197602952
-0.003689170360950708   -0.02005023378106853   -0.0016855824475824912
-0.0042782400152271685   -0.027947252289885947   -0.0018045249624222485
9.0645145767326e-06   -0.020008637959235454   -0.0016318481995539853
-0.0036791462817533016   -0.02008870587808138   -0.0016420528793574653
-0.0042782400152271685   -0.027947252289885947   -0.0018045249624222485
-0.000346017365576692   -0.027903389935312523   -0.0017552888976616879
9.0645145767326e-06   -0.020008637959235454   -0.0016318481995539853
-0.0003273812730352874   -0.027914173559162578   -0.0017281259700518844
-0.0036791462817533016   -0.02008870587808138   -0.0016420528793574653
1.892128672065702e-05   -0.020015208930106766   -0.0016146652038170719
-0.0003273812730352874   -0.027914173559162578   -0.0017281259700518844
9.0645145767326e-06   -0.020008637959235454   -0.0016318481995539853
-0.0036791462817533016   -0.02008870587808138   -0.0016420528793574653
-0.0003273812730352874   -0.027914173559162578   -0.0017281259700518844
-0.004259374205766665   -0.027987387016895512   -0.0017710001666491118
-0.0042782400152271685   -0.027947252289885947   -0.0018045249624222485
-0.0036791462817533016   -0.02008870587808138   -0.0016420528793574653
-0.0003273812730352874   -0.027914173559162578   -0.0017281259700518844
-0.0042782400152271685   -0.027947252289885947   -0.0018045249624222485
9.0645145767326e-06   -0.020008637959235454   -0.0016318481995539853
-0.0036791462817533016   -0.02008870587808138   -0.0016420528793574653
-0.004259374205766665   -0.027987387016895512   -0.0017710001666491118
1.892128672065702e-05   -0.020015208930106766   -0.0016146652038170719
-0.0036644005790967414   -0.02011273974842066   -0.0016062495327422554
-0.004259374205766665   -0.027987387016895512   -0.0017710001666491118
-0.0003273812730352874   -0.027914173559162578   -0.0017281259700518844
1.892128672065702e-05   -0.020015208930106766   -0.0016146652038170719
-0.00031307350411973253   -0.027921087349498278   -0.0017090590417876343
-0.0036644005790967414   -0.02011273974842066   -0.0016062495327422554
2.5345551771336594e-05   -0.02000678392210454   -0.001605316841397011
-0.00031307350411973253   -0.027921087349498278   -0.0017090590417876343
1.892128672065702e-05   -0.020015208930106766   -0.0016146652038170719
-0.0036644005790967414   -0.02011273974842066   -0.0016062495327422554
-0.00031307350411973253   -0.027921087349498278   -0.0017090590417876343
-0.004236777758516111   -0.02802409565006618   -0.0017455453740060122
-0.004259374205766665   -0.027987387016895512   -0.0017710001666491118
-0.0036644005790967414   -0.02011273974842066   -0.0016062495327422554
-0.00031307350411973253   -0.027921087349498278   -0.0017090590417876343
-0.004259374205766665   -0.027987387016895512   -0.0017710001666491118
1.892128672065702e-05   -0.020015208930106766   -0.0016146652038170719
-4.607156927480838e-06   -0.019987274229521953   -0.0016565351197602952
-0.0003674798799791744   -0.02788879318690581   -0.0017902641636683367
0.003814402676245328   -0.02002036313135465   -0.0016337145793178997
9.0645145767326e-06   -0.020008637959235454   -0.0016318481995539853
-0.0003674798799791744   -0.02788879318690581   -0.0017902641636683367
0.0036784859211400544   -0.027882380674355507   -0.0017872777730257314
0.003814402676245328   -0.02002036313135465   -0.0016337145793178997
0.0037068276662255467   -0.02786878090939231   -0.0017590507708737692
9.0645145767326e-06   -0.020008637959235454   -0.0016318481995539853
0.0038310700979112392   -0.02001176225849587   -0.0016360226987632647
0.0037068276662255467   -0.02786878090939231   -0.0017590507708737692
0.003814402676245328   -0.02002036313135465   -0.0016337145793178997
9.0645145767326e-06   -0.020008637959235454   -0.0016318481995539853
0.0037068276662255467   -0.02786878090939231   -0.0017590507708737692
-0.000346017365576692   -0.027903389935312523   -0.0017552888976616879
-0.0003674798799791744   -0.02788879318690581   -0.0017902641636683367
9.0645145767326e-06   -0.020008637959235454   -0.0016318481995539853
0.0037068276662255467   -0.02786878090939231   -0.0017590507708737692
-0.0003674798799791744   -0.02788879318690581   -0.0017902641636683367
0.003814402676245328   -0.02002036313135465   -0.0016337145793178997
9.0645145767326e-06   -0.020008637959235454   -0.0016318481995539853
-0.000346017365576692   -0.027903389935312523   -0.0017552888976616879
0.0038310700979112392   -0.02001176225849587   -0.0016360226987632647
1.892128672065702e-05   -0.020015208930106766   -0.0016146652038170719
-0.000346017365576692   -0.027903389935312523   -0.0017552888976616879
0.0037068276662255467   -0.02786878090939231   -0.0017590507708737692
0.0038310700979112392   -0.02001176225849587   -0.0016360226987632647
0.0037259738106850096   -0.027853004842580728   -0.0017384107606118956
1.892128672065702e-05   -0.020015208930106766   -0.0016146652038170719
0.0038328284138283964   -0.019989518136922537   -0.0016454295897431058
0.0037259738106850096   -0.027853004842580728   -0.0017384107606118956
0.0038310700979112392   -0.02001176225849587   -0.0016360226987632647
1.892128672065702e-05   -0.020015208930106766   -0.0016146652038170719
0.0037259738106850096   -0.027853004842580728   -0.0017384107606118956
-0.0003273812730352874   -0.027914173559162578   -0.0017281259700518844
-0.000346017365576692   -0.027903389935312523   -0.0017552888976616879
1.892128672065702e-05   -0.020015208930106766   -0.0016146652038170719
0.0037259738106850096   -0.027853004842580728   -0.0017384107606118956
-0.000346017365576692   -0.027903389935312523   -0.0017552888976616879
0.0038310700979112392   -0.02001176225849587   -0.0016360226987632647
1.892128672065702e-05   -0.020015208930106766   -0.0016146652038170719
-0.0003273812730352874   -0.027914173559162578   -0.0017281259700518844
0.0038328284138283964   -0.019989518136922537   -0.0016454295897431058
2.5345551771336594e-05   -0.02000678392210454   -0.001605316841397011
-0.0003273812730352874   -0.027914173559162578   -0.0017281259700518844
0.0037259738106850096   -0.027853004842580728   -0.0017384107606118956
0.0038328284138283964   -0.019989518136922537   -0.0016454295897431058
0.0037302441910233458   -0.02782990106972303   -0.001725203217938628
2.5345551771336594e-05   -0.02000678392210454   -0.001605316841397011
0.003824967938981408   -0.019948080320317176   -0.0016622071812775856
0.0037302441910233458   -0.02782990106972303   -0.001725203217938628
0.0038328284138283964   -0.019989518136922537   -0.0016454295897431058
2.5345551771336594e-05   -0.02000678392210454   -0.001605316841397011
0.0037302441910233458   -0.02782990106972303   -0.001725203217938628
-0.00031307350411973253   -0.027921087349498278   -0.0017090590417876343
-0.0003273812730352874   -0.027914173559162578   -0.0017281259700518844
2.5345551771336594e-05   -0.02000678392210454   -0.001605316841397011
0.0037302441910233458   -0.02782990106972303   -0.001725203217938628
-0.0003273812730352874   -0.027914173559162578   -0.0017281259700518844
0.0038328284138283964   -0.019989518136922537   -0.0016454295897431058
0.003814402676245328   -0.02002036313135465   -0.0016337145793178997
0.0036784859211400544   -0.027882380674355507   -0.0017872777730257314
0.008031482590850618   -0.020081092593735805   -0.0016558055305057316
0.0038310700979112392   -0.02001176225849587   -0.0016360226987632647
0.0036784859211400544   -0.027882380674355507   -0.0017872777730257314
0.008062737565835988   -0.027873375577928215   -0.0018317582447284636
0.008031482590850618   -0.020081092593735805   -0.0016558055305057316
0.008118073238650863   -0.027837475426654382   -0.0018084641231639398
0.0038310700979112392   -0.02001176225849587   -0.0016360226987632647
0.008024863284341866   -0.020052179416487178   -0.0016871891334756103
0.008118073238650863   -0.027837475426654382   -0.0018084641231639398
0.008031482590850618   -0.020081092593735805   -0.0016558055305057316
0.0038310700979112392   -0.02001176225849587   -0.0016360226987632647
0.008118073238650863   -0.027837475426654382   -0.0018084641231639398
0.0037068276662255467   -0.02786878090939231   -0.0017590507708737692
0.0036784859211400544   -0.027882380674355507   -0.0017872777730257314
0.0038310700979112392   -0.02001176225849587   -0.0016360226987632647
0.008118073238650863   -0.027837475426654382   -0.0018084641231639398
0.0036784859211400544   -0.027882380674355507   -0.0017872777730257314
0.008031482590850618   -0.020081092593735805   -0.0016558055305057316
0.0038310700979112392   -0.02001176225849587   -0.0016360226987632647
0.0037068276662255467   -0.02786878090939231   -0.0017590507708737692
0.008024863284341866   -0.020052179416487178   -0.0016871891334756103
0.0038328284138283964   -0.019989518136922537   -0.0016454295897431058
0.0037068276662255467   -0.02786878090939231   -0.0017590507708737692
0.008118073238650863   -0.027837475426654382   -0.0018084641231639398
0.008024863284341866   -0.020052179416487178   -0.0016871891334756103
0.008147603014016177   -0.02780916488145114   -0.00179670293733432
0.0038328284138283964   -0.019989518136922537   -0.0016454295897431058
0.008005465396997568   -0.02001592714878494   -0.001730093257609571
0.008147603014016177   -0.02780916488145114   -0.00179670293733432
0.008024863284341866   -0.020052179416487178   -0.0016871891334756103
0.0038328284138283964   -0.019989518136922537   -0.0016454295897431058
0.008147603014016177   -0.02780916488145114   -0.00179670293733432
0.0037259738106850096   -0.027853004842580728   -0.0017384107606118956
0.0037068276662255467   -0.02786878090939231   -0.0017590507708737692
0.0038328284138283964   -0.019989518136922537   -0.0016454295897431058
0.008147603014016177   -0.02780916488145114   -0.00179670293733432
0.0037068276662255467   -0.02786878090939231   -0.0017590507708737692
0.008024863284341866   -0.020052179416487178   -0.0016871891334756103
0.0038328284138283964   -0.019989518136922537   -0.0016454295897431058
0.0037259738106850096   -0.027853004842580728   -0.0017384107606118956
0.008005465396997568   -0.02001592714878494   -0.001730093257609571
0.003824967938981408   -0.019948080320317176   -0.0016622071812775856
0.0037259738106850096   -0.027853004842580728   -0.0017384107606118956
0.008147603014016177   -0.02780916488145114   -0.00179670293733432
0.008005465396997568   -0.02001592714878494   -0.001730093257609571
0.008155316802010894   -0.027763866483228514   -0.001796671423395335
0.003824967938981408   -0.019948080320317176   -0.0016622071812775856
0.007951392285716162   -0.019946979491105896   -0.001784434297241591
0.008155316802010894   -0.027763866483228514   -0.001796671423395335
0.008005465396997568   -0.02001592714878494   -0.001730093257609571
0.003824967938981408   -0.019948080320317176   -0.0016622071812775856
0.008155316802010894   -0.027763866483228514   -0.001796671423395335
0.0037302441910233458   -0.02782990106972303   -0.001725203217938628
0.0037259738106850096   -0.027853004842580728   -0.0017384107606118956
0.003824967938981408   -0.019948080320317176   -0.0016622071812775856
0.008155316802010894   -0.027763866483228514   -0.001796671423395335
0.0037259738106850096   -0.027853004842580728   -0.0017384107606118956
0.008005465396997568   -0.02001592714878494   -0.001730093257609571
-0.01267342599198729   -0.027973780679848546   -0.0021121790880390596
-0.013066633919701988   -0.035921398768206644   -0.0020770564407933782
-0.008329142989041595   -0.027929224035639938   -0.001953762679434662
-0.012726925621411405   -0.02807092157088026   -0.002054579911213369
-0.013066633919701988   -0.035921398768206644   -0.0020770564407933782
-0.008729048176218458   -0.03594225071958182   -0.0019600585574466784
-0.008329142989041595   -0.027929224035639938   -0.001953762679434662
-0.008705392251771641   -0.036001738208535757   -0.0019421016416960738
-0.012726925621411405   -0.02807092157088026   -0.002054579911213369
-0.008325435459768278   -0.02800147099599735   -0.0019063502161135873
-0.008705392251771641   -0.036001738208535757   -0.0019421016416960738
-0.008329142989041595   -0.027929224035639938   -0.001953762679434662
-0.012726925621411405   -0.02807092157088026   -0.002054579911213369
-0.008705392251771641   -0.036001738208535757   -0.0019421016416960738
-0.013051192893650816   -0.03600100781290605   -0.002073477166488933
-0.013066633919701988   -0.035921398768206644   -0.0020770564407933782
-0.012726925621411405   -0.02807092157088026   -0.002054579911213369
-0.008705392251771641   -0.036001738208535757   -0.0019421016416960738
-0.013066633919701988   -0.035921398768206644   -0.0020770564407933782
-0.008329142989041595   -0.027929224035639938   -0.001953762679434662
-0.012726925621411405   -0.02807092157088026   -0.002054579911213369
-0.013051192893650816   -0.03600100781290605   -0.002073477166488933
-0.008325435459768278   -0.02800147099599735   -0.0019063502161135873
-0.012743638289537621   -0.028150212939628355   -0.0020083128091367055
-0.013051192893650816   -0.03600100781290605   -0.002073477166488933
-0.008705392251771641   -0.036001738208535757   -0.0019421016416960738
-0.008325435459768278   -0.02800147099599735   -0.0019063502161135873
-0.00866865048274992   -0.03606771044982387   -0.0019322481906058153
-0.012743638289537621   -0.028150212939628355   -0.0020083128091367055
-0.008313874512022729   -0.028068169011967122   -0.0018668119727753047
-0.00866865048274992   -0.03606771044982387   -0.0019322481906058153
-0.008325435459768278   -0.02800147099599735   -0.0019063502161135873
-0.012743638289537621   -0.028150212939628355   -0.0020083128091367055
-0.00866865048274992   -0.03606771044982387   -0.0019322481906058153
-0.01301094307631384   -0.03607838062729493   -0.0020820060742598864
-0.013051192893650816   -0.03600100781290605   -0.002073477166488933
-0.012743638289537621   -0.028150212939628355   -0.0020083128091367055
-0.00866865048274992   -0.03606771044982387   -0.0019322481906058153
-0.013051192893650816   -0.03600100781290605   -0.002073477166488933
-0.008325435459768278   -0.02800147099599735   -0.0019063502161135873
-0.012743638289537621   -0.028150212939628355   -0.0020083128091367055
-0.01301094307631384   -0.03607838062729493   -0.0020820060742598864
-0.008313874512022729   -0.028068169011967122   -0.0018668119727753047
-0.012748869040733286   -0.02823640700632873   -0.0019743559068053744
-0.01301094307631384   -0.03607838062729493   -0.0020820060742598864
-0.00866865048274992   -0.03606771044982387   -0.0019322481906058153
-0.008313874512022729   -0.028068169011967122   -0.0018668119727753047
-0.008621161380245542   -0.03614471438330348   -0.0019303622544247776
-0.012748869040733286   -0.02823640700632873   -0.0019743559068053744
-0.008285985883491638   -0.028134406919513764   -0.001834591898018229
-0.008621161380245542   -0.03614471438330348   -0.0019303622544247776
-0.008313874512022729   -0.028068169011967122   -0.0018668119727753047
-0.012748869040733286   -0.02823640700632873   -0.0019743559068053744
-0.008621161380245542   -0.03614471438330348   -0.0019303622544247776
-0.012945843388337753   -0.036178115986615675   -0.0021032610382759878
-0.01301094307631384   -0.03607838062729493   -0.0020820060742598864
-0.012748869040733286   -0.02823640700632873   -0.0019743559068053744
-0.008621161380245542   -0.03614471438330348   -0.0019303622544247776
-0.01301094307631384   -0.03607838062729493   -0.0020820060742598864
-0.008313874512022729   -0.028068169011967122   -0.0018668119727753047
-0.008329142989041595   -0.027929224035639938   -0.001953762679434662
-0.008729048176218458   -0.03594225071958182   -0.0019600585574466784
-0.004293701444550192   -0.02790355866377397   -0.0018459282202019666
-0.008325435459768278   -0.02800147099599735   -0.0019063502161135873
-0.008729048176218458   -0.03594225071958182   -0.0019600585574466784
-0.004755567408832681   -0.03594670874094005   -0.0018823110869111757
-0.004293701444550192   -0.02790355866377397   -0.0018459282202019666
-0.004724020049250625   -0.03598079616412922   -0.0018503385501616666
-0.008325435459768278   -0.02800147099599735   -0.0019063502161135873
-0.0042782400152271685   -0.027947252289885947   -0.0018045249624222485
-0.004724020049250625   -0.03598079616412922   -0.0018503385501616666
-0.004293701444550192   -0.02790355866377397   -0.0018459282202019666
-0.008325435459768278   -0.02800147099599735   -0.0019063502161135873
-0.004724020049250625   -0.03598079616412922   -0.0018503385501616666
-0.008705392251771641   -0.036001738208535757   -0.0019421016416960738
-0.008729048176218458   -0.03594225071958182   -0.0019600585574466784
-0.008325435459768278   -0.02800147099599735   -0.0019063502161135873
-0.004724020049250625   -0.03598079616412922   -0.0018503385501616666
-0.008729048176218458   -0.03594225071958182   -0.0019600585574466784
-0.004293701444550192   -0.02790355866377397   -0.0018459282202019666
-0.008325435459768278   -0.02800147099599735   -0.0019063502161135873
-0.008705392251771641   -0.036001738208535757   -0.0019421016416960738
-0.0042782400152271685   -0.027947252289885947   -0.0018045249624222485
-0.008313874512022729   -0.028068169011967122   -0.0018668119727753047
-0.008705392251771641   -0.036001738208535757   -0.0019421016416960738
-0.004724020049250625   -0.03598079616412922   -0.0018503385501616666
-0.0042782400152271685   -0.027947252289885947   -0.0018045249624222485
-0.004688421322927977   -0.036022301893113985   -0.0018264983937067351
-0.008313874512022729   -0.028068169011967122   -0.0018668119727753047
-0.004259374205766665   -0.027987387016895512   -0.0017710001666491118
-0.004688421322927977   -0.036022301893113985   -0.0018264983937067351
-0.0042782400152271685   -0.027947252289885947   -0.0018045249624222485
-0.008313874512022729   -0.028068169011967122   -0.0018668119727753047
-0.004688421322927977   -0.036022301893113985   -0.0018264983937067351
-0.00866865048274992   -0.03606771044982387   -0.0019322481906058153
-0.008705392251771641   -0.036001738208535757   -0.0019421016416960738
-0.008313874512022729   -0.028068169011967122   -0.0018668119727753047
-0.004688421322927977   -0.036022301893113985   -0.0018264983937067351
-0.008705392251771641   -0.036001738208535757   -0.0019421016416960738
-0.0042782400152271685   -0.027947252289885947   -0.0018045249624222485
-0.008313874512022729   -0.028068169011967122   -0.0018668119727753047
-0.00866865048274992   -0.03606771044982387   -0.0019322481906058153
-0.004259374205766665   -0.027987387016895512   -0.0017710001666491118
-0.008285985883491638   -0.028134406919513764   -0.001834591898018229
-0.00866865048274992   -0.03606771044982387   -0.0019322481906058153
-0.004688421322927977   -0.036022301893113985   -0.0018264983937067351
-0.004259374205766665   -0.027987387016895512   -0.0017710001666491118
-0.0046500766675852175   -0.03607135545950919   -0.0018110567518044194
-0.008285985883491638   -0.028134406919513764   -0.001834591898018229
-0.004236777758516111   -0.02802409565006618   -0.0017455453740060122
-0.0046500766675852175   -0.03607135545950919   -0.0018110567518044194
-0.004259374205766665   -0.027987387016895512   -0.0017710001666491118
-0.008285985883491638   -0.028134406919513764   -0.001834591898018229
-0.0046500766675852175   -0.03607135545950919   -0.0018110567518044194
-0.008621161380245542   -0.03614471438330348   -0.0019303622544247776
-0.00866865048274992   -0.03606771044982387   -0.0019322481906058153
-0.008285985883491638   -0.028134406919513764   -0.001834591898018229
-0.0046500766675852175   -0.03607135545950919   -0.0018110567518044194
-0.00866865048274992   -0.03606771044982387   -0.0019322481906058153
-0.004259374205766665   -0.027987387016895512   -0.0017710001666491118
-0.004293701444550192   -0.02790355866377397   -0.0018459282202019666
-0.004755567408832681   -0.03594670874094005   -0.0018823110869111757
-0.0003674798799791744   -0.02788879318690581   -0.0017902641636683367
-0.0042782400152271685   -0.027947252289885947   -0.0018045249624222485
-0.004755567408832681   -0.03594670874094005   -0.0018823110869111757
-0.0008944417919018123   -0.035925562927112575   -0.0018506602060494198
-0.0003674798799791744   -0.02788879318690581   -0.0017902641636683367
-0.0008571782093222445   -0.035933381902965855   -0.0018053704872712138
-0.0042782400152271685   -0.027947252289885947   -0.0018045249624222485
-0.000346017365576692   -0.027903389935312523   -0.0017552888976616879
-0.0008571782093222445   -0.035933381902965855   -0.0018053704872712138
-0.0003674798799791744   -0.02788879318690581   -0.0017902641636683367
-0.0042782400152271685   -0.027947252289885947   -0.0018045249624222485
-0.0008571782093222445   -0.035933381902965855   -0.0018053704872712138
-0.004724020049250625   -0.03598079616412922   -0.0018503385501616666
-0.004755567408832681   -0.03594670874094005   -0.0018823110869111757
-0.0042782400152271685   -0.027947252289885947   -0.0018045249624222485
-0.0008571782093222445   -0.035933381902965855   -0.0018053704872712138
-0.004755567408832681   -0.03594670874094005   -0.0018823110869111757
-0.0003674798799791744   -0.02788879318690581   -0.0017902641636683367
-0.0042782400152271685   -0.027947252289885947   -0.0018045249624222485
-0.004724020049250625   -0.03598079616412922   -0.0018503385501616666
-0.000346017365576692   -0.027903389935312523   -0.0017552888976616879
-0.004259374205766665   -0.027987387016895512   -0.0017710001666491118
-0.004724020049250625   -0.03598079616412922   -0.0018503385501616666
-0.0008571782093222445   -0.035933381902965855   -0.0018053704872712138
-0.000346017365576692   -0.027903389935312523   -0.0017552888976616879
-0.000821911463911072   -0.03594804415945608   -0.001768157648251901
-0.004259374205766665   -0.027987387016895512   -0.0017710001666491118
-0.0003273812730352874   -0.027914173559162578   -0.0017281259700518844
-0.000821911463911072   -0.03594804415945608   -0.001768157648251901
-0.000346017365576692   -0.027903389935312523   -0.0017552888976616879
-0.004259374205766665   -0.027987387016895512   -0.0017710001666491118
-0.000821911463911072   -0.03594804415945608   -0.001768157648251901
-0.004688421322927977   -0.036022301893113985   -0.0018264983937067351
-0.004724020049250625   -0.03598079616412922   -0.0018503385501616666
-0.004259374205766665   -0.027987387016895512   -0.0017710001666491118
-0.000821911463911072   -0.03594804415945608   -0.001768157648251901
-0.004724020049250625   -0.03598079616412922   -0.0018503385501616666
-0.000346017365576692   -0.027903389935312523   -0.0017552888976616879
-0.004259374205766665   -0.027987387016895512   -0.0017710001666491118
-0.004688421322927977   -0.036022301893113985   -0.0018264983937067351
-0.0003273812730352874   -0.027914173559162578   -0.0017281259700518844
-0.004236777758516111   -0.02802409565006618   -0.0017455453740060122
-0.004688421322927977   -0.036022301893113985   -0.0018264983937067351
-0.000821911463911072   -0.03594804415945608   -0.001768157648251901
-0.0003273812730352874   -0.027914173559162578   -0.0017281259700518844
-0.0007919217345231545   -0.03596988156974382   -0.0017393026831873484
-0.004236777758516111   -0.02802409565006618   -0.0017455453740060122
-0.00031307350411973253   -0.027921087349498278   -0.0017090590417876343
-0.0007919217345231545   -0.03596988156974382   -0.0017393026831873484
-0.0003273812730352874   -0.027914173559162578   -0.0017281259700518844
-0.004236777758516111   -0.02802409565006618   -0.0017455453740060122
-0.0007919217345231545   -0.03596988156974382   -0.0017393026831873484
-0.0046500766675852175   -0.03607135545950919   -0.0018110567518044194
-0.004688421322927977   -0.036022301893113985   -0.0018264983937067351
-0.004236777758516111   -0.02802409565006618   -0.0017455453740060122
-0.0007919217345231545   -0.03596988156974382   -0.0017393026831873484
-0.004688421322927977   -0.036022301893113985   -0.0018264983937067351
-0.0003273812730352874   -0.027914173559162578   -0.0017281259700518844
-0.0003674798799791744   -0.02788879318690581   -0.0017902641636683367
-0.0008944417919018123   -0.035925562927112575   -0.0018506602060494198
0.0036784859211400544   -0.027882380674355507   -0.0017872777730257314
-0.000346017365576692   -0.027903389935312523   -0.0017552888976616879
-0.0008944417919018123   -0.035925562927112575   -0.0018506602060494198
0.0030826805877549428   -0.035878596650266145   -0.0018666384822987581
0.0036784859211400544   -0.027882380674355507   -0.0017872777730257314
0.0031301638889360715   -0.03586005036500221   -0.001808259695345068
-0.000346017365576692   -0.027903389935312523   -0.0017552888976616879
0.0037068276662255467   -0.02786878090939231   -0.0017590507708737692
0.0031301638889360715   -0.03586005036500221   -0.001808259695345068
0.0036784859211400544   -0.027882380674355507   -0.0017872777730257314
-0.000346017365576692   -0.027903389935312523   -0.0017552888976616879
0.0031301638889360715   -0.03586005036500221   -0.001808259695345068
-0.0008571782093222445   -0.035933381902965855   -0.0018053704872712138
-0.0008944417919018123   -0.035925562927112575   -0.0018506602060494198
-0.000346017365576692   -0.027903389935312523   -0.0017552888976616879
0.0031301638889360715   -0.03586005036500221   -0.001808259695345068
-0.0008944417919018123   -0.035925562927112575   -0.0018506602060494198
0.0036784859211400544   -0.027882380674355507   -0.0017872777730257314
-0.000346017365576692   -0.027903389935312523   -0.0017552888976616879
-0.0008571782093222445   -0.035933381902965855   -0.0018053704872712138
0.0037068276662255467   -0.02786878090939231   -0.0017590507708737692
-0.0003273812730352874   -0.027914173559162578   -0.0017281259700518844
-0.0008571782093222445   -0.035933381902965855   -0.0018053704872712138
0.0031301638889360715   -0.03586005036500221   -0.001808259695345068
0.0037068276662255467   -0.02786878090939231   -0.0017590507708737692
0.003174098796895204   -0.03585040007468249   -0.0017579323260212445
-0.0003273812730352874   -0.027914173559162578   -0.0017281259700518844
0.0037259738106850096   -0.027853004842580728   -0.0017384107606118956
0.003174098796895204   -0.03585040007468249   -0.0017579323260212445
0.0037068276662255467   -0.02786878090939231   -0.0017590507708737692
-0.0003273812730352874   -0.027914173559162578   -0.0017281259700518844
0.003174098796895204   -0.03585040007468249   -0.0017579323260212445
-0.000821911463911072   -0.03594804415945608   -0.001768157648251901
-0.0008571782093222445   -0.035933381902965855   -0.0018053704872712138
-0.0003273812730352874   -0.027914173559162578   -0.0017281259700518844
0.003174098796895204   -0.03585040007468249   -0.0017579323260212445
-0.0008571782093222445   -0.035933381902965855   -0.0018053704872712138
0.0037068276662255467   -0.02786878090939231   -0.0017590507708737692
-0.0003273812730352874   -0.027914173559162578   -0.0017281259700518844
-0.000821911463911072   -0.03594804415945608   -0.001768157648251901
0.0037259738106850096   -0.027853004842580728   -0.0017384107606118956
-0.00031307350411973253   -0.027921087349498278   -0.0017090590417876343
-0.000821911463911072   -0.03594804415945608   -0.001768157648251901
0.003174098796895204   -0.03585040007468249   -0.0017579323260212445
0.0037259738106850096   -0.027853004842580728   -0.0017384107606118956
0.003197829884943241   -0.035845006027060304   -0.0017151307130710894
-0.00031307350411973253   -0.027921087349498278   -0.0017090590417876343
0.0037302441910233458   -0.02782990106972303   -0.001725203217938628
0.003197829884943241   -0.035845006027060304   -0.0017151307130710894
0.0037259738106850096   -0.027853004842580728   -0.0017384107606118956
-0.00031307350411973253   -0.027921087349498278   -0.0017090590417876343
0.003197829884943241   -0.035845006027060304   -0.0017151307130710894
-0.0007919217345231545   -0.03596988156974382   -0.0017393026831873484
-0.000821911463911072   -0.03594804415945608   -0.001768157648251901
-0.00031307350411973253   -0.027921087349498278   -0.0017090590417876343
0.003197829884943241   -0.035845006027060304   -0.0017151307130710894
-0.000821911463911072   -0.03594804415945608   -0.001768157648251901
0.0037259738106850096   -0.027853004842580728   -0.0017384107606118956
0.0036784859211400544   -0.027882380674355507   -0.0017872777730257314
0.0030826805877549428   -0.035878596650266145   -0.0018666384822987581
0.008062737565835988   -0.027873375577928215   -0.0018317582447284636
0.0037068276662255467   -0.02786878090939231   -0.0017590507708737692
0.0030826805877549428   -0.035878596650266145   -0.0018666384822987581
0.0073401853637138584   -0.035799612406658694   -0.0019327903599311578
0.008062737565835988   -0.027873375577928215   -0.0018317582447284636
0.007463841089978049   -0.035757149908294095   -0.0018560857652355608
0.0037068276662255467   -0.02786878090939231   -0.0017590507708737692
0.008118073238650863   -0.027837475426654382   -0.0018084641231639398
0.007463841089978049   -0.035757149908294095   -0.0018560857652355608
0.008062737565835988   -0.027873375577928215   -0.0018317582447284636
0.0037068276662255467   -0.02786878090939231   -0.0017590507708737692
0.007463841089978049   -0.035757149908294095   -0.0018560857652355608
0.0031301638889360715   -0.03586005036500221   -0.001808259695345068
0.0030826805877549428   -0.035878596650266145   -0.0018666384822987581
0.0037068276662255467   -0.02786878090939231   -0.0017590507708737692
0.007463841089978049   -0.035757149908294095   -0.0018560857652355608
0.0030826805877549428   -0.035878596650266145   -0.0018666384822987581
0.008062737565835988   -0.027873375577928215   -0.0018317582447284636
0.0037068276662255467   -0.02786878090939231   -0.0017590507708737692
0.0031301638889360715   -0.03586005036500221   -0.001808259695345068
0.008118073238650863   -0.027837475426654382   -0.0018084641231639398
0.0037259738106850096   -0.027853004842580728   -0.0017384107606118956
0.0031301638889360715   -0.03586005036500221   -0.001808259695345068
0.007463841089978049   -0.035757149908294095   -0.0018560857652355608
0.008118073238650863   -0.027837475426654382   -0.0018084641231639398
0.007548939634508892   -0.03573655031720153   -0.0017908529242203323
0.0037259738106850096   -0.027853004842580728   -0.0017384107606118956
0.008147603014016177   -0.02780916488145114   -0.00179670293733432
0.007548939634508892   -0.03573655031720153   -0.0017908529242203323
0.008118073238650863   -0.027837475426654382   -0.0018084641231639398
0.0037259738106850096   -0.027853004842580728   -0.0017384107606118956
0.007548939634508892   -0.03573655031720153   -0.0017908529242203323
0.003174098796895204   -0.03585040007468249   -0.0017579323260212445
0.0031301638889360715   -0.03586005036500221   -0.001808259695345068
0.0037259738106850096   -0.027853004842580728   -0.0017384107606118956
0.007548939634508892   -0.03573655031720153   -0.0017908529242203323
0.0031301638889360715   -0.03586005036500221   -0.001808259695345068
0.008118073238650863   -0.027837475426654382   -0.0018084641231639398
0.0037259738106850096   -0.027853004842580728   -0.0017384107606118956
0.003174098796895204   -0.03585040007468249   -0.0017579323260212445
0.008147603014016177   -0.02780916488145114   -0.00179670293733432
0.0037302441910233458   -0.02782990106972303   -0.001725203217938628
0.003174098796895204   -0.03585040007468249   -0.0017579323260212445
0.007548939634508892   -0.03573655031720153   -0.0017908529242203323
0.008147603014016177   -0.02780916488145114   -0.00179670293733432
0.007624673525516708   -0.03571422782656942   -0.0017375694189113212
0.0037302441910233458   -0.02782990106972303   -0.001725203217938628
0.008155316802010894   -0.027763866483228514   -0.001796671423395335
0.007624673525516708   -0.03571422782656942   -0.0017375694189113212
0.008147603014016177   -0.02780916488145114   -0.00179670293733432
0.0037302441910233458   -0.02782990106972303   -0.001725203217938628
0.007624673525516708   -0.03571422782656942   -0.0017375694189113212
0.003197829884943241   -0.035845006027060304   -0.0017151307130710894
0.003174098796895204   -0.03585040007468249   -0.0017579323260212445
0.0037302441910233458   -0.02782990106972303   -0.001725203217938628
0.007624673525516708   -0.03571422782656942   -0.0017375694189113212
0.003174098796895204   -0.03585040007468249   -0.0017579323260212445
0.008147603014016177   -0.02780916488145114   -0.00179670293733432
-0.013066633919701988   -0.035921398768206644   -0.0020770564407933782
-0.012715038740746098   -0.04350743725369339   -0.001986325801857201
-0.008729048176218458   -0.03594225071958182   -0.0019600585574466784
-0.013051192893650816   -0.03600100781290605   -0.002073477166488933
-0.012715038740746098   -0.04350743725369339   -0.001986325801857201
-0.008692712726635321   -0.04359478526805847   -0.0019159609594239211
-0.008729048176218458   -0.03594225071958182   -0.0019600585574466784
-0.008641727681344236   -0.0436391593552814   -0.0019266462382648893
-0.013051192893650816   -0.03600100781290605   -0.002073477166488933
-0.008705392251771641   -0.036001738208535757   -0.0019421016416960738
-0.008641727681344236   -0.0436391593552814   -0.0019266462382648893
-0.008729048176218458   -0.03594225071958182   -0.0019600585574466784
-0.013051192893650816   -0.03600100781290605   -0.002073477166488933
-0.008641727681344236   -0.0436391593552814   -0.0019266462382648893
-0.012622982296043457   -0.04356735720836365   -0.0020368123953653345
-0.012715038740746098   -0.04350743725369339   -0.001986325801857201
-0.013051192893650816   -0.03600100781290605   -0.002073477166488933
-0.008641727681344236   -0.0436391593552814   -0.0019266462382648893
-0.012715038740746098   -0.04350743725369339   -0.001986325801857201
-0.008729048176218458   -0.03594225071958182   -0.0019600585574466784
-0.013051192893650816   -0.03600100781290605   -0.002073477166488933
-0.012622982296043457   -0.04356735720836365   -0.0020368123953653345
-0.008705392251771641   -0.036001738208535757   -0.0019421016416960738
-0.01301094307631384   -0.03607838062729493   -0.0020820060742598864
-0.012622982296043457   -0.04356735720836365   -0.0020368123953653345
-0.008641727681344236   -0.0436391593552814   -0.0019266462382648893
-0.008705392251771641   -0.036001738208535757   -0.0019421016416960738
-0.008572754194373587   -0.04370241052835483   -0.0019456287348899486
-0.01301094307631384   -0.03607838062729493   -0.0020820060742598864
-0.00866865048274992   -0.03606771044982387   -0.0019322481906058153
-0.008572754194373587   -0.04370241052835483   -0.0019456287348899486
-0.008705392251771641   -0.036001738208535757   -0.0019421016416960738
-0.01301094307631384   -0.03607838062729493   -0.0020820060742598864
-0.008572754194373587   -0.04370241052835483   -0.0019456287348899486
-0.012518023383519405   -0.04364099333199854   -0.002100346205664103
-0.012622982296043457   -0.04356735720836365   -0.0020368123953653345
-0.01301094307631384   -0.03607838062729493   -0.0020820060742598864
-0.008572754194373587   -0.04370241052835483   -0.0019456287348899486
-0.012622982296043457   -0.04356735720836365   -0.0020368123953653345
-0.008705392251771641   -0.036001738208535757   -0.0019421016416960738
-0.01301094307631384   -0.03607838062729493   -0.0020820060742598864
-0.012518023383519405   -0.04364099333199854   -0.002100346205664103
-0.00866865048274992   -0.03606771044982387   -0.0019322481906058153
-0.012945843388337753   -0.036178115986615675   -0.0021032610382759878
-0.012518023383519405   -0.04364099333199854   -0.002100346205664103
-0.008572754194373587   -0.04370241052835483   -0.0019456287348899486
-0.00866865048274992   -0.03606771044982387   -0.0019322481906058153
-0.008498771313089869   -0.04378840090294143   -0.001973149275134902
-0.012945843388337753   -0.036178115986615675   -0.0021032610382759878
-0.008621161380245542   -0.03614471438330348   -0.0019303622544247776
-0.008498771313089869   -0.04378840090294143   -0.001973149275134902
-0.00866865048274992   -0.03606771044982387   -0.0019322481906058153
-0.012945843388337753   -0.036178115986615675   -0.0021032610382759878
-0.008498771313089869   -0.04378840090294143   -0.001973149275134902
-0.012375187411194316   -0.04375313089143552   -0.002177173992012053
-0.012518023383519405   -0.04364099333199854   -0.002100346205664103
-0.012945843388337753   -0.036178115986615675   -0.0021032610382759878
-0.008498771313089869   -0.04378840090294143   -0.001973149275134902
-0.012518023383519405   -0.04364099333199854   -0.002100346205664103
-0.00866865048274992   -0.03606771044982387   -0.0019322481906058153
-0.008729048176218458   -0.03594225071958182   -0.0019600585574466784
-0.008692712726635321   -0.04359478526805847   -0.0019159609594239211
-0.004755567408832681   -0.03594670874094005   -0.0018823110869111757
-0.008705392251771641   -0.036001738208535757   -0.0019421016416960738
-0.008692712726635321   -0.04359478526805847   -0.0019159609594239211
-0.005086498571921161   -0.04362925024254811   -0.0018709483825922399
-0.004755567408832681   -0.03594670874094005   -0.0018823110869111757
-0.005031008451532845   -0.043652287869408876   -0.0018476634031513697
-0.008705392251771641   -0.036001738208535757   -0.0019421016416960738
-0.004724020049250625   -0.03598079616412922   -0.0018503385501616666
-0.005031008451532845   -0.043652287869408876   -0.0018476634031513697
-0.004755567408832681   -0.03594670874094005   -0.0018823110869111757
-0.008705392251771641   -0.036001738208535757   -0.0019421016416960738
-0.005031008451532845   -0.043652287869408876   -0.0018476634031513697
-0.008641727681344236   -0.0436391593552814   -0.0019266462382648893
-0.008692712726635321   -0.04359478526805847   -0.0019159609594239211
-0.008705392251771641   -0.036001738208535757   -0.0019421016416960738
-0.005031008451532845   -0.043652287869408876   -0.0018476634031513697
-0.008692712726635321   -0.04359478526805847   -0.0019159609594239211
-0.004755567408832681   -0.03594670874094005   -0.0018823110869111757
-0.008705392251771641   -0.036001738208535757   -0.0019421016416960738
-0.008641727681344236   -0.0436391593552814   -0.0019266462382648893
-0.004724020049250625   -0.03598079616412922   -0.0018503385501616666
-0.00866865048274992   -0.03606771044982387   -0.0019322481906058153
-0.008641727681344236   -0.0436391593552814   -0.0019266462382648893
-0.005031008451532845   -0.043652287869408876   -0.0018476634031513697
-0.004724020049250625   -0.03598079616412922   -0.0018503385501616666
-0.004971329159915852   -0.04369346936105381   -0.001832573817269795
-0.00866865048274992   -0.03606771044982387   -0.0019322481906058153
-0.004688421322927977   -0.036022301893113985   -0.0018264983937067351
-0.004971329159915852   -0.04369346936105381   -0.001832573817269795
-0.004724020049250625   -0.03598079616412922   -0.0018503385501616666
-0.00866865048274992   -0.03606771044982387   -0.0019322481906058153
-0.004971329159915852   -0.04369346936105381   -0.001832573817269795
-0.008572754194373587   -0.04370241052835483   -0.0019456287348899486
-0.008641727681344236   -0.0436391593552814   -0.0019266462382648893
-0.00866865048274992   -0.03606771044982387   -0.0019322481906058153
-0.004971329159915852   -0.04369346936105381   -0.001832573817269795
-0.008641727681344236   -0.0436391593552814   -0.0019266462382648893
-0.004724020049250625   -0.03598079616412922   -0.0018503385501616666
-0.00866865048274992   -0.03606771044982387   -0.0019322481906058153
-0.008572754194373587   -0.04370241052835483   -0.0019456287348899486
-0.004688421322927977   -0.036022301893113985   -0.0018264983937067351
-0.008621161380245542   -0.03614471438330348   -0.0019303622544247776
-0.008572754194373587   -0.04370241052835483   -0.0019456287348899486
-0.004971329159915852   -0.04369346936105381   -0.001832573817269795
-0.004688421322927977   -0.036022301893113985   -0.0018264983937067351
-0.004909986566143122   -0.04375331238520137   -0.0018260829288381528
-0.008621161380245542   -0.03614471438330348   -0.0019303622544247776
-0.0046500766675852175   -0.03607135545950919   -0.0018110567518044194
-0.004909986566143122   -0.04375331238520137   -0.0018260829288381528
-0.004688421322927977   -0.036022301893113985   -0.0018264983937067351
-0.008621161380245542   -0.03614471438330348   -0.0019303622544247776
-0.004909986566143122   -0.04375331238520137   -0.0018260829288381528
-0.008498771313089869   -0.04378840090294143   -0.001973149275134902
-0.008572754194373587   -0.04370241052835483   -0.0019456287348899486
-0.008621161380245542   -0.03614471438330348   -0.0019303622544247776
-0.004909986566143122   -0.04375331238520137   -0.0018260829288381528
-0.008572754194373587   -0.04370241052835483   -0.0019456287348899486
-0.004688421322927977   -0.036022301893113985   -0.0018264983937067351
-0.004755567408832681   -0.03594670874094005   -0.0018823110869111757
-0.005086498571921161   -0.04362925024254811   -0.0018709483825922399
-0.0008944417919018123   -0.035925562927112575   -0.0018506602060494198
-0.004724020049250625   -0.03598079616412922   -0.0018503385501616666
-0.005086498571921161   -0.04362925024254811   -0.0018709483825922399
-0.0015893957313720206   -0.043602599604893585   -0.0018636662761780467
-0.0008944417919018123   -0.035925562927112575   -0.0018506602060494198
-0.001528025975353369   -0.04360304818425607   -0.0018075762424485731
-0.004724020049250625   -0.03598079616412922   -0.0018503385501616666
-0.0008571782093222445   -0.035933381902965855   -0.0018053704872712138
-0.001528025975353369   -0.04360304818425607   -0.0018075762424485731
-0.0008944417919018123   -0.035925562927112575   -0.0018506602060494198
-0.004724020049250625   -0.03598079616412922   -0.0018503385501616666
-0.001528025975353369   -0.04360304818425607   -0.0018075762424485731
-0.005031008451532845   -0.043652287869408876   -0.0018476634031513697
-0.005086498571921161   -0.04362925024254811   -0.0018709483825922399
-0.004724020049250625   -0.03598079616412922   -0.0018503385501616666
-0.001528025975353369   -0.04360304818425607   -0.0018075762424485731
-0.005086498571921161   -0.04362925024254811   -0.0018709483825922399
-0.0008944417919018123   -0.035925562927112575   -0.0018506602060494198
-0.004724020049250625   -0.03598079616412922   -0.0018503385501616666
-0.005031008451532845   -0.043652287869408876   -0.0018476634031513697
-0.0008571782093222445   -0.035933381902965855   -0.0018053704872712138
-0.004688421322927977   -0.036022301893113985   -0.0018264983937067351
-0.005031008451532845   -0.043652287869408876   -0.0018476634031513697
-0.001528025975353369   -0.04360304818425607   -0.0018075762424485731
-0.0008571782093222445   -0.035933381902965855   -0.0018053704872712138
-0.001468256165184392   -0.043620320774666245   -0.001759703568857252
-0.004688421322927977   -0.036022301893113985   -0.0018264983937067351
-0.000821911463911072   -0.03594804415945608   -0.001768157648251901
-0.001468256165184392   -0.043620320774666245   -0.001759703568857252
-0.0008571782093222445   -0.035933381902965855   -0.0018053704872712138
-0.004688421322927977   -0.036022301893113985   -0.0018264983937067351
-0.001468256165184392   -0.043620320774666245   -0.001759703568857252
-0.004971329159915852   -0.04369346936105381   -0.001832573817269795
-0.005031008451532845   -0.043652287869408876   -0.0018476634031513697
-0.004688421322927977   -0.036022301893113985   -0.0018264983937067351
-0.001468256165184392   -0.043620320774666245   -0.001759703568857252
-0.005031008451532845   -0.043652287869408876   -0.0018476634031513697
-0.0008571782093222445   -0.035933381902965855   -0.0018053704872712138
-0.004688421322927977   -0.036022301893113985   -0.0018264983937067351
-0.004971329159915852   -0.04369346936105381   -0.001832573817269795
-0.000821911463911072   -0.03594804415945608   -0.001768157648251901
-0.0046500766675852175   -0.03607135545950919   -0.0018110567518044194
-0.004971329159915852   -0.04369346936105381   -0.001832573817269795
-0.001468256165184392   -0.043620320774666245   -0.001759703568857252
-0.000821911463911072   -0.03594804415945608   -0.001768157648251901
-0.0014149031282557616   -0.04365584089517974   -0.0017203331589856782
-0.0046500766675852175   -0.03607135545950919   -0.0018110567518044194
-0.0007919217345231545   -0.03596988156974382   -0.0017393026831873484
-0.0014149031282557616   -0.04365584089517974   -0.0017203331589856782
-0.000821911463911072   -0.03594804415945608   -0.001768157648251901
-0.0046500766675852175   -0.03607135545950919   -0.0018110567518044194
-0.0014149031282557616   -0.04365584089517974   -0.0017203331589856782
-0.004909986566143122   -0.04375331238520137   -0.0018260829288381528
-0.004971329159915852   -0.04369346936105381   -0.001832573817269795
-0.0046500766675852175   -0.03607135545950919   -0.0018110567518044194
-0.0014149031282557616   -0.04365584089517974   -0.0017203331589856782
-0.004971329159915852   -0.04369346936105381   -0.001832573817269795
-0.000821911463911072   -0.03594804415945608   -0.001768157648251901
-0.0008944417919018123   -0.035925562927112575   -0.0018506602060494198
-0.0015893957313720206   -0.043602599604893585   -0.0018636662761780467
0.0030826805877549428   -0.035878596650266145   -0.0018666384822987581
-0.0008571782093222445   -0.035933381902965855   -0.0018053704872712138
-0.0015893957313720206   -0.043602599604893585   -0.0018636662761780467
0.0020278223678198283   -0.04351659361402355   -0.001897073280125485
0.0030826805877549428   -0.035878596650266145   -0.0018666384822987581
0.0021028662297695937   -0.04349292940961552   -0.0018084787101677405
-0.0008571782093222445   -0.035933381902965855   -0.0018053704872712138
0.0031301638889360715   -0.03586005036500221   -0.001808259695345068
0.0021028662297695937   -0.04349292940961552   -0.0018084787101677405
0.0030826805877549428   -0.035878596650266145   -0.0018666384822987581
-0.0008571782093222445   -0.035933381902965855   -0.0018053704872712138
0.0021028662297695937   -0.04349292940961552   -0.0018084787101677405
-0.001528025975353369   -0.04360304818425607   -0.0018075762424485731
-0.0015893957313720206   -0.043602599604893585   -0.0018636662761780467
-0.0008571782093222445   -0.035933381902965855   -0.0018053704872712138
0.0021028662297695937   -0.04349292940961552   -0.0018084787101677405
-0.0015893957313720206   -0.043602599604893585   -0.0018636662761780467
0.0030826805877549428   -0.035878596650266145   -0.0018666384822987581
-0.0008571782093222445   -0.035933381902965855   -0.0018053704872712138
-0.001528025975353369   -0.04360304818425607   -0.0018075762424485731
0.0031301638889360715   -0.03586005036500221   -0.001808259695345068
-0.000821911463911072   -0.03594804415945608   -0.001768157648251901
-0.001528025975353369   -0.04360304818425607   -0.0018075762424485731
0.0021028662297695937   -0.04349292940961552   -0.0018084787101677405
0.0031301638889360715   -0.03586005036500221   -0.001808259695345068
0.0021798468573572065   -0.04348849016064133   -0.0017286255664211074
-0.000821911463911072   -0.03594804415945608   -0.001768157648251901
0.003174098796895204   -0.03585040007468249   -0.0017579323260212445
0.0021798468573572065   -0.04348849016064133   -0.0017286255664211074
0.0031301638889360715   -0.03586005036500221   -0.001808259695345068
-0.000821911463911072   -0.03594804415945608   -0.001768157648251901
0.0021798468573572065   -0.04348849016064133   -0.0017286255664211074
-0.001468256165184392   -0.043620320774666245   -0.001759703568857252
-0.001528025975353369   -0.04360304818425607   -0.0018075762424485731
-0.000821911463911072   -0.03594804415945608   -0.001768157648251901
0.0021798468573572065   -0.04348849016064133   -0.0017286255664211074
-0.001528025975353369   -0.04360304818425607   -0.0018075762424485731
0.0031301638889360715   -0.03586005036500221   -0.001808259695345068
-0.000821911463911072   -0.03594804415945608   -0.001768157648251901
-0.001468256165184392   -0.043620320774666245   -0.001759703568857252
0.003174098796895204   -0.03585040007468249   -0.0017579323260212445
-0.0007919217345231545   -0.03596988156974382   -0.0017393026831873484
-0.001468256165184392   -0.043620320774666245   -0.001759703568857252
0.0021798468573572065   -0.04348849016064133   -0.0017286255664211074
0.003174098796895204   -0.03585040007468249   -0.0017579323260212445
0.0022310970435071445   -0.04349973525718131   -0.0016563604028474556
-0.0007919217345231545   -0.03596988156974382   -0.0017393026831873484
0.003197829884943241   -0.035845006027060304   -0.0017151307130710894
0.0022310970435071445   -0.04349973525718131   -0.0016563604028474556
0.003174098796895204   -0.03585040007468249   -0.0017579323260212445
-0.0007919217345231545   -0.03596988156974382   -0.0017393026831873484
0.0022310970435071445   -0.04349973525718131   -0.0016563604028474556
-0.0014149031282557616   -0.04365584089517974   -0.0017203331589856782
-0.001468256165184392   -0.043620320774666245   -0.001759703568857252
-0.0007919217345231545   -0.03596988156974382   -0.0017393026831873484
0.0022310970435071445   -0.04349973525718131   -0.0016563604028474556
-0.001468256165184392   -0.043620320774666245   -0.001759703568857252
0.003174098796895204   -0.03585040007468249   -0.0017579323260212445
0.0030826805877549428   -0.035878596650266145   -0.0018666384822987581
0.0020278223678198283   -0.04351659361402355   -0.001897073280125485
0.0073401853637138584   -0.035799612406658694   -0.0019327903599311578
0.0031301638889360715   -0.03586005036500221   -0.001808259695345068
0.0020278223678198283   -0.04351659361402355   -0.001897073280125485
0.0058749119025306665   -0.04336870380752957   -0.0019830048865749467
0.0073401853637138584   -0.035799612406658694   -0.0019327903599311578
0.0060746035553553   -0.043319991358962605   -0.001854044290937212
0.0031301638889360715   -0.03586005036500221   -0.001808259695345068
0.007463841089978049   -0.035757149908294095   -0.0018560857652355608
0.0060746035553553   -0.043319991358962605   -0.001854044290937212
0.0073401853637138584   -0.035799612406658694   -0.0019327903599311578
0.0031301638889360715   -0.03586005036500221   -0.001808259695345068
0.0060746035553553   -0.043319991358962605   -0.001854044290937212
0.0021028662297695937   -0.04349292940961552   -0.0018084787101677405
0.0020278223678198283   -0.04351659361402355   -0.001897073280125485
0.0031301638889360715   -0.03586005036500221   -0.001808259695345068
0.0060746035553553   -0.043319991358962605   -0.001854044290937212
0.0020278223678198283   -0.04351659361402355   -0.001897073280125485
0.0073401853637138584   -0.035799612406658694   -0.0019327903599311578
0.0031301638889360715   -0.03586005036500221   -0.001808259695345068
0.0021028662297695937   -0.04349292940961552   -0.0018084787101677405
0.007463841089978049   -0.035757149908294095   -0.0018560857652355608
0.003174098796895204   -0.03585040007468249   -0.0017579323260212445
0.0021028662297695937   -0.04349292940961552   -0.0018084787101677405
0.0060746035553553   -0.043319991358962605   -0.001854044290937212
0.007463841089978049   -0.035757149908294095   -0.0018560857652355608
0.006222544494220303   -0.04330657241991297   -0.0017367133995914359
0.003174098796895204   -0.03585040007468249   -0.0017579323260212445
0.007548939634508892   -0.03573655031720153   -0.0017908529242203323
0.006222544494220303   -0.04330657241991297   -0.0017367133995914359
0.007463841089978049   -0.035757149908294095   -0.0018560857652355608
0.003174098796895204   -0.03585040007468249   -0.0017579323260212445
0.006222544494220303   -0.04330657241991297   -0.0017367133995914359
0.0021798468573572065   -0.04348849016064133   -0.0017286255664211074
0.0021028662297695937   -0.04349292940961552   -0.0018084787101677405
0.003174098796895204   -0.03585040007468249   -0.0017579323260212445
0.006222544494220303   -0.04330657241991297   -0.0017367133995914359
0.0021028662297695937   -0.04349292940961552   -0.0018084787101677405
0.007463841089978049   -0.035757149908294095   -0.0018560857652355608
0.003174098796895204   -0.03585040007468249   -0.0017579323260212445
0.0021798468573572065   -0.04348849016064133   -0.0017286255664211074
0.007548939634508892   -0.03573655031720153   -0.0017908529242203323
0.003197829884943241   -0.035845006027060304   -0.0017151307130710894
0.0021798468573572065   -0.04348849016064133   -0.0017286255664211074
0.006222544494220303   -0.04330657241991297   -0.0017367133995914359
0.007548939634508892   -0.03573655031720153   -0.0017908529242203323
0.006372657156956846   -0.04330647033756612   -0.001631545664913413
0.003197829884943241   -0.035845006027060304   -0.0017151307130710894
0.007624673525516708   -0.03571422782656942   -0.0017375694189113212
0.006372657156956846   -0.04330647033756612   -0.001631545664913413
0.007548939634508892   -0.03573655031720153   -0.0017908529242203323
0.003197829884943241   -0.035845006027060304   -0.0017151307130710894
0.006372657156956846   -0.04330647033756612   -0.001631545664913413
0.0022310970435071445   -0.04349973525718131   -0.0016563604028474556
0.0021798468573572065   -0.04348849016064133   -0.0017286255664211074
0.003197829884943241   -0.035845006027060304   -0.0017151307130710894
0.006372657156956846   -0.04330647033756612   -0.001631545664913413
0.0021798468573572065   -0.04348849016064133   -0.0017286255664211074
0.007548939634508892   -0.03573655031720153   -0.0017908529242203323
-0.012715038740746098   -0.04350743725369339   -0.001986325801857201
-0.011604519579394757   -0.050217493605929475   -0.0018526720344135572
-0.008692712726635321   -0.04359478526805847   -0.0019159609594239211
-0.012622982296043457   -0.04356735720836365   -0.0020368123953653345
-0.011604519579394757   -0.050217493605929475   -0.0018526720344135572
-0.00821981332430714   -0.05037488256093999   -0.0018413979968030325
-0.008692712726635321   -0.04359478526805847   -0.0019159609594239211
-0.008135509531356163   -0.050397634441860635   -0.0018786423261890198
-0.012622982296043457   -0.04356735720836365   -0.0020368123953653345
-0.008641727681344236   -0.0436391593552814   -0.0019266462382648893
-0.008135509531356163   -0.050397634441860635   -0.0018786423261890198
-0.008692712726635321   -0.04359478526805847   -0.0019159609594239211
-0.012622982296043457   -0.04356735720836365   -0.0020368123953653345
-0.008135509531356163   -0.050397634441860635   -0.0018786423261890198
-0.011428785105897999   -0.050251241910478986   -0.001957004031498583
-0.011604519579394757   -0.050217493605929475   -0.0018526720344135572
-0.012622982296043457   -0.04356735720836365   -0.0020368123953653345
-0.008135509531356163   -0.050397634441860635   -0.0018786423261890198
-0.011604519579394757   -0.050217493605929475   -0.0018526720344135572
-0.008692712726635321   -0.04359478526805847   -0.0019159609594239211
-0.012622982296043457   -0.04356735720836365   -0.0020368123953653345
-0.011428785105897999   -0.050251241910478986   -0.001957004031498583
-0.008641727681344236   -0.0436391593552814   -0.0019266462382648893
-0.012518023383519405   -0.04364099333199854   -0.002100346205664103
-0.011428785105897999   -0.050251241910478986   -0.001957004031498583
-0.008135509531356163   -0.050397634441860635   -0.0018786423261890198
-0.008641727681344236   -0.0436391593552814   -0.0019266462382648893
-0.008029615813218165   -0.05045220663684783   -0.0019242962895270183
-0.012518023383519405   -0.04364099333199854   -0.002100346205664103
-0.008572754194373587   -0.04370241052835483   -0.0019456287348899486
-0.008029615813218165   -0.05045220663684783   -0.0019242962895270183
-0.008641727681344236   -0.0436391593552814   -0.0019266462382648893
-0.012518023383519405   -0.04364099333199854   -0.002100346205664103
-0.008029615813218165   -0.05045220663684783   -0.0019242962895270183
-0.011253573221389672   -0.05031528899547278   -0.00207502845978704
-0.011428785105897999   -0.050251241910478986   -0.001957004031498583
-0.012518023383519405   -0.04364099333199854   -0.002100346205664103
-0.008029615813218165   -0.05045220663684783   -0.0019242962895270183
-0.011428785105897999   -0.050251241910478986   -0.001957004031498583
-0.008641727681344236   -0.0436391593552814   -0.0019266462382648893
-0.012518023383519405   -0.04364099333199854   -0.002100346205664103
-0.011253573221389672   -0.05031528899547278   -0.00207502845978704
-0.008572754194373587   -0.04370241052835483   -0.0019456287348899486
-0.012375187411194316   -0.04375313089143552   -0.002177173992012053
-0.011253573221389672   -0.05031528899547278   -0.00207502845978704
-0.008029615813218165   -0.05045220663684783   -0.0019242962895270183
-0.008572754194373587   -0.04370241052835483   -0.0019456287348899486
-0.00792514695942565   -0.05054170008364455   -0.0019782806988942847
-0.012375187411194316   -0.04375313089143552   -0.002177173992012053
-0.008498771313089869   -0.04378840090294143   -0.001973149275134902
-0.00792514695942565   -0.05054170008364455   -0.0019782806988942847
-0.008572754194373587   -0.04370241052835483   -0.0019456287348899486
-0.012375187411194316   -0.04375313089143552   -0.002177173992012053
-0.00792514695942565   -0.05054170008364455   -0.0019782806988942847
-0.01102915982536576   -0.05043471845794358   -0.0022064990089397008
-0.011253573221389672   -0.05031528899547278   -0.00207502845978704
-0.012375187411194316   -0.04375313089143552   -0.002177173992012053
-0.00792514695942565   -0.05054170008364455   -0.0019782806988942847
-0.011253573221389672   -0.05031528899547278   -0.00207502845978704
-0.008572754194373587   -0.04370241052835483   -0.0019456287348899486
-0.008692712726635321   -0.04359478526805847   -0.0019159609594239211
-0.00821981332430714   -0.05037488256093999   -0.0018413979968030325
-0.005086498571921161   -0.04362925024254811   -0.0018709483825922399
-0.008641727681344236   -0.0436391593552814   -0.0019266462382648893
-0.00821981332430714   -0.05037488256093999   -0.0018413979968030325
-0.0052881418334766285   -0.05044846201493448   -0.0018369686774977617
-0.005086498571921161   -0.04362925024254811   -0.0018709483825922399
-0.005201674381941176   -0.05045590064038255   -0.001820266587538193
-0.008641727681344236   -0.0436391593552814   -0.0019266462382648893
-0.005031008451532845   -0.043652287869408876   -0.0018476634031513697
-0.005201674381941176   -0.05045590064038255   -0.001820266587538193
-0.005086498571921161   -0.04362925024254811   -0.0018709483825922399
-0.008641727681344236   -0.0436391593552814   -0.0019266462382648893
-0.005201674381941176   -0.05045590064038255   -0.001820266587538193
-0.008135509531356163   -0.050397634441860635   -0.0018786423261890198
-0.00821981332430714   -0.05037488256093999   -0.0018413979968030325
-0.008641727681344236   -0.0436391593552814   -0.0019266462382648893
-0.005201674381941176   -0.05045590064038255   -0.001820266587538193
-0.00821981332430714   -0.05037488256093999   -0.0018413979968030325
-0.005086498571921161   -0.04362925024254811   -0.0018709483825922399
-0.008641727681344236   -0.0436391593552814   -0.0019266462382648893
-0.008135509531356163   -0.050397634441860635   -0.0018786423261890198
-0.005031008451532845   -0.043652287869408876   -0.0018476634031513697
-0.008572754194373587   -0.04370241052835483   -0.0019456287348899486
-0.008135509531356163   -0.050397634441860635   -0.0018786423261890198
-0.005201674381941176   -0.05045590064038255   -0.001820266587538193
-0.005031008451532845   -0.043652287869408876   -0.0018476634031513697
-0.005112418972517639   -0.050491758179346063   -0.0018117249942234013
-0.008572754194373587   -0.04370241052835483   -0.0019456287348899486
-0.004971329159915852   -0.04369346936105381   -0.001832573817269795
-0.005112418972517639   -0.050491758179346063   -0.0018117249942234013
-0.005031008451532845   -0.043652287869408876   -0.0018476634031513697
-0.008572754194373587   -0.04370241052835483   -0.0019456287348899486
-0.005112418972517639   -0.050491758179346063   -0.0018117249942234013
-0.008029615813218165   -0.05045220663684783   -0.0019242962895270183
-0.008135509531356163   -0.050397634441860635   -0.0018786423261890198
-0.008572754194373587   -0.04370241052835483   -0.0019456287348899486
-0.005112418972517639   -0.050491758179346063   -0.0018117249942234013
-0.008135509531356163   -0.050397634441860635   -0.0018786423261890198
-0.005031008451532845   -0.043652287869408876   -0.0018476634031513697
-0.008572754194373587   -0.04370241052835483   -0.0019456287348899486
-0.008029615813218165   -0.05045220663684783   -0.0019242962895270183
-0.004971329159915852   -0.04369346936105381   -0.001832573817269795
-0.008498771313089869   -0.04378840090294143   -0.001973149275134902
-0.008029615813218165   -0.05045220663684783   -0.0019242962895270183
-0.005112418972517639   -0.050491758179346063   -0.0018117249942234013
-0.004971329159915852   -0.04369346936105381   -0.001832573817269795
-0.0050233038617627625   -0.05055769575723141   -0.0018112436371032037
-0.008498771313089869   -0.04378840090294143   -0.001973149275134902
-0.004909986566143122   -0.04375331238520137   -0.0018260829288381528
-0.0050233038617627625   -0.05055769575723141   -0.0018112436371032037
-0.004971329159915852   -0.04369346936105381   -0.001832573817269795
-0.008498771313089869   -0.04378840090294143   -0.001973149275134902
-0.0050233038617627625   -0.05055769575723141   -0.0018112436371032037
-0.00792514695942565   -0.05054170008364455   -0.0019782806988942847
-0.008029615813218165   -0.05045220663684783   -0.0019242962895270183
-0.008498771313089869   -0.04378840090294143   -0.001973149275134902
-0.0050233038617627625   -0.05055769575723141   -0.0018112436371032037
-0.008029615813218165   -0.05045220663684783   -0.0019242962895270183
-0.004971329159915852   -0.04369346936105381   -0.001832573817269795
-0.005086498571921161   -0.04362925024254811   -0.0018709483825922399
-0.0052881418334766285   -0.05044846201493448   -0.0018369686774977617
-0.0015893957313720206   -0.043602599604893585   -0.0018636662761780467
-0.005031008451532845   -0.043652287869408876   -0.0018476634031513697
-0.0052881418334766285   -0.05044846201493448   -0.0018369686774977617
-0.002453698764476359   -0.05043481880431865   -0.001858113408448634
-0.0015893957313720206   -0.043602599604893585   -0.0018636662761780467
-0.002358989595244516   -0.05042504841140836   -0.0017893547612977201
-0.005031008451532845   -0.043652287869408876   -0.0018476634031513697
-0.001528025975353369   -0.04360304818425607   -0.0018075762424485731
-0.002358989595244516   -0.05042504841140836   -0.0017893547612977201
-0.0015893957313720206   -0.043602599604893585   -0.0018636662761780467
-0.005031008451532845   -0.043652287869408876   -0.0018476634031513697
-0.002358989595244516   -0.05042504841140836   -0.0017893547612977201
-0.005201674381941176   -0.05045590064038255   -0.001820266587538193
-0.0052881418334766285   -0.05044846201493448   -0.0018369686774977617
-0.005031008451532845   -0.043652287869408876   -0.0018476634031513697
-0.002358989595244516   -0.05042504841140836   -0.0017893547612977201
-0.0052881418334766285   -0.05044846201493448   -0.0018369686774977617
-0.0015893957313720206   -0.043602599604893585   -0.0018636662761780467
-0.005031008451532845   -0.043652287869408876   -0.0018476634031513697
-0.005201674381941176   -0.05045590064038255   -0.001820266587538193
-0.001528025975353369   -0.04360304818425607   -0.0018075762424485731
-0.004971329159915852   -0.04369346936105381   -0.001832573817269795
-0.005201674381941176   -0.05045590064038255   -0.001820266587538193
-0.002358989595244516   -0.05042504841140836   -0.0017893547612977201
-0.001528025975353369   -0.04360304818425607   -0.0018075762424485731
-0.002267057687742319   -0.05044099205226428   -0.0017292954425704415
-0.004971329159915852   -0.04369346936105381   -0.001832573817269795
-0.001468256165184392   -0.043620320774666245   -0.001759703568857252
-0.002267057687742319   -0.05044099205226428   -0.0017292954425704415
-0.001528025975353369   -0.04360304818425607   -0.0018075762424485731
-0.004971329159915852   -0.04369346936105381   -0.001832573817269795
-0.002267057687742319   -0.05044099205226428   -0.0017292954425704415
-0.005112418972517639   -0.050491758179346063   -0.0018117249942234013
-0.005201674381941176   -0.05045590064038255   -0.001820266587538193
-0.004971329159915852   -0.04369346936105381   -0.001832573817269795
-0.002267057687742319   -0.05044099205226428   -0.0017292954425704415
-0.005201674381941176   -0.05045590064038255   -0.001820266587538193
-0.001528025975353369   -0.04360304818425607   -0.0018075762424485731
-0.004971329159915852   -0.04369346936105381   -0.001832573817269795
-0.005112418972517639   -0.050491758179346063   -0.0018117249942234013
-0.001468256165184392   -0.043620320774666245   -0.001759703568857252
-0.004909986566143122   -0.04375331238520137   -0.0018260829288381528
-0.005112418972517639   -0.050491758179346063   -0.0018117249942234013
-0.002267057687742319   -0.05044099205226428   -0.0017292954425704415
-0.001468256165184392   -0.043620320774666245   -0.001759703568857252
-0.0021839861071009234   -0.05048635202025048   -0.0016771843929803151
-0.004909986566143122   -0.04375331238520137   -0.0018260829288381528
-0.0014149031282557616   -0.04365584089517974   -0.0017203331589856782
-0.0021839861071009234   -0.05048635202025048   -0.0016771843929803151
-0.001468256165184392   -0.043620320774666245   -0.001759703568857252
-0.004909986566143122   -0.04375331238520137   -0.0018260829288381528
-0.0021839861071009234   -0.05048635202025048   -0.0016771843929803151
-0.0050233038617627625   -0.05055769575723141   -0.0018112436371032037
-0.005112418972517639   -0.050491758179346063   -0.0018117249942234013
-0.004909986566143122   -0.04375331238520137   -0.0018260829288381528
-0.0021839861071009234   -0.05048635202025048   -0.0016771843929803151
-0.005112418972517639   -0.050491758179346063   -0.0018117249942234013
-0.001468256165184392   -0.043620320774666245   -0.001759703568857252
-0.0015893957313720206   -0.043602599604893585   -0.0018636662761780467
-0.002453698764476359   -0.05043481880431865   -0.001858113408448634
0.0020278223678198283   -0.04351659361402355   -0.001897073280125485
-0.001528025975353369   -0.04360304818425607   -0.0018075762424485731
-0.002453698764476359   -0.05043481880431865   -0.001858113408448634
0.0005128910204610832   -0.050330826933394336   -0.0019094296900658849
0.0020278223678198283   -0.04351659361402355   -0.001897073280125485
0.0006281347399322483   -0.05029922115625099   -0.0017887847392054602
-0.001528025975353369   -0.04360304818425607   -0.0018075762424485731
0.0021028662297695937   -0.04349292940961552   -0.0018084787101677405
0.0006281347399322483   -0.05029922115625099   -0.0017887847392054602
0.0020278223678198283   -0.04351659361402355   -0.001897073280125485
-0.001528025975353369   -0.04360304818425607   -0.0018075762424485731
0.0006281347399322483   -0.05029922115625099   -0.0017887847392054602
-0.002358989595244516   -0.05042504841140836   -0.0017893547612977201
-0.002453698764476359   -0.05043481880431865   -0.001858113408448634
-0.001528025975353369   -0.04360304818425607   -0.0018075762424485731
0.0006281347399322483   -0.05029922115625099   -0.0017887847392054602
-0.002453698764476359   -0.05043481880431865   -0.001858113408448634
0.0020278223678198283   -0.04351659361402355   -0.001897073280125485
-0.001528025975353369   -0.04360304818425607   -0.0018075762424485731
-0.002358989595244516   -0.05042504841140836   -0.0017893547612977201
0.0021028662297695937   -0.04349292940961552   -0.0018084787101677405
-0.001468256165184392   -0.043620320774666245   -0.001759703568857252
-0.002358989595244516   -0.05042504841140836   -0.0017893547612977201
0.0006281347399322483   -0.05029922115625099   -0.0017887847392054602
0.0021028662297695937   -0.04349292940961552   -0.0018084787101677405
0.0007496324319671586   -0.050296362943659224   -0.001679163272582141
-0.001468256165184392   -0.043620320774666245   -0.001759703568857252
0.0021798468573572065   -0.04348849016064133   -0.0017286255664211074
0.0007496324319671586   -0.050296362943659224   -0.001679163272582141
0.0021028662297695937   -0.04349292940961552   -0.0018084787101677405
-0.001468256165184392   -0.043620320774666245   -0.001759703568857252
0.0007496324319671586   -0.050296362943659224   -0.001679163272582141
-0.002267057687742319   -0.05044099205226428   -0.0017292954425704415
-0.002358989595244516   -0.05042504841140836   -0.0017893547612977201
-0.001468256165184392   -0.043620320774666245   -0.001759703568857252
0.0007496324319671586   -0.050296362943659224   -0.001679163272582141
-0.002358989595244516   -0.05042504841140836   -0.0017893547612977201
0.0021028662297695937   -0.04349292940961552   -0.0018084787101677405
-0.001468256165184392   -0.043620320774666245   -0.001759703568857252
-0.002267057687742319   -0.05044099205226428   -0.0017292954425704415
0.0021798468573572065   -0.04348849016064133   -0.0017286255664211074
-0.0014149031282557616   -0.04365584089517974   -0.0017203331589856782
-0.002267057687742319   -0.05044099205226428   -0.0017292954425704415
0.0007496324319671586   -0.050296362943659224   -0.001679163272582141
0.0021798468573572065   -0.04348849016064133   -0.0017286255664211074
0.0008384905067606697   -0.050320937133430825   -0.0015771301913654764
-0.0014149031282557616   -0.04365584089517974   -0.0017203331589856782
0.0022310970435071445   -0.04349973525718131   -0.0016563604028474556
0.0008384905067606697   -0.050320937133430825   -0.0015771301913654764
0.0021798468573572065   -0.04348849016064133   -0.0017286255664211074
-0.0014149031282557616   -0.04365584089517974   -0.0017203331589856782
0.0008384905067606697   -0.050320937133430825   -0.0015771301913654764
-0.0021839861071009234   -0.05048635202025048   -0.0016771843929803151
-0.002267057687742319   -0.05044099205226428   -0.0017292954425704415
-0.0014149031282557616   -0.04365584089517974   -0.0017203331589856782
0.0008384905067606697   -0.050320937133430825   -0.0015771301913654764
-0.002267057687742319   -0.05044099205226428   -0.0017292954425704415
0.0021798468573572065   -0.04348849016064133   -0.0017286255664211074
0.0020278223678198283   -0.04351659361402355   -0.001897073280125485
0.0005128910204610832   -0.050330826933394336   -0.0019094296900658849
0.0058749119025306665   -0.04336870380752957   -0.0019830048865749467
0.0021028662297695937   -0.04349292940961552   -0.0018084787101677405
0.0005128910204610832   -0.050330826933394336   -0.0019094296900658849
0.003674328767503955   -0.05012664668742068   -0.0020189141869722807
0.0058749119025306665   -0.04336870380752957   -0.0019830048865749467
0.003966593042988612   -0.050066026003563156   -0.0018342488973773399
0.0021028662297695937   -0.04349292940961552   -0.0018084787101677405
0.0060746035553553   -0.043319991358962605   -0.001854044290937212
0.003966593042988612   -0.050066026003563156   -0.0018342488973773399
0.0058749119025306665   -0.04336870380752957   -0.0019830048865749467
0.0021028662297695937   -0.04349292940961552   -0.0018084787101677405
0.003966593042988612   -0.050066026003563156   -0.0018342488973773399
0.0006281347399322483   -0.05029922115625099   -0.0017887847392054602
0.0005128910204610832   -0.050330826933394336   -0.0019094296900658849
0.0021028662297695937   -0.04349292940961552   -0.0018084787101677405
0.003966593042988612   -0.050066026003563156   -0.0018342488973773399
0.0005128910204610832   -0.050330826933394336   -0.0019094296900658849
0.0058749119025306665   -0.04336870380752957   -0.0019830048865749467
0.0021028662297695937   -0.04349292940961552   -0.0018084787101677405
0.0006281347399322483   -0.05029922115625099   -0.0017887847392054602
0.0060746035553553   -0.043319991358962605   -0.001854044290937212
0.0021798468573572065   -0.04348849016064133   -0.0017286255664211074
0.0006281347399322483   -0.05029922115625099   -0.0017887847392054602
0.003966593042988612   -0.050066026003563156   -0.0018342488973773399
0.0060746035553553   -0.043319991358962605   -0.001854044290937212
0.004190706397828404   -0.050055527671479895   -0.0016632553242863838
0.0021798468573572065   -0.04348849016064133   -0.0017286255664211074
0.006222544494220303   -0.04330657241991297   -0.0017367133995914359
0.004190706397828404   -0.050055527671479895   -0.0016632553242863838
0.0060746035553553   -0.043319991358962605   -0.001854044290937212
0.0021798468573572065   -0.04348849016064133   -0.0017286255664211074
0.004190706397828404   -0.050055527671479895   -0.0016632553242863838
0.0007496324319671586   -0.050296362943659224   -0.001679163272582141
0.0006281347399322483   -0.05029922115625099   -0.0017887847392054602
0.0021798468573572065   -0.04348849016064133   -0.0017286255664211074
0.004190706397828404   -0.050055527671479895   -0.0016632553242863838
0.0006281347399322483   -0.05029922115625099   -0.0017887847392054602
0.0060746035553553   -0.043319991358962605   -0.001854044290937212
0.0021798468573572065   -0.04348849016064133   -0.0017286255664211074
0.0007496324319671586   -0.050296362943659224   -0.001679163272582141
0.006222544494220303   -0.04330657241991297   -0.0017367133995914359
0.0022310970435071445   -0.04349973525718131   -0.0016563604028474556
0.0007496324319671586   -0.050296362943659224   -0.001679163272582141
0.004190706397828404   -0.050055527671479895   -0.0016632553242863838
0.006222544494220303   -0.04330657241991297   -0.0017367133995914359
0.004423056971368028   -0.050073565010977705   -0.0015073276564060182
0.0022310970435071445   -0.04349973525718131   -0.0016563604028474556
0.006372657156956846   -0.04330647033756612   -0.001631545664913413
0.004423056971368028   -0.050073565010977705   -0.0015073276564060182
0.006222544494220303   -0.04330657241991297   -0.0017367133995914359
0.0022310970435071445   -0.04349973525718131   -0.0016563604028474556
0.004423056971368028   -0.050073565010977705   -0.0015073276564060182
0.0008384905067606697   -0.050320937133430825   -0.0015771301913654764
0.0007496324319671586   -0.050296362943659224   -0.001679163272582141
0.0022310970435071445   -0.04349973525718131   -0.0016563604028474556
0.004423056971368028   -0.050073565010977705   -0.0015073276564060182
0.0007496324319671586   -0.050296362943659224   -0.001679163272582141
0.006222544494220303   -0.04330657241991297   -0.0017367133995914359
-0.011604519579394757   -0.050217493605929475   -0.0018526720344135572
-0.009722452454935868   -0.055483415086641036   -0.001681187013985014
-0.00821981332430714   -0.05037488256093999   -0.0018413979968030325
-0.011428785105897999   -0.050251241910478986   -0.001957004031498583
-0.009722452454935868   -0.055483415086641036   -0.001681187013985014
-0.007313292216575629   -0.05571626948547979   -0.0017509866196818394
-0.00821981332430714   -0.05037488256093999   -0.0018413979968030325
-0.007192075859853419   -0.05570434571253849   -0.0018082932755628931
-0.011428785105897999   -0.050251241910478986   -0.001957004031498583
-0.008135509531356163   -0.050397634441860635   -0.0018786423261890198
-0.007192075859853419   -0.05570434571253849   -0.0018082932755628931
-0.00821981332430714   -0.05037488256093999   -0.0018413979968030325
-0.011428785105897999   -0.050251241910478986   -0.001957004031498583
-0.007192075859853419   -0.05570434571253849   -0.0018082932755628931
-0.009460835835437833   -0.05547690663328445   -0.0018356863840271126
-0.009722452454935868   -0.055483415086641036   -0.001681187013985014
-0.011428785105897999   -0.050251241910478986   -0.001957004031498583
-0.007192075859853419   -0.05570434571253849   -0.0018082932755628931
-0.009722452454935868   -0.055483415086641036   -0.001681187013985014
-0.00821981332430714   -0.05037488256093999   -0.0018413979968030325
-0.011428785105897999   -0.050251241910478986   -0.001957004031498583
-0.009460835835437833   -0.05547690663328445   -0.0018356863840271126
-0.008135509531356163   -0.050397634441860635   -0.0018786423261890198
-0.011253573221389672   -0.05031528899547278   -0.00207502845978704
-0.009460835835437833   -0.05547690663328445   -0.0018356863840271126
-0.007192075859853419   -0.05570434571253849   -0.0018082932755628931
-0.008135509531356163   -0.050397634441860635   -0.0018786423261890198
-0.007049457050598334   -0.05573798459824865   -0.0018741826448729017
-0.011253573221389672   -0.05031528899547278   -0.00207502845978704
-0.008029615813218165   -0.05045220663684783   -0.0019242962895270183
-0.007049457050598334   -0.05573798459824865   -0.0018741826448729017
-0.008135509531356163   -0.050397634441860635   -0.0018786423261890198
-0.011253573221389672   -0.05031528899547278   -0.00207502845978704
-0.007049457050598334   -0.05573798459824865   -0.0018741826448729017
-0.009219731466623502   -0.05551844918594905   -0.00200227693526108
-0.009460835835437833   -0.05547690663328445   -0.0018356863840271126
-0.011253573221389672   -0.05031528899547278   -0.00207502845978704
-0.007049457050598334   -0.05573798459824865   -0.0018741826448729017
-0.009460835835437833   -0.05547690663328445   -0.0018356863840271126
-0.008135509531356163   -0.050397634441860635   -0.0018786423261890198
-0.011253573221389672   -0.05031528899547278   -0.00207502845978704
-0.009219731466623502   -0.05551844918594905   -0.00200227693526108
-0.008029615813218165   -0.05045220663684783   -0.0019242962895270183
-0.01102915982536576   -0.05043471845794358   -0.0022064990089397008
-0.009219731466623502   -0.05551844918594905   -0.00200227693526108
-0.007049457050598334   -0.05573798459824865   -0.0018741826448729017
-0.008029615813218165   -0.05045220663684783   -0.0019242962895270183
-0.006920076540274463   -0.05581796007954644   -0.0019481068018139904
-0.01102915982536576   -0.05043471845794358   -0.0022064990089397008
-0.00792514695942565   -0.05054170008364455   -0.0019782806988942847
-0.006920076540274463   -0.05581796007954644   -0.0019481068018139904
-0.008029615813218165   -0.05045220663684783   -0.0019242962895270183
-0.01102915982536576   -0.05043471845794358   -0.0022064990089397008
-0.006920076540274463   -0.05581796007954644   -0.0019481068018139904
-0.008925630485018342   -0.055629225017775   -0.0021802520421131937
-0.009219731466623502   -0.05551844918594905   -0.00200227693526108
-0.01102915982536576   -0.05043471845794358   -0.0022064990089397008
-0.006920076540274463   -0.05581796007954644   -0.0019481068018139904
-0.009219731466623502   -0.05551844918594905   -0.00200227693526108
-0.008029615813218165   -0.05045220663684783   -0.0019242962895270183
-0.00821981332430714   -0.05037488256093999   -0.0018413979968030325
-0.007313292216575629   -0.05571626948547979   -0.0017509866196818394
-0.0052881418334766285   -0.05044846201493448   -0.0018369686774977617
-0.008135509531356163   -0.050397634441860635   -0.0018786423261890198
-0.007313292216575629   -0.05571626948547979   -0.0017509866196818394
-0.005343840687254025   -0.055866872241926706   -0.0018056228548128511
-0.0052881418334766285   -0.05044846201493448   -0.0018369686774977617
-0.005219500876735443   -0.055847697236244886   -0.001788101267941484
-0.008135509531356163   -0.050397634441860635   -0.0018786423261890198
-0.005201674381941176   -0.05045590064038255   -0.001820266587538193
-0.005219500876735443   -0.055847697236244886   -0.001788101267941484
-0.0052881418334766285   -0.05044846201493448   -0.0018369686774977617
-0.008135509531356163   -0.050397634441860635   -0.0018786423261890198
-0.005219500876735443   -0.055847697236244886   -0.001788101267941484
-0.007192075859853419   -0.05570434571253849   -0.0018082932755628931
-0.007313292216575629   -0.05571626948547979   -0.0017509866196818394
-0.008135509531356163   -0.050397634441860635   -0.0018786423261890198
-0.005219500876735443   -0.055847697236244886   -0.001788101267941484
-0.007313292216575629   -0.05571626948547979   -0.0017509866196818394
-0.0052881418334766285   -0.05044846201493448   -0.0018369686774977617
-0.008135509531356163   -0.050397634441860635   -0.0018786423261890198
-0.007192075859853419   -0.05570434571253849   -0.0018082932755628931
-0.005201674381941176   -0.05045590064038255   -0.001820266587538193
-0.008029615813218165   -0.05045220663684783   -0.0019242962895270183
-0.007192075859853419   -0.05570434571253849   -0.0018082932755628931
-0.005219500876735443   -0.055847697236244886   -0.001788101267941484
-0.005201674381941176   -0.05045590064038255   -0.001820266587538193
-0.005096881783840062   -0.05586786619191228   -0.001778919181832967
-0.008029615813218165   -0.05045220663684783   -0.0019242962895270183
-0.005112418972517639   -0.050491758179346063   -0.0018117249942234013
-0.005096881783840062   -0.05586786619191228   -0.001778919181832967
-0.005201674381941176   -0.05045590064038255   -0.001820266587538193
-0.008029615813218165   -0.05045220663684783   -0.0019242962895270183
-0.005096881783840062   -0.05586786619191228   -0.001778919181832967
-0.007049457050598334   -0.05573798459824865   -0.0018741826448729017
-0.007192075859853419   -0.05570434571253849   -0.0018082932755628931
-0.008029615813218165   -0.05045220663684783   -0.0019242962895270183
-0.005096881783840062   -0.05586786619191228   -0.001778919181832967
-0.007192075859853419   -0.05570434571253849   -0.0018082932755628931
-0.005201674381941176   -0.05045590064038255   -0.001820266587538193
-0.008029615813218165   -0.05045220663684783   -0.0019242962895270183
-0.007049457050598334   -0.05573798459824865   -0.0018741826448729017
-0.005112418972517639   -0.050491758179346063   -0.0018117249942234013
-0.00792514695942565   -0.05054170008364455   -0.0019782806988942847
-0.007049457050598334   -0.05573798459824865   -0.0018741826448729017
-0.005096881783840062   -0.05586786619191228   -0.001778919181832967
-0.005112418972517639   -0.050491758179346063   -0.0018117249942234013
-0.004984027460967947   -0.05592867465861467   -0.0017798186287441397
-0.00792514695942565   -0.05054170008364455   -0.0019782806988942847
-0.0050233038617627625   -0.05055769575723141   -0.0018112436371032037
-0.004984027460967947   -0.05592867465861467   -0.0017798186287441397
-0.005112418972517639   -0.050491758179346063   -0.0018117249942234013
-0.00792514695942565   -0.05054170008364455   -0.0019782806988942847
-0.004984027460967947   -0.05592867465861467   -0.0017798186287441397
-0.006920076540274463   -0.05581796007954644   -0.0019481068018139904
-0.007049457050598334   -0.05573798459824865   -0.0018741826448729017
-0.00792514695942565   -0.05054170008364455   -0.0019782806988942847
-0.004984027460967947   -0.05592867465861467   -0.0017798186287441397
-0.007049457050598334   -0.05573798459824865   -0.0018741826448729017
-0.005112418972517639   -0.050491758179346063   -0.0018117249942234013
-0.0052881418334766285   -0.05044846201493448   -0.0018369686774977617
-0.005343840687254025   -0.055866872241926706   -0.0018056228548128511
-0.002453698764476359   -0.05043481880431865   -0.001858113408448634
-0.005201674381941176   -0.05045590064038255   -0.001820266587538193
-0.005343840687254025   -0.055866872241926706   -0.0018056228548128511
-0.0034574057720622516   -0.05594549537196505   -0.0018702964834245042
-0.002453698764476359   -0.05043481880431865   -0.001858113408448634
-0.0033172501807020517   -0.05591776369224041   -0.001782187604276865
-0.005201674381941176   -0.05045590064038255   -0.001820266587538193
-0.002358989595244516   -0.05042504841140836   -0.0017893547612977201
-0.0033172501807020517   -0.05591776369224041   -0.001782187604276865
-0.002453698764476359   -0.05043481880431865   -0.001858113408448634
-0.005201674381941176   -0.05045590064038255   -0.001820266587538193
-0.0033172501807020517   -0.05591776369224041   -0.001782187604276865
-0.005219500876735443   -0.055847697236244886   -0.001788101267941484
-0.005343840687254025   -0.055866872241926706   -0.0018056228548128511
-0.005201674381941176   -0.05045590064038255   -0.001820266587538193
-0.0033172501807020517   -0.05591776369224041   -0.001782187604276865
-0.005343840687254025   -0.055866872241926706   -0.0018056228548128511
-0.002453698764476359   -0.05043481880431865   -0.001858113408448634
-0.005201674381941176   -0.05045590064038255   -0.001820266587538193
-0.005219500876735443   -0.055847697236244886   -0.001788101267941484
-0.002358989595244516   -0.05042504841140836   -0.0017893547612977201
-0.005112418972517639   -0.050491758179346063   -0.0018117249942234013
-0.005219500876735443   -0.055847697236244886   -0.001788101267941484
-0.0033172501807020517   -0.05591776369224041   -0.001782187604276865
-0.002358989595244516   -0.05042504841140836   -0.0017893547612977201
-0.0031836243154881594   -0.05592465551679162   -0.0017014619994346022
-0.005112418972517639   -0.050491758179346063   -0.0018117249942234013
-0.002267057687742319   -0.05044099205226428   -0.0017292954425704415
-0.0031836243154881594   -0.05592465551679162   -0.0017014619994346022
-0.002358989595244516   -0.05042504841140836   -0.0017893547612977201
-0.005112418972517639   -0.050491758179346063   -0.0018117249942234013
-0.0031836243154881594   -0.05592465551679162   -0.0017014619994346022
-0.005096881783840062   -0.05586786619191228   -0.001778919181832967
-0.005219500876735443   -0.055847697236244886   -0.001788101267941484
-0.005112418972517639   -0.050491758179346063   -0.0018117249942234013
-0.0031836243154881594   -0.05592465551679162   -0.0017014619994346022
-0.005219500876735443   -0.055847697236244886   -0.001788101267941484
-0.002358989595244516   -0.05042504841140836   -0.0017893547612977201
-0.005112418972517639   -0.050491758179346063   -0.0018117249942234013
-0.005096881783840062   -0.05586786619191228   -0.001778919181832967
-0.002267057687742319   -0.05044099205226428   -0.0017292954425704415
-0.0050233038617627625   -0.05055769575723141   -0.0018112436371032037
-0.005096881783840062   -0.05586786619191228   -0.001778919181832967
-0.0031836243154881594   -0.05592465551679162   -0.0017014619994346022
-0.002267057687742319   -0.05044099205226428   -0.0017292954425704415
-0.0030724465305462644   -0.05597286724838542   -0.001632705991345024
-0.0050233038617627625   -0.05055769575723141   -0.0018112436371032037
-0.0021839861071009234   -0.05048635202025048   -0.0016771843929803151
-0.0030724465305462644   -0.05597286724838542   -0.001632705991345024
-0.002267057687742319   -0.05044099205226428   -0.0017292954425704415
-0.0050233038617627625   -0.05055769575723141   -0.0018112436371032037
-0.0030724465305462644   -0.05597286724838542   -0.001632705991345024
-0.004984027460967947   -0.05592867465861467   -0.0017798186287441397
-0.005096881783840062   -0.05586786619191228   -0.001778919181832967
-0.0050233038617627625   -0.05055769575723141   -0.0018112436371032037
-0.0030724465305462644   -0.05597286724838542   -0.001632705991345024
-0.005096881783840062   -0.05586786619191228   -0.001778919181832967
-0.002267057687742319   -0.05044099205226428   -0.0017292954425704415
-0.002453698764476359   -0.05043481880431865   -0.001858113408448634
-0.0034574057720622516   -0.05594549537196505   -0.0018702964834245042
0.0005128910204610832   -0.050330826933394336   -0.0019094296900658849
-0.002358989595244516   -0.05042504841140836   -0.0017893547612977201
-0.0034574057720622516   -0.05594549537196505   -0.0018702964834245042
-0.0014521432527182078   -0.05592455716519628   -0.0019465715074359071
0.0005128910204610832   -0.050330826933394336   -0.0019094296900658849
-0.0012721933199766335   -0.055881063909472804   -0.0017909063099392825
-0.002358989595244516   -0.05042504841140836   -0.0017893547612977201
0.0006281347399322483   -0.05029922115625099   -0.0017887847392054602
-0.0012721933199766335   -0.055881063909472804   -0.0017909063099392825
0.0005128910204610832   -0.050330826933394336   -0.0019094296900658849
-0.002358989595244516   -0.05042504841140836   -0.0017893547612977201
-0.0012721933199766335   -0.055881063909472804   -0.0017909063099392825
-0.0033172501807020517   -0.05591776369224041   -0.001782187604276865
-0.0034574057720622516   -0.05594549537196505   -0.0018702964834245042
-0.002358989595244516   -0.05042504841140836   -0.0017893547612977201
-0.0012721933199766335   -0.055881063909472804   -0.0017909063099392825
-0.0034574057720622516   -0.05594549537196505   -0.0018702964834245042
0.0005128910204610832   -0.050330826933394336   -0.0019094296900658849
-0.002358989595244516   -0.05042504841140836   -0.0017893547612977201
-0.0033172501807020517   -0.05591776369224041   -0.001782187604276865
0.0006281347399322483   -0.05029922115625099   -0.0017887847392054602
-0.002267057687742319   -0.05044099205226428   -0.0017292954425704415
-0.0033172501807020517   -0.05591776369224041   -0.001782187604276865
-0.0012721933199766335   -0.055881063909472804   -0.0017909063099392825
0.0006281347399322483   -0.05029922115625099   -0.0017887847392054602
-0.0010881103260850066   -0.0558734525113406   -0.0016431325583459349
-0.002267057687742319   -0.05044099205226428   -0.0017292954425704415
0.0007496324319671586   -0.050296362943659224   -0.001679163272582141
-0.0010881103260850066   -0.0558734525113406   -0.0016431325583459349
0.0006281347399322483   -0.05029922115625099   -0.0017887847392054602
-0.002267057687742319   -0.05044099205226428   -0.0017292954425704415
-0.0010881103260850066   -0.0558734525113406   -0.0016431325583459349
-0.0031836243154881594   -0.05592465551679162   -0.0017014619994346022
-0.0033172501807020517   -0.05591776369224041   -0.001782187604276865
-0.002267057687742319   -0.05044099205226428   -0.0017292954425704415
-0.0010881103260850066   -0.0558734525113406   -0.0016431325583459349
-0.0033172501807020517   -0.05591776369224041   -0.001782187604276865
0.0006281347399322483   -0.05029922115625099   -0.0017887847392054602
-0.002267057687742319   -0.05044099205226428   -0.0017292954425704415
-0.0031836243154881594   -0.05592465551679162   -0.0017014619994346022
0.0007496324319671586   -0.050296362943659224   -0.001679163272582141
-0.0021839861071009234   -0.05048635202025048   -0.0016771843929803151
-0.0031836243154881594   -0.05592465551679162   -0.0017014619994346022
-0.0010881103260850066   -0.0558734525113406   -0.0016431325583459349
0.0007496324319671586   -0.050296362943659224   -0.001679163272582141
-0.0009518266121819898   -0.05590940954951368   -0.001508868916108114
-0.0021839861071009234   -0.05048635202025048   -0.0016771843929803151
0.0008384905067606697   -0.050320937133430825   -0.0015771301913654764
-0.0009518266121819898   -0.05590940954951368   -0.001508868916108114
0.0007496324319671586   -0.050296362943659224   -0.001679163272582141
-0.0021839861071009234   -0.05048635202025048   -0.0016771843929803151
-0.0009518266121819898   -0.05590940954951368   -0.001508868916108114
-0.0030724465305462644   -0.05597286724838542   -0.001632705991345024
-0.0031836243154881594   -0.05592465551679162   -0.0017014619994346022
-0.0021839861071009234   -0.05048635202025048   -0.0016771843929803151
-0.0009518266121819898   -0.05590940954951368   -0.001508868916108114
-0.0031836243154881594   -0.05592465551679162   -0.0017014619994346022
0.0007496324319671586   -0.050296362943659224   -0.001679163272582141
0.0005128910204610832   -0.050330826933394336   -0.0019094296900658849
-0.0014521432527182078   -0.05592455716519628   -0.0019465715074359071
0.003674328767503955   -0.05012664668742068   -0.0020189141869722807
0.0006281347399322483   -0.05029922115625099   -0.0017887847392054602
-0.0014521432527182078   -0.05592455716519628   -0.0019465715074359071
0.0007046168643113393   -0.05573160415957058   -0.0021025589257209283
0.003674328767503955   -0.05012664668742068   -0.0020189141869722807
0.0011248041202320187   -0.05563706216346207   -0.0018479783292345542
0.0006281347399322483   -0.05029922115625099   -0.0017887847392054602
0.003966593042988612   -0.050066026003563156   -0.0018342488973773399
0.0011248041202320187   -0.05563706216346207   -0.0018479783292345542
0.003674328767503955   -0.05012664668742068   -0.0020189141869722807
0.0006281347399322483   -0.05029922115625099   -0.0017887847392054602
0.0011248041202320187   -0.05563706216346207   -0.0018479783292345542
-0.0012721933199766335   -0.055881063909472804   -0.0017909063099392825
-0.0014521432527182078   -0.05592455716519628   -0.0019465715074359071
0.0006281347399322483   -0.05029922115625099   -0.0017887847392054602
0.0011248041202320187   -0.05563706216346207   -0.0018479783292345542
-0.0014521432527182078   -0.05592455716519628   -0.0019465715074359071
0.003674328767503955   -0.05012664668742068   -0.0020189141869722807
0.0006281347399322483   -0.05029922115625099   -0.0017887847392054602
-0.0012721933199766335   -0.055881063909472804   -0.0017909063099392825
0.003966593042988612   -0.050066026003563156   -0.0018342488973773399
0.0007496324319671586   -0.050296362943659224   -0.001679163272582141
-0.0012721933199766335   -0.055881063909472804   -0.0017909063099392825
0.0011248041202320187   -0.05563706216346207   -0.0018479783292345542
0.003966593042988612   -0.050066026003563156   -0.0018342488973773399
0.0014549745521977003   -0.05561796616279617   -0.0016088767333974916
0.0007496324319671586   -0.050296362943659224   -0.001679163272582141
0.004190706397828404   -0.050055527671479895   -0.0016632553242863838
0.0014549745521977003   -0.05561796616279617   -0.0016088767333974916
0.003966593042988612   -0.050066026003563156   -0.0018342488973773399
0.0007496324319671586   -0.050296362943659224   -0.001679163272582141
0.0014549745521977003   -0.05561796616279617   -0.0016088767333974916
-0.0010881103260850066   -0.0558734525113406   -0.0016431325583459349
-0.0012721933199766335   -0.055881063909472804   -0.0017909063099392825
0.0007496324319671586   -0.050296362943659224   -0.001679163272582141
0.0014549745521977003   -0.05561796616279617   -0.0016088767333974916
-0.0012721933199766335   -0.055881063909472804   -0.0017909063099392825
0.003966593042988612   -0.050066026003563156   -0.0018342488973773399
0.0007496324319671586   -0.050296362943659224   -0.001679163272582141
-0.0010881103260850066   -0.0558734525113406   -0.0016431325583459349
0.004190706397828404   -0.050055527671479895   -0.0016632553242863838
0.0008384905067606697   -0.050320937133430825   -0.0015771301913654764
-0.0010881103260850066   -0.0558734525113406   -0.0016431325583459349
0.0014549745521977003   -0.05561796616279617   -0.0016088767333974916
0.004190706397828404   -0.050055527671479895   -0.0016632553242863838
0.0017982895786266045   -0.05563427795712469   -0.0013904309311591051
0.0008384905067606697   -0.050320937133430825   -0.0015771301913654764
0.004423056971368028   -0.050073565010977705   -0.0015073276564060182
0.0017982895786266045   -0.05563427795712469   -0.0013904309311591051
0.004190706397828404   -0.050055527671479895   -0.0016632553242863838
0.0008384905067606697   -0.050320937133430825   -0.0015771301913654764
0.0017982895786266045   -0.05563427795712469   -0.0013904309311591051
-0.0009518266121819898   -0.05590940954951368   -0.001508868916108114
-0.0010881103260850066   -0.0558734525113406   -0.0016431325583459349
0.0008384905067606697   -0.050320937133430825   -0.0015771301913654764
0.0017982895786266045   -0.05563427795712469   -0.0013904309311591051
-0.0010881103260850066   -0.0558734525113406   -0.0016431325583459349
0.004190706397828404   -0.050055527671479895   -0.0016632553242863838
-0.009722452454935868   -0.055483415086641036   -0.001681187013985014
-0.007137020239970993   -0.058614989436365846   -0.0014796871250275898
-0.007313292216575629   -0.05571626948547979   -0.0017509866196818394
-0.009460835835437833   -0.05547690663328445   -0.0018356863840271126
-0.007137020239970993   -0.058614989436365846   -0.0014796871250275898
-0.006014203158082103   -0.05890932143241859   -0.0016563345049892336
-0.007313292216575629   -0.05571626948547979   -0.0017509866196818394
-0.005861413629253414   -0.058851326215773485   -0.0017173685837717284
-0.009460835835437833   -0.05547690663328445   -0.0018356863840271126
-0.007192075859853419   -0.05570434571253849   -0.0018082932755628931
-0.005861413629253414   -0.058851326215773485   -0.0017173685837717284
-0.007313292216575629   -0.05571626948547979   -0.0017509866196818394
-0.009460835835437833   -0.05547690663328445   -0.0018356863840271126
-0.005861413629253414   -0.058851326215773485   -0.0017173685837717284
-0.006811194782929088   -0.05854963016160124   -0.0016650041137700718
-0.007137020239970993   -0.058614989436365846   -0.0014796871250275898
-0.009460835835437833   -0.05547690663328445   -0.0018356863840271126
-0.005861413629253414   -0.058851326215773485   -0.0017173685837717284
-0.007137020239970993   -0.058614989436365846   -0.0014796871250275898
-0.007313292216575629   -0.05571626948547979   -0.0017509866196818394
-0.009460835835437833   -0.05547690663328445   -0.0018356863840271126
-0.006811194782929088   -0.05854963016160124   -0.0016650041137700718
-0.007192075859853419   -0.05570434571253849   -0.0018082932755628931
-0.009219731466623502   -0.05551844918594905   -0.00200227693526108
-0.006811194782929088   -0.05854963016160124   -0.0016650041137700718
-0.005861413629253414   -0.058851326215773485   -0.0017173685837717284
-0.007192075859853419   -0.05570434571253849   -0.0018082932755628931
-0.005692111632965412   -0.05885441041322492   -0.0017790250234302049
-0.009219731466623502   -0.05551844918594905   -0.00200227693526108
-0.007049457050598334   -0.05573798459824865   -0.0018741826448729017
-0.005692111632965412   -0.05885441041322492   -0.0017790250234302049
-0.007192075859853419   -0.05570434571253849   -0.0018082932755628931
-0.009219731466623502   -0.05551844918594905   -0.00200227693526108
-0.005692111632965412   -0.05885441041322492   -0.0017790250234302049
-0.006530091859561086   -0.05855546715000914   -0.0018496266188302052
-0.006811194782929088   -0.05854963016160124   -0.0016650041137700718
-0.009219731466623502   -0.05551844918594905   -0.00200227693526108
-0.005692111632965412   -0.05885441041322492   -0.0017790250234302049
-0.006811194782929088   -0.05854963016160124   -0.0016650041137700718
-0.007192075859853419   -0.05570434571253849   -0.0018082932755628931
-0.009219731466623502   -0.05551844918594905   -0.00200227693526108
-0.006530091859561086   -0.05855546715000914   -0.0018496266188302052
-0.007049457050598334   -0.05573798459824865   -0.0018741826448729017
-0.008925630485018342   -0.055629225017775   -0.0021802520421131937
-0.006530091859561086   -0.05855546715000914   -0.0018496266188302052
-0.005692111632965412   -0.05885441041322492   -0.0017790250234302049
-0.007049457050598334   -0.05573798459824865   -0.0018741826448729017
-0.005534877938134112   -0.05891886789301396   -0.001841561464158576
-0.008925630485018342   -0.055629225017775   -0.0021802520421131937
-0.006920076540274463   -0.05581796007954644   -0.0019481068018139904
-0.005534877938134112   -0.05891886789301396   -0.001841561464158576
-0.007049457050598334   -0.05573798459824865   -0.0018741826448729017
-0.008925630485018342   -0.055629225017775   -0.0021802520421131937
-0.005534877938134112   -0.05891886789301396   -0.001841561464158576
-0.006196604061058713   -0.058636612071111115   -0.0020382197144322416
-0.006530091859561086   -0.05855546715000914   -0.0018496266188302052
-0.008925630485018342   -0.055629225017775   -0.0021802520421131937
-0.005534877938134112   -0.05891886789301396   -0.001841561464158576
-0.006530091859561086   -0.05855546715000914   -0.0018496266188302052
-0.007049457050598334   -0.05573798459824865   -0.0018741826448729017
-0.007313292216575629   -0.05571626948547979   -0.0017509866196818394
-0.006014203158082103   -0.05890932143241859   -0.0016563345049892336
-0.005343840687254025   -0.055866872241926706   -0.0018056228548128511
-0.007192075859853419   -0.05570434571253849   -0.0018082932755628931
-0.006014203158082103   -0.05890932143241859   -0.0016563345049892336
-0.005191043679051806   -0.05920390561059748   -0.0018123993225205271
-0.005343840687254025   -0.055866872241926706   -0.0018056228548128511
-0.0050299213716475   -0.059144357466629056   -0.0017698713425354329
-0.007192075859853419   -0.05570434571253849   -0.0018082932755628931
-0.005219500876735443   -0.055847697236244886   -0.001788101267941484
-0.0050299213716475   -0.059144357466629056   -0.0017698713425354329
-0.005343840687254025   -0.055866872241926706   -0.0018056228548128511
-0.007192075859853419   -0.05570434571253849   -0.0018082932755628931
-0.0050299213716475   -0.059144357466629056   -0.0017698713425354329
-0.005861413629253414   -0.058851326215773485   -0.0017173685837717284
-0.006014203158082103   -0.05890932143241859   -0.0016563345049892336
-0.007192075859853419   -0.05570434571253849   -0.0018082932755628931
-0.0050299213716475   -0.059144357466629056   -0.0017698713425354329
-0.006014203158082103   -0.05890932143241859   -0.0016563345049892336
-0.005343840687254025   -0.055866872241926706   -0.0018056228548128511
-0.007192075859853419   -0.05570434571253849   -0.0018082932755628931
-0.005861413629253414   -0.058851326215773485   -0.0017173685837717284
-0.005219500876735443   -0.055847697236244886   -0.001788101267941484
-0.007049457050598334   -0.05573798459824865   -0.0018741826448729017
-0.005861413629253414   -0.058851326215773485   -0.0017173685837717284
-0.0050299213716475   -0.059144357466629056   -0.0017698713425354329
-0.005219500876735443   -0.055847697236244886   -0.001788101267941484
-0.004874102011975834   -0.05914345208312352   -0.0017268202421444544
-0.007049457050598334   -0.05573798459824865   -0.0018741826448729017
-0.005096881783840062   -0.05586786619191228   -0.001778919181832967
-0.004874102011975834   -0.05914345208312352   -0.0017268202421444544
-0.005219500876735443   -0.055847697236244886   -0.001788101267941484
-0.007049457050598334   -0.05573798459824865   -0.0018741826448729017
-0.004874102011975834   -0.05914345208312352   -0.0017268202421444544
-0.005692111632965412   -0.05885441041322492   -0.0017790250234302049
-0.005861413629253414   -0.058851326215773485   -0.0017173685837717284
-0.007049457050598334   -0.05573798459824865   -0.0018741826448729017
-0.004874102011975834   -0.05914345208312352   -0.0017268202421444544
-0.005861413629253414   -0.058851326215773485   -0.0017173685837717284
-0.005219500876735443   -0.055847697236244886   -0.001788101267941484
-0.007049457050598334   -0.05573798459824865   -0.0018741826448729017
-0.005692111632965412   -0.05885441041322492   -0.0017790250234302049
-0.005096881783840062   -0.05586786619191228   -0.001778919181832967
-0.006920076540274463   -0.05581796007954644   -0.0019481068018139904
-0.005692111632965412   -0.05885441041322492   -0.0017790250234302049
-0.004874102011975834   -0.05914345208312352   -0.0017268202421444544
-0.005096881783840062   -0.05586786619191228   -0.001778919181832967
-0.004711683689998368   -0.05919997542830392   -0.0016854833931983998
-0.006920076540274463   -0.05581796007954644   -0.0019481068018139904
-0.004984027460967947   -0.05592867465861467   -0.0017798186287441397
-0.004711683689998368   -0.05919997542830392   -0.0016854833931983998
-0.005096881783840062   -0.05586786619191228   -0.001778919181832967
-0.006920076540274463   -0.05581796007954644   -0.0019481068018139904
-0.004711683689998368   -0.05919997542830392   -0.0016854833931983998
-0.005534877938134112   -0.05891886789301396   -0.001841561464158576
-0.005692111632965412   -0.05885441041322492   -0.0017790250234302049
-0.006920076540274463   -0.05581796007954644   -0.0019481068018139904
-0.004711683689998368   -0.05919997542830392   -0.0016854833931983998
-0.005692111632965412   -0.05885441041322492   -0.0017790250234302049
-0.005096881783840062   -0.05586786619191228   -0.001778919181832967
-0.005343840687254025   -0.055866872241926706   -0.0018056228548128511
-0.005191043679051806   -0.05920390561059748   -0.0018123993225205271
-0.0034574057720622516   -0.05594549537196505   -0.0018702964834245042
-0.005219500876735443   -0.055847697236244886   -0.001788101267941484
-0.005191043679051806   -0.05920390561059748   -0.0018123993225205271
-0.004438992412947625   -0.05955854140721384   -0.0019843781820475213
-0.0034574057720622516   -0.05594549537196505   -0.0018702964834245042
-0.004241526421718277   -0.05950677387445357   -0.0018324963562184246
-0.005219500876735443   -0.055847697236244886   -0.001788101267941484
-0.0033172501807020517   -0.05591776369224041   -0.001782187604276865
-0.004241526421718277   -0.05950677387445357   -0.0018324963562184246
-0.0034574057720622516   -0.05594549537196505   -0.0018702964834245042
-0.005219500876735443   -0.055847697236244886   -0.001788101267941484
-0.004241526421718277   -0.05950677387445357   -0.0018324963562184246
-0.0050299213716475   -0.059144357466629056   -0.0017698713425354329
-0.005191043679051806   -0.05920390561059748   -0.0018123993225205271
-0.005219500876735443   -0.055847697236244886   -0.001788101267941484
-0.004241526421718277   -0.05950677387445357   -0.0018324963562184246
-0.005191043679051806   -0.05920390561059748   -0.0018123993225205271
-0.0034574057720622516   -0.05594549537196505   -0.0018702964834245042
-0.005219500876735443   -0.055847697236244886   -0.001788101267941484
-0.0050299213716475   -0.059144357466629056   -0.0017698713425354329
-0.0033172501807020517   -0.05591776369224041   -0.001782187604276865
-0.005096881783840062   -0.05586786619191228   -0.001778919181832967
-0.0050299213716475   -0.059144357466629056   -0.0017698713425354329
-0.004241526421718277   -0.05950677387445357   -0.0018324963562184246
-0.0033172501807020517   -0.05591776369224041   -0.001782187604276865
-0.004058498126204956   -0.059504097920592795   -0.0016810927877501055
-0.005096881783840062   -0.05586786619191228   -0.001778919181832967
-0.0031836243154881594   -0.05592465551679162   -0.0017014619994346022
-0.004058498126204956   -0.059504097920592795   -0.0016810927877501055
-0.0033172501807020517   -0.05591776369224041   -0.001782187604276865
-0.005096881783840062   -0.05586786619191228   -0.001778919181832967
-0.004058498126204956   -0.059504097920592795   -0.0016810927877501055
-0.004874102011975834   -0.05914345208312352   -0.0017268202421444544
-0.0050299213716475   -0.059144357466629056   -0.0017698713425354329
-0.005096881783840062   -0.05586786619191228   -0.001778919181832967
-0.004058498126204956   -0.059504097920592795   -0.0016810927877501055
-0.0050299213716475   -0.059144357466629056   -0.0017698713425354329
-0.0033172501807020517   -0.05591776369224041   -0.001782187604276865
-0.005096881783840062   -0.05586786619191228   -0.001778919181832967
-0.004874102011975834   -0.05914345208312352   -0.0017268202421444544
-0.0031836243154881594   -0.05592465551679162   -0.0017014619994346022
-0.004984027460967947   -0.05592867465861467   -0.0017798186287441397
-0.004874102011975834   -0.05914345208312352   -0.0017268202421444544
-0.004058498126204956   -0.059504097920592795   -0.0016810927877501055
-0.0031836243154881594   -0.05592465551679162   -0.0017014619994346022
-0.0038620725153546906   -0.05954788712593845   -0.0015294112691175803
-0.004984027460967947   -0.05592867465861467   -0.0017798186287441397
-0.0030724465305462644   -0.05597286724838542   -0.001632705991345024
-0.0038620725153546906   -0.05954788712593845   -0.0015294112691175803
-0.0031836243154881594   -0.05592465551679162   -0.0017014619994346022
-0.004984027460967947   -0.05592867465861467   -0.0017798186287441397
-0.0038620725153546906   -0.05954788712593845   -0.0015294112691175803
-0.004711683689998368   -0.05919997542830392   -0.0016854833931983998
-0.004874102011975834   -0.05914345208312352   -0.0017268202421444544
-0.004984027460967947   -0.05592867465861467   -0.0017798186287441397
-0.0038620725153546906   -0.05954788712593845   -0.0015294112691175803
-0.004874102011975834   -0.05914345208312352   -0.0017268202421444544
-0.0031836243154881594   -0.05592465551679162   -0.0017014619994346022
-0.0034574057720622516   -0.05594549537196505   -0.0018702964834245042
-0.004438992412947625   -0.05955854140721384   -0.0019843781820475213
-0.0014521432527182078   -0.05592455716519628   -0.0019465715074359071
-0.0033172501807020517   -0.05591776369224041   -0.001782187604276865
-0.004438992412947625   -0.05955854140721384   -0.0019843781820475213
-0.003698839823765731   -0.06   -0.0021169483152132904
-0.0014521432527182078   -0.05592455716519628   -0.0019465715074359071
-0.0034503516578884195   -0.06   -0.0018859127276227437
-0.0033172501807020517   -0.05591776369224041   -0.001782187604276865
-0.0012721933199766335   -0.055881063909472804   -0.0017909063099392825
-0.0034503516578884195   -0.06   -0.0018859127276227437
-0.0014521432527182078   -0.05592455716519628   -0.0019465715074359071
-0.0033172501807020517   -0.05591776369224041   -0.001782187604276865
-0.0034503516578884195   -0.06   -0.0018859127276227437
-0.004241526421718277   -0.05950677387445357   -0.0018324963562184246
-0.004438992412947625   -0.05955854140721384   -0.0019843781820475213
-0.0033172501807020517   -0.05591776369224041   -0.001782187604276865
-0.0034503516578884195   -0.06   -0.0018859127276227437
-0.004438992412947625   -0.05955854140721384   -0.0019843781820475213
-0.0014521432527182078   -0.05592455716519628   -0.0019465715074359071
-0.0033172501807020517   -0.05591776369224041   -0.001782187604276865
-0.004241526421718277   -0.05950677387445357   -0.0018324963562184246
-0.0012721933199766335   -0.055881063909472804   -0.0017909063099392825
-0.0031836243154881594   -0.05592465551679162   -0.0017014619994346022
-0.004241526421718277   -0.05950677387445357   -0.0018324963562184246
-0.0034503516578884195   -0.06   -0.0018859127276227437
-0.0012721933199766335   -0.055881063909472804   -0.0017909063099392825
-0.00320057911642443   -0.06   -0.0016521407570609208
-0.0031836243154881594   -0.05592465551679162   -0.0017014619994346022
-0.0010881103260850066   -0.0558734525113406   -0.0016431325583459349
-0.00320057911642443   -0.06   -0.0016521407570609208
-0.0012721933199766335   -0.055881063909472804   -0.0017909063099392825
-0.0031836243154881594   -0.05592465551679162   -0.0017014619994346022
-0.00320057911642443   -0.06   -0.0016521407570609208
-0.004058498126204956   -0.059504097920592795   -0.0016810927877501055
-0.004241526421718277   -0.05950677387445357   -0.0018324963562184246
-0.0031836243154881594   -0.05592465551679162   -0.0017014619994346022
-0.00320057911642443   -0.06   -0.0016521407570609208
-0.004241526421718277   -0.05950677387445357   -0.0018324963562184246
-0.0012721933199766335   -0.055881063909472804   -0.0017909063099392825
-0.0031836243154881594   -0.05592465551679162   -0.0017014619994346022
-0.004058498126204956   -0.059504097920592795   -0.0016810927877501055
-0.0010881103260850066   -0.0558734525113406   -0.0016431325583459349
-0.0030724465305462644   -0.05597286724838542   -0.001632705991345024
-0.004058498126204956   -0.059504097920592795   -0.0016810927877501055
-0.00320057911642443   -0.06   -0.0016521407570609208
-0.0010881103260850066   -0.0558734525113406   -0.0016431325583459349
-0.0029565500887472093   -0.06   -0.0014214682340932866
-0.0030724465305462644   -0.05597286724838542   -0.001632705991345024
-0.0009518266121819898   -0.05590940954951368   -0.001508868916108114
-0.0029565500887472093   -0.06   -0.0014214682340932866
-0.0010881103260850066   -0.0558734525113406   -0.0016431325583459349
-0.0030724465305462644   -0.05597286724838542   -0.001632705991345024
-0.0029565500887472093   -0.06   -0.0014214682340932866
-0.0038620725153546906   -0.05954788712593845   -0.0015294112691175803
-0.004058498126204956   -0.059504097920592795   -0.0016810927877501055
-0.0030724465305462644   -0.05597286724838542   -0.001632705991345024
-0.0029565500887472093   -0.06   -0.0014214682340932866
-0.004058498126204956   -0.059504097920592795   -0.0016810927877501055
-0.0010881103260850066   -0.0558734525113406   -0.0016431325583459349
-0.0014521432527182078   -0.05592455716519628   -0.0019465715074359071
-0.003698839823765731   -0.06   -0.0021169483152132904
0.0007046168643113393   -0.05573160415957058   -0.0021025589257209283
-0.0012721933199766335   -0.055881063909472804   -0.0017909063099392825
-0.003698839823765731   -0.06   -0.0021169483152132904
-0.0031608176723996496   -0.06   -0.0022775006488687266
0.0007046168643113393   -0.05573160415957058   -0.0021025589257209283
-0.0026404364168488882   -0.06   -0.0019430764752736587
-0.0012721933199766335   -0.055881063909472804   -0.0017909063099392825
0.0011248041202320187   -0.05563706216346207   -0.0018479783292345542
-0.0026404364168488882   -0.06   -0.0019430764752736587
0.0007046168643113393   -0.05573160415957058   -0.0021025589257209283
-0.0012721933199766335   -0.055881063909472804   -0.0017909063099392825
-0.0026404364168488882   -0.06   -0.0019430764752736587
-0.0034503516578884195   -0.06   -0.0018859127276227437
-0.003698839823765731   -0.06   -0.0021169483152132904
-0.0012721933199766335   -0.055881063909472804   -0.0017909063099392825
-0.0026404364168488882   -0.06   -0.0019430764752736587
-0.003698839823765731   -0.06   -0.0021169483152132904
0.0007046168643113393   -0.05573160415957058   -0.0021025589257209283
-0.0012721933199766335   -0.055881063909472804   -0.0017909063099392825
-0.0034503516578884195   -0.06   -0.0018859127276227437
0.0011248041202320187   -0.05563706216346207   -0.0018479783292345542
-0.0010881103260850066   -0.0558734525113406   -0.0016431325583459349
-0.0034503516578884195   -0.06   -0.0018859127276227437
-0.0026404364168488882   -0.06   -0.0019430764752736587
0.0011248041202320187   -0.05563706216346207   -0.0018479783292345542
-0.0022254484324474083   -0.06   -0.0016231684439542975
-0.0010881103260850066   -0.0558734525113406   -0.0016431325583459349
0.0014549745521977003   -0.05561796616279617   -0.0016088767333974916
-0.0022254484324474083   -0.06   -0.0016231684439542975
0.0011248041202320187   -0.05563706216346207   -0.0018479783292345542
-0.0010881103260850066   -0.0558734525113406   -0.0016431325583459349
-0.0022254484324474083   -0.06   -0.0016231684439542975
-0.00320057911642443   -0.06   -0.0016521407570609208
-0.0034503516578884195   -0.06   -0.0018859127276227437
-0.0010881103260850066   -0.0558734525113406   -0.0016431325583459349
-0.0022254484324474083   -0.06   -0.0016231684439542975
-0.0034503516578884195   -0.06   -0.0018859127276227437
0.0011248041202320187   -0.05563706216346207   -0.0018479783292345542
-0.0010881103260850066   -0.0558734525113406   -0.0016431325583459349
-0.00320057911642443   -0.06   -0.0016521407570609208
0.0014549745521977003   -0.05561796616279617   -0.0016088767333974916
-0.0009518266121819898   -0.05590940954951368   -0.001508868916108114
-0.00320057911642443   -0.06   -0.0016521407570609208
-0.0022254484324474083   -0.06   -0.0016231684439542975
0.0014549745521977003   -0.05561796616279617   -0.0016088767333974916
-0.0017128454833747764   -0.06   -0.0012910589240980755
-0.0009518266121819898   -0.05590940954951368   -0.001508868916108114
0.0017982895786266045   -0.05563427795712469   -0.0013904309311591051
-0.0017128454833747764   -0.06   -0.0012910589240980755
0.0014549745521977003   -0.05561796616279617   -0.0016088767333974916
-0.0009518266121819898   -0.05590940954951368   -0.001508868916108114
-0.0017128454833747764   -0.06   -0.0012910589240980755
-0.0029565500887472093   -0.06   -0.0014214682340932866
-0.00320057911642443   -0.06   -0.0016521407570609208
-0.0009518266121819898   -0.05590940954951368   -0.001508868916108114
-0.0017128454833747764   -0.06   -0.0012910589240980755
-0.00320057911642443   -0.06   -0.0016521407570609208
0.0014549745521977003   -0.05561796616279617   -0.0016088767333974916
-0.007137020239970993   -0.058614989436365846   -0.0014796871250275898
-0.004276698075416762   -0.05878007316786834   -0.0012666369372557036
-0.006014203158082103   -0.05890932143241859   -0.0016563345049892336
-0.006811194782929088   -0.05854963016160124   -0.0016650041137700718
-0.004276698075416762   -0.05878007316786834   -0.0012666369372557036
-0.004530871507736077   -0.059007205779453176   -0.0014941069690173152
-0.006014203158082103   -0.05890932143241859   -0.0016563345049892336
-0.0044152559571558146   -0.05892796965753962   -0.0015772720686357434
-0.006811194782929088   -0.05854963016160124   -0.0016650041137700718
-0.005861413629253414   -0.058851326215773485   -0.0017173685837717284
-0.0044152559571558146   -0.05892796965753962   -0.0015772720686357434
-0.006014203158082103   -0.05890932143241859   -0.0016563345049892336
-0.006811194782929088   -0.05854963016160124   -0.0016650041137700718
-0.0044152559571558146   -0.05892796965753962   -0.0015772720686357434
-0.003981266516813865   -0.058678306754304604   -0.001461366775225404
-0.004276698075416762   -0.05878007316786834   -0.0012666369372557036
-0.006811194782929088   -0.05854963016160124   -0.0016650041137700718
-0.0044152559571558146   -0.05892796965753962   -0.0015772720686357434
-0.004276698075416762   -0.05878007316786834   -0.0012666369372557036
-0.006014203158082103   -0.05890932143241859   -0.0016563345049892336
-0.006811194782929088   -0.05854963016160124   -0.0016650041137700718
-0.003981266516813865   -0.058678306754304604   -0.001461366775225404
-0.005861413629253414   -0.058851326215773485   -0.0017173685837717284
-0.006530091859561086   -0.05855546715000914   -0.0018496266188302052
-0.003981266516813865   -0.058678306754304604   -0.001461366775225404
-0.0044152559571558146   -0.05892796965753962   -0.0015772720686357434
-0.005861413629253414   -0.058851326215773485   -0.0017173685837717284
-0.004279595918354423   -0.05889893929780806   -0.001654034546556377
-0.006530091859561086   -0.05855546715000914   -0.0018496266188302052
-0.005692111632965412   -0.05885441041322492   -0.0017790250234302049
-0.004279595918354423   -0.05889893929780806   -0.001654034546556377
-0.005861413629253414   -0.058851326215773485   -0.0017173685837717284
-0.006530091859561086   -0.05855546715000914   -0.0018496266188302052
-0.004279595918354423   -0.05889893929780806   -0.001654034546556377
-0.0037353668226890535   -0.058647228415149466   -0.0016481532859090877
-0.003981266516813865   -0.058678306754304604   -0.001461366775225404
-0.006530091859561086   -0.05855546715000914   -0.0018496266188302052
-0.004279595918354423   -0.05889893929780806   -0.001654034546556377
-0.003981266516813865   -0.058678306754304604   -0.001461366775225404
-0.005861413629253414   -0.058851326215773485   -0.0017173685837717284
-0.006530091859561086   -0.05855546715000914   -0.0018496266188302052
-0.0037353668226890535   -0.058647228415149466   -0.0016481532859090877
-0.005692111632965412   -0.05885441041322492   -0.0017790250234302049
-0.006196604061058713   -0.058636612071111115   -0.0020382197144322416
-0.0037353668226890535   -0.058647228415149466   -0.0016481532859090877
-0.004279595918354423   -0.05889893929780806   -0.001654034546556377
-0.005692111632965412   -0.05885441041322492   -0.0017790250234302049
-0.004163413598740642   -0.05892054430802375   -0.0017239964774641158
-0.006196604061058713   -0.058636612071111115   -0.0020382197144322416
-0.005534877938134112   -0.05891886789301396   -0.001841561464158576
-0.004163413598740642   -0.05892054430802375   -0.0017239964774641158
-0.005692111632965412   -0.05885441041322492   -0.0017790250234302049
-0.006196604061058713   -0.058636612071111115   -0.0020382197144322416
-0.004163413598740642   -0.05892054430802375   -0.0017239964774641158
-0.00345704102861279   -0.05867417123609945   -0.0018261738623745253
-0.0037353668226890535   -0.058647228415149466   -0.0016481532859090877
-0.006196604061058713   -0.058636612071111115   -0.0020382197144322416
-0.004163413598740642   -0.05892054430802375   -0.0017239964774641158
-0.0037353668226890535   -0.058647228415149466   -0.0016481532859090877
-0.005692111632965412   -0.05885441041322492   -0.0017790250234302049
-0.006014203158082103   -0.05890932143241859   -0.0016563345049892336
-0.004530871507736077   -0.059007205779453176   -0.0014941069690173152
-0.005191043679051806   -0.05920390561059748   -0.0018123993225205271
-0.005861413629253414   -0.058851326215773485   -0.0017173685837717284
-0.004530871507736077   -0.059007205779453176   -0.0014941069690173152
-0.004877073590227279   -0.059147272205950105   -0.001675927223094782
-0.005191043679051806   -0.05920390561059748   -0.0018123993225205271
-0.004774780964342694   -0.059076503601320725   -0.001678054830772933
-0.005861413629253414   -0.058851326215773485   -0.0017173685837717284
-0.0050299213716475   -0.059144357466629056   -0.0017698713425354329
-0.004774780964342694   -0.059076503601320725   -0.001678054830772933
-0.005191043679051806   -0.05920390561059748   -0.0018123993225205271
-0.005861413629253414   -0.058851326215773485   -0.0017173685837717284
-0.004774780964342694   -0.059076503601320725   -0.001678054830772933
-0.0044152559571558146   -0.05892796965753962   -0.0015772720686357434
-0.004530871507736077   -0.059007205779453176   -0.0014941069690173152
-0.005861413629253414   -0.058851326215773485   -0.0017173685837717284
-0.004774780964342694   -0.059076503601320725   -0.001678054830772933
-0.004530871507736077   -0.059007205779453176   -0.0014941069690173152
-0.005191043679051806   -0.05920390561059748   -0.0018123993225205271
-0.005861413629253414   -0.058851326215773485   -0.0017173685837717284
-0.0044152559571558146   -0.05892796965753962   -0.0015772720686357434
-0.0050299213716475   -0.059144357466629056   -0.0017698713425354329
-0.005692111632965412   -0.05885441041322492   -0.0017790250234302049
-0.0044152559571558146   -0.05892796965753962   -0.0015772720686357434
-0.004774780964342694   -0.059076503601320725   -0.001678054830772933
-0.0050299213716475   -0.059144357466629056   -0.0017698713425354329
-0.004660935666911069   -0.05905120449041518   -0.0016718820556812068
-0.005692111632965412   -0.05885441041322492   -0.0017790250234302049
-0.004874102011975834   -0.05914345208312352   -0.0017268202421444544
-0.004660935666911069   -0.05905120449041518   -0.0016718820556812068
-0.0050299213716475   -0.059144357466629056   -0.0017698713425354329
-0.005692111632965412   -0.05885441041322492   -0.0017790250234302049
-0.004660935666911069   -0.05905120449041518   -0.0016718820556812068
-0.004279595918354423   -0.05889893929780806   -0.001654034546556377
-0.0044152559571558146   -0.05892796965753962   -0.0015772720686357434
-0.005692111632965412   -0.05885441041322492   -0.0017790250234302049
-0.004660935666911069   -0.05905120449041518   -0.0016718820556812068
-0.0044152559571558146   -0.05892796965753962   -0.0015772720686357434
-0.0050299213716475   -0.059144357466629056   -0.0017698713425354329
-0.005692111632965412   -0.05885441041322492   -0.0017790250234302049
-0.004279595918354423   -0.05889893929780806   -0.001654034546556377
-0.004874102011975834   -0.05914345208312352   -0.0017268202421444544
-0.005534877938134112   -0.05891886789301396   -0.001841561464158576
-0.004279595918354423   -0.05889893929780806   -0.001654034546556377
-0.004660935666911069   -0.05905120449041518   -0.0016718820556812068
-0.004874102011975834   -0.05914345208312352   -0.0017268202421444544
-0.004545200391541281   -0.05906931564248251   -0.001659195245109727
-0.005534877938134112   -0.05891886789301396   -0.001841561464158576
-0.004711683689998368   -0.05919997542830392   -0.0016854833931983998
-0.004545200391541281   -0.05906931564248251   -0.001659195245109727
-0.004874102011975834   -0.05914345208312352   -0.0017268202421444544
-0.005534877938134112   -0.05891886789301396   -0.001841561464158576
-0.004545200391541281   -0.05906931564248251   -0.001659195245109727
-0.004163413598740642   -0.05892054430802375   -0.0017239964774641158
-0.004279595918354423   -0.05889893929780806   -0.001654034546556377
-0.005534877938134112   -0.05891886789301396   -0.001841561464158576
-0.004545200391541281   -0.05906931564248251   -0.001659195245109727
-0.004279595918354423   -0.05889893929780806   -0.001654034546556377
-0.004874102011975834   -0.05914345208312352   -0.0017268202421444544
-0.005191043679051806   -0.05920390561059748   -0.0018123993225205271
-0.004877073590227279   -0.059147272205950105   -0.001675927223094782
-0.004438992412947625   -0.05955854140721384   -0.0019843781820475213
-0.0050299213716475   -0.059144357466629056   -0.0017698713425354329
-0.004877073590227279   -0.059147272205950105   -0.001675927223094782
-0.005248483940241747   -0.05920559185822951   -0.0018549375243797682
-0.004438992412947625   -0.05955854140721384   -0.0019843781820475213
-0.005142517874127018   -0.059138067589420126   -0.0017791375794608015
-0.0050299213716475   -0.059144357466629056   -0.0017698713425354329
-0.004241526421718277   -0.05950677387445357   -0.0018324963562184246
-0.005142517874127018   -0.059138067589420126   -0.0017791375794608015
-0.004438992412947625   -0.05955854140721384   -0.0019843781820475213
-0.0050299213716475   -0.059144357466629056   -0.0017698713425354329
-0.005142517874127018   -0.059138067589420126   -0.0017791375794608015
-0.004774780964342694   -0.059076503601320725   -0.001678054830772933
-0.004877073590227279   -0.059147272205950105   -0.001675927223094782
-0.0050299213716475   -0.059144357466629056   -0.0017698713425354329
-0.005142517874127018   -0.059138067589420126   -0.0017791375794608015
-0.004877073590227279   -0.059147272205950105   -0.001675927223094782
-0.004438992412947625   -0.05955854140721384   -0.0019843781820475213
-0.0050299213716475   -0.059144357466629056   -0.0017698713425354329
-0.004774780964342694   -0.059076503601320725   -0.001678054830772933
-0.004241526421718277   -0.05950677387445357   -0.0018324963562184246
-0.004874102011975834   -0.05914345208312352   -0.0017268202421444544
-0.004774780964342694   -0.059076503601320725   -0.001678054830772933
-0.005142517874127018   -0.059138067589420126   -0.0017791375794608015
-0.004241526421718277   -0.05950677387445357   -0.0018324963562184246
-0.00501545154130062   -0.05911675135967734   -0.0016932273159800924
-0.004874102011975834   -0.05914345208312352   -0.0017268202421444544
-0.004058498126204956   -0.059504097920592795   -0.0016810927877501055
-0.00501545154130062   -0.05911675135967734   -0.0016932273159800924
-0.004241526421718277   -0.05950677387445357   -0.0018324963562184246
-0.004874102011975834   -0.05914345208312352   -0.0017268202421444544
-0.00501545154130062   -0.05911675135967734   -0.0016932273159800924
-0.004660935666911069   -0.05905120449041518   -0.0016718820556812068
-0.004774780964342694   -0.059076503601320725   -0.001678054830772933
-0.004874102011975834   -0.05914345208312352   -0.0017268202421444544
-0.00501545154130062   -0.05911675135967734   -0.0016932273159800924
-0.004774780964342694   -0.059076503601320725   -0.001678054830772933
-0.004241526421718277   -0.05950677387445357   -0.0018324963562184246
-0.004874102011975834   -0.05914345208312352   -0.0017268202421444544
-0.004660935666911069   -0.05905120449041518   -0.0016718820556812068
-0.004058498126204956   -0.059504097920592795   -0.0016810927877501055
-0.004711683689998368   -0.05919997542830392   -0.0016854833931983998
-0.004660935666911069   -0.05905120449041518   -0.0016718820556812068
-0.00501545154130062   -0.05911675135967734   -0.0016932273159800924
-0.004058498126204956   -0.059504097920592795   -0.0016810927877501055
-0.004884801492472062   -0.05913442732002652   -0.001601744596749857
-0.004711683689998368   -0.05919997542830392   -0.0016854833931983998
-0.0038620725153546906   -0.05954788712593845   -0.0015294112691175803
-0.004884801492472062   -0.05913442732002652   -0.001601744596749857
-0.004058498126204956   -0.059504097920592795   -0.0016810927877501055
-0.004711683689998368   -0.05919997542830392   -0.0016854833931983998
-0.004884801492472062   -0.05913442732002652   -0.001601744596749857
-0.004545200391541281   -0.05906931564248251   -0.001659195245109727
-0.004660935666911069   -0.05905120449041518   -0.0016718820556812068
-0.004711683689998368   -0.05919997542830392   -0.0016854833931983998
-0.004884801492472062   -0.05913442732002652   -0.001601744596749857
-0.004660935666911069   -0.05905120449041518   -0.0016718820556812068
-0.004058498126204956   -0.059504097920592795   -0.0016810927877501055
-0.004438992412947625   -0.05955854140721384   -0.0019843781820475213
-0.005248483940241747   -0.05920559185822951   -0.0018549375243797682
-0.003698839823765731   -0.06   -0.0021169483152132904
-0.004241526421718277   -0.05950677387445357   -0.0018324963562184246
-0.005248483940241747   -0.05920559185822951   -0.0018549375243797682
-0.005786567958716905   -0.05914122315820686   -0.002025163712263951
-0.003698839823765731   -0.06   -0.0021169483152132904
-0.005648170695830269   -0.05907739182908464   -0.0018751360886971884
-0.004241526421718277   -0.05950677387445357   -0.0018324963562184246
-0.0034503516578884195   -0.06   -0.0018859127276227437
-0.005648170695830269   -0.05907739182908464   -0.0018751360886971884
-0.003698839823765731   -0.06   -0.0021169483152132904
-0.004241526421718277   -0.05950677387445357   -0.0018324963562184246
-0.005648170695830269   -0.05907739182908464   -0.0018751360886971884
-0.005142517874127018   -0.059138067589420126   -0.0017791375794608015
-0.005248483940241747   -0.05920559185822951   -0.0018549375243797682
-0.004241526421718277   -0.05950677387445357   -0.0018324963562184246
-0.005648170695830269   -0.05907739182908464   -0.0018751360886971884
-0.005248483940241747   -0.05920559185822951   -0.0018549375243797682
-0.003698839823765731   -0.06   -0.0021169483152132904
-0.004241526421718277   -0.05950677387445357   -0.0018324963562184246
-0.005142517874127018   -0.059138067589420126   -0.0017791375794608015
-0.0034503516578884195   -0.06   -0.0018859127276227437
-0.004058498126204956   -0.059504097920592795   -0.0016810927877501055
-0.005142517874127018   -0.059138067589420126   -0.0017791375794608015
-0.005648170695830269   -0.05907739182908464   -0.0018751360886971884
-0.0034503516578884195   -0.06   -0.0018859127276227437
-0.00546547253808458   -0.059062987188584305   -0.0017138365232959567
-0.004058498126204956   -0.059504097920592795   -0.0016810927877501055
-0.00320057911642443   -0.06   -0.0016521407570609208
-0.00546547253808458   -0.059062987188584305   -0.0017138365232959567
-0.0034503516578884195   -0.06   -0.0018859127276227437
-0.004058498126204956   -0.059504097920592795   -0.0016810927877501055
-0.00546547253808458   -0.059062987188584305   -0.0017138365232959567
-0.00501545154130062   -0.05911675135967734   -0.0016932273159800924
-0.005142517874127018   -0.059138067589420126   -0.0017791375794608015
-0.004058498126204956   -0.059504097920592795   -0.0016810927877501055
-0.00546547253808458   -0.059062987188584305   -0.0017138365232959567
-0.005142517874127018   -0.059138067589420126   -0.0017791375794608015
-0.0034503516578884195   -0.06   -0.0018859127276227437
-0.004058498126204956   -0.059504097920592795   -0.0016810927877501055
-0.00501545154130062   -0.05911675135967734   -0.0016932273159800924
-0.00320057911642443   -0.06   -0.0016521407570609208
-0.0038620725153546906   -0.05954788712593845   -0.0015294112691175803
-0.00501545154130062   -0.05911675135967734   -0.0016932273159800924
-0.00546547253808458   -0.059062987188584305   -0.0017138365232959567
-0.00320057911642443   -0.06   -0.0016521407570609208
-0.005293744555157041   -0.059088502133460195   -0.0015463388839379118
-0.0038620725153546906   -0.05954788712593845   -0.0015294112691175803
-0.0029565500887472093   -0.06   -0.0014214682340932866
-0.005293744555157041   -0.059088502133460195   -0.0015463388839379118
-0.00320057911642443   -0.06   -0.0016521407570609208
-0.0038620725153546906   -0.05954788712593845   -0.0015294112691175803
-0.005293744555157041   -0.059088502133460195   -0.0015463388839379118
-0.004884801492472062   -0.05913442732002652   -0.001601744596749857
-0.00501545154130062   -0.05911675135967734   -0.0016932273159800924
-0.0038620725153546906   -0.05954788712593845   -0.0015294112691175803
-0.005293744555157041   -0.059088502133460195   -0.0015463388839379118
-0.00501545154130062   -0.05911675135967734   -0.0016932273159800924
-0.00320057911642443   -0.06   -0.0016521407570609208
-0.003698839823765731   -0.06   -0.0021169483152132904
-0.005786567958716905   -0.05914122315820686   -0.002025163712263951
-0.0031608176723996496   -0.06   -0.0022775006488687266
-0.0034503516578884195   -0.06   -0.0018859127276227437
-0.005786567958716905   -0.05914122315820686   -0.002025163712263951
-0.006834533522471967   -0.05885198178080329   -0.0022059455220651857
-0.0031608176723996496   -0.06   -0.0022775006488687266
-0.0064657213428300385   -0.05879804171797883   -0.0019598239843511434
-0.0034503516578884195   -0.06   -0.0018859127276227437
-0.0026404364168488882   -0.06   -0.0019430764752736587
-0.0064657213428300385   -0.05879804171797883   -0.0019598239843511434
-0.0031608176723996496   -0.06   -0.0022775006488687266
-0.0034503516578884195   -0.06   -0.0018859127276227437
-0.0064657213428300385   -0.05879804171797883   -0.0019598239843511434
-0.005648170695830269   -0.05907739182908464   -0.0018751360886971884
-0.005786567958716905   -0.05914122315820686   -0.002025163712263951
-0.0034503516578884195   -0.06   -0.0018859127276227437
-0.0064657213428300385   -0.05879804171797883   -0.0019598239843511434
-0.005786567958716905   -0.05914122315820686   -0.002025163712263951
-0.0031608176723996496   -0.06   -0.0022775006488687266
-0.0034503516578884195   -0.06   -0.0018859127276227437
-0.005648170695830269   -0.05907739182908464   -0.0018751360886971884
-0.0026404364168488882   -0.06   -0.0019430764752736587
-0.00320057911642443   -0.06   -0.0016521407570609208
-0.005648170695830269   -0.05907739182908464   -0.0018751360886971884
-0.0064657213428300385   -0.05879804171797883   -0.0019598239843511434
-0.0026404364168488882   -0.06   -0.0019430764752736587
-0.006127036703987094   -0.05879073195108371   -0.001697199885839771
-0.00320057911642443   -0.06   -0.0016521407570609208
-0.0022254484324474083   -0.06   -0.0016231684439542975
-0.006127036703987094   -0.05879073195108371   -0.001697199885839771
-0.0026404364168488882   -0.06   -0.0019430764752736587
-0.00320057911642443   -0.06   -0.0016521407570609208
-0.006127036703987094   -0.05879073195108371   -0.001697199885839771
-0.00546547253808458   -0.059062987188584305   -0.0017138365232959567
-0.005648170695830269   -0.05907739182908464   -0.0018751360886971884
-0.00320057911642443   -0.06   -0.0016521407570609208
-0.006127036703987094   -0.05879073195108371   -0.001697199885839771
-0.005648170695830269   -0.05907739182908464   -0.0018751360886971884
-0.0026404364168488882   -0.06   -0.0019430764752736587
-0.00320057911642443   -0.06   -0.0016521407570609208
-0.00546547253808458   -0.059062987188584305   -0.0017138365232959567
-0.0022254484324474083   -0.06   -0.0016231684439542975
-0.0029565500887472093   -0.06   -0.0014214682340932866
-0.00546547253808458   -0.059062987188584305   -0.0017138365232959567
-0.006127036703987094   -0.05879073195108371   -0.001697199885839771
-0.0022254484324474083   -0.06   -0.0016231684439542975
-0.005699280910509651   -0.05886148466790567   -0.001422606127784329
-0.0029565500887472093   -0.06   -0.0014214682340932866
-0.0017128454833747764   -0.06   -0.0012910589240980755
-0.005699280910509651   -0.05886148466790567   -0.001422606127784329
-0.0022254484324474083   -0.06   -0.0016231684439542975
-0.0029565500887472093   -0.06   -0.0014214682340932866
-0.005699280910509651   -0.05886148466790567   -0.001422606127784329
-0.005293744555157041   -0.059088502133460195   -0.0015463388839379118
-0.00546547253808458   -0.059062987188584305   -0.0017138365232959567
-0.0029565500887472093   -0.06   -0.0014214682340932866
-0.005699280910509651   -0.05886148466790567   -0.001422606127784329
-0.00546547253808458   -0.059062987188584305   -0.0017138365232959567
-0.0022254484324474083   -0.06   -0.0016231684439542975
-0.004276698075416762   -0.05878007316786834   -0.0012666369372557036
-0.0017585200043274166   -0.056570731573628345   -0.001094064674847258
-0.004530871507736077   -0.059007205779453176   -0.0014941069690173152
-0.003981266516813865   -0.058678306754304604   -0.001461366775225404
-0.0017585200043274166   -0.056570731573628345   -0.001094064674847258
-0.003257775101473012   -0.05674230368748169   -0.0013357383050111168
-0.004530871507736077   -0.059007205779453176   -0.0014941069690173152
-0.0031756178989584536   -0.05664640937857053   -0.001409941715035268
-0.003981266516813865   -0.058678306754304604   -0.001461366775225404
-0.0044152559571558146   -0.05892796965753962   -0.0015772720686357434
-0.0031756178989584536   -0.05664640937857053   -0.001409941715035268
-0.004530871507736077   -0.059007205779453176   -0.0014941069690173152
-0.003981266516813865   -0.058678306754304604   -0.001461366775225404
-0.0031756178989584536   -0.05664640937857053   -0.001409941715035268
-0.0015227630617507685   -0.05645202398091803   -0.0012625136581386556
-0.0017585200043274166   -0.056570731573628345   -0.001094064674847258
-0.003981266516813865   -0.058678306754304604   -0.001461366775225404
-0.0031756178989584536   -0.05664640937857053   -0.001409941715035268
-0.0017585200043274166   -0.056570731573628345   -0.001094064674847258
-0.004530871507736077   -0.059007205779453176   -0.0014941069690173152
-0.003981266516813865   -0.058678306754304604   -0.001461366775225404
-0.0015227630617507685   -0.05645202398091803   -0.0012625136581386556
-0.0044152559571558146   -0.05892796965753962   -0.0015772720686357434
-0.0037353668226890535   -0.058647228415149466   -0.0016481532859090877
-0.0015227630617507685   -0.05645202398091803   -0.0012625136581386556
-0.0031756178989584536   -0.05664640937857053   -0.001409941715035268
-0.0044152559571558146   -0.05892796965753962   -0.0015772720686357434
-0.0030830682697008255   -0.05659349223216415   -0.0014774858022467037
-0.0037353668226890535   -0.058647228415149466   -0.0016481532859090877
-0.004279595918354423   -0.05889893929780806   -0.001654034546556377
-0.0030830682697008255   -0.05659349223216415   -0.0014774858022467037
-0.0044152559571558146   -0.05892796965753962   -0.0015772720686357434
-0.0037353668226890535   -0.058647228415149466   -0.0016481532859090877
-0.0030830682697008255   -0.05659349223216415   -0.0014774858022467037
-0.001337244632922082   -0.05639573295504121   -0.0014210935833273957
-0.0015227630617507685   -0.05645202398091803   -0.0012625136581386556
-0.0037353668226890535   -0.058647228415149466   -0.0016481532859090877
-0.0030830682697008255   -0.05659349223216415   -0.0014774858022467037
-0.0015227630617507685   -0.05645202398091803   -0.0012625136581386556
-0.0044152559571558146   -0.05892796965753962   -0.0015772720686357434
-0.0037353668226890535   -0.058647228415149466   -0.0016481532859090877
-0.001337244632922082   -0.05639573295504121   -0.0014210935833273957
-0.004279595918354423   -0.05889893929780806   -0.001654034546556377
-0.00345704102861279   -0.05867417123609945   -0.0018261738623745253
-0.001337244632922082   -0.05639573295504121   -0.0014210935833273957
-0.0030830682697008255   -0.05659349223216415   -0.0014774858022467037
-0.004279595918354423   -0.05889893929780806   -0.001654034546556377
-0.0030121269096876273   -0.05658207122483831   -0.0015385852225513288
-0.00345704102861279   -0.05867417123609945   -0.0018261738623745253
-0.004163413598740642   -0.05892054430802375   -0.0017239964774641158
-0.0030121269096876273   -0.05658207122483831   -0.0015385852225513288
-0.004279595918354423   -0.05889893929780806   -0.001654034546556377
-0.00345704102861279   -0.05867417123609945   -0.0018261738623745253
-0.0030121269096876273   -0.05658207122483831   -0.0015385852225513288
-0.00113451197791243   -0.056385638754550715   -0.0015693896771225926
-0.001337244632922082   -0.05639573295504121   -0.0014210935833273957
-0.00345704102861279   -0.05867417123609945   -0.0018261738623745253
-0.0030121269096876273   -0.05658207122483831   -0.0015385852225513288
-0.001337244632922082   -0.05639573295504121   -0.0014210935833273957
-0.004279595918354423   -0.05889893929780806   -0.001654034546556377
-0.004530871507736077   -0.059007205779453176   -0.0014941069690173152
-0.003257775101473012   -0.05674230368748169   -0.0013357383050111168
-0.004877073590227279   -0.059147272205950105   -0.001675927223094782
-0.0044152559571558146   -0.05892796965753962   -0.0015772720686357434
-0.003257775101473012   -0.05674230368748169   -0.0013357383050111168
-0.004738694304176603   -0.05680274806721916   -0.0015327707252211801
-0.004877073590227279   -0.059147272205950105   -0.001675927223094782
-0.004669652774179733   -0.056719096076007974   -0.001536805994344002
-0.0044152559571558146   -0.05892796965753962   -0.0015772720686357434
-0.004774780964342694   -0.059076503601320725   -0.001678054830772933
-0.004669652774179733   -0.056719096076007974   -0.001536805994344002
-0.004877073590227279   -0.059147272205950105   -0.001675927223094782
-0.0044152559571558146   -0.05892796965753962   -0.0015772720686357434
-0.004669652774179733   -0.056719096076007974   -0.001536805994344002
-0.0031756178989584536   -0.05664640937857053   -0.001409941715035268
-0.003257775101473012   -0.05674230368748169   -0.0013357383050111168
-0.0044152559571558146   -0.05892796965753962   -0.0015772720686357434
-0.004669652774179733   -0.056719096076007974   -0.001536805994344002
-0.003257775101473012   -0.05674230368748169   -0.0013357383050111168
-0.004877073590227279   -0.059147272205950105   -0.001675927223094782
-0.0044152559571558146   -0.05892796965753962   -0.0015772720686357434
-0.0031756178989584536   -0.05664640937857053   -0.001409941715035268
-0.004774780964342694   -0.059076503601320725   -0.001678054830772933
-0.004279595918354423   -0.05889893929780806   -0.001654034546556377
-0.0031756178989584536   -0.05664640937857053   -0.001409941715035268
-0.004669652774179733   -0.056719096076007974   -0.001536805994344002
-0.004774780964342694   -0.059076503601320725   -0.001678054830772933
-0.004598238417519371   -0.056674183377969915   -0.0015346731331801425
-0.004279595918354423   -0.05889893929780806   -0.001654034546556377
-0.004660935666911069   -0.05905120449041518   -0.0016718820556812068
-0.004598238417519371   -0.056674183377969915   -0.0015346731331801425
-0.004774780964342694   -0.059076503601320725   -0.001678054830772933
-0.004279595918354423   -0.05889893929780806   -0.001654034546556377
-0.004598238417519371   -0.056674183377969915   -0.0015346731331801425
-0.0030830682697008255   -0.05659349223216415   -0.0014774858022467037
-0.0031756178989584536   -0.05664640937857053   -0.001409941715035268
-0.004279595918354423   -0.05889893929780806   -0.001654034546556377
-0.004598238417519371   -0.056674183377969915   -0.0015346731331801425
-0.0031756178989584536   -0.05664640937857053   -0.001409941715035268
-0.004774780964342694   -0.059076503601320725   -0.001678054830772933
-0.004279595918354423   -0.05889893929780806   -0.001654034546556377
-0.0030830682697008255   -0.05659349223216415   -0.0014774858022467037
-0.004660935666911069   -0.05905120449041518   -0.0016718820556812068
-0.004163413598740642   -0.05892054430802375   -0.0017239964774641158
-0.0030830682697008255   -0.05659349223216415   -0.0014774858022467037
-0.004598238417519371   -0.056674183377969915   -0.0015346731331801425
-0.004660935666911069   -0.05905120449041518   -0.0016718820556812068
-0.00452937432767551   -0.056666157565639114   -0.0015263180732831673
-0.004163413598740642   -0.05892054430802375   -0.0017239964774641158
-0.004545200391541281   -0.05906931564248251   -0.001659195245109727
-0.00452937432767551   -0.056666157565639114   -0.0015263180732831673
-0.004660935666911069   -0.05905120449041518   -0.0016718820556812068
-0.004163413598740642   -0.05892054430802375   -0.0017239964774641158
-0.00452937432767551   -0.056666157565639114   -0.0015263180732831673
-0.0030121269096876273   -0.05658207122483831   -0.0015385852225513288
-0.0030830682697008255   -0.05659349223216415   -0.0014774858022467037
-0.004163413598740642   -0.05892054430802375   -0.0017239964774641158
-0.00452937432767551   -0.056666157565639114   -0.0015263180732831673
-0.0030830682697008255   -0.05659349223216415   -0.0014774858022467037
-0.004660935666911069   -0.05905120449041518   -0.0016718820556812068
-0.004877073590227279   -0.059147272205950105   -0.001675927223094782
-0.004738694304176603   -0.05680274806721916   -0.0015327707252211801
-0.005248483940241747   -0.05920559185822951   -0.0018549375243797682
-0.004774780964342694   -0.059076503601320725   -0.001678054830772933
-0.004738694304176603   -0.05680274806721916   -0.0015327707252211801
-0.0062095130252464315   -0.056748824072830384   -0.0017171965708938854
-0.005248483940241747   -0.05920559185822951   -0.0018549375243797682
-0.006141017304219626   -0.05667451021296764   -0.0016539419548937005
-0.004774780964342694   -0.059076503601320725   -0.001678054830772933
-0.005142517874127018   -0.059138067589420126   -0.0017791375794608015
-0.006141017304219626   -0.05667451021296764   -0.0016539419548937005
-0.005248483940241747   -0.05920559185822951   -0.0018549375243797682
-0.004774780964342694   -0.059076503601320725   -0.001678054830772933
-0.006141017304219626   -0.05667451021296764   -0.0016539419548937005
-0.004669652774179733   -0.056719096076007974   -0.001536805994344002
-0.004738694304176603   -0.05680274806721916   -0.0015327707252211801
-0.004774780964342694   -0.059076503601320725   -0.001678054830772933
-0.006141017304219626   -0.05667451021296764   -0.0016539419548937005
-0.004738694304176603   -0.05680274806721916   -0.0015327707252211801
-0.005248483940241747   -0.05920559185822951   -0.0018549375243797682
-0.004774780964342694   -0.059076503601320725   -0.001678054830772933
-0.004669652774179733   -0.056719096076007974   -0.001536805994344002
-0.005142517874127018   -0.059138067589420126   -0.0017791375794608015
-0.004660935666911069   -0.05905120449041518   -0.0016718820556812068
-0.004669652774179733   -0.056719096076007974   -0.001536805994344002
-0.006141017304219626   -0.05667451021296764   -0.0016539419548937005
-0.005142517874127018   -0.059138067589420126   -0.0017791375794608015
-0.0060641508926464315   -0.05663828998612277   -0.0015846122496820682
-0.004660935666911069   -0.05905120449041518   -0.0016718820556812068
-0.00501545154130062   -0.05911675135967734   -0.0016932273159800924
-0.0060641508926464315   -0.05663828998612277   -0.0015846122496820682
-0.005142517874127018   -0.059138067589420126   -0.0017791375794608015
-0.004660935666911069   -0.05905120449041518   -0.0016718820556812068
-0.0060641508926464315   -0.05663828998612277   -0.0015846122496820682
-0.004598238417519371   -0.056674183377969915   -0.0015346731331801425
-0.004669652774179733   -0.056719096076007974   -0.001536805994344002
-0.004660935666911069   -0.05905120449041518   -0.0016718820556812068
-0.0060641508926464315   -0.05663828998612277   -0.0015846122496820682
-0.004669652774179733   -0.056719096076007974   -0.001536805994344002
-0.005142517874127018   -0.059138067589420126   -0.0017791375794608015
-0.004660935666911069   -0.05905120449041518   -0.0016718820556812068
-0.004598238417519371   -0.056674183377969915   -0.0015346731331801425
-0.00501545154130062   -0.05911675135967734   -0.0016932273159800924
-0.004545200391541281   -0.05906931564248251   -0.001659195245109727
-0.004598238417519371   -0.056674183377969915   -0.0015346731331801425
-0.0060641508926464315   -0.05663828998612277   -0.0015846122496820682
-0.00501545154130062   -0.05911675135967734   -0.0016932273159800924
-0.005986984358117194   -0.05663651737710913   -0.0015084676018430375
-0.004545200391541281   -0.05906931564248251   -0.001659195245109727
-0.004884801492472062   -0.05913442732002652   -0.001601744596749857
-0.005986984358117194   -0.05663651737710913   -0.0015084676018430375
-0.00501545154130062   -0.05911675135967734   -0.0016932273159800924
-0.004545200391541281   -0.05906931564248251   -0.001659195245109727
-0.005986984358117194   -0.05663651737710913   -0.0015084676018430375
-0.00452937432767551   -0.056666157565639114   -0.0015263180732831673
-0.004598238417519371   -0.056674183377969915   -0.0015346731331801425
-0.004545200391541281   -0.05906931564248251   -0.001659195245109727
-0.005986984358117194   -0.05663651737710913   -0.0015084676018430375
-0.004598238417519371   -0.056674183377969915   -0.0015346731331801425
-0.00501545154130062   -0.05911675135967734   -0.0016932273159800924
-0.005248483940241747   -0.05920559185822951   -0.0018549375243797682
-0.0062095130252464315   -0.056748824072830384   -0.0017171965708938854
-0.005786567958716905   -0.05914122315820686   -0.002025163712263951
-0.005142517874127018   -0.059138067589420126   -0.0017791375794608015
-0.0062095130252464315   -0.056748824072830384   -0.0017171965708938854
-0.007825057539895397   -0.056573423981415065   -0.001886669245418075
-0.005786567958716905   -0.05914122315820686   -0.002025163712263951
-0.007741158969575222   -0.056508453981241234   -0.0017576041840800835
-0.005142517874127018   -0.059138067589420126   -0.0017791375794608015
-0.005648170695830269   -0.05907739182908464   -0.0018751360886971884
-0.007741158969575222   -0.056508453981241234   -0.0017576041840800835
-0.005786567958716905   -0.05914122315820686   -0.002025163712263951
-0.005142517874127018   -0.059138067589420126   -0.0017791375794608015
-0.007741158969575222   -0.056508453981241234   -0.0017576041840800835
-0.006141017304219626   -0.05667451021296764   -0.0016539419548937005
-0.0062095130252464315   -0.056748824072830384   -0.0017171965708938854
-0.005142517874127018   -0.059138067589420126   -0.0017791375794608015
-0.007741158969575222   -0.056508453981241234   -0.0017576041840800835
-0.0062095130252464315   -0.056748824072830384   -0.0017171965708938854
-0.005786567958716905   -0.05914122315820686   -0.002025163712263951
-0.005142517874127018   -0.059138067589420126   -0.0017791375794608015
-0.006141017304219626   -0.05667451021296764   -0.0016539419548937005
-0.005648170695830269   -0.05907739182908464   -0.0018751360886971884
-0.00501545154130062   -0.05911675135967734   -0.0016932273159800924
-0.006141017304219626   -0.05667451021296764   -0.0016539419548937005
-0.007741158969575222   -0.056508453981241234   -0.0017576041840800835
-0.005648170695830269   -0.05907739182908464   -0.0018751360886971884
-0.007625274736978326   -0.05648089171400607   -0.0016229150305698012
-0.00501545154130062   -0.05911675135967734   -0.0016932273159800924
-0.00546547253808458   -0.059062987188584305   -0.0017138365232959567
-0.007625274736978326   -0.05648089171400607   -0.0016229150305698012
-0.005648170695830269   -0.05907739182908464   -0.0018751360886971884
-0.00501545154130062   -0.05911675135967734   -0.0016932273159800924
-0.007625274736978326   -0.05648089171400607   -0.0016229150305698012
-0.0060641508926464315   -0.05663828998612277   -0.0015846122496820682
-0.006141017304219626   -0.05667451021296764   -0.0016539419548937005
-0.00501545154130062   -0.05911675135967734   -0.0016932273159800924
-0.007625274736978326   -0.05648089171400607   -0.0016229150305698012
-0.006141017304219626   -0.05667451021296764   -0.0016539419548937005
-0.005648170695830269   -0.05907739182908464   -0.0018751360886971884
-0.00501545154130062   -0.05911675135967734   -0.0016932273159800924
-0.0060641508926464315   -0.05663828998612277   -0.0015846122496820682
-0.00546547253808458   -0.059062987188584305   -0.0017138365232959567
-0.004884801492472062   -0.05913442732002652   -0.001601744596749857
-0.0060641508926464315   -0.05663828998612277   -0.0015846122496820682
-0.007625274736978326   -0.05648089171400607   -0.0016229150305698012
-0.00546547253808458   -0.059062987188584305   -0.0017138365232959567
-0.007524212765737362   -0.0564907766750034   -0.0014788623491503203
-0.004884801492472062   -0.05913442732002652   -0.001601744596749857
-0.005293744555157041   -0.059088502133460195   -0.0015463388839379118
-0.007524212765737362   -0.0564907766750034   -0.0014788623491503203
-0.00546547253808458   -0.059062987188584305   -0.0017138365232959567
-0.004884801492472062   -0.05913442732002652   -0.001601744596749857
-0.007524212765737362   -0.0564907766750034   -0.0014788623491503203
-0.005986984358117194   -0.05663651737710913   -0.0015084676018430375
-0.0060641508926464315   -0.05663828998612277   -0.0015846122496820682
-0.004884801492472062   -0.05913442732002652   -0.001601744596749857
-0.007524212765737362   -0.0564907766750034   -0.0014788623491503203
-0.0060641508926464315   -0.05663828998612277   -0.0015846122496820682
-0.00546547253808458   -0.059062987188584305   -0.0017138365232959567
-0.005786567958716905   -0.05914122315820686   -0.002025163712263951
-0.007825057539895397   -0.056573423981415065   -0.001886669245418075
-0.006834533522471967   -0.05885198178080329   -0.0022059455220651857
-0.005648170695830269   -0.05907739182908464   -0.0018751360886971884
-0.007825057539895397   -0.056573423981415065   -0.001886669245418075
-0.009905412609063129   -0.056288165809957165   -0.0020495376220678037
-0.006834533522471967   -0.05885198178080329   -0.0022059455220651857
-0.009634474514967703   -0.05621764126322737   -0.0018457438924301495
-0.005648170695830269   -0.05907739182908464   -0.0018751360886971884
-0.0064657213428300385   -0.05879804171797883   -0.0019598239843511434
-0.009634474514967703   -0.05621764126322737   -0.0018457438924301495
-0.006834533522471967   -0.05885198178080329   -0.0022059455220651857
-0.005648170695830269   -0.05907739182908464   -0.0018751360886971884
-0.009634474514967703   -0.05621764126322737   -0.0018457438924301495
-0.007741158969575222   -0.056508453981241234   -0.0017576041840800835
-0.007825057539895397   -0.056573423981415065   -0.001886669245418075
-0.005648170695830269   -0.05907739182908464   -0.0018751360886971884
-0.009634474514967703   -0.05621764126322737   -0.0018457438924301495
-0.007825057539895397   -0.056573423981415065   -0.001886669245418075
-0.006834533522471967   -0.05885198178080329   -0.0022059455220651857
-0.005648170695830269   -0.05907739182908464   -0.0018751360886971884
-0.007741158969575222   -0.056508453981241234   -0.0017576041840800835
-0.0064657213428300385   -0.05879804171797883   -0.0019598239843511434
-0.00546547253808458   -0.059062987188584305   -0.0017138365232959567
-0.007741158969575222   -0.056508453981241234   -0.0017576041840800835
-0.009634474514967703   -0.05621764126322737   -0.0018457438924301495
-0.0064657213428300385   -0.05879804171797883   -0.0019598239843511434
-0.009391767069921314   -0.05619214705284555   -0.0016301447667380446
-0.00546547253808458   -0.059062987188584305   -0.0017138365232959567
-0.006127036703987094   -0.05879073195108371   -0.001697199885839771
-0.009391767069921314   -0.05619214705284555   -0.0016301447667380446
-0.0064657213428300385   -0.05879804171797883   -0.0019598239843511434
-0.00546547253808458   -0.059062987188584305   -0.0017138365232959567
-0.009391767069921314   -0.05619214705284555   -0.0016301447667380446
-0.007625274736978326   -0.05648089171400607   -0.0016229150305698012
-0.007741158969575222   -0.056508453981241234   -0.0017576041840800835
-0.00546547253808458   -0.059062987188584305   -0.0017138365232959567
-0.009391767069921314   -0.05619214705284555   -0.0016301447667380446
-0.007741158969575222   -0.056508453981241234   -0.0017576041840800835
-0.0064657213428300385   -0.05879804171797883   -0.0019598239843511434
-0.00546547253808458   -0.059062987188584305   -0.0017138365232959567
-0.007625274736978326   -0.05648089171400607   -0.0016229150305698012
-0.006127036703987094   -0.05879073195108371   -0.001697199885839771
-0.005293744555157041   -0.059088502133460195   -0.0015463388839379118
-0.007625274736978326   -0.05648089171400607   -0.0016229150305698012
-0.009391767069921314   -0.05619214705284555   -0.0016301447667380446
-0.006127036703987094   -0.05879073195108371   -0.001697199885839771
-0.009077225326383088   -0.05622488523522622   -0.0014047829932696573
-0.005293744555157041   -0.059088502133460195   -0.0015463388839379118
-0.005699280910509651   -0.05886148466790567   -0.001422606127784329
-0.009077225326383088   -0.05622488523522622   -0.0014047829932696573
-0.006127036703987094   -0.05879073195108371   -0.001697199885839771
-0.005293744555157041   -0.059088502133460195   -0.0015463388839379118
-0.009077225326383088   -0.05622488523522622   -0.0014047829932696573
-0.007524212765737362   -0.0564907766750034   -0.0014788623491503203
-0.007625274736978326   -0.05648089171400607   -0.0016229150305698012
-0.005293744555157041   -0.059088502133460195   -0.0015463388839379118
-0.009077225326383088   -0.05622488523522622   -0.0014047829932696573
-0.007625274736978326   -0.05648089171400607   -0.0016229150305698012
-0.006127036703987094   -0.05879073195108371   -0.001697199885839771
-0.0017585200043274166   -0.056570731573628345   -0.001094064674847258
0.00028638226622423727   -0.05249615312106398   -0.0009046800491775819
-0.003257775101473012   -0.05674230368748169   -0.0013357383050111168
-0.0015227630617507685   -0.05645202398091803   -0.0012625136581386556
0.00028638226622423727   -0.05249615312106398   -0.0009046800491775819
-0.0022457584944701285   -0.052622151798501195   -0.0011419990256501238
-0.003257775101473012   -0.05674230368748169   -0.0013357383050111168
-0.002202149998212585   -0.05252164218983248   -0.001200931980874699
-0.0015227630617507685   -0.05645202398091803   -0.0012625136581386556
-0.0031756178989584536   -0.05664640937857053   -0.001409941715035268
-0.002202149998212585   -0.05252164218983248   -0.001200931980874699
-0.003257775101473012   -0.05674230368748169   -0.0013357383050111168
-0.0015227630617507685   -0.05645202398091803   -0.0012625136581386556
-0.002202149998212585   -0.05252164218983248   -0.001200931980874699
0.00045126292116699096   -0.05237551258917501   -0.0010389734874612596
0.00028638226622423727   -0.05249615312106398   -0.0009046800491775819
-0.0015227630617507685   -0.05645202398091803   -0.0012625136581386556
-0.002202149998212585   -0.05252164218983248   -0.001200931980874699
0.00028638226622423727   -0.05249615312106398   -0.0009046800491775819
-0.003257775101473012   -0.05674230368748169   -0.0013357383050111168
-0.0015227630617507685   -0.05645202398091803   -0.0012625136581386556
0.00045126292116699096   -0.05237551258917501   -0.0010389734874612596
-0.0031756178989584536   -0.05664640937857053   -0.001409941715035268
-0.001337244632922082   -0.05639573295504121   -0.0014210935833273957
0.00045126292116699096   -0.05237551258917501   -0.0010389734874612596
-0.002202149998212585   -0.05252164218983248   -0.001200931980874699
-0.0031756178989584536   -0.05664640937857053   -0.001409941715035268
-0.002152446792253329   -0.05245621871381573   -0.001253032175164696
-0.001337244632922082   -0.05639573295504121   -0.0014210935833273957
-0.0030830682697008255   -0.05659349223216415   -0.0014774858022467037
-0.002152446792253329   -0.05245621871381573   -0.001253032175164696
-0.0031756178989584536   -0.05664640937857053   -0.001409941715035268
-0.001337244632922082   -0.05639573295504121   -0.0014210935833273957
-0.002152446792253329   -0.05245621871381573   -0.001253032175164696
0.0005725767305900839   -0.0523060563070853   -0.0011637030751499326
0.00045126292116699096   -0.05237551258917501   -0.0010389734874612596
-0.001337244632922082   -0.05639573295504121   -0.0014210935833273957
-0.002152446792253329   -0.05245621871381573   -0.001253032175164696
0.00045126292116699096   -0.05237551258917501   -0.0010389734874612596
-0.0031756178989584536   -0.05664640937857053   -0.001409941715035268
-0.001337244632922082   -0.05639573295504121   -0.0014210935833273957
0.0005725767305900839   -0.0523060563070853   -0.0011637030751499326
-0.0030830682697008255   -0.05659349223216415   -0.0014774858022467037
-0.00113451197791243   -0.056385638754550715   -0.0015693896771225926
0.0005725767305900839   -0.0523060563070853   -0.0011637030751499326
-0.002152446792253329   -0.05245621871381573   -0.001253032175164696
-0.0030830682697008255   -0.05659349223216415   -0.0014774858022467037
-0.0021227258235913407   -0.05242393768770056   -0.001298974538475286
-0.00113451197791243   -0.056385638754550715   -0.0015693896771225926
-0.0030121269096876273   -0.05658207122483831   -0.0015385852225513288
-0.0021227258235913407   -0.05242393768770056   -0.001298974538475286
-0.0030830682697008255   -0.05659349223216415   -0.0014774858022467037
-0.00113451197791243   -0.056385638754550715   -0.0015693896771225926
-0.0021227258235913407   -0.05242393768770056   -0.001298974538475286
0.0007025697722254242   -0.05227220329047991   -0.0012788240688983298
0.0005725767305900839   -0.0523060563070853   -0.0011637030751499326
-0.00113451197791243   -0.056385638754550715   -0.0015693896771225926
-0.0021227258235913407   -0.05242393768770056   -0.001298974538475286
0.0005725767305900839   -0.0523060563070853   -0.0011637030751499326
-0.0030830682697008255   -0.05659349223216415   -0.0014774858022467037
-0.003257775101473012   -0.05674230368748169   -0.0013357383050111168
-0.0022457584944701285   -0.052622151798501195   -0.0011419990256501238
-0.004738694304176603   -0.05680274806721916   -0.0015327707252211801
-0.0031756178989584536   -0.05664640937857053   -0.001409941715035268
-0.0022457584944701285   -0.052622151798501195   -0.0011419990256501238
-0.004696216891464855   -0.052646274385379374   -0.0013374122162573784
-0.004738694304176603   -0.05680274806721916   -0.0015327707252211801
-0.004664193100974657   -0.05256002479285767   -0.0013388908557456498
-0.0031756178989584536   -0.05664640937857053   -0.001409941715035268
-0.004669652774179733   -0.056719096076007974   -0.001536805994344002
-0.004664193100974657   -0.05256002479285767   -0.0013388908557456498
-0.004738694304176603   -0.05680274806721916   -0.0015327707252211801
-0.0031756178989584536   -0.05664640937857053   -0.001409941715035268
-0.004664193100974657   -0.05256002479285767   -0.0013388908557456498
-0.002202149998212585   -0.05252164218983248   -0.001200931980874699
-0.0022457584944701285   -0.052622151798501195   -0.0011419990256501238
-0.0031756178989584536   -0.05664640937857053   -0.001409941715035268
-0.004664193100974657   -0.05256002479285767   -0.0013388908557456498
-0.0022457584944701285   -0.052622151798501195   -0.0011419990256501238
-0.004738694304176603   -0.05680274806721916   -0.0015327707252211801
-0.0031756178989584536   -0.05664640937857053   -0.001409941715035268
-0.002202149998212585   -0.05252164218983248   -0.001200931980874699
-0.004669652774179733   -0.056719096076007974   -0.001536805994344002
-0.0030830682697008255   -0.05659349223216415   -0.0014774858022467037
-0.002202149998212585   -0.05252164218983248   -0.001200931980874699
-0.004664193100974657   -0.05256002479285767   -0.0013388908557456498
-0.004669652774179733   -0.056719096076007974   -0.001536805994344002
-0.004631257225816447   -0.05250517585617597   -0.0013338213496624626
-0.0030830682697008255   -0.05659349223216415   -0.0014774858022467037
-0.004598238417519371   -0.056674183377969915   -0.0015346731331801425
-0.004631257225816447   -0.05250517585617597   -0.0013338213496624626
-0.004669652774179733   -0.056719096076007974   -0.001536805994344002
-0.0030830682697008255   -0.05659349223216415   -0.0014774858022467037
-0.004631257225816447   -0.05250517585617597   -0.0013338213496624626
-0.002152446792253329   -0.05245621871381573   -0.001253032175164696
-0.002202149998212585   -0.05252164218983248   -0.001200931980874699
-0.0030830682697008255   -0.05659349223216415   -0.0014774858022467037
-0.004631257225816447   -0.05250517585617597   -0.0013338213496624626
-0.002202149998212585   -0.05252164218983248   -0.001200931980874699
-0.004669652774179733   -0.056719096076007974   -0.001536805994344002
-0.0030830682697008255   -0.05659349223216415   -0.0014774858022467037
-0.002152446792253329   -0.05245621871381573   -0.001253032175164696
-0.004598238417519371   -0.056674183377969915   -0.0015346731331801425
-0.0030121269096876273   -0.05658207122483831   -0.0015385852225513288
-0.002152446792253329   -0.05245621871381573   -0.001253032175164696
-0.004631257225816447   -0.05250517585617597   -0.0013338213496624626
-0.004598238417519371   -0.056674183377969915   -0.0015346731331801425
-0.004602452270889441   -0.052481214347212896   -0.0013226423347831044
-0.0030121269096876273   -0.05658207122483831   -0.0015385852225513288
-0.00452937432767551   -0.056666157565639114   -0.0015263180732831673
-0.004602452270889441   -0.052481214347212896   -0.0013226423347831044
-0.004598238417519371   -0.056674183377969915   -0.0015346731331801425
-0.0030121269096876273   -0.05658207122483831   -0.0015385852225513288
-0.004602452270889441   -0.052481214347212896   -0.0013226423347831044
-0.0021227258235913407   -0.05242393768770056   -0.001298974538475286
-0.002152446792253329   -0.05245621871381573   -0.001253032175164696
-0.0030121269096876273   -0.05658207122483831   -0.0015385852225513288
-0.004602452270889441   -0.052481214347212896   -0.0013226423347831044
-0.002152446792253329   -0.05245621871381573   -0.001253032175164696
-0.004598238417519371   -0.056674183377969915   -0.0015346731331801425
-0.004738694304176603   -0.05680274806721916   -0.0015327707252211801
-0.004696216891464855   -0.052646274385379374   -0.0013374122162573784
-0.0062095130252464315   -0.056748824072830384   -0.0017171965708938854
-0.004669652774179733   -0.056719096076007974   -0.001536805994344002
-0.004696216891464855   -0.052646274385379374   -0.0013374122162573784
-0.007108340313166842   -0.052568151535459906   -0.0015137924509985364
-0.0062095130252464315   -0.056748824072830384   -0.0017171965708938854
-0.007078529500363745   -0.05249374668547716   -0.001459200014054194
-0.004669652774179733   -0.056719096076007974   -0.001536805994344002
-0.006141017304219626   -0.05667451021296764   -0.0016539419548937005
-0.007078529500363745   -0.05249374668547716   -0.001459200014054194
-0.0062095130252464315   -0.056748824072830384   -0.0017171965708938854
-0.004669652774179733   -0.056719096076007974   -0.001536805994344002
-0.007078529500363745   -0.05249374668547716   -0.001459200014054194
-0.004664193100974657   -0.05256002479285767   -0.0013388908557456498
-0.004696216891464855   -0.052646274385379374   -0.0013374122162573784
-0.004669652774179733   -0.056719096076007974   -0.001536805994344002
-0.007078529500363745   -0.05249374668547716   -0.001459200014054194
-0.004696216891464855   -0.052646274385379374   -0.0013374122162573784
-0.0062095130252464315   -0.056748824072830384   -0.0017171965708938854
-0.004669652774179733   -0.056719096076007974   -0.001536805994344002
-0.004664193100974657   -0.05256002479285767   -0.0013388908557456498
-0.006141017304219626   -0.05667451021296764   -0.0016539419548937005
-0.004598238417519371   -0.056674183377969915   -0.0015346731331801425
-0.004664193100974657   -0.05256002479285767   -0.0013388908557456498
-0.007078529500363745   -0.05249374668547716   -0.001459200014054194
-0.006141017304219626   -0.05667451021296764   -0.0016539419548937005
-0.007042503829536797   -0.052450398017391445   -0.0013982029689129474
-0.004598238417519371   -0.056674183377969915   -0.0015346731331801425
-0.0060641508926464315   -0.05663828998612277   -0.0015846122496820682
-0.007042503829536797   -0.052450398017391445   -0.0013982029689129474
-0.006141017304219626   -0.05667451021296764   -0.0016539419548937005
-0.004598238417519371   -0.056674183377969915   -0.0015346731331801425
-0.007042503829536797   -0.052450398017391445   -0.0013982029689129474
-0.004631257225816447   -0.05250517585617597   -0.0013338213496624626
-0.004664193100974657   -0.05256002479285767   -0.0013388908557456498
-0.004598238417519371   -0.056674183377969915   -0.0015346731331801425
-0.007042503829536797   -0.052450398017391445   -0.0013982029689129474
-0.004664193100974657   -0.05256002479285767   -0.0013388908557456498
-0.006141017304219626   -0.05667451021296764   -0.0016539419548937005
-0.004598238417519371   -0.056674183377969915   -0.0015346731331801425
-0.004631257225816447   -0.05250517585617597   -0.0013338213496624626
-0.0060641508926464315   -0.05663828998612277   -0.0015846122496820682
-0.00452937432767551   -0.056666157565639114   -0.0015263180732831673
-0.004631257225816447   -0.05250517585617597   -0.0013338213496624626
-0.007042503829536797   -0.052450398017391445   -0.0013982029689129474
-0.0060641508926464315   -0.05663828998612277   -0.0015846122496820682
-0.00700747608147786   -0.05243667177742139   -0.0013309981871254908
-0.00452937432767551   -0.056666157565639114   -0.0015263180732831673
-0.005986984358117194   -0.05663651737710913   -0.0015084676018430375
-0.00700747608147786   -0.05243667177742139   -0.0013309981871254908
-0.0060641508926464315   -0.05663828998612277   -0.0015846122496820682
-0.00452937432767551   -0.056666157565639114   -0.0015263180732831673
-0.00700747608147786   -0.05243667177742139   -0.0013309981871254908
-0.004602452270889441   -0.052481214347212896   -0.0013226423347831044
-0.004631257225816447   -0.05250517585617597   -0.0013338213496624626
-0.00452937432767551   -0.056666157565639114   -0.0015263180732831673
-0.00700747608147786   -0.05243667177742139   -0.0013309981871254908
-0.004631257225816447   -0.05250517585617597   -0.0013338213496624626
-0.0060641508926464315   -0.05663828998612277   -0.0015846122496820682
-0.0062095130252464315   -0.056748824072830384   -0.0017171965708938854
-0.007108340313166842   -0.052568151535459906   -0.0015137924509985364
-0.007825057539895397   -0.056573423981415065   -0.001886669245418075
-0.006141017304219626   -0.05667451021296764   -0.0016539419548937005
-0.007108340313166842   -0.052568151535459906   -0.0015137924509985364
-0.009635906019068684   -0.05239052633934003   -0.0016704955932786072
-0.007825057539895397   -0.056573423981415065   -0.001886669245418075
-0.009596913374638517   -0.05232741347106449   -0.0015597532475677659
-0.006141017304219626   -0.05667451021296764   -0.0016539419548937005
-0.007741158969575222   -0.056508453981241234   -0.0017576041840800835
-0.009596913374638517   -0.05232741347106449   -0.0015597532475677659
-0.007825057539895397   -0.056573423981415065   -0.001886669245418075
-0.006141017304219626   -0.05667451021296764   -0.0016539419548937005
-0.009596913374638517   -0.05232741347106449   -0.0015597532475677659
-0.007078529500363745   -0.05249374668547716   -0.001459200014054194
-0.007108340313166842   -0.052568151535459906   -0.0015137924509985364
-0.006141017304219626   -0.05667451021296764   -0.0016539419548937005
-0.009596913374638517   -0.05232741347106449   -0.0015597532475677659
-0.007108340313166842   -0.052568151535459906   -0.0015137924509985364
-0.007825057539895397   -0.056573423981415065   -0.001886669245418075
-0.006141017304219626   -0.05667451021296764   -0.0016539419548937005
-0.007078529500363745   -0.05249374668547716   -0.001459200014054194
-0.007741158969575222   -0.056508453981241234   -0.0017576041840800835
-0.0060641508926464315   -0.05663828998612277   -0.0015846122496820682
-0.007078529500363745   -0.05249374668547716   -0.001459200014054194
-0.009596913374638517   -0.05232741347106449   -0.0015597532475677659
-0.007741158969575222   -0.056508453981241234   -0.0017576041840800835
-0.009530781454176664   -0.05229449095582599   -0.0014435928546642736
-0.0060641508926464315   -0.05663828998612277   -0.0015846122496820682
-0.007625274736978326   -0.05648089171400607   -0.0016229150305698012
-0.009530781454176664   -0.05229449095582599   -0.0014435928546642736
-0.007741158969575222   -0.056508453981241234   -0.0017576041840800835
-0.0060641508926464315   -0.05663828998612277   -0.0015846122496820682
-0.009530781454176664   -0.05229449095582599   -0.0014435928546642736
-0.007042503829536797   -0.052450398017391445   -0.0013982029689129474
-0.007078529500363745   -0.05249374668547716   -0.001459200014054194
-0.0060641508926464315   -0.05663828998612277   -0.0015846122496820682
-0.009530781454176664   -0.05229449095582599   -0.0014435928546642736
-0.007078529500363745   -0.05249374668547716   -0.001459200014054194
-0.007741158969575222   -0.056508453981241234   -0.0017576041840800835
-0.0060641508926464315   -0.05663828998612277   -0.0015846122496820682
-0.007042503829536797   -0.052450398017391445   -0.0013982029689129474
-0.007625274736978326   -0.05648089171400607   -0.0016229150305698012
-0.005986984358117194   -0.05663651737710913   -0.0015084676018430375
-0.007042503829536797   -0.052450398017391445   -0.0013982029689129474
-0.009530781454176664   -0.05229449095582599   -0.0014435928546642736
-0.007625274736978326   -0.05648089171400607   -0.0016229150305698012
-0.009477125060113858   -0.05229351218722606   -0.0013203200355768711
-0.005986984358117194   -0.05663651737710913   -0.0015084676018430375
-0.007524212765737362   -0.0564907766750034   -0.0014788623491503203
-0.009477125060113858   -0.05229351218722606   -0.0013203200355768711
-0.007625274736978326   -0.05648089171400607   -0.0016229150305698012
-0.005986984358117194   -0.05663651737710913   -0.0015084676018430375
-0.009477125060113858   -0.05229351218722606   -0.0013203200355768711
-0.00700747608147786   -0.05243667177742139   -0.0013309981871254908
-0.007042503829536797   -0.052450398017391445   -0.0013982029689129474
-0.005986984358117194   -0.05663651737710913   -0.0015084676018430375
-0.009477125060113858   -0.05229351218722606   -0.0013203200355768711
-0.007042503829536797   -0.052450398017391445   -0.0013982029689129474
-0.007625274736978326   -0.05648089171400607   -0.0016229150305698012
-0.007825057539895397   -0.056573423981415065   -0.001886669245418075
-0.009635906019068684   -0.05239052633934003   -0.0016704955932786072
-0.009905412609063129   -0.056288165809957165   -0.0020495376220678037
-0.007741158969575222   -0.056508453981241234   -0.0017576041840800835
-0.009635906019068684   -0.05239052633934003   -0.0016704955932786072
-0.012583506219020971   -0.052134606454619155   -0.0018167435844131667
-0.009905412609063129   -0.056288165809957165   -0.0020495376220678037
-0.01238329232842488   -0.052068720853124514   -0.0016433710936016204
-0.007741158969575222   -0.056508453981241234   -0.0017576041840800835
-0.009634474514967703   -0.05621764126322737   -0.0018457438924301495
-0.01238329232842488   -0.052068720853124514   -0.0016433710936016204
-0.009905412609063129   -0.056288165809957165   -0.0020495376220678037
-0.007741158969575222   -0.056508453981241234   -0.0017576041840800835
-0.01238329232842488   -0.052068720853124514   -0.0016433710936016204
-0.009596913374638517   -0.05232741347106449   -0.0015597532475677659
-0.009635906019068684   -0.05239052633934003   -0.0016704955932786072
-0.007741158969575222   -0.056508453981241234   -0.0017576041840800835
-0.01238329232842488   -0.052068720853124514   -0.0016433710936016204
-0.009635906019068684   -0.05239052633934003   -0.0016704955932786072
-0.009905412609063129   -0.056288165809957165   -0.0020495376220678037
-0.007741158969575222   -0.056508453981241234   -0.0017576041840800835
-0.009596913374638517   -0.05232741347106449   -0.0015597532475677659
-0.009634474514967703   -0.05621764126322737   -0.0018457438924301495
-0.007625274736978326   -0.05648089171400607   -0.0016229150305698012
-0.009596913374638517   -0.05232741347106449   -0.0015597532475677659
-0.01238329232842488   -0.052068720853124514   -0.0016433710936016204
-0.009634474514967703   -0.05621764126322737   -0.0018457438924301495
-0.012209617148911396   -0.05203862922019037   -0.0014610583752179122
-0.007625274736978326   -0.05648089171400607   -0.0016229150305698012
-0.009391767069921314   -0.05619214705284555   -0.0016301447667380446
-0.012209617148911396   -0.05203862922019037   -0.0014610583752179122
-0.009634474514967703   -0.05621764126322737   -0.0018457438924301495
-0.007625274736978326   -0.05648089171400607   -0.0016229150305698012
-0.012209617148911396   -0.05203862922019037   -0.0014610583752179122
-0.009530781454176664   -0.05229449095582599   -0.0014435928546642736
-0.009596913374638517   -0.05232741347106449   -0.0015597532475677659
-0.007625274736978326   -0.05648089171400607   -0.0016229150305698012
-0.012209617148911396   -0.05203862922019037   -0.0014610583752179122
-0.009596913374638517   -0.05232741347106449   -0.0015597532475677659
-0.009634474514967703   -0.05621764126322737   -0.0018457438924301495
-0.007625274736978326   -0.05648089171400607   -0.0016229150305698012
-0.009530781454176664   -0.05229449095582599   -0.0014435928546642736
-0.009391767069921314   -0.05619214705284555   -0.0016301447667380446
-0.007524212765737362   -0.0564907766750034   -0.0014788623491503203
-0.009530781454176664   -0.05229449095582599   -0.0014435928546642736
-0.012209617148911396   -0.05203862922019037   -0.0014610583752179122
-0.009391767069921314   -0.05619214705284555   -0.0016301447667380446
-0.011975670333493347   -0.05205733790619618   -0.0012709658503350233
-0.007524212765737362   -0.0564907766750034   -0.0014788623491503203
-0.009077225326383088   -0.05622488523522622   -0.0014047829932696573
-0.011975670333493347   -0.05205733790619618   -0.0012709658503350233
-0.009391767069921314   -0.05619214705284555   -0.0016301447667380446
-0.007524212765737362   -0.0564907766750034   -0.0014788623491503203
-0.011975670333493347   -0.05205733790619618   -0.0012709658503350233
-0.009477125060113858   -0.05229351218722606   -0.0013203200355768711
-0.009530781454176664   -0.05229449095582599   -0.0014435928546642736
-0.007524212765737362   -0.0564907766750034   -0.0014788623491503203
-0.011975670333493347   -0.05205733790619618   -0.0012709658503350233
-0.009530781454176664   -0.05229449095582599   -0.0014435928546642736
-0.009391767069921314   -0.05619214705284555   -0.0016301447667380446
0.00028638226622423727   -0.05249615312106398   -0.0009046800491775819
0.0018411327660402491   -0.046958522831762335   -0.0006892889441995571
-0.0022457584944701285   -0.052622151798501195   -0.0011419990256501238
0.00045126292116699096   -0.05237551258917501   -0.0010389734874612596
0.0018411327660402491   -0.046958522831762335   -0.0006892889441995571
-0.0015140324595253973   -0.04704196818654652   -0.0009158352748536923
-0.0022457584944701285   -0.052622151798501195   -0.0011419990256501238
-0.0015048729961691983   -0.04694199418230101   -0.0009567630626810535
0.00045126292116699096   -0.05237551258917501   -0.0010389734874612596
-0.002202149998212585   -0.05252164218983248   -0.001200931980874699
-0.0015048729961691983   -0.04694199418230101   -0.0009567630626810535
-0.0022457584944701285   -0.052622151798501195   -0.0011419990256501238
0.00045126292116699096   -0.05237551258917501   -0.0010389734874612596
-0.0015048729961691983   -0.04694199418230101   -0.0009567630626810535
0.0019393457860642973   -0.046840777521524345   -0.0007887745815147996
0.0018411327660402491   -0.046958522831762335   -0.0006892889441995571
0.00045126292116699096   -0.05237551258917501   -0.0010389734874612596
-0.0015048729961691983   -0.04694199418230101   -0.0009567630626810535
0.0018411327660402491   -0.046958522831762335   -0.0006892889441995571
-0.0022457584944701285   -0.052622151798501195   -0.0011419990256501238
0.00045126292116699096   -0.05237551258917501   -0.0010389734874612596
0.0019393457860642973   -0.046840777521524345   -0.0007887745815147996
-0.002202149998212585   -0.05252164218983248   -0.001200931980874699
0.0005725767305900839   -0.0523060563070853   -0.0011637030751499326
0.0019393457860642973   -0.046840777521524345   -0.0007887745815147996
-0.0015048729961691983   -0.04694199418230101   -0.0009567630626810535
-0.002202149998212585   -0.05252164218983248   -0.001200931980874699
-0.0014932082302367316   -0.04686973319912302   -0.000991439007330904
0.0005725767305900839   -0.0523060563070853   -0.0011637030751499326
-0.002152446792253329   -0.05245621871381573   -0.001253032175164696
-0.0014932082302367316   -0.04686973319912302   -0.000991439007330904
-0.002202149998212585   -0.05252164218983248   -0.001200931980874699
0.0005725767305900839   -0.0523060563070853   -0.0011637030751499326
-0.0014932082302367316   -0.04686973319912302   -0.000991439007330904
0.0020022132872319714   -0.046763778356382464   -0.0008794236264174661
0.0019393457860642973   -0.046840777521524345   -0.0007887745815147996
0.0005725767305900839   -0.0523060563070853   -0.0011637030751499326
-0.0014932082302367316   -0.04686973319912302   -0.000991439007330904
0.0019393457860642973   -0.046840777521524345   -0.0007887745815147996
-0.002202149998212585   -0.05252164218983248   -0.001200931980874699
0.0005725767305900839   -0.0523060563070853   -0.0011637030751499326
0.0020022132872319714   -0.046763778356382464   -0.0008794236264174661
-0.002152446792253329   -0.05245621871381573   -0.001253032175164696
0.0007025697722254242   -0.05227220329047991   -0.0012788240688983298
0.0020022132872319714   -0.046763778356382464   -0.0008794236264174661
-0.0014932082302367316   -0.04686973319912302   -0.000991439007330904
-0.002152446792253329   -0.05245621871381573   -0.001253032175164696
-0.0014986191586439537   -0.046822860898054805   -0.0010203188448724215
0.0007025697722254242   -0.05227220329047991   -0.0012788240688983298
-0.0021227258235913407   -0.05242393768770056   -0.001298974538475286
-0.0014986191586439537   -0.046822860898054805   -0.0010203188448724215
-0.002152446792253329   -0.05245621871381573   -0.001253032175164696
0.0007025697722254242   -0.05227220329047991   -0.0012788240688983298
-0.0014986191586439537   -0.046822860898054805   -0.0010203188448724215
0.0020668765298049135   -0.046712521577078024   -0.0009614230024157335
0.0020022132872319714   -0.046763778356382464   -0.0008794236264174661
0.0007025697722254242   -0.05227220329047991   -0.0012788240688983298
-0.0014986191586439537   -0.046822860898054805   -0.0010203188448724215
0.0020022132872319714   -0.046763778356382464   -0.0008794236264174661
-0.002152446792253329   -0.05245621871381573   -0.001253032175164696
-0.0022457584944701285   -0.052622151798501195   -0.0011419990256501238
-0.0015140324595253973   -0.04704196818654652   -0.0009158352748536923
-0.004696216891464855   -0.052646274385379374   -0.0013374122162573784
-0.002202149998212585   -0.05252164218983248   -0.001200931980874699
-0.0015140324595253973   -0.04704196818654652   -0.0009158352748536923
-0.004743378639887088   -0.047042487888338466   -0.0011025135703187732
-0.004696216891464855   -0.052646274385379374   -0.0013374122162573784
-0.004743750186967085   -0.04695795544546032   -0.0010986460050677023
-0.002202149998212585   -0.05252164218983248   -0.001200931980874699
-0.004664193100974657   -0.05256002479285767   -0.0013388908557456498
-0.004743750186967085   -0.04695795544546032   -0.0010986460050677023
-0.004696216891464855   -0.052646274385379374   -0.0013374122162573784
-0.002202149998212585   -0.05252164218983248   -0.001200931980874699
-0.004743750186967085   -0.04695795544546032   -0.0010986460050677023
-0.0015048729961691983   -0.04694199418230101   -0.0009567630626810535
-0.0015140324595253973   -0.04704196818654652   -0.0009158352748536923
-0.002202149998212585   -0.05252164218983248   -0.001200931980874699
-0.004743750186967085   -0.04695795544546032   -0.0010986460050677023
-0.0015140324595253973   -0.04704196818654652   -0.0009158352748536923
-0.004696216891464855   -0.052646274385379374   -0.0013374122162573784
-0.002202149998212585   -0.05252164218983248   -0.001200931980874699
-0.0015048729961691983   -0.04694199418230101   -0.0009567630626810535
-0.004664193100974657   -0.05256002479285767   -0.0013388908557456498
-0.002152446792253329   -0.05245621871381573   -0.001253032175164696
-0.0015048729961691983   -0.04694199418230101   -0.0009567630626810535
-0.004743750186967085   -0.04695795544546032   -0.0010986460050677023
-0.004664193100974657   -0.05256002479285767   -0.0013388908557456498
-0.004743902346466079   -0.04689785091399544   -0.0010885491058502314
-0.002152446792253329   -0.05245621871381573   -0.001253032175164696
-0.004631257225816447   -0.05250517585617597   -0.0013338213496624626
-0.004743902346466079   -0.04689785091399544   -0.0010885491058502314
-0.004664193100974657   -0.05256002479285767   -0.0013388908557456498
-0.002152446792253329   -0.05245621871381573   -0.001253032175164696
-0.004743902346466079   -0.04689785091399544   -0.0010885491058502314
-0.0014932082302367316   -0.04686973319912302   -0.000991439007330904
-0.0015048729961691983   -0.04694199418230101   -0.0009567630626810535
-0.002152446792253329   -0.05245621871381573   -0.001253032175164696
-0.004743902346466079   -0.04689785091399544   -0.0010885491058502314
-0.0015048729961691983   -0.04694199418230101   -0.0009567630626810535
-0.004664193100974657   -0.05256002479285767   -0.0013388908557456498
-0.002152446792253329   -0.05245621871381573   -0.001253032175164696
-0.0014932082302367316   -0.04686973319912302   -0.000991439007330904
-0.004631257225816447   -0.05250517585617597   -0.0013338213496624626
-0.0021227258235913407   -0.05242393768770056   -0.001298974538475286
-0.0014932082302367316   -0.04686973319912302   -0.000991439007330904
-0.004743902346466079   -0.04689785091399544   -0.0010885491058502314
-0.004631257225816447   -0.05250517585617597   -0.0013338213496624626
-0.0047483670459141   -0.04686221823836751   -0.0010725484244514581
-0.0021227258235913407   -0.05242393768770056   -0.001298974538475286
-0.004602452270889441   -0.052481214347212896   -0.0013226423347831044
-0.0047483670459141   -0.04686221823836751   -0.0010725484244514581
-0.004631257225816447   -0.05250517585617597   -0.0013338213496624626
-0.0021227258235913407   -0.05242393768770056   -0.001298974538475286
-0.0047483670459141   -0.04686221823836751   -0.0010725484244514581
-0.0014986191586439537   -0.046822860898054805   -0.0010203188448724215
-0.0014932082302367316   -0.04686973319912302   -0.000991439007330904
-0.0021227258235913407   -0.05242393768770056   -0.001298974538475286
-0.0047483670459141   -0.04686221823836751   -0.0010725484244514581
-0.0014932082302367316   -0.04686973319912302   -0.000991439007330904
-0.004631257225816447   -0.05250517585617597   -0.0013338213496624626
-0.004696216891464855   -0.052646274385379374   -0.0013374122162573784
-0.004743378639887088   -0.047042487888338466   -0.0011025135703187732
-0.007108340313166842   -0.052568151535459906   -0.0015137924509985364
-0.004664193100974657   -0.05256002479285767   -0.0013388908557456498
-0.004743378639887088   -0.047042487888338466   -0.0011025135703187732
-0.007918045065646312   -0.046962041658184676   -0.0012659879052284823
-0.007108340313166842   -0.052568151535459906   -0.0015137924509985364
-0.007920812536340638   -0.04689106031761224   -0.0012178676118760419
-0.004664193100974657   -0.05256002479285767   -0.0013388908557456498
-0.007078529500363745   -0.05249374668547716   -0.001459200014054194
-0.007920812536340638   -0.04689106031761224   -0.0012178676118760419
-0.007108340313166842   -0.052568151535459906   -0.0015137924509985364
-0.004664193100974657   -0.05256002479285767   -0.0013388908557456498
-0.007920812536340638   -0.04689106031761224   -0.0012178676118760419
-0.004743750186967085   -0.04695795544546032   -0.0010986460050677023
-0.004743378639887088   -0.047042487888338466   -0.0011025135703187732
-0.004664193100974657   -0.05256002479285767   -0.0013388908557456498
-0.007920812536340638   -0.04689106031761224   -0.0012178676118760419
-0.004743378639887088   -0.047042487888338466   -0.0011025135703187732
-0.007108340313166842   -0.052568151535459906   -0.0015137924509985364
-0.004664193100974657   -0.05256002479285767   -0.0013388908557456498
-0.004743750186967085   -0.04695795544546032   -0.0010986460050677023
-0.007078529500363745   -0.05249374668547716   -0.001459200014054194
-0.004631257225816447   -0.05250517585617597   -0.0013338213496624626
-0.004743750186967085   -0.04695795544546032   -0.0010986460050677023
-0.007920812536340638   -0.04689106031761224   -0.0012178676118760419
-0.007078529500363745   -0.05249374668547716   -0.001459200014054194
-0.007918174038385422   -0.04684429101559531   -0.0011636401484081988
-0.004631257225816447   -0.05250517585617597   -0.0013338213496624626
-0.007042503829536797   -0.052450398017391445   -0.0013982029689129474
-0.007918174038385422   -0.04684429101559531   -0.0011636401484081988
-0.007078529500363745   -0.05249374668547716   -0.001459200014054194
-0.004631257225816447   -0.05250517585617597   -0.0013338213496624626
-0.007918174038385422   -0.04684429101559531   -0.0011636401484081988
-0.004743902346466079   -0.04689785091399544   -0.0010885491058502314
-0.004743750186967085   -0.04695795544546032   -0.0010986460050677023
-0.004631257225816447   -0.05250517585617597   -0.0013338213496624626
-0.007918174038385422   -0.04684429101559531   -0.0011636401484081988
-0.004743750186967085   -0.04695795544546032   -0.0010986460050677023
-0.007078529500363745   -0.05249374668547716   -0.001459200014054194
-0.004631257225816447   -0.05250517585617597   -0.0013338213496624626
-0.004743902346466079   -0.04689785091399544   -0.0010885491058502314
-0.007042503829536797   -0.052450398017391445   -0.0013982029689129474
-0.004602452270889441   -0.052481214347212896   -0.0013226423347831044
-0.004743902346466079   -0.04689785091399544   -0.0010885491058502314
-0.007918174038385422   -0.04684429101559531   -0.0011636401484081988
-0.007042503829536797   -0.052450398017391445   -0.0013982029689129474
-0.007916515922011872   -0.04682131103592155   -0.0011034829795277645
-0.004602452270889441   -0.052481214347212896   -0.0013226423347831044
-0.00700747608147786   -0.05243667177742139   -0.0013309981871254908
-0.007916515922011872   -0.04682131103592155   -0.0011034829795277645
-0.007042503829536797   -0.052450398017391445   -0.0013982029689129474
-0.004602452270889441   -0.052481214347212896   -0.0013226423347831044
-0.007916515922011872   -0.04682131103592155   -0.0011034829795277645
-0.0047483670459141   -0.04686221823836751   -0.0010725484244514581
-0.004743902346466079   -0.04689785091399544   -0.0010885491058502314
-0.004602452270889441   -0.052481214347212896   -0.0013226423347831044
-0.007916515922011872   -0.04682131103592155   -0.0011034829795277645
-0.004743902346466079   -0.04689785091399544   -0.0010885491058502314
-0.007042503829536797   -0.052450398017391445   -0.0013982029689129474
-0.007108340313166842   -0.052568151535459906   -0.0015137924509985364
-0.007918045065646312   -0.046962041658184676   -0.0012659879052284823
-0.009635906019068684   -0.05239052633934003   -0.0016704955932786072
-0.007078529500363745   -0.05249374668547716   -0.001459200014054194
-0.007918045065646312   -0.046962041658184676   -0.0012659879052284823
-0.011191553114791994   -0.04680365506774119   -0.0014065892511343448
-0.009635906019068684   -0.05239052633934003   -0.0016704955932786072
-0.0111876226112518   -0.04674563692779115   -0.0013136886338534096
-0.007078529500363745   -0.05249374668547716   -0.001459200014054194
-0.009596913374638517   -0.05232741347106449   -0.0015597532475677659
-0.0111876226112518   -0.04674563692779115   -0.0013136886338534096
-0.009635906019068684   -0.05239052633934003   -0.0016704955932786072
-0.007078529500363745   -0.05249374668547716   -0.001459200014054194
-0.0111876226112518   -0.04674563692779115   -0.0013136886338534096
-0.007920812536340638   -0.04689106031761224   -0.0012178676118760419
-0.007918045065646312   -0.046962041658184676   -0.0012659879052284823
-0.007078529500363745   -0.05249374668547716   -0.001459200014054194
-0.0111876226112518   -0.04674563692779115   -0.0013136886338534096
-0.007918045065646312   -0.046962041658184676   -0.0012659879052284823
-0.009635906019068684   -0.05239052633934003   -0.0016704955932786072
-0.007078529500363745   -0.05249374668547716   -0.001459200014054194
-0.007920812536340638   -0.04689106031761224   -0.0012178676118760419
-0.009596913374638517   -0.05232741347106449   -0.0015597532475677659
-0.007042503829536797   -0.052450398017391445   -0.0013982029689129474
-0.007920812536340638   -0.04689106031761224   -0.0012178676118760419
-0.0111876226112518   -0.04674563692779115   -0.0013136886338534096
-0.009596913374638517   -0.05232741347106449   -0.0015597532475677659
-0.011160077275358327   -0.04671095971204499   -0.0012156022828508704
-0.007042503829536797   -0.052450398017391445   -0.0013982029689129474
-0.009530781454176664   -0.05229449095582599   -0.0014435928546642736
-0.011160077275358327   -0.04671095971204499   -0.0012156022828508704
-0.009596913374638517   -0.05232741347106449   -0.0015597532475677659
-0.007042503829536797   -0.052450398017391445   -0.0013982029689129474
-0.011160077275358327   -0.04671095971204499   -0.0012156022828508704
-0.007918174038385422   -0.04684429101559531   -0.0011636401484081988
-0.007920812536340638   -0.04689106031761224   -0.0012178676118760419
-0.007042503829536797   -0.052450398017391445   -0.0013982029689129474
-0.011160077275358327   -0.04671095971204499   -0.0012156022828508704
-0.007920812536340638   -0.04689106031761224   -0.0012178676118760419
-0.009596913374638517   -0.05232741347106449   -0.0015597532475677659
-0.007042503829536797   -0.052450398017391445   -0.0013982029689129474
-0.007918174038385422   -0.04684429101559531   -0.0011636401484081988
-0.009530781454176664   -0.05229449095582599   -0.0014435928546642736
-0.00700747608147786   -0.05243667177742139   -0.0013309981871254908
-0.007918174038385422   -0.04684429101559531   -0.0011636401484081988
-0.011160077275358327   -0.04671095971204499   -0.0012156022828508704
-0.009530781454176664   -0.05229449095582599   -0.0014435928546642736
-0.01114168928305589   -0.04670207355087528   -0.001111108396986988
-0.00700747608147786   -0.05243667177742139   -0.0013309981871254908
-0.009477125060113858   -0.05229351218722606   -0.0013203200355768711
-0.01114168928305589   -0.04670207355087528   -0.001111108396986988
-0.009530781454176664   -0.05229449095582599   -0.0014435928546642736
-0.00700747608147786   -0.05243667177742139   -0.0013309981871254908
-0.01114168928305589   -0.04670207355087528   -0.001111108396986988
-0.007916515922011872   -0.04682131103592155   -0.0011034829795277645
-0.007918174038385422   -0.04684429101559531   -0.0011636401484081988
-0.00700747608147786   -0.05243667177742139   -0.0013309981871254908
-0.01114168928305589   -0.04670207355087528   -0.001111108396986988
-0.007918174038385422   -0.04684429101559531   -0.0011636401484081988
-0.009530781454176664   -0.05229449095582599   -0.0014435928546642736
-0.009635906019068684   -0.05239052633934003   -0.0016704955932786072
-0.011191553114791994   -0.04680365506774119   -0.0014065892511343448
-0.012583506219020971   -0.052134606454619155   -0.0018167435844131667
-0.009596913374638517   -0.05232741347106449   -0.0015597532475677659
-0.011191553114791994   -0.04680365506774119   -0.0014065892511343448
-0.01484805320289936   -0.04658519614711918   -0.0015334506079962866
-0.012583506219020971   -0.052134606454619155   -0.0018167435844131667
-0.01471087905342833   -0.04652821861801213   -0.0013912860392393306
-0.009596913374638517   -0.05232741347106449   -0.0015597532475677659
-0.01238329232842488   -0.052068720853124514   -0.0016433710936016204
-0.01471087905342833   -0.04652821861801213   -0.0013912860392393306
-0.012583506219020971   -0.052134606454619155   -0.0018167435844131667
-0.009596913374638517   -0.05232741347106449   -0.0015597532475677659
-0.01471087905342833   -0.04652821861801213   -0.0013912860392393306
-0.0111876226112518   -0.04674563692779115   -0.0013136886338534096
-0.011191553114791994   -0.04680365506774119   -0.0014065892511343448
-0.009596913374638517   -0.05232741347106449   -0.0015597532475677659
-0.01471087905342833   -0.04652821861801213   -0.0013912860392393306
-0.011191553114791994   -0.04680365506774119   -0.0014065892511343448
-0.012583506219020971   -0.052134606454619155   -0.0018167435844131667
-0.009596913374638517   -0.05232741347106449   -0.0015597532475677659
-0.0111876226112518   -0.04674563692779115   -0.0013136886338534096
-0.01238329232842488   -0.052068720853124514   -0.0016433710936016204
-0.009530781454176664   -0.05229449095582599   -0.0014435928546642736
-0.0111876226112518   -0.04674563692779115   -0.0013136886338534096
-0.01471087905342833   -0.04652821861801213   -0.0013912860392393306
-0.01238329232842488   -0.052068720853124514   -0.0016433710936016204
-0.014593621865449486   -0.04649795478089086   -0.0012403999100965549
-0.009530781454176664   -0.05229449095582599   -0.0014435928546642736
-0.012209617148911396   -0.05203862922019037   -0.0014610583752179122
-0.014593621865449486   -0.04649795478089086   -0.0012403999100965549
-0.01238329232842488   -0.052068720853124514   -0.0016433710936016204
-0.009530781454176664   -0.05229449095582599   -0.0014435928546642736
-0.014593621865449486   -0.04649795478089086   -0.0012403999100965549
-0.011160077275358327   -0.04671095971204499   -0.0012156022828508704
-0.0111876226112518   -0.04674563692779115   -0.0013136886338534096
-0.009530781454176664   -0.05229449095582599   -0.0014435928546642736
-0.014593621865449486   -0.04649795478089086   -0.0012403999100965549
-0.0111876226112518   -0.04674563692779115   -0.0013136886338534096
-0.01238329232842488   -0.052068720853124514   -0.0016433710936016204
-0.009530781454176664   -0.05229449095582599   -0.0014435928546642736
-0.011160077275358327   -0.04671095971204499   -0.0012156022828508704
-0.012209617148911396   -0.05203862922019037   -0.0014610583752179122
-0.009477125060113858   -0.05229351218722606   -0.0013203200355768711
-0.011160077275358327   -0.04671095971204499   -0.0012156022828508704
-0.014593621865449486   -0.04649795478089086   -0.0012403999100965549
-0.012209617148911396   -0.05203862922019037   -0.0014610583752179122
-0.014424478397062063   -0.046508578124964554   -0.0010819902258190081
-0.009477125060113858   -0.05229351218722606   -0.0013203200355768711
-0.011975670333493347   -0.05205733790619618   -0.0012709658503350233
-0.014424478397062063   -0.046508578124964554   -0.0010819902258190081
-0.012209617148911396   -0.05203862922019037   -0.0014610583752179122
-0.009477125060113858   -0.05229351218722606   -0.0013203200355768711
-0.014424478397062063   -0.046508578124964554   -0.0010819902258190081
-0.01114168928305589   -0.04670207355087528   -0.001111108396986988
-0.011160077275358327   -0.04671095971204499   -0.0012156022828508704
-0.009477125060113858   -0.05229351218722606   -0.0013203200355768711
-0.014424478397062063   -0.046508578124964554   -0.0010819902258190081
-0.011160077275358327   -0.04671095971204499   -0.0012156022828508704
-0.012209617148911396   -0.05203862922019037   -0.0014610583752179122
0.0018411327660402491   -0.046958522831762335   -0.0006892889441995571
0.002914553137825323   -0.04029259195451702   -0.00045926444850346643
-0.0015140324595253973   -0.04704196818654652   -0.0009158352748536923
0.0019393457860642973   -0.046840777521524345   -0.0007887745815147996
0.002914553137825323   -0.04029259195451702   -0.00045926444850346643
-0.001068487702124295   -0.04033380410616626   -0.0006723900364965279
-0.0015140324595253973   -0.04704196818654652   -0.0009158352748536923
-0.0010870631348923654   -0.04023627748777968   -0.0006945300419008015
0.0019393457860642973   -0.046840777521524345   -0.0007887745815147996
-0.0015048729961691983   -0.04694199418230101   -0.0009567630626810535
-0.0010870631348923654   -0.04023627748777968   -0.0006945300419008015
-0.0015140324595253973   -0.04704196818654652   -0.0009158352748536923
0.0019393457860642973   -0.046840777521524345   -0.0007887745815147996
-0.0010870631348923654   -0.04023627748777968   -0.0006945300419008015
0.002953693554982011   -0.0401791495272111   -0.0005246005274060914
0.002914553137825323   -0.04029259195451702   -0.00045926444850346643
0.0019393457860642973   -0.046840777521524345   -0.0007887745815147996
-0.0010870631348923654   -0.04023627748777968   -0.0006945300419008015
0.002914553137825323   -0.04029259195451702   -0.00045926444850346643
-0.0015140324595253973   -0.04704196818654652   -0.0009158352748536923
0.0019393457860642973   -0.046840777521524345   -0.0007887745815147996
0.002953693554982011   -0.0401791495272111   -0.0005246005274060914
-0.0015048729961691983   -0.04694199418230101   -0.0009567630626810535
0.0020022132872319714   -0.046763778356382464   -0.0008794236264174661
0.002953693554982011   -0.0401791495272111   -0.0005246005274060914
-0.0010870631348923654   -0.04023627748777968   -0.0006945300419008015
-0.0015048729961691983   -0.04694199418230101   -0.0009567630626810535
-0.001106565768581071   -0.04015931914032391   -0.0007110811104001258
0.0020022132872319714   -0.046763778356382464   -0.0008794236264174661
-0.0014932082302367316   -0.04686973319912302   -0.000991439007330904
-0.001106565768581071   -0.04015931914032391   -0.0007110811104001258
-0.0015048729961691983   -0.04694199418230101   -0.0009567630626810535
0.0020022132872319714   -0.046763778356382464   -0.0008794236264174661
-0.001106565768581071   -0.04015931914032391   -0.0007110811104001258
0.002965833758664281   -0.040096722622161476   -0.0005816893261331027
0.002953693554982011   -0.0401791495272111   -0.0005246005274060914
0.0020022132872319714   -0.046763778356382464   -0.0008794236264174661
-0.001106565768581071   -0.04015931914032391   -0.0007110811104001258
0.002953693554982011   -0.0401791495272111   -0.0005246005274060914
-0.0015048729961691983   -0.04694199418230101   -0.0009567630626810535
0.0020022132872319714   -0.046763778356382464   -0.0008794236264174661
0.002965833758664281   -0.040096722622161476   -0.0005816893261331027
-0.0014932082302367316   -0.04686973319912302   -0.000991439007330904
0.0020668765298049135   -0.046712521577078024   -0.0009614230024157335
0.002965833758664281   -0.040096722622161476   -0.0005816893261331027
-0.001106565768581071   -0.04015931914032391   -0.0007110811104001258
-0.0014932082302367316   -0.04686973319912302   -0.000991439007330904
-0.0011399222633152405   -0.040100497854721744   -0.0007222317840154068
0.0020668765298049135   -0.046712521577078024   -0.0009614230024157335
-0.0014986191586439537   -0.046822860898054805   -0.0010203188448724215
-0.0011399222633152405   -0.040100497854721744   -0.0007222317840154068
-0.0014932082302367316   -0.04686973319912302   -0.000991439007330904
0.0020668765298049135   -0.046712521577078024   -0.0009614230024157335
-0.0011399222633152405   -0.040100497854721744   -0.0007222317840154068
0.002972931778163542   -0.04003070589239092   -0.0006309221203193144
0.002965833758664281   -0.040096722622161476   -0.0005816893261331027
0.0020668765298049135   -0.046712521577078024   -0.0009614230024157335
-0.0011399222633152405   -0.040100497854721744   -0.0007222317840154068
0.002965833758664281   -0.040096722622161476   -0.0005816893261331027
-0.0014932082302367316   -0.04686973319912302   -0.000991439007330904
-0.0015140324595253973   -0.04704196818654652   -0.0009158352748536923
-0.001068487702124295   -0.04033380410616626   -0.0006723900364965279
-0.004743378639887088   -0.047042487888338466   -0.0011025135703187732
-0.0015048729961691983   -0.04694199418230101   -0.0009567630626810535
-0.001068487702124295   -0.04033380410616626   -0.0006723900364965279
-0.0048868663931764264   -0.04031285422238883   -0.000847700666602013
-0.004743378639887088   -0.047042487888338466   -0.0011025135703187732
-0.0049127299004487245   -0.040231421648495906   -0.000837412328842869
-0.0015048729961691983   -0.04694199418230101   -0.0009567630626810535
-0.004743750186967085   -0.04695795544546032   -0.0010986460050677023
-0.0049127299004487245   -0.040231421648495906   -0.000837412328842869
-0.004743378639887088   -0.047042487888338466   -0.0011025135703187732
-0.0015048729961691983   -0.04694199418230101   -0.0009567630626810535
-0.0049127299004487245   -0.040231421648495906   -0.000837412328842869
-0.0010870631348923654   -0.04023627748777968   -0.0006945300419008015
-0.001068487702124295   -0.04033380410616626   -0.0006723900364965279
-0.0015048729961691983   -0.04694199418230101   -0.0009567630626810535
-0.0049127299004487245   -0.040231421648495906   -0.000837412328842869
-0.001068487702124295   -0.04033380410616626   -0.0006723900364965279
-0.004743378639887088   -0.047042487888338466   -0.0011025135703187732
-0.0015048729961691983   -0.04694199418230101   -0.0009567630626810535
-0.0010870631348923654   -0.04023627748777968   -0.0006945300419008015
-0.004743750186967085   -0.04695795544546032   -0.0010986460050677023
-0.0014932082302367316   -0.04686973319912302   -0.000991439007330904
-0.0010870631348923654   -0.04023627748777968   -0.0006945300419008015
-0.0049127299004487245   -0.040231421648495906   -0.000837412328842869
-0.004743750186967085   -0.04695795544546032   -0.0010986460050677023
-0.00493894953657473   -0.040167618436460294   -0.0008213685643461966
-0.0014932082302367316   -0.04686973319912302   -0.000991439007330904
-0.004743902346466079   -0.04689785091399544   -0.0010885491058502314
-0.00493894953657473   -0.040167618436460294   -0.0008213685643461966
-0.004743750186967085   -0.04695795544546032   -0.0010986460050677023
-0.0014932082302367316   -0.04686973319912302   -0.000991439007330904
-0.00493894953657473   -0.040167618436460294   -0.0008213685643461966
-0.001106565768581071   -0.04015931914032391   -0.0007110811104001258
-0.0010870631348923654   -0.04023627748777968   -0.0006945300419008015
-0.0014932082302367316   -0.04686973319912302   -0.000991439007330904
-0.00493894953657473   -0.040167618436460294   -0.0008213685643461966
-0.0010870631348923654   -0.04023627748777968   -0.0006945300419008015
-0.004743750186967085   -0.04695795544546032   -0.0010986460050677023
-0.0014932082302367316   -0.04686973319912302   -0.000991439007330904
-0.001106565768581071   -0.04015931914032391   -0.0007110811104001258
-0.004743902346466079   -0.04689785091399544   -0.0010885491058502314
-0.0014986191586439537   -0.046822860898054805   -0.0010203188448724215
-0.001106565768581071   -0.04015931914032391   -0.0007110811104001258
-0.00493894953657473   -0.040167618436460294   -0.0008213685643461966
-0.004743902346466079   -0.04689785091399544   -0.0010885491058502314
-0.0049692655935131115   -0.04012174305651568   -0.0007998490626952801
-0.0014986191586439537   -0.046822860898054805   -0.0010203188448724215
-0.0047483670459141   -0.04686221823836751   -0.0010725484244514581
-0.0049692655935131115   -0.04012174305651568   -0.0007998490626952801
-0.004743902346466079   -0.04689785091399544   -0.0010885491058502314
-0.0014986191586439537   -0.046822860898054805   -0.0010203188448724215
-0.0049692655935131115   -0.04012174305651568   -0.0007998490626952801
-0.0011399222633152405   -0.040100497854721744   -0.0007222317840154068
-0.001106565768581071   -0.04015931914032391   -0.0007110811104001258
-0.0014986191586439537   -0.046822860898054805   -0.0010203188448724215
-0.0049692655935131115   -0.04012174305651568   -0.0007998490626952801
-0.001106565768581071   -0.04015931914032391   -0.0007110811104001258
-0.004743902346466079   -0.04689785091399544   -0.0010885491058502314
-0.004743378639887088   -0.047042487888338466   -0.0011025135703187732
-0.0048868663931764264   -0.04031285422238883   -0.000847700666602013
-0.007918045065646312   -0.046962041658184676   -0.0012659879052284823
-0.004743750186967085   -0.04695795544546032   -0.0010986460050677023
-0.0048868663931764264   -0.04031285422238883   -0.000847700666602013
-0.00864080274275519   -0.040233640165065705   -0.000997617243709818
-0.007918045065646312   -0.046962041658184676   -0.0012659879052284823
-0.008668728375395637   -0.040166816479244666   -0.0009550618007978631
-0.004743750186967085   -0.04695795544546032   -0.0010986460050677023
-0.007920812536340638   -0.04689106031761224   -0.0012178676118760419
-0.008668728375395637   -0.040166816479244666   -0.0009550618007978631
-0.007918045065646312   -0.046962041658184676   -0.0012659879052284823
-0.004743750186967085   -0.04695795544546032   -0.0010986460050677023
-0.008668728375395637   -0.040166816479244666   -0.0009550618007978631
-0.0049127299004487245   -0.040231421648495906   -0.000837412328842869
-0.0048868663931764264   -0.04031285422238883   -0.000847700666602013
-0.004743750186967085   -0.04695795544546032   -0.0010986460050677023
-0.008668728375395637   -0.040166816479244666   -0.0009550618007978631
-0.0048868663931764264   -0.04031285422238883   -0.000847700666602013
-0.007918045065646312   -0.046962041658184676   -0.0012659879052284823
-0.004743750186967085   -0.04695795544546032   -0.0010986460050677023
-0.0049127299004487245   -0.040231421648495906   -0.000837412328842869
-0.007920812536340638   -0.04689106031761224   -0.0012178676118760419
-0.004743902346466079   -0.04689785091399544   -0.0010885491058502314
-0.0049127299004487245   -0.040231421648495906   -0.000837412328842869
-0.008668728375395637   -0.040166816479244666   -0.0009550618007978631
-0.007920812536340638   -0.04689106031761224   -0.0012178676118760419
-0.008691849840214212   -0.04011745408122498   -0.0009068537697829695
-0.004743902346466079   -0.04689785091399544   -0.0010885491058502314
-0.007918174038385422   -0.04684429101559531   -0.0011636401484081988
-0.008691849840214212   -0.04011745408122498   -0.0009068537697829695
-0.007920812536340638   -0.04689106031761224   -0.0012178676118760419
-0.004743902346466079   -0.04689785091399544   -0.0010885491058502314
-0.008691849840214212   -0.04011745408122498   -0.0009068537697829695
-0.00493894953657473   -0.040167618436460294   -0.0008213685643461966
-0.0049127299004487245   -0.040231421648495906   -0.000837412328842869
-0.004743902346466079   -0.04689785091399544   -0.0010885491058502314
-0.008691849840214212   -0.04011745408122498   -0.0009068537697829695
-0.0049127299004487245   -0.040231421648495906   -0.000837412328842869
-0.007920812536340638   -0.04689106031761224   -0.0012178676118760419
-0.004743902346466079   -0.04689785091399544   -0.0010885491058502314
-0.00493894953657473   -0.040167618436460294   -0.0008213685643461966
-0.007918174038385422   -0.04684429101559531   -0.0011636401484081988
-0.0047483670459141   -0.04686221823836751   -0.0010725484244514581
-0.00493894953657473   -0.040167618436460294   -0.0008213685643461966
-0.008691849840214212   -0.04011745408122498   -0.0009068537697829695
-0.007918174038385422   -0.04684429101559531   -0.0011636401484081988
-0.0087156485382656   -0.04008547907362328   -0.0008531588735626134
-0.0047483670459141   -0.04686221823836751   -0.0010725484244514581
-0.007916515922011872   -0.04682131103592155   -0.0011034829795277645
-0.0087156485382656   -0.04008547907362328   -0.0008531588735626134
-0.007918174038385422   -0.04684429101559531   -0.0011636401484081988
-0.0047483670459141   -0.04686221823836751   -0.0010725484244514581
-0.0087156485382656   -0.04008547907362328   -0.0008531588735626134
-0.0049692655935131115   -0.04012174305651568   -0.0007998490626952801
-0.00493894953657473   -0.040167618436460294   -0.0008213685643461966
-0.0047483670459141   -0.04686221823836751   -0.0010725484244514581
-0.0087156485382656   -0.04008547907362328   -0.0008531588735626134
-0.00493894953657473   -0.040167618436460294   -0.0008213685643461966
-0.007918174038385422   -0.04684429101559531   -0.0011636401484081988
-0.007918045065646312   -0.046962041658184676   -0.0012659879052284823
-0.00864080274275519   -0.040233640165065705   -0.000997617243709818
-0.011191553114791994   -0.04680365506774119   -0.0014065892511343448
-0.007920812536340638   -0.04689106031761224   -0.0012178676118760419
-0.00864080274275519   -0.040233640165065705   -0.000997617243709818
-0.012484014564974171   -0.04009773256886642   -0.0011227295820664335
-0.011191553114791994   -0.04680365506774119   -0.0014065892511343448
-0.012507080236344345   -0.04004516950365021   -0.0010474656591094769
-0.007920812536340638   -0.04689106031761224   -0.0012178676118760419
-0.0111876226112518   -0.04674563692779115   -0.0013136886338534096
-0.012507080236344345   -0.04004516950365021   -0.0010474656591094769
-0.011191553114791994   -0.04680365506774119   -0.0014065892511343448
-0.007920812536340638   -0.04689106031761224   -0.0012178676118760419
-0.012507080236344345   -0.04004516950365021   -0.0010474656591094769
-0.008668728375395637   -0.040166816479244666   -0.0009550618007978631
-0.00864080274275519   -0.040233640165065705   -0.000997617243709818
-0.007920812536340638   -0.04689106031761224   -0.0012178676118760419
-0.012507080236344345   -0.04004516950365021   -0.0010474656591094769
-0.00864080274275519   -0.040233640165065705   -0.000997617243709818
-0.011191553114791994   -0.04680365506774119   -0.0014065892511343448
-0.007920812536340638   -0.04689106031761224   -0.0012178676118760419
-0.008668728375395637   -0.040166816479244666   -0.0009550618007978631
-0.0111876226112518   -0.04674563692779115   -0.0013136886338534096
-0.007918174038385422   -0.04684429101559531   -0.0011636401484081988
-0.008668728375395637   -0.040166816479244666   -0.0009550618007978631
-0.012507080236344345   -0.04004516950365021   -0.0010474656591094769
-0.0111876226112518   -0.04674563692779115   -0.0013136886338534096
-0.012509908400835082   -0.04000901360514154   -0.0009673309678359771
-0.007918174038385422   -0.04684429101559531   -0.0011636401484081988
-0.011160077275358327   -0.04671095971204499   -0.0012156022828508704
-0.012509908400835082   -0.04000901360514154   -0.0009673309678359771
-0.0111876226112518   -0.04674563692779115   -0.0013136886338534096
-0.007918174038385422   -0.04684429101559531   -0.0011636401484081988
-0.012509908400835082   -0.04000901360514154   -0.0009673309678359771
-0.008691849840214212   -0.04011745408122498   -0.0009068537697829695
-0.008668728375395637   -0.040166816479244666   -0.0009550618007978631
-0.007918174038385422   -0.04684429101559531   -0.0011636401484081988
-0.012509908400835082   -0.04000901360514154   -0.0009673309678359771
-0.008668728375395637   -0.040166816479244666   -0.0009550618007978631
-0.0111876226112518   -0.04674563692779115   -0.0013136886338534096
-0.007918174038385422   -0.04684429101559531   -0.0011636401484081988
-0.008691849840214212   -0.04011745408122498   -0.0009068537697829695
-0.011160077275358327   -0.04671095971204499   -0.0012156022828508704
-0.007916515922011872   -0.04682131103592155   -0.0011034829795277645
-0.008691849840214212   -0.04011745408122498   -0.0009068537697829695
-0.012509908400835082   -0.04000901360514154   -0.0009673309678359771
-0.011160077275358327   -0.04671095971204499   -0.0012156022828508704
-0.012518511266678653   -0.039991812787610326   -0.0008812928230288154
-0.007916515922011872   -0.04682131103592155   -0.0011034829795277645
-0.01114168928305589   -0.04670207355087528   -0.001111108396986988
-0.012518511266678653   -0.039991812787610326   -0.0008812928230288154
-0.011160077275358327   -0.04671095971204499   -0.0012156022828508704
-0.007916515922011872   -0.04682131103592155   -0.0011034829795277645
-0.012518511266678653   -0.039991812787610326   -0.0008812928230288154
-0.0087156485382656   -0.04008547907362328   -0.0008531588735626134
-0.008691849840214212   -0.04011745408122498   -0.0009068537697829695
-0.007916515922011872   -0.04682131103592155   -0.0011034829795277645
-0.012518511266678653   -0.039991812787610326   -0.0008812928230288154
-0.008691849840214212   -0.04011745408122498   -0.0009068537697829695
-0.011160077275358327   -0.04671095971204499   -0.0012156022828508704
-0.011191553114791994   -0.04680365506774119   -0.0014065892511343448
-0.012484014564974171   -0.04009773256886642   -0.0011227295820664335
-0.01484805320289936   -0.04658519614711918   -0.0015334506079962866
-0.0111876226112518   -0.04674563692779115   -0.0013136886338534096
-0.012484014564974171   -0.04009773256886642   -0.0011227295820664335
-0.016675187348293784   -0.03991930014917433   -0.0012296141665003805
-0.01484805320289936   -0.04658519614711918   -0.0015334506079962866
-0.01659449355801934   -0.03987128398310123   -0.0011197154516961742
-0.0111876226112518   -0.04674563692779115   -0.0013136886338534096
-0.01471087905342833   -0.04652821861801213   -0.0013912860392393306
-0.01659449355801934   -0.03987128398310123   -0.0011197154516961742
-0.01484805320289936   -0.04658519614711918   -0.0015334506079962866
-0.0111876226112518   -0.04674563692779115   -0.0013136886338534096
-0.01659449355801934   -0.03987128398310123   -0.0011197154516961742
-0.012507080236344345   -0.04004516950365021   -0.0010474656591094769
-0.012484014564974171   -0.04009773256886642   -0.0011227295820664335
-0.0111876226112518   -0.04674563692779115   -0.0013136886338534096
-0.01659449355801934   -0.03987128398310123   -0.0011197154516961742
-0.012484014564974171   -0.04009773256886642   -0.0011227295820664335
-0.01484805320289936   -0.04658519614711918   -0.0015334506079962866
-0.0111876226112518   -0.04674563692779115   -0.0013136886338534096
-0.012507080236344345   -0.04004516950365021   -0.0010474656591094769
-0.01471087905342833   -0.04652821861801213   -0.0013912860392393306
-0.011160077275358327   -0.04671095971204499   -0.0012156022828508704
-0.012507080236344345   -0.04004516950365021   -0.0010474656591094769
-0.01659449355801934   -0.03987128398310123   -0.0011197154516961742
-0.01471087905342833   -0.04652821861801213   -0.0013912860392393306
-0.016526491147689955   -0.03984072923104962   -0.0010013094852814408
-0.011160077275358327   -0.04671095971204499   -0.0012156022828508704
-0.014593621865449486   -0.04649795478089086   -0.0012403999100965549
-0.016526491147689955   -0.03984072923104962   -0.0010013094852814408
-0.01471087905342833   -0.04652821861801213   -0.0013912860392393306
-0.011160077275358327   -0.04671095971204499   -0.0012156022828508704
-0.016526491147689955   -0.03984072923104962   -0.0010013094852814408
-0.012509908400835082   -0.04000901360514154   -0.0009673309678359771
-0.012507080236344345   -0.04004516950365021   -0.0010474656591094769
-0.011160077275358327   -0.04671095971204499   -0.0012156022828508704
-0.016526491147689955   -0.03984072923104962   -0.0010013094852814408
-0.012507080236344345   -0.04004516950365021   -0.0010474656591094769
-0.01471087905342833   -0.04652821861801213   -0.0013912860392393306
-0.011160077275358327   -0.04671095971204499   -0.0012156022828508704
-0.012509908400835082   -0.04000901360514154   -0.0009673309678359771
-0.014593621865449486   -0.04649795478089086   -0.0012403999100965549
-0.01114168928305589   -0.04670207355087528   -0.001111108396986988
-0.012509908400835082   -0.04000901360514154   -0.0009673309678359771
-0.016526491147689955   -0.03984072923104962   -0.0010013094852814408
-0.014593621865449486   -0.04649795478089086   -0.0012403999100965549
-0.01641446275658807   -0.039842358271172496   -0.0008754577497672913
-0.01114168928305589   -0.04670207355087528   -0.001111108396986988
-0.014424478397062063   -0.046508578124964554   -0.0010819902258190081
-0.01641446275658807   -0.039842358271172496   -0.0008754577497672913
-0.014593621865449486   -0.04649795478089086   -0.0012403999100965549
-0.01114168928305589   -0.04670207355087528   -0.001111108396986988
-0.01641446275658807   -0.039842358271172496   -0.0008754577497672913
-0.012518511266678653   -0.039991812787610326   -0.0008812928230288154
-0.012509908400835082   -0.04000901360514154   -0.0009673309678359771
-0.01114168928305589   -0.04670207355087528   -0.001111108396986988
-0.01641446275658807   -0.039842358271172496   -0.0008754577497672913
-0.012509908400835082   -0.04000901360514154   -0.0009673309678359771
-0.014593621865449486   -0.04649795478089086   -0.0012403999100965549
0.002914553137825323   -0.04029259195451702   -0.00045926444850346643
0.003512993836731837   -0.032807838243514444   -0.0002342198810512422
-0.001068487702124295   -0.04033380410616626   -0.0006723900364965279
0.002953693554982011   -0.0401791495272111   -0.0005246005274060914
0.003512993836731837   -0.032807838243514444   -0.0002342198810512422
-0.0009111053734121306   -0.032807191542608305   -0.00043178976691789185
-0.001068487702124295   -0.04033380410616626   -0.0006723900364965279
-0.0009504630736135561   -0.0327128853914469   -0.0004348746157334432
0.002953693554982011   -0.0401791495272111   -0.0005246005274060914
-0.0010870631348923654   -0.04023627748777968   -0.0006945300419008015
-0.0009504630736135561   -0.0327128853914469   -0.0004348746157334432
-0.001068487702124295   -0.04033380410616626   -0.0006723900364965279
0.002953693554982011   -0.0401791495272111   -0.0005246005274060914
-0.0009504630736135561   -0.0327128853914469   -0.0004348746157334432
0.003500738022069032   -0.03269925697482117   -0.0002657383224462228
0.003512993836731837   -0.032807838243514444   -0.0002342198810512422
0.002953693554982011   -0.0401791495272111   -0.0005246005274060914
-0.0009504630736135561   -0.0327128853914469   -0.0004348746157334432
0.003512993836731837   -0.032807838243514444   -0.0002342198810512422
-0.001068487702124295   -0.04033380410616626   -0.0006723900364965279
0.002953693554982011   -0.0401791495272111   -0.0005246005274060914
0.003500738022069032   -0.03269925697482117   -0.0002657383224462228
-0.0010870631348923654   -0.04023627748777968   -0.0006945300419008015
0.002965833758664281   -0.040096722622161476   -0.0005816893261331027
0.003500738022069032   -0.03269925697482117   -0.0002657383224462228
-0.0009504630736135561   -0.0327128853914469   -0.0004348746157334432
-0.0010870631348923654   -0.04023627748777968   -0.0006945300419008015
-0.0009942005373282444   -0.03263186900159205   -0.0004329959960491054
0.002965833758664281   -0.040096722622161476   -0.0005816893261331027
-0.001106565768581071   -0.04015931914032391   -0.0007110811104001258
-0.0009942005373282444   -0.03263186900159205   -0.0004329959960491054
-0.0010870631348923654   -0.04023627748777968   -0.0006945300419008015
0.002965833758664281   -0.040096722622161476   -0.0005816893261331027
-0.0009942005373282444   -0.03263186900159205   -0.0004329959960491054
0.0034693446779704607   -0.032612100323254845   -0.00028930114592355265
0.003500738022069032   -0.03269925697482117   -0.0002657383224462228
0.002965833758664281   -0.040096722622161476   -0.0005816893261331027
-0.0009942005373282444   -0.03263186900159205   -0.0004329959960491054
0.003500738022069032   -0.03269925697482117   -0.0002657383224462228
-0.0010870631348923654   -0.04023627748777968   -0.0006945300419008015
0.002965833758664281   -0.040096722622161476   -0.0005816893261331027
0.0034693446779704607   -0.032612100323254845   -0.00028930114592355265
-0.001106565768581071   -0.04015931914032391   -0.0007110811104001258
0.002972931778163542   -0.04003070589239092   -0.0006309221203193144
0.0034693446779704607   -0.032612100323254845   -0.00028930114592355265
-0.0009942005373282444   -0.03263186900159205   -0.0004329959960491054
-0.001106565768581071   -0.04015931914032391   -0.0007110811104001258
-0.001048562129750282   -0.03256203116892567   -0.00042595823073750423
0.002972931778163542   -0.04003070589239092   -0.0006309221203193144
-0.0011399222633152405   -0.040100497854721744   -0.0007222317840154068
-0.001048562129750282   -0.03256203116892567   -0.00042595823073750423
-0.001106565768581071   -0.04015931914032391   -0.0007110811104001258
0.002972931778163542   -0.04003070589239092   -0.0006309221203193144
-0.001048562129750282   -0.03256203116892567   -0.00042595823073750423
0.003425440651173444   -0.03253206214212912   -0.0003054640120604154
0.0034693446779704607   -0.032612100323254845   -0.00028930114592355265
0.002972931778163542   -0.04003070589239092   -0.0006309221203193144
-0.001048562129750282   -0.03256203116892567   -0.00042595823073750423
0.0034693446779704607   -0.032612100323254845   -0.00028930114592355265
-0.001106565768581071   -0.04015931914032391   -0.0007110811104001258
-0.001068487702124295   -0.04033380410616626   -0.0006723900364965279
-0.0009111053734121306   -0.032807191542608305   -0.00043178976691789185
-0.0048868663931764264   -0.04031285422238883   -0.000847700666602013
-0.0010870631348923654   -0.04023627748777968   -0.0006945300419008015
-0.0009111053734121306   -0.032807191542608305   -0.00043178976691789185
-0.005131155908822948   -0.03276725808915741   -0.0005946302639397086
-0.0048868663931764264   -0.04031285422238883   -0.000847700666602013
-0.00517528407045704   -0.03268906347929887   -0.0005773745572716931
-0.0010870631348923654   -0.04023627748777968   -0.0006945300419008015
-0.0049127299004487245   -0.040231421648495906   -0.000837412328842869
-0.00517528407045704   -0.03268906347929887   -0.0005773745572716931
-0.0048868663931764264   -0.04031285422238883   -0.000847700666602013
-0.0010870631348923654   -0.04023627748777968   -0.0006945300419008015
-0.00517528407045704   -0.03268906347929887   -0.0005773745572716931
-0.0009504630736135561   -0.0327128853914469   -0.0004348746157334432
-0.0009111053734121306   -0.032807191542608305   -0.00043178976691789185
-0.0010870631348923654   -0.04023627748777968   -0.0006945300419008015
-0.00517528407045704   -0.03268906347929887   -0.0005773745572716931
-0.0009111053734121306   -0.032807191542608305   -0.00043178976691789185
-0.0048868663931764264   -0.04031285422238883   -0.000847700666602013
-0.0010870631348923654   -0.04023627748777968   -0.0006945300419008015
-0.0009504630736135561   -0.0327128853914469   -0.0004348746157334432
-0.0049127299004487245   -0.040231421648495906   -0.000837412328842869
-0.001106565768581071   -0.04015931914032391   -0.0007110811104001258
-0.0009504630736135561   -0.0327128853914469   -0.0004348746157334432
-0.00517528407045704   -0.03268906347929887   -0.0005773745572716931
-0.0049127299004487245   -0.040231421648495906   -0.000837412328842869
-0.005220305042684851   -0.03262168712553801   -0.0005549467588437532
-0.001106565768581071   -0.04015931914032391   -0.0007110811104001258
-0.00493894953657473   -0.040167618436460294   -0.0008213685643461966
-0.005220305042684851   -0.03262168712553801   -0.0005549467588437532
-0.0049127299004487245   -0.040231421648495906   -0.000837412328842869
-0.001106565768581071   -0.04015931914032391   -0.0007110811104001258
-0.005220305042684851   -0.03262168712553801   -0.0005549467588437532
-0.0009942005373282444   -0.03263186900159205   -0.0004329959960491054
-0.0009504630736135561   -0.0327128853914469   -0.0004348746157334432
-0.001106565768581071   -0.04015931914032391   -0.0007110811104001258
-0.005220305042684851   -0.03262168712553801   -0.0005549467588437532
-0.0009504630736135561   -0.0327128853914469   -0.0004348746157334432
-0.0049127299004487245   -0.040231421648495906   -0.000837412328842869
-0.001106565768581071   -0.04015931914032391   -0.0007110811104001258
-0.0009942005373282444   -0.03263186900159205   -0.0004329959960491054
-0.00493894953657473   -0.040167618436460294   -0.0008213685643461966
-0.0011399222633152405   -0.040100497854721744   -0.0007222317840154068
-0.0009942005373282444   -0.03263186900159205   -0.0004329959960491054
-0.005220305042684851   -0.03262168712553801   -0.0005549467588437532
-0.00493894953657473   -0.040167618436460294   -0.0008213685643461966
-0.00526914574043216   -0.032565770646964184   -0.000527591511533849
-0.0011399222633152405   -0.040100497854721744   -0.0007222317840154068
-0.0049692655935131115   -0.04012174305651568   -0.0007998490626952801
-0.00526914574043216   -0.032565770646964184   -0.000527591511533849
-0.00493894953657473   -0.040167618436460294   -0.0008213685643461966
-0.0011399222633152405   -0.040100497854721744   -0.0007222317840154068
-0.00526914574043216   -0.032565770646964184   -0.000527591511533849
-0.001048562129750282   -0.03256203116892567   -0.00042595823073750423
-0.0009942005373282444   -0.03263186900159205   -0.0004329959960491054
-0.0011399222633152405   -0.040100497854721744   -0.0007222317840154068
-0.00526914574043216   -0.032565770646964184   -0.000527591511533849
-0.0009942005373282444   -0.03263186900159205   -0.0004329959960491054
-0.00493894953657473   -0.040167618436460294   -0.0008213685643461966
-0.0048868663931764264   -0.04031285422238883   -0.000847700666602013
-0.005131155908822948   -0.03276725808915741   -0.0005946302639397086
-0.00864080274275519   -0.040233640165065705   -0.000997617243709818
-0.0049127299004487245   -0.040231421648495906   -0.000837412328842869
-0.005131155908822948   -0.03276725808915741   -0.0005946302639397086
-0.009279863841181634   -0.03269253913900543   -0.0007318882329888993
-0.00864080274275519   -0.040233640165065705   -0.000997617243709818
-0.009325321246656495   -0.03262918346395483   -0.0006943350645566932
-0.0049127299004487245   -0.040231421648495906   -0.000837412328842869
-0.008668728375395637   -0.040166816479244666   -0.0009550618007978631
-0.009325321246656495   -0.03262918346395483   -0.0006943350645566932
-0.00864080274275519   -0.040233640165065705   -0.000997617243709818
-0.0049127299004487245   -0.040231421648495906   -0.000837412328842869
-0.009325321246656495   -0.03262918346395483   -0.0006943350645566932
-0.00517528407045704   -0.03268906347929887   -0.0005773745572716931
-0.005131155908822948   -0.03276725808915741   -0.0005946302639397086
-0.0049127299004487245   -0.040231421648495906   -0.000837412328842869
-0.009325321246656495   -0.03262918346395483   -0.0006943350645566932
-0.005131155908822948   -0.03276725808915741   -0.0005946302639397086
-0.00864080274275519   -0.040233640165065705   -0.000997617243709818
-0.0049127299004487245   -0.040231421648495906   -0.000837412328842869
-0.00517528407045704   -0.03268906347929887   -0.0005773745572716931
-0.008668728375395637   -0.040166816479244666   -0.0009550618007978631
-0.00493894953657473   -0.040167618436460294   -0.0008213685643461966
-0.00517528407045704   -0.03268906347929887   -0.0005773745572716931
-0.009325321246656495   -0.03262918346395483   -0.0006943350645566932
-0.008668728375395637   -0.040166816479244666   -0.0009550618007978631
-0.009366546592130036   -0.032576569629817594   -0.0006517310255413899
-0.00493894953657473   -0.040167618436460294   -0.0008213685643461966
-0.008691849840214212   -0.04011745408122498   -0.0009068537697829695
-0.009366546592130036   -0.032576569629817594   -0.0006517310255413899
-0.008668728375395637   -0.040166816479244666   -0.0009550618007978631
-0.00493894953657473   -0.040167618436460294   -0.0008213685643461966
-0.009366546592130036   -0.032576569629817594   -0.0006517310255413899
-0.005220305042684851   -0.03262168712553801   -0.0005549467588437532
-0.00517528407045704   -0.03268906347929887   -0.0005773745572716931
-0.00493894953657473   -0.040167618436460294   -0.0008213685643461966
-0.009366546592130036   -0.032576569629817594   -0.0006517310255413899
-0.00517528407045704   -0.03268906347929887   -0.0005773745572716931
-0.008668728375395637   -0.040166816479244666   -0.0009550618007978631
-0.00493894953657473   -0.040167618436460294   -0.0008213685643461966
-0.005220305042684851   -0.03262168712553801   -0.0005549467588437532
-0.008691849840214212   -0.04011745408122498   -0.0009068537697829695
-0.0049692655935131115   -0.04012174305651568   -0.0007998490626952801
-0.005220305042684851   -0.03262168712553801   -0.0005549467588437532
-0.009366546592130036   -0.032576569629817594   -0.0006517310255413899
-0.008691849840214212   -0.04011745408122498   -0.0009068537697829695
-0.009408164572057669   -0.032534784869502384   -0.0006042678963213982
-0.0049692655935131115   -0.04012174305651568   -0.0007998490626952801
-0.0087156485382656   -0.04008547907362328   -0.0008531588735626134
-0.009408164572057669   -0.032534784869502384   -0.0006042678963213982
-0.008691849840214212   -0.04011745408122498   -0.0009068537697829695
-0.0049692655935131115   -0.04012174305651568   -0.0007998490626952801
-0.009408164572057669   -0.032534784869502384   -0.0006042678963213982
-0.00526914574043216   -0.032565770646964184   -0.000527591511533849
-0.005220305042684851   -0.03262168712553801   -0.0005549467588437532
-0.0049692655935131115   -0.04012174305651568   -0.0007998490626952801
-0.009408164572057669   -0.032534784869502384   -0.0006042678963213982
-0.005220305042684851   -0.03262168712553801   -0.0005549467588437532
-0.008691849840214212   -0.04011745408122498   -0.0009068537697829695
-0.00864080274275519   -0.040233640165065705   -0.000997617243709818
-0.009279863841181634   -0.03269253913900543   -0.0007318882329888993
-0.012484014564974171   -0.04009773256886642   -0.0011227295820664335
-0.008668728375395637   -0.040166816479244666   -0.0009550618007978631
-0.009279863841181634   -0.03269253913900543   -0.0007318882329888993
-0.013510796436868613   -0.03258144945962258   -0.0008438860267161834
-0.012484014564974171   -0.04009773256886642   -0.0011227295820664335
-0.01355297896704227   -0.03253305208238738   -0.0007858790633064112
-0.008668728375395637   -0.040166816479244666   -0.0009550618007978631
-0.012507080236344345   -0.04004516950365021   -0.0010474656591094769
-0.01355297896704227   -0.03253305208238738   -0.0007858790633064112
-0.012484014564974171   -0.04009773256886642   -0.0011227295820664335
-0.008668728375395637   -0.040166816479244666   -0.0009550618007978631
-0.01355297896704227   -0.03253305208238738   -0.0007858790633064112
-0.009325321246656495   -0.03262918346395483   -0.0006943350645566932
-0.009279863841181634   -0.03269253913900543   -0.0007318882329888993
-0.008668728375395637   -0.040166816479244666   -0.0009550618007978631
-0.01355297896704227   -0.03253305208238738   -0.0007858790633064112
-0.009279863841181634   -0.03269253913900543   -0.0007318882329888993
-0.012484014564974171   -0.04009773256886642   -0.0011227295820664335
-0.008668728375395637   -0.040166816479244666   -0.0009550618007978631
-0.009325321246656495   -0.03262918346395483   -0.0006943350645566932
-0.012507080236344345   -0.04004516950365021   -0.0010474656591094769
-0.008691849840214212   -0.04011745408122498   -0.0009068537697829695
-0.009325321246656495   -0.03262918346395483   -0.0006943350645566932
-0.01355297896704227   -0.03253305208238738   -0.0007858790633064112
-0.012507080236344345   -0.04004516950365021   -0.0010474656591094769
-0.013578437820039903   -0.03249404674823862   -0.0007235009828516941
-0.008691849840214212   -0.04011745408122498   -0.0009068537697829695
-0.012509908400835082   -0.04000901360514154   -0.0009673309678359771
-0.013578437820039903   -0.03249404674823862   -0.0007235009828516941
-0.012507080236344345   -0.04004516950365021   -0.0010474656591094769
-0.008691849840214212   -0.04011745408122498   -0.0009068537697829695
-0.013578437820039903   -0.03249404674823862   -0.0007235009828516941
-0.009366546592130036   -0.032576569629817594   -0.0006517310255413899
-0.009325321246656495   -0.03262918346395483   -0.0006943350645566932
-0.008691849840214212   -0.04011745408122498   -0.0009068537697829695
-0.013578437820039903   -0.03249404674823862   -0.0007235009828516941
-0.009325321246656495   -0.03262918346395483   -0.0006943350645566932
-0.012507080236344345   -0.04004516950365021   -0.0010474656591094769
-0.008691849840214212   -0.04011745408122498   -0.0009068537697829695
-0.009366546592130036   -0.032576569629817594   -0.0006517310255413899
-0.012509908400835082   -0.04000901360514154   -0.0009673309678359771
-0.0087156485382656   -0.04008547907362328   -0.0008531588735626134
-0.009366546592130036   -0.032576569629817594   -0.0006517310255413899
-0.013578437820039903   -0.03249404674823862   -0.0007235009828516941
-0.012509908400835082   -0.04000901360514154   -0.0009673309678359771
-0.013606449194555139   -0.032466814272101546   -0.0006558488690351533
-0.0087156485382656   -0.04008547907362328   -0.0008531588735626134
-0.012518511266678653   -0.039991812787610326   -0.0008812928230288154
-0.013606449194555139   -0.032466814272101546   -0.0006558488690351533
-0.012509908400835082   -0.04000901360514154   -0.0009673309678359771
-0.0087156485382656   -0.04008547907362328   -0.0008531588735626134
-0.013606449194555139   -0.032466814272101546   -0.0006558488690351533
-0.009408164572057669   -0.032534784869502384   -0.0006042678963213982
-0.009366546592130036   -0.032576569629817594   -0.0006517310255413899
-0.0087156485382656   -0.04008547907362328   -0.0008531588735626134
-0.013606449194555139   -0.032466814272101546   -0.0006558488690351533
-0.009366546592130036   -0.032576569629817594   -0.0006517310255413899
-0.012509908400835082   -0.04000901360514154   -0.0009673309678359771
-0.012484014564974171   -0.04009773256886642   -0.0011227295820664335
-0.013510796436868613   -0.03258144945962258   -0.0008438860267161834
-0.016675187348293784   -0.03991930014917433   -0.0012296141665003805
-0.012507080236344345   -0.04004516950365021   -0.0010474656591094769
-0.013510796436868613   -0.03258144945962258   -0.0008438860267161834
-0.018052105562890074   -0.03244462942975308   -0.0009328473391713883
-0.016675187348293784   -0.03991930014917433   -0.0012296141665003805
-0.018020439867887324   -0.03240388559734475   -0.0008554740934605332
-0.012507080236344345   -0.04004516950365021   -0.0010474656591094769
-0.01659449355801934   -0.03987128398310123   -0.0011197154516961742
-0.018020439867887324   -0.03240388559734475   -0.0008554740934605332
-0.016675187348293784   -0.03991930014917433   -0.0012296141665003805
-0.012507080236344345   -0.04004516950365021   -0.0010474656591094769
-0.018020439867887324   -0.03240388559734475   -0.0008554740934605332
-0.01355297896704227   -0.03253305208238738   -0.0007858790633064112
-0.013510796436868613   -0.03258144945962258   -0.0008438860267161834
-0.012507080236344345   -0.04004516950365021   -0.0010474656591094769
-0.018020439867887324   -0.03240388559734475   -0.0008554740934605332
-0.013510796436868613   -0.03258144945962258   -0.0008438860267161834
-0.016675187348293784   -0.03991930014917433   -0.0012296141665003805
-0.012507080236344345   -0.04004516950365021   -0.0010474656591094769
-0.01355297896704227   -0.03253305208238738   -0.0007858790633064112
-0.01659449355801934   -0.03987128398310123   -0.0011197154516961742
-0.012509908400835082   -0.04000901360514154   -0.0009673309678359771
-0.01355297896704227   -0.03253305208238738   -0.0007858790633064112
-0.018020439867887324   -0.03240388559734475   -0.0008554740934605332
-0.01659449355801934   -0.03987128398310123   -0.0011197154516961742
-0.017994628862473834   -0.03237129291988473   -0.0007700797756060212
-0.012509908400835082   -0.04000901360514154   -0.0009673309678359771
-0.016526491147689955   -0.03984072923104962   -0.0010013094852814408
-0.017994628862473834   -0.03237129291988473   -0.0007700797756060212
-0.01659449355801934   -0.03987128398310123   -0.0011197154516961742
-0.012509908400835082   -0.04000901360514154   -0.0009673309678359771
-0.017994628862473834   -0.03237129291988473   -0.0007700797756060212
-0.013578437820039903   -0.03249404674823862   -0.0007235009828516941
-0.01355297896704227   -0.03253305208238738   -0.0007858790633064112
-0.012509908400835082   -0.04000901360514154   -0.0009673309678359771
-0.017994628862473834   -0.03237129291988473   -0.0007700797756060212
-0.01355297896704227   -0.03253305208238738   -0.0007858790633064112
-0.01659449355801934   -0.03987128398310123   -0.0011197154516961742
-0.012509908400835082   -0.04000901360514154   -0.0009673309678359771
-0.013578437820039903   -0.03249404674823862   -0.0007235009828516941
-0.016526491147689955   -0.03984072923104962   -0.0010013094852814408
-0.012518511266678653   -0.039991812787610326   -0.0008812928230288154
-0.013578437820039903   -0.03249404674823862   -0.0007235009828516941
-0.017994628862473834   -0.03237129291988473   -0.0007700797756060212
-0.016526491147689955   -0.03984072923104962   -0.0010013094852814408
-0.017933073400132452   -0.03236153143820735   -0.0006775786973506348
-0.012518511266678653   -0.039991812787610326   -0.0008812928230288154
-0.01641446275658807   -0.039842358271172496   -0.0008754577497672913
-0.017933073400132452   -0.03236153143820735   -0.0006775786973506348
-0.016526491147689955   -0.03984072923104962   -0.0010013094852814408
-0.012518511266678653   -0.039991812787610326   -0.0008812928230288154
-0.017933073400132452   -0.03236153143820735   -0.0006775786973506348
-0.013606449194555139   -0.032466814272101546   -0.0006558488690351533
-0.013578437820039903   -0.03249404674823862   -0.0007235009828516941
-0.012518511266678653   -0.039991812787610326   -0.0008812928230288154
-0.017933073400132452   -0.03236153143820735   -0.0006775786973506348
-0.013578437820039903   -0.03249404674823862   -0.0007235009828516941
-0.016526491147689955   -0.03984072923104962   -0.0010013094852814408
0.003512993836731837   -0.032807838243514444   -0.0002342198810512422
0.003635977895771325   -0.02480163236399009   -3.718573023571996e-05
-0.0009111053734121306   -0.032807191542608305   -0.00043178976691789185
0.003500738022069032   -0.03269925697482117   -0.0002657383224462228
0.003635977895771325   -0.02480163236399009   -3.718573023571996e-05
-0.0010414203116087238   -0.024760751346714488   -0.0002146828641430505
-0.0009111053734121306   -0.032807191542608305   -0.00043178976691789185
-0.0010955433382608176   -0.024670540867427298   -0.00019868770157829615
0.003500738022069032   -0.03269925697482117   -0.0002657383224462228
-0.0009504630736135561   -0.0327128853914469   -0.0004348746157334432
-0.0010955433382608176   -0.024670540867427298   -0.00019868770157829615
-0.0009111053734121306   -0.032807191542608305   -0.00043178976691789185
0.003500738022069032   -0.03269925697482117   -0.0002657383224462228
-0.0010955433382608176   -0.024670540867427298   -0.00019868770157829615
0.0035788236817375493   -0.02469810309771975   -3.425388076409104e-05
0.003635977895771325   -0.02480163236399009   -3.718573023571996e-05
0.003500738022069032   -0.03269925697482117   -0.0002657383224462228
-0.0010955433382608176   -0.024670540867427298   -0.00019868770157829615
0.003635977895771325   -0.02480163236399009   -3.718573023571996e-05
-0.0009111053734121306   -0.032807191542608305   -0.00043178976691789185
0.003500738022069032   -0.03269925697482117   -0.0002657383224462228
0.0035788236817375493   -0.02469810309771975   -3.425388076409104e-05
-0.0009504630736135561   -0.0327128853914469   -0.0004348746157334432
0.0034693446779704607   -0.032612100323254845   -0.00028930114592355265
0.0035788236817375493   -0.02469810309771975   -3.425388076409104e-05
-0.0010955433382608176   -0.024670540867427298   -0.00019868770157829615
-0.0009504630736135561   -0.0327128853914469   -0.0004348746157334432
-0.0011575285312432826   -0.024585508331978683   -0.00017818530230232662
0.0034693446779704607   -0.032612100323254845   -0.00028930114592355265
-0.0009942005373282444   -0.03263186900159205   -0.0004329959960491054
-0.0011575285312432826   -0.024585508331978683   -0.00017818530230232662
-0.0009504630736135561   -0.0327128853914469   -0.0004348746157334432
0.0034693446779704607   -0.032612100323254845   -0.00028930114592355265
-0.0011575285312432826   -0.024585508331978683   -0.00017818530230232662
0.003508449521894662   -0.024605759559501224   -2.2116957821638514e-05
0.0035788236817375493   -0.02469810309771975   -3.425388076409104e-05
0.0034693446779704607   -0.032612100323254845   -0.00028930114592355265
-0.0011575285312432826   -0.024585508331978683   -0.00017818530230232662
0.0035788236817375493   -0.02469810309771975   -3.425388076409104e-05
-0.0009504630736135561   -0.0327128853914469   -0.0004348746157334432
0.0034693446779704607   -0.032612100323254845   -0.00028930114592355265
0.003508449521894662   -0.024605759559501224   -2.2116957821638514e-05
-0.0009942005373282444   -0.03263186900159205   -0.0004329959960491054
0.003425440651173444   -0.03253206214212912   -0.0003054640120604154
0.003508449521894662   -0.024605759559501224   -2.2116957821638514e-05
-0.0011575285312432826   -0.024585508331978683   -0.00017818530230232662
-0.0009942005373282444   -0.03263186900159205   -0.0004329959960491054
-0.0012271540965952956   -0.024504484341733444   -0.0001520466868779911
0.003425440651173444   -0.03253206214212912   -0.0003054640120604154
-0.001048562129750282   -0.03256203116892567   -0.00042595823073750423
-0.0012271540965952956   -0.024504484341733444   -0.0001520466868779911
-0.0009942005373282444   -0.03263186900159205   -0.0004329959960491054
0.003425440651173444   -0.03253206214212912   -0.0003054640120604154
-0.0012271540965952956   -0.024504484341733444   -0.0001520466868779911
0.0034156253621861576   -0.024509249088292797   -1.1901219437910548e-06
0.003508449521894662   -0.024605759559501224   -2.2116957821638514e-05
0.003425440651173444   -0.03253206214212912   -0.0003054640120604154
-0.0012271540965952956   -0.024504484341733444   -0.0001520466868779911
0.003508449521894662   -0.024605759559501224   -2.2116957821638514e-05
-0.0009942005373282444   -0.03263186900159205   -0.0004329959960491054
-0.0009111053734121306   -0.032807191542608305   -0.00043178976691789185
-0.0010414203116087238   -0.024760751346714488   -0.0002146828641430505
-0.005131155908822948   -0.03276725808915741   -0.0005946302639397086
-0.0009504630736135561   -0.0327128853914469   -0.0004348746157334432
-0.0010414203116087238   -0.024760751346714488   -0.0002146828641430505
-0.005473417705071774   -0.02471284064991476   -0.0003646692998655852
-0.005131155908822948   -0.03276725808915741   -0.0005946302639397086
-0.005528697626104795   -0.024637492778029218   -0.0003399906862856218
-0.0009504630736135561   -0.0327128853914469   -0.0004348746157334432
-0.00517528407045704   -0.03268906347929887   -0.0005773745572716931
-0.005528697626104795   -0.024637492778029218   -0.0003399906862856218
-0.005131155908822948   -0.03276725808915741   -0.0005946302639397086
-0.0009504630736135561   -0.0327128853914469   -0.0004348746157334432
-0.005528697626104795   -0.024637492778029218   -0.0003399906862856218
-0.0010955433382608176   -0.024670540867427298   -0.00019868770157829615
-0.0010414203116087238   -0.024760751346714488   -0.0002146828641430505
-0.0009504630736135561   -0.0327128853914469   -0.0004348746157334432
-0.005528697626104795   -0.024637492778029218   -0.0003399906862856218
-0.0010414203116087238   -0.024760751346714488   -0.0002146828641430505
-0.005131155908822948   -0.03276725808915741   -0.0005946302639397086
-0.0009504630736135561   -0.0327128853914469   -0.0004348746157334432
-0.0010955433382608176   -0.024670540867427298   -0.00019868770157829615
-0.00517528407045704   -0.03268906347929887   -0.0005773745572716931
-0.0009942005373282444   -0.03263186900159205   -0.0004329959960491054
-0.0010955433382608176   -0.024670540867427298   -0.00019868770157829615
-0.005528697626104795   -0.024637492778029218   -0.0003399906862856218
-0.00517528407045704   -0.03268906347929887   -0.0005773745572716931
-0.005585223360792348   -0.02456616166176686   -0.00031101337900488353
-0.0009942005373282444   -0.03263186900159205   -0.0004329959960491054
-0.005220305042684851   -0.03262168712553801   -0.0005549467588437532
-0.005585223360792348   -0.02456616166176686   -0.00031101337900488353
-0.00517528407045704   -0.03268906347929887   -0.0005773745572716931
-0.0009942005373282444   -0.03263186900159205   -0.0004329959960491054
-0.005585223360792348   -0.02456616166176686   -0.00031101337900488353
-0.0011575285312432826   -0.024585508331978683   -0.00017818530230232662
-0.0010955433382608176   -0.024670540867427298   -0.00019868770157829615
-0.0009942005373282444   -0.03263186900159205   -0.0004329959960491054
-0.005585223360792348   -0.02456616166176686   -0.00031101337900488353
-0.0010955433382608176   -0.024670540867427298   -0.00019868770157829615
-0.00517528407045704   -0.03268906347929887   -0.0005773745572716931
-0.0009942005373282444   -0.03263186900159205   -0.0004329959960491054
-0.0011575285312432826   -0.024585508331978683   -0.00017818530230232662
-0.005220305042684851   -0.03262168712553801   -0.0005549467588437532
-0.001048562129750282   -0.03256203116892567   -0.00042595823073750423
-0.0011575285312432826   -0.024585508331978683   -0.00017818530230232662
-0.005585223360792348   -0.02456616166176686   -0.00031101337900488353
-0.005220305042684851   -0.03262168712553801   -0.0005549467588437532
-0.005645355808897012   -0.0244999622849677   -0.0002776935476457813
-0.001048562129750282   -0.03256203116892567   -0.00042595823073750423
-0.00526914574043216   -0.032565770646964184   -0.000527591511533849
-0.005645355808897012   -0.0244999622849677   -0.0002776935476457813
-0.005220305042684851   -0.03262168712553801   -0.0005549467588437532
-0.001048562129750282   -0.03256203116892567   -0.00042595823073750423
-0.005645355808897012   -0.0244999622849677   -0.0002776935476457813
-0.0012271540965952956   -0.024504484341733444   -0.0001520466868779911
-0.0011575285312432826   -0.024585508331978683   -0.00017818530230232662
-0.001048562129750282   -0.03256203116892567   -0.00042595823073750423
-0.005645355808897012   -0.0244999622849677   -0.0002776935476457813
-0.0011575285312432826   -0.024585508331978683   -0.00017818530230232662
-0.005220305042684851   -0.03262168712553801   -0.0005549467588437532
-0.005131155908822948   -0.03276725808915741   -0.0005946302639397086
-0.005473417705071774   -0.02471284064991476   -0.0003646692998655852
-0.009279863841181634   -0.03269253913900543   -0.0007318882329888993
-0.00517528407045704   -0.03268906347929887   -0.0005773745572716931
-0.005473417705071774   -0.02471284064991476   -0.0003646692998655852
-0.009833177191776071   -0.02465526627574777   -0.0004919088342578758
-0.009279863841181634   -0.03269253913900543   -0.0007318882329888993
-0.009888083685972686   -0.02459367716251217   -0.00045856334680369356
-0.00517528407045704   -0.03268906347929887   -0.0005773745572716931
-0.009325321246656495   -0.03262918346395483   -0.0006943350645566932
-0.009888083685972686   -0.02459367716251217   -0.00045856334680369356
-0.009279863841181634   -0.03269253913900543   -0.0007318882329888993
-0.00517528407045704   -0.03268906347929887   -0.0005773745572716931
-0.009888083685972686   -0.02459367716251217   -0.00045856334680369356
-0.005528697626104795   -0.024637492778029218   -0.0003399906862856218
-0.005473417705071774   -0.02471284064991476   -0.0003646692998655852
-0.00517528407045704   -0.03268906347929887   -0.0005773745572716931
-0.009888083685972686   -0.02459367716251217   -0.00045856334680369356
-0.005473417705071774   -0.02471284064991476   -0.0003646692998655852
-0.009279863841181634   -0.03269253913900543   -0.0007318882329888993
-0.00517528407045704   -0.03268906347929887   -0.0005773745572716931
-0.005528697626104795   -0.024637492778029218   -0.0003399906862856218
-0.009325321246656495   -0.03262918346395483   -0.0006943350645566932
-0.005220305042684851   -0.03262168712553801   -0.0005549467588437532
-0.005528697626104795   -0.024637492778029218   -0.0003399906862856218
-0.009888083685972686   -0.02459367716251217   -0.00045856334680369356
-0.009325321246656495   -0.03262918346395483   -0.0006943350645566932
-0.009939430163481752   -0.024536328224942842   -0.00042106598345803184
-0.005220305042684851   -0.03262168712553801   -0.0005549467588437532
-0.009366546592130036   -0.032576569629817594   -0.0006517310255413899
-0.009939430163481752   -0.024536328224942842   -0.00042106598345803184
-0.009325321246656495   -0.03262918346395483   -0.0006943350645566932
-0.005220305042684851   -0.03262168712553801   -0.0005549467588437532
-0.009939430163481752   -0.024536328224942842   -0.00042106598345803184
-0.005585223360792348   -0.02456616166176686   -0.00031101337900488353
-0.005528697626104795   -0.024637492778029218   -0.0003399906862856218
-0.005220305042684851   -0.03262168712553801   -0.0005549467588437532
-0.009939430163481752   -0.024536328224942842   -0.00042106598345803184
-0.005528697626104795   -0.024637492778029218   -0.0003399906862856218
-0.009325321246656495   -0.03262918346395483   -0.0006943350645566932
-0.005220305042684851   -0.03262168712553801   -0.0005549467588437532
-0.005585223360792348   -0.02456616166176686   -0.00031101337900488353
-0.009366546592130036   -0.032576569629817594   -0.0006517310255413899
-0.00526914574043216   -0.032565770646964184   -0.000527591511533849
-0.005585223360792348   -0.02456616166176686   -0.00031101337900488353
-0.009939430163481752   -0.024536328224942842   -0.00042106598345803184
-0.009366546592130036   -0.032576569629817594   -0.0006517310255413899
-0.009990960555383233   -0.02448337677284952   -0.000379621609427234
-0.00526914574043216   -0.032565770646964184   -0.000527591511533849
-0.009408164572057669   -0.032534784869502384   -0.0006042678963213982
-0.009990960555383233   -0.02448337677284952   -0.000379621609427234
-0.009366546592130036   -0.032576569629817594   -0.0006517310255413899
-0.00526914574043216   -0.032565770646964184   -0.000527591511533849
-0.009990960555383233   -0.02448337677284952   -0.000379621609427234
-0.005645355808897012   -0.0244999622849677   -0.0002776935476457813
-0.005585223360792348   -0.02456616166176686   -0.00031101337900488353
-0.00526914574043216   -0.032565770646964184   -0.000527591511533849
-0.009990960555383233   -0.02448337677284952   -0.000379621609427234
-0.005585223360792348   -0.02456616166176686   -0.00031101337900488353
-0.009366546592130036   -0.032576569629817594   -0.0006517310255413899
-0.009279863841181634   -0.03269253913900543   -0.0007318882329888993
-0.009833177191776071   -0.02465526627574777   -0.0004919088342578758
-0.013510796436868613   -0.03258144945962258   -0.0008438860267161834
-0.009325321246656495   -0.03262918346395483   -0.0006943350645566932
-0.009833177191776071   -0.02465526627574777   -0.0004919088342578758
-0.014271766788812514   -0.024577353521659517   -0.0005953119815861957
-0.013510796436868613   -0.03258144945962258   -0.0008438860267161834
-0.014324335465292626   -0.024530238032963888   -0.0005534032329993229
-0.009325321246656495   -0.03262918346395483   -0.0006943350645566932
-0.01355297896704227   -0.03253305208238738   -0.0007858790633064112
-0.014324335465292626   -0.024530238032963888   -0.0005534032329993229
-0.013510796436868613   -0.03258144945962258   -0.0008438860267161834
-0.009325321246656495   -0.03262918346395483   -0.0006943350645566932
-0.014324335465292626   -0.024530238032963888   -0.0005534032329993229
-0.009888083685972686   -0.02459367716251217   -0.00045856334680369356
-0.009833177191776071   -0.02465526627574777   -0.0004919088342578758
-0.009325321246656495   -0.03262918346395483   -0.0006943350645566932
-0.014324335465292626   -0.024530238032963888   -0.0005534032329993229
-0.009833177191776071   -0.02465526627574777   -0.0004919088342578758
-0.013510796436868613   -0.03258144945962258   -0.0008438860267161834
-0.009325321246656495   -0.03262918346395483   -0.0006943350645566932
-0.009888083685972686   -0.02459367716251217   -0.00045856334680369356
-0.01355297896704227   -0.03253305208238738   -0.0007858790633064112
-0.009366546592130036   -0.032576569629817594   -0.0006517310255413899
-0.009888083685972686   -0.02459367716251217   -0.00045856334680369356
-0.014324335465292626   -0.024530238032963888   -0.0005534032329993229
-0.01355297896704227   -0.03253305208238738   -0.0007858790633064112
-0.01436412493181387   -0.02448577221847793   -0.0005080241195525939
-0.009366546592130036   -0.032576569629817594   -0.0006517310255413899
-0.013578437820039903   -0.03249404674823862   -0.0007235009828516941
-0.01436412493181387   -0.02448577221847793   -0.0005080241195525939
-0.01355297896704227   -0.03253305208238738   -0.0007858790633064112
-0.009366546592130036   -0.032576569629817594   -0.0006517310255413899
-0.01436412493181387   -0.02448577221847793   -0.0005080241195525939
-0.009939430163481752   -0.024536328224942842   -0.00042106598345803184
-0.009888083685972686   -0.02459367716251217   -0.00045856334680369356
-0.009366546592130036   -0.032576569629817594   -0.0006517310255413899
-0.01436412493181387   -0.02448577221847793   -0.0005080241195525939
-0.009888083685972686   -0.02459367716251217   -0.00045856334680369356
-0.01355297896704227   -0.03253305208238738   -0.0007858790633064112
-0.009366546592130036   -0.032576569629817594   -0.0006517310255413899
-0.009939430163481752   -0.024536328224942842   -0.00042106598345803184
-0.013578437820039903   -0.03249404674823862   -0.0007235009828516941
-0.009408164572057669   -0.032534784869502384   -0.0006042678963213982
-0.009939430163481752   -0.024536328224942842   -0.00042106598345803184
-0.01436412493181387   -0.02448577221847793   -0.0005080241195525939
-0.013578437820039903   -0.03249404674823862   -0.0007235009828516941
-0.01440361951108562   -0.024445952236957426   -0.0004582724517245397
-0.009408164572057669   -0.032534784869502384   -0.0006042678963213982
-0.013606449194555139   -0.032466814272101546   -0.0006558488690351533
-0.01440361951108562   -0.024445952236957426   -0.0004582724517245397
-0.013578437820039903   -0.03249404674823862   -0.0007235009828516941
-0.009408164572057669   -0.032534784869502384   -0.0006042678963213982
-0.01440361951108562   -0.024445952236957426   -0.0004582724517245397
-0.009990960555383233   -0.02448337677284952   -0.000379621609427234
-0.009939430163481752   -0.024536328224942842   -0.00042106598345803184
-0.009408164572057669   -0.032534784869502384   -0.0006042678963213982
-0.01440361951108562   -0.024445952236957426   -0.0004582724517245397
-0.009939430163481752   -0.024536328224942842   -0.00042106598345803184
-0.013578437820039903   -0.03249404674823862   -0.0007235009828516941
-0.013510796436868613   -0.03258144945962258   -0.0008438860267161834
-0.014271766788812514   -0.024577353521659517   -0.0005953119815861957
-0.018052105562890074   -0.03244462942975308   -0.0009328473391713883
-0.01355297896704227   -0.03253305208238738   -0.0007858790633064112
-0.014271766788812514   -0.024577353521659517   -0.0005953119815861957
-0.01897667363825887   -0.024485166866955378   -0.0006718417516293574
-0.018052105562890074   -0.03244462942975308   -0.0009328473391713883
-0.01898434470977545   -0.024447680506243078   -0.0006254259254086011
-0.01355297896704227   -0.03253305208238738   -0.0007858790633064112
-0.018020439867887324   -0.03240388559734475   -0.0008554740934605332
-0.01898434470977545   -0.024447680506243078   -0.0006254259254086011
-0.018052105562890074   -0.03244462942975308   -0.0009328473391713883
-0.01355297896704227   -0.03253305208238738   -0.0007858790633064112
-0.01898434470977545   -0.024447680506243078   -0.0006254259254086011
-0.014324335465292626   -0.024530238032963888   -0.0005534032329993229
-0.014271766788812514   -0.024577353521659517   -0.0005953119815861957
-0.01355297896704227   -0.03253305208238738   -0.0007858790633064112
-0.01898434470977545   -0.024447680506243078   -0.0006254259254086011
-0.014271766788812514   -0.024577353521659517   -0.0005953119815861957
-0.018052105562890074   -0.03244462942975308   -0.0009328473391713883
-0.01355297896704227   -0.03253305208238738   -0.0007858790633064112
-0.014324335465292626   -0.024530238032963888   -0.0005534032329993229
-0.018020439867887324   -0.03240388559734475   -0.0008554740934605332
-0.013578437820039903   -0.03249404674823862   -0.0007235009828516941
-0.014324335465292626   -0.024530238032963888   -0.0005534032329993229
-0.01898434470977545   -0.024447680506243078   -0.0006254259254086011
-0.018020439867887324   -0.03240388559734475   -0.0008554740934605332
-0.018992288967381726   -0.024409833343030093   -0.0005720268618102365
-0.013578437820039903   -0.03249404674823862   -0.0007235009828516941
-0.017994628862473834   -0.03237129291988473   -0.0007700797756060212
-0.018992288967381726   -0.024409833343030093   -0.0005720268618102365
-0.018020439867887324   -0.03240388559734475   -0.0008554740934605332
-0.013578437820039903   -0.03249404674823862   -0.0007235009828516941
-0.018992288967381726   -0.024409833343030093   -0.0005720268618102365
-0.01436412493181387   -0.02448577221847793   -0.0005080241195525939
-0.014324335465292626   -0.024530238032963888   -0.0005534032329993229
-0.013578437820039903   -0.03249404674823862   -0.0007235009828516941
-0.018992288967381726   -0.024409833343030093   -0.0005720268618102365
-0.014324335465292626   -0.024530238032963888   -0.0005534032329993229
-0.018020439867887324   -0.03240388559734475   -0.0008554740934605332
-0.013578437820039903   -0.03249404674823862   -0.0007235009828516941
-0.01436412493181387   -0.02448577221847793   -0.0005080241195525939
-0.017994628862473834   -0.03237129291988473   -0.0007700797756060212
-0.013606449194555139   -0.032466814272101546   -0.0006558488690351533
-0.01436412493181387   -0.02448577221847793   -0.0005080241195525939
-0.018992288967381726   -0.024409833343030093   -0.0005720268618102365
-0.017994628862473834   -0.03237129291988473   -0.0007700797756060212
-0.018973677661458643   -0.024385239475438088   -0.000512470689064508
-0.013606449194555139   -0.032466814272101546   -0.0006558488690351533
-0.017933073400132452   -0.03236153143820735   -0.0006775786973506348
-0.018973677661458643   -0.024385239475438088   -0.000512470689064508
-0.017994628862473834   -0.03237129291988473   -0.0007700797756060212
-0.013606449194555139   -0.032466814272101546   -0.0006558488690351533
-0.018973677661458643   -0.024385239475438088   -0.000512470689064508
-0.01440361951108562   -0.024445952236957426   -0.0004582724517245397
-0.01436412493181387   -0.02448577221847793   -0.0005080241195525939
-0.013606449194555139   -0.032466814272101546   -0.0006558488690351533
-0.018973677661458643   -0.024385239475438088   -0.000512470689064508
-0.01436412493181387   -0.02448577221847793   -0.0005080241195525939
-0.017994628862473834   -0.03237129291988473   -0.0007700797756060212
0.003635977895771325   -0.02480163236399009   -3.718573023571996e-05
0.0032623455904978406   -0.016553530225396584   9.885067941101667e-05
-0.0010414203116087238   -0.024760751346714488   -0.0002146828641430505
0.0035788236817375493   -0.02469810309771975   -3.425388076409104e-05
0.0032623455904978406   -0.016553530225396584   9.885067941101667e-05
-0.001452144519640714   -0.016476083098070447   -4.190544016702337e-05
-0.0010414203116087238   -0.024760751346714488   -0.0002146828641430505
-0.0015169374271637268   -0.016394492025508862   -8.314682010668159e-06
0.0035788236817375493   -0.02469810309771975   -3.425388076409104e-05
-0.0010955433382608176   -0.024670540867427298   -0.00019868770157829615
-0.0015169374271637268   -0.016394492025508862   -8.314682010668159e-06
-0.0010414203116087238   -0.024760751346714488   -0.0002146828641430505
0.0035788236817375493   -0.02469810309771975   -3.425388076409104e-05
-0.0015169374271637268   -0.016394492025508862   -8.314682010668159e-06
0.003160498283526612   -0.016454952682788265   0.00014048422720626034
0.0032623455904978406   -0.016553530225396584   9.885067941101667e-05
0.0035788236817375493   -0.02469810309771975   -3.425388076409104e-05
-0.0015169374271637268   -0.016394492025508862   -8.314682010668159e-06
0.0032623455904978406   -0.016553530225396584   9.885067941101667e-05
-0.0010414203116087238   -0.024760751346714488   -0.0002146828641430505
0.0035788236817375493   -0.02469810309771975   -3.425388076409104e-05
0.003160498283526612   -0.016454952682788265   0.00014048422720626034
-0.0010955433382608176   -0.024670540867427298   -0.00019868770157829615
0.003508449521894662   -0.024605759559501224   -2.2116957821638514e-05
0.003160498283526612   -0.016454952682788265   0.00014048422720626034
-0.0015169374271637268   -0.016394492025508862   -8.314682010668159e-06
-0.0010955433382608176   -0.024670540867427298   -0.00019868770157829615
-0.0015927669614853913   -0.016308423796245353   3.127866822063223e-05
0.003508449521894662   -0.024605759559501224   -2.2116957821638514e-05
-0.0011575285312432826   -0.024585508331978683   -0.00017818530230232662
-0.0015927669614853913   -0.016308423796245353   3.127866822063223e-05
-0.0010955433382608176   -0.024670540867427298   -0.00019868770157829615
0.003508449521894662   -0.024605759559501224   -2.2116957821638514e-05
-0.0015927669614853913   -0.016308423796245353   3.127866822063223e-05
0.0030466312818639746   -0.016357160045284647   0.00020044237682040247
0.003160498283526612   -0.016454952682788265   0.00014048422720626034
0.003508449521894662   -0.024605759559501224   -2.2116957821638514e-05
-0.0015927669614853913   -0.016308423796245353   3.127866822063223e-05
0.003160498283526612   -0.016454952682788265   0.00014048422720626034
-0.0010955433382608176   -0.024670540867427298   -0.00019868770157829615
0.003508449521894662   -0.024605759559501224   -2.2116957821638514e-05
0.0030466312818639746   -0.016357160045284647   0.00020044237682040247
-0.0011575285312432826   -0.024585508331978683   -0.00017818530230232662
0.0034156253621861576   -0.024509249088292797   -1.1901219437910548e-06
0.0030466312818639746   -0.016357160045284647   0.00020044237682040247
-0.0015927669614853913   -0.016308423796245353   3.127866822063223e-05
-0.0011575285312432826   -0.024585508331978683   -0.00017818530230232662
-0.0016712427139959779   -0.01621707750695144   7.679978328271803e-05
0.0034156253621861576   -0.024509249088292797   -1.1901219437910548e-06
-0.0012271540965952956   -0.024504484341733444   -0.0001520466868779911
-0.0016712427139959779   -0.01621707750695144   7.679978328271803e-05
-0.0011575285312432826   -0.024585508331978683   -0.00017818530230232662
0.0034156253621861576   -0.024509249088292797   -1.1901219437910548e-06
-0.0016712427139959779   -0.01621707750695144   7.679978328271803e-05
0.0029074836208408915   -0.016236986629436352   0.00026644594332295905
0.0030466312818639746   -0.016357160045284647   0.00020044237682040247
0.0034156253621861576   -0.024509249088292797   -1.1901219437910548e-06
-0.0016712427139959779   -0.01621707750695144   7.679978328271803e-05
0.0030466312818639746   -0.016357160045284647   0.00020044237682040247
-0.0011575285312432826   -0.024585508331978683   -0.00017818530230232662
-0.0010414203116087238   -0.024760751346714488   -0.0002146828641430505
-0.001452144519640714   -0.016476083098070447   -4.190544016702337e-05
-0.005473417705071774   -0.02471284064991476   -0.0003646692998655852
-0.0010955433382608176   -0.024670540867427298   -0.00019868770157829615
-0.001452144519640714   -0.016476083098070447   -4.190544016702337e-05
-0.0058910424525633   -0.016456024868271604   -0.00017744519611217926
-0.005473417705071774   -0.02471284064991476   -0.0003646692998655852
-0.005949677986649104   -0.01638491420058642   -0.00014610651221521305
-0.0010955433382608176   -0.024670540867427298   -0.00019868770157829615
-0.005528697626104795   -0.024637492778029218   -0.0003399906862856218
-0.005949677986649104   -0.01638491420058642   -0.00014610651221521305
-0.005473417705071774   -0.02471284064991476   -0.0003646692998655852
-0.0010955433382608176   -0.024670540867427298   -0.00019868770157829615
-0.005949677986649104   -0.01638491420058642   -0.00014610651221521305
-0.0015169374271637268   -0.016394492025508862   -8.314682010668159e-06
-0.001452144519640714   -0.016476083098070447   -4.190544016702337e-05
-0.0010955433382608176   -0.024670540867427298   -0.00019868770157829615
-0.005949677986649104   -0.01638491420058642   -0.00014610651221521305
-0.001452144519640714   -0.016476083098070447   -4.190544016702337e-05
-0.005473417705071774   -0.02471284064991476   -0.0003646692998655852
-0.0010955433382608176   -0.024670540867427298   -0.00019868770157829615
-0.0015169374271637268   -0.016394492025508862   -8.314682010668159e-06
-0.005528697626104795   -0.024637492778029218   -0.0003399906862856218
-0.0011575285312432826   -0.024585508331978683   -0.00017818530230232662
-0.0015169374271637268   -0.016394492025508862   -8.314682010668159e-06
-0.005949677986649104   -0.01638491420058642   -0.00014610651221521305
-0.005528697626104795   -0.024637492778029218   -0.0003399906862856218
-0.006010350280798251   -0.016310962855337674   -0.00011164257871053278
-0.0011575285312432826   -0.024585508331978683   -0.00017818530230232662
-0.005585223360792348   -0.02456616166176686   -0.00031101337900488353
-0.006010350280798251   -0.016310962855337674   -0.00011164257871053278
-0.005528697626104795   -0.024637492778029218   -0.0003399906862856218
-0.0011575285312432826   -0.024585508331978683   -0.00017818530230232662
-0.006010350280798251   -0.016310962855337674   -0.00011164257871053278
-0.0015927669614853913   -0.016308423796245353   3.127866822063223e-05
-0.0015169374271637268   -0.016394492025508862   -8.314682010668159e-06
-0.0011575285312432826   -0.024585508331978683   -0.00017818530230232662
-0.006010350280798251   -0.016310962855337674   -0.00011164257871053278
-0.0015169374271637268   -0.016394492025508862   -8.314682010668159e-06
-0.005528697626104795   -0.024637492778029218   -0.0003399906862856218
-0.0011575285312432826   -0.024585508331978683   -0.00017818530230232662
-0.0015927669614853913   -0.016308423796245353   3.127866822063223e-05
-0.005585223360792348   -0.02456616166176686   -0.00031101337900488353
-0.0012271540965952956   -0.024504484341733444   -0.0001520466868779911
-0.0015927669614853913   -0.016308423796245353   3.127866822063223e-05
-0.006010350280798251   -0.016310962855337674   -0.00011164257871053278
-0.005585223360792348   -0.02456616166176686   -0.00031101337900488353
-0.006073531808866136   -0.016235517086354293   -7.343249643221062e-05
-0.0012271540965952956   -0.024504484341733444   -0.0001520466868779911
-0.005645355808897012   -0.0244999622849677   -0.0002776935476457813
-0.006073531808866136   -0.016235517086354293   -7.343249643221062e-05
-0.005585223360792348   -0.02456616166176686   -0.00031101337900488353
-0.0012271540965952956   -0.024504484341733444   -0.0001520466868779911
-0.006073531808866136   -0.016235517086354293   -7.343249643221062e-05
-0.0016712427139959779   -0.01621707750695144   7.679978328271803e-05
-0.0015927669614853913   -0.016308423796245353   3.127866822063223e-05
-0.0012271540965952956   -0.024504484341733444   -0.0001520466868779911
-0.006073531808866136   -0.016235517086354293   -7.343249643221062e-05
-0.0015927669614853913   -0.016308423796245353   3.127866822063223e-05
-0.005585223360792348   -0.02456616166176686   -0.00031101337900488353
-0.005473417705071774   -0.02471284064991476   -0.0003646692998655852
-0.0058910424525633   -0.016456024868271604   -0.00017744519611217926
-0.009833177191776071   -0.02465526627574777   -0.0004919088342578758
-0.005528697626104795   -0.024637492778029218   -0.0003399906862856218
-0.0058910424525633   -0.016456024868271604   -0.00017744519611217926
-0.010283972809437785   -0.01645042734534113   -0.0002998760555698379
-0.009833177191776071   -0.02465526627574777   -0.0004919088342578758
-0.01034006144620245   -0.0163881473150982   -0.00026990689908618456
-0.005528697626104795   -0.024637492778029218   -0.0003399906862856218
-0.009888083685972686   -0.02459367716251217   -0.00045856334680369356
-0.01034006144620245   -0.0163881473150982   -0.00026990689908618456
-0.009833177191776071   -0.02465526627574777   -0.0004919088342578758
-0.005528697626104795   -0.024637492778029218   -0.0003399906862856218
-0.01034006144620245   -0.0163881473150982   -0.00026990689908618456
-0.005949677986649104   -0.01638491420058642   -0.00014610651221521305
-0.0058910424525633   -0.016456024868271604   -0.00017744519611217926
-0.005528697626104795   -0.024637492778029218   -0.0003399906862856218
-0.01034006144620245   -0.0163881473150982   -0.00026990689908618456
-0.0058910424525633   -0.016456024868271604   -0.00017744519611217926
-0.009833177191776071   -0.02465526627574777   -0.0004919088342578758
-0.005528697626104795   -0.024637492778029218   -0.0003399906862856218
-0.005949677986649104   -0.01638491420058642   -0.00014610651221521305
-0.009888083685972686   -0.02459367716251217   -0.00045856334680369356
-0.005585223360792348   -0.02456616166176686   -0.00031101337900488353
-0.005949677986649104   -0.01638491420058642   -0.00014610651221521305
-0.01034006144620245   -0.0163881473150982   -0.00026990689908618456
-0.009888083685972686   -0.02459367716251217   -0.00045856334680369356
-0.010393493770506265   -0.016324768704197766   -0.0002372022533552782
-0.005585223360792348   -0.02456616166176686   -0.00031101337900488353
-0.009939430163481752   -0.024536328224942842   -0.00042106598345803184
-0.010393493770506265   -0.016324768704197766   -0.0002372022533552782
-0.009888083685972686   -0.02459367716251217   -0.00045856334680369356
-0.005585223360792348   -0.02456616166176686   -0.00031101337900488353
-0.010393493770506265   -0.016324768704197766   -0.0002372022533552782
-0.006010350280798251   -0.016310962855337674   -0.00011164257871053278
-0.005949677986649104   -0.01638491420058642   -0.00014610651221521305
-0.005585223360792348   -0.02456616166176686   -0.00031101337900488353
-0.010393493770506265   -0.016324768704197766   -0.0002372022533552782
-0.005949677986649104   -0.01638491420058642   -0.00014610651221521305
-0.009888083685972686   -0.02459367716251217   -0.00045856334680369356
-0.005585223360792348   -0.02456616166176686   -0.00031101337900488353
-0.006010350280798251   -0.016310962855337674   -0.00011164257871053278
-0.009939430163481752   -0.024536328224942842   -0.00042106598345803184
-0.005645355808897012   -0.0244999622849677   -0.0002776935476457813
-0.006010350280798251   -0.016310962855337674   -0.00011164257871053278
-0.010393493770506265   -0.016324768704197766   -0.0002372022533552782
-0.009939430163481752   -0.024536328224942842   -0.00042106598345803184
-0.010446390402182499   -0.016259925662714156   -0.00020191468055463663
-0.005645355808897012   -0.0244999622849677   -0.0002776935476457813
-0.009990960555383233   -0.02448337677284952   -0.000379621609427234
-0.010446390402182499   -0.016259925662714156   -0.00020191468055463663
-0.009939430163481752   -0.024536328224942842   -0.00042106598345803184
-0.005645355808897012   -0.0244999622849677   -0.0002776935476457813
-0.010446390402182499   -0.016259925662714156   -0.00020191468055463663
-0.006073531808866136   -0.016235517086354293   -7.343249643221062e-05
-0.006010350280798251   -0.016310962855337674   -0.00011164257871053278
-0.005645355808897012   -0.0244999622849677   -0.0002776935476457813
-0.010446390402182499   -0.016259925662714156   -0.00020191468055463663
-0.006010350280798251   -0.016310962855337674   -0.00011164257871053278
-0.009939430163481752   -0.024536328224942842   -0.00042106598345803184
-0.009833177191776071   -0.02465526627574777   -0.0004919088342578758
-0.010283972809437785   -0.01645042734534113   -0.0002998760555698379
-0.014271766788812514   -0.024577353521659517   -0.0005953119815861957
-0.009888083685972686   -0.02459367716251217   -0.00045856334680369356
-0.010283972809437785   -0.01645042734534113   -0.0002998760555698379
-0.01477002964689777   -0.016424804326269995   -0.00040254889719622283
-0.014271766788812514   -0.024577353521659517   -0.0005953119815861957
-0.01482349897358359   -0.016374166029719854   -0.00037410971362500454
-0.009888083685972686   -0.02459367716251217   -0.00045856334680369356
-0.014324335465292626   -0.024530238032963888   -0.0005534032329993229
-0.01482349897358359   -0.016374166029719854   -0.00037410971362500454
-0.014271766788812514   -0.024577353521659517   -0.0005953119815861957
-0.009888083685972686   -0.02459367716251217   -0.00045856334680369356
-0.01482349897358359   -0.016374166029719854   -0.00037410971362500454
-0.01034006144620245   -0.0163881473150982   -0.00026990689908618456
-0.010283972809437785   -0.01645042734534113   -0.0002998760555698379
-0.009888083685972686   -0.02459367716251217   -0.00045856334680369356
-0.01482349897358359   -0.016374166029719854   -0.00037410971362500454
-0.010283972809437785   -0.01645042734534113   -0.0002998760555698379
-0.014271766788812514   -0.024577353521659517   -0.0005953119815861957
-0.009888083685972686   -0.02459367716251217   -0.00045856334680369356
-0.01034006144620245   -0.0163881473150982   -0.00026990689908618456
-0.014324335465292626   -0.024530238032963888   -0.0005534032329993229
-0.009939430163481752   -0.024536328224942842   -0.00042106598345803184
-0.01034006144620245   -0.0163881473150982   -0.00026990689908618456
-0.01482349897358359   -0.016374166029719854   -0.00037410971362500454
-0.014324335465292626   -0.024530238032963888   -0.0005534032329993229
-0.01486876786900304   -0.016320760123257196   -0.00034372020371969454
-0.009939430163481752   -0.024536328224942842   -0.00042106598345803184
-0.01436412493181387   -0.02448577221847793   -0.0005080241195525939
-0.01486876786900304   -0.016320760123257196   -0.00034372020371969454
-0.014324335465292626   -0.024530238032963888   -0.0005534032329993229
-0.009939430163481752   -0.024536328224942842   -0.00042106598345803184
-0.01486876786900304   -0.016320760123257196   -0.00034372020371969454
-0.010393493770506265   -0.016324768704197766   -0.0002372022533552782
-0.01034006144620245   -0.0163881473150982   -0.00026990689908618456
-0.009939430163481752   -0.024536328224942842   -0.00042106598345803184
-0.01486876786900304   -0.016320760123257196   -0.00034372020371969454
-0.01034006144620245   -0.0163881473150982   -0.00026990689908618456
-0.014324335465292626   -0.024530238032963888   -0.0005534032329993229
-0.009939430163481752   -0.024536328224942842   -0.00042106598345803184
-0.010393493770506265   -0.016324768704197766   -0.0002372022533552782
-0.01436412493181387   -0.02448577221847793   -0.0005080241195525939
-0.009990960555383233   -0.02448337677284952   -0.000379621609427234
-0.010393493770506265   -0.016324768704197766   -0.0002372022533552782
-0.01486876786900304   -0.016320760123257196   -0.00034372020371969454
-0.01436412493181387   -0.02448577221847793   -0.0005080241195525939
-0.01491155157846943   -0.01626597289983652   -0.0003105383194458977
-0.009990960555383233   -0.02448337677284952   -0.000379621609427234
-0.01440361951108562   -0.024445952236957426   -0.0004582724517245397
-0.01491155157846943   -0.01626597289983652   -0.0003105383194458977
-0.01436412493181387   -0.02448577221847793   -0.0005080241195525939
-0.009990960555383233   -0.02448337677284952   -0.000379621609427234
-0.01491155157846943   -0.01626597289983652   -0.0003105383194458977
-0.010446390402182499   -0.016259925662714156   -0.00020191468055463663
-0.010393493770506265   -0.016324768704197766   -0.0002372022533552782
-0.009990960555383233   -0.02448337677284952   -0.000379621609427234
-0.01491155157846943   -0.01626597289983652   -0.0003105383194458977
-0.010393493770506265   -0.016324768704197766   -0.0002372022533552782
-0.01436412493181387   -0.02448577221847793   -0.0005080241195525939
-0.014271766788812514   -0.024577353521659517   -0.0005953119815861957
-0.01477002964689777   -0.016424804326269995   -0.00040254889719622283
-0.01897667363825887   -0.024485166866955378   -0.0006718417516293574
-0.014324335465292626   -0.024530238032963888   -0.0005534032329993229
-0.01477002964689777   -0.016424804326269995   -0.00040254889719622283
-0.019469944862409615   -0.01638248881842358   -0.0004782428209318863
-0.01897667363825887   -0.024485166866955378   -0.0006718417516293574
-0.019502986792366336   -0.01634010000829335   -0.0004567976947706258
-0.014324335465292626   -0.024530238032963888   -0.0005534032329993229
-0.01898434470977545   -0.024447680506243078   -0.0006254259254086011
-0.019502986792366336   -0.01634010000829335   -0.0004567976947706258
-0.01897667363825887   -0.024485166866955378   -0.0006718417516293574
-0.014324335465292626   -0.024530238032963888   -0.0005534032329993229
-0.019502986792366336   -0.01634010000829335   -0.0004567976947706258
-0.01482349897358359   -0.016374166029719854   -0.00037410971362500454
-0.01477002964689777   -0.016424804326269995   -0.00040254889719622283
-0.014324335465292626   -0.024530238032963888   -0.0005534032329993229
-0.019502986792366336   -0.01634010000829335   -0.0004567976947706258
-0.01477002964689777   -0.016424804326269995   -0.00040254889719622283
-0.01897667363825887   -0.024485166866955378   -0.0006718417516293574
-0.014324335465292626   -0.024530238032963888   -0.0005534032329993229
-0.01482349897358359   -0.016374166029719854   -0.00037410971362500454
-0.01898434470977545   -0.024447680506243078   -0.0006254259254086011
-0.01436412493181387   -0.02448577221847793   -0.0005080241195525939
-0.01482349897358359   -0.016374166029719854   -0.00037410971362500454
-0.019502986792366336   -0.01634010000829335   -0.0004567976947706258
-0.01898434470977545   -0.024447680506243078   -0.0006254259254086011
-0.019533199957295064   -0.016292085561184878   -0.00043058394635057045
-0.01436412493181387   -0.02448577221847793   -0.0005080241195525939
-0.018992288967381726   -0.024409833343030093   -0.0005720268618102365
-0.019533199957295064   -0.016292085561184878   -0.00043058394635057045
-0.01898434470977545   -0.024447680506243078   -0.0006254259254086011
-0.01436412493181387   -0.02448577221847793   -0.0005080241195525939
-0.019533199957295064   -0.016292085561184878   -0.00043058394635057045
-0.01486876786900304   -0.016320760123257196   -0.00034372020371969454
-0.01482349897358359   -0.016374166029719854   -0.00037410971362500454
-0.01436412493181387   -0.02448577221847793   -0.0005080241195525939
-0.019533199957295064   -0.016292085561184878   -0.00043058394635057045
-0.01482349897358359   -0.016374166029719854   -0.00037410971362500454
-0.01898434470977545   -0.024447680506243078   -0.0006254259254086011
-0.01436412493181387   -0.02448577221847793   -0.0005080241195525939
-0.01486876786900304   -0.016320760123257196   -0.00034372020371969454
-0.018992288967381726   -0.024409833343030093   -0.0005720268618102365
-0.01440361951108562   -0.024445952236957426   -0.0004582724517245397
-0.01486876786900304   -0.016320760123257196   -0.00034372020371969454
-0.019533199957295064   -0.016292085561184878   -0.00043058394635057045
-0.018992288967381726   -0.024409833343030093   -0.0005720268618102365
-0.019547629849312787   -0.016248173160473337   -0.0004007848132087111
-0.01440361951108562   -0.024445952236957426   -0.0004582724517245397
-0.018973677661458643   -0.024385239475438088   -0.000512470689064508
-0.019547629849312787   -0.016248173160473337   -0.0004007848132087111
-0.018992288967381726   -0.024409833343030093   -0.0005720268618102365
-0.01440361951108562   -0.024445952236957426   -0.0004582724517245397
-0.019547629849312787   -0.016248173160473337   -0.0004007848132087111
-0.01491155157846943   -0.01626597289983652   -0.0003105383194458977
-0.01486876786900304   -0.016320760123257196   -0.00034372020371969454
-0.01440361951108562   -0.024445952236957426   -0.0004582724517245397
-0.019547629849312787   -0.016248173160473337   -0.0004007848132087111
-0.01486876786900304   -0.016320760123257196   -0.00034372020371969454
-0.018992288967381726   -0.024409833343030093   -0.0005720268618102365
0.0032623455904978406   -0.016553530225396584   9.885067941101667e-05
0.0022877392986763536   -0.008316840192677562   0.00010644233229016097
-0.001452144519640714   -0.016476083098070447   -4.190544016702337e-05
0.003160498283526612   -0.016454952682788265   0.00014048422720626034
0.0022877392986763536   -0.008316840192677562   0.00010644233229016097
-0.0021109843017540525   -0.008209664300382079   5.5223314817821914e-05
-0.001452144519640714   -0.016476083098070447   -4.190544016702337e-05
-0.00217552144817381   -0.008168802680383062   0.0001020252783247257
0.003160498283526612   -0.016454952682788265   0.00014048422720626034
-0.0015169374271637268   -0.016394492025508862   -8.314682010668159e-06
-0.00217552144817381   -0.008168802680383062   0.0001020252783247257
-0.001452144519640714   -0.016476083098070447   -4.190544016702337e-05
0.003160498283526612   -0.016454952682788265   0.00014048422720626034
-0.00217552144817381   -0.008168802680383062   0.0001020252783247257
0.002086488674712957   -0.008211973905438113   0.00022217148719143684
0.0022877392986763536   -0.008316840192677562   0.00010644233229016097
0.003160498283526612   -0.016454952682788265   0.00014048422720626034
-0.00217552144817381   -0.008168802680383062   0.0001020252783247257
0.0022877392986763536   -0.008316840192677562   0.00010644233229016097
-0.001452144519640714   -0.016476083098070447   -4.190544016702337e-05
0.003160498283526612   -0.016454952682788265   0.00014048422720626034
0.002086488674712957   -0.008211973905438113   0.00022217148719143684
-0.0015169374271637268   -0.016394492025508862   -8.314682010668159e-06
0.0030466312818639746   -0.016357160045284647   0.00020044237682040247
0.002086488674712957   -0.008211973905438113   0.00022217148719143684
-0.00217552144817381   -0.008168802680383062   0.0001020252783247257
-0.0015169374271637268   -0.016394492025508862   -8.314682010668159e-06
-0.0022604850020457607   -0.008095538866227095   0.00015889811511862054
0.0030466312818639746   -0.016357160045284647   0.00020044237682040247
-0.0015927669614853913   -0.016308423796245353   3.127866822063223e-05
-0.0022604850020457607   -0.008095538866227095   0.00015889811511862054
-0.0015169374271637268   -0.016394492025508862   -8.314682010668159e-06
0.0030466312818639746   -0.016357160045284647   0.00020044237682040247
-0.0022604850020457607   -0.008095538866227095   0.00015889811511862054
0.0019687056434414974   -0.008126430172182793   0.00030845497290765336
0.002086488674712957   -0.008211973905438113   0.00022217148719143684
0.0030466312818639746   -0.016357160045284647   0.00020044237682040247
-0.0022604850020457607   -0.008095538866227095   0.00015889811511862054
0.002086488674712957   -0.008211973905438113   0.00022217148719143684
-0.0015169374271637268   -0.016394492025508862   -8.314682010668159e-06
0.0030466312818639746   -0.016357160045284647   0.00020044237682040247
0.0019687056434414974   -0.008126430172182793   0.00030845497290765336
-0.0015927669614853913   -0.016308423796245353   3.127866822063223e-05
0.0029074836208408915   -0.016236986629436352   0.00026644594332295905
0.0019687056434414974   -0.008126430172182793   0.00030845497290765336
-0.0022604850020457607   -0.008095538866227095   0.00015889811511862054
-0.0015927669614853913   -0.016308423796245353   3.127866822063223e-05
-0.00233198088853809   -0.008016852423561715   0.00020895382228138434
0.0029074836208408915   -0.016236986629436352   0.00026644594332295905
-0.0016712427139959779   -0.01621707750695144   7.679978328271803e-05
-0.00233198088853809   -0.008016852423561715   0.00020895382228138434
-0.0015927669614853913   -0.016308423796245353   3.127866822063223e-05
0.0029074836208408915   -0.016236986629436352   0.00026644594332295905
-0.00233198088853809   -0.008016852423561715   0.00020895382228138434
0.0018176572199097292   -0.007995470147843296   0.00040729091372650265
0.0019687056434414974   -0.008126430172182793   0.00030845497290765336
0.0029074836208408915   -0.016236986629436352   0.00026644594332295905
-0.00233198088853809   -0.008016852423561715   0.00020895382228138434
0.0019687056434414974   -0.008126430172182793   0.00030845497290765336
-0.0015927669614853913   -0.016308423796245353   3.127866822063223e-05
-0.001452144519640714   -0.016476083098070447   -4.190544016702337e-05
-0.0021109843017540525   -0.008209664300382079   5.5223314817821914e-05
-0.0058910424525633   -0.016456024868271604   -0.00017744519611217926
-0.0015169374271637268   -0.016394492025508862   -8.314682010668159e-06
-0.0021109843017540525   -0.008209664300382079   5.5223314817821914e-05
-0.006295717480385764   -0.00833148173533824   -5.2281410608717054e-05
-0.0058910424525633   -0.016456024868271604   -0.00017744519611217926
-0.006355271173321117   -0.008268649331299206   -1.907697460474376e-05
-0.0015169374271637268   -0.016394492025508862   -8.314682010668159e-06
-0.005949677986649104   -0.01638491420058642   -0.00014610651221521305
-0.006355271173321117   -0.008268649331299206   -1.907697460474376e-05
-0.0058910424525633   -0.016456024868271604   -0.00017744519611217926
-0.0015169374271637268   -0.016394492025508862   -8.314682010668159e-06
-0.006355271173321117   -0.008268649331299206   -1.907697460474376e-05
-0.00217552144817381   -0.008168802680383062   0.0001020252783247257
-0.0021109843017540525   -0.008209664300382079   5.5223314817821914e-05
-0.0015169374271637268   -0.016394492025508862   -8.314682010668159e-06
-0.006355271173321117   -0.008268649331299206   -1.907697460474376e-05
-0.0021109843017540525   -0.008209664300382079   5.5223314817821914e-05
-0.0058910424525633   -0.016456024868271604   -0.00017744519611217926
-0.0015169374271637268   -0.016394492025508862   -8.314682010668159e-06
-0.00217552144817381   -0.008168802680383062   0.0001020252783247257
-0.005949677986649104   -0.01638491420058642   -0.00014610651221521305
-0.0015927669614853913   -0.016308423796245353   3.127866822063223e-05
-0.00217552144817381   -0.008168802680383062   0.0001020252783247257
-0.006355271173321117   -0.008268649331299206   -1.907697460474376e-05
-0.005949677986649104   -0.01638491420058642   -0.00014610651221521305
-0.006417677524690676   -0.008197616437053374   1.609895234779995e-05
-0.0015927669614853913   -0.016308423796245353   3.127866822063223e-05
-0.006010350280798251   -0.016310962855337674   -0.00011164257871053278
-0.006417677524690676   -0.008197616437053374   1.609895234779995e-05
-0.005949677986649104   -0.01638491420058642   -0.00014610651221521305
-0.0015927669614853913   -0.016308423796245353   3.127866822063223e-05
-0.006417677524690676   -0.008197616437053374   1.609895234779995e-05
-0.0022604850020457607   -0.008095538866227095   0.00015889811511862054
-0.00217552144817381   -0.008168802680383062   0.0001020252783247257
-0.0015927669614853913   -0.016308423796245353   3.127866822063223e-05
-0.006417677524690676   -0.008197616437053374   1.609895234779995e-05
-0.00217552144817381   -0.008168802680383062   0.0001020252783247257
-0.005949677986649104   -0.01638491420058642   -0.00014610651221521305
-0.0015927669614853913   -0.016308423796245353   3.127866822063223e-05
-0.0022604850020457607   -0.008095538866227095   0.00015889811511862054
-0.006010350280798251   -0.016310962855337674   -0.00011164257871053278
-0.0016712427139959779   -0.01621707750695144   7.679978328271803e-05
-0.0022604850020457607   -0.008095538866227095   0.00015889811511862054
-0.006417677524690676   -0.008197616437053374   1.609895234779995e-05
-0.006010350280798251   -0.016310962855337674   -0.00011164257871053278
-0.0064770520723054946   -0.00811976336812739   5.491341092348955e-05
-0.0016712427139959779   -0.01621707750695144   7.679978328271803e-05
-0.006073531808866136   -0.016235517086354293   -7.343249643221062e-05
-0.0064770520723054946   -0.00811976336812739   5.491341092348955e-05
-0.006010350280798251   -0.016310962855337674   -0.00011164257871053278
-0.0016712427139959779   -0.01621707750695144   7.679978328271803e-05
-0.0064770520723054946   -0.00811976336812739   5.491341092348955e-05
-0.00233198088853809   -0.008016852423561715   0.00020895382228138434
-0.0022604850020457607   -0.008095538866227095   0.00015889811511862054
-0.0016712427139959779   -0.01621707750695144   7.679978328271803e-05
-0.0064770520723054946   -0.00811976336812739   5.491341092348955e-05
-0.0022604850020457607   -0.008095538866227095   0.00015889811511862054
-0.006010350280798251   -0.016310962855337674   -0.00011164257871053278
-0.0058910424525633   -0.016456024868271604   -0.00017744519611217926
-0.006295717480385764   -0.00833148173533824   -5.2281410608717054e-05
-0.010283972809437785   -0.01645042734534113   -0.0002998760555698379
-0.005949677986649104   -0.01638491420058642   -0.00014610651221521305
-0.006295717480385764   -0.00833148173533824   -5.2281410608717054e-05
-0.010582290329440625   -0.008426655876090509   -0.00017165505194543309
-0.010283972809437785   -0.01645042734534113   -0.0002998760555698379
-0.010635834643228582   -0.00836212190689725   -0.0001458827209691075
-0.005949677986649104   -0.01638491420058642   -0.00014610651221521305
-0.01034006144620245   -0.0163881473150982   -0.00026990689908618456
-0.010635834643228582   -0.00836212190689725   -0.0001458827209691075
-0.010283972809437785   -0.01645042734534113   -0.0002998760555698379
-0.005949677986649104   -0.01638491420058642   -0.00014610651221521305
-0.010635834643228582   -0.00836212190689725   -0.0001458827209691075
-0.006355271173321117   -0.008268649331299206   -1.907697460474376e-05
-0.006295717480385764   -0.00833148173533824   -5.2281410608717054e-05
-0.005949677986649104   -0.01638491420058642   -0.00014610651221521305
-0.010635834643228582   -0.00836212190689725   -0.0001458827209691075
-0.006295717480385764   -0.00833148173533824   -5.2281410608717054e-05
-0.010283972809437785   -0.01645042734534113   -0.0002998760555698379
-0.005949677986649104   -0.01638491420058642   -0.00014610651221521305
-0.006355271173321117   -0.008268649331299206   -1.907697460474376e-05
-0.01034006144620245   -0.0163881473150982   -0.00026990689908618456
-0.006010350280798251   -0.016310962855337674   -0.00011164257871053278
-0.006355271173321117   -0.008268649331299206   -1.907697460474376e-05
-0.010635834643228582   -0.00836212190689725   -0.0001458827209691075
-0.01034006144620245   -0.0163881473150982   -0.00026990689908618456
-0.010687125303899427   -0.008293923790604379   -0.00012016942391523329
-0.006010350280798251   -0.016310962855337674   -0.00011164257871053278
-0.010393493770506265   -0.016324768704197766   -0.0002372022533552782
-0.010687125303899427   -0.008293923790604379   -0.00012016942391523329
-0.01034006144620245   -0.0163881473150982   -0.00026990689908618456
-0.006010350280798251   -0.016310962855337674   -0.00011164257871053278
-0.010687125303899427   -0.008293923790604379   -0.00012016942391523329
-0.006417677524690676   -0.008197616437053374   1.609895234779995e-05
-0.006355271173321117   -0.008268649331299206   -1.907697460474376e-05
-0.006010350280798251   -0.016310962855337674   -0.00011164257871053278
-0.010687125303899427   -0.008293923790604379   -0.00012016942391523329
-0.006355271173321117   -0.008268649331299206   -1.907697460474376e-05
-0.01034006144620245   -0.0163881473150982   -0.00026990689908618456
-0.006010350280798251   -0.016310962855337674   -0.00011164257871053278
-0.006417677524690676   -0.008197616437053374   1.609895234779995e-05
-0.010393493770506265   -0.016324768704197766   -0.0002372022533552782
-0.006073531808866136   -0.016235517086354293   -7.343249643221062e-05
-0.006417677524690676   -0.008197616437053374   1.609895234779995e-05
-0.010687125303899427   -0.008293923790604379   -0.00012016942391523329
-0.010393493770506265   -0.016324768704197766   -0.0002372022533552782
-0.010734434515354836   -0.008220054979290207   -9.214918171260686e-05
-0.006073531808866136   -0.016235517086354293   -7.343249643221062e-05
-0.010446390402182499   -0.016259925662714156   -0.00020191468055463663
-0.010734434515354836   -0.008220054979290207   -9.214918171260686e-05
-0.010393493770506265   -0.016324768704197766   -0.0002372022533552782
-0.006073531808866136   -0.016235517086354293   -7.343249643221062e-05
-0.010734434515354836   -0.008220054979290207   -9.214918171260686e-05
-0.0064770520723054946   -0.00811976336812739   5.491341092348955e-05
-0.006417677524690676   -0.008197616437053374   1.609895234779995e-05
-0.006073531808866136   -0.016235517086354293   -7.343249643221062e-05
-0.010734434515354836   -0.008220054979290207   -9.214918171260686e-05
-0.006417677524690676   -0.008197616437053374   1.609895234779995e-05
-0.010393493770506265   -0.016324768704197766   -0.0002372022533552782
-0.010283972809437785   -0.01645042734534113   -0.0002998760555698379
-0.010582290329440625   -0.008426655876090509   -0.00017165505194543309
-0.01477002964689777   -0.016424804326269995   -0.00040254889719622283
-0.01034006144620245   -0.0163881473150982   -0.00026990689908618456
-0.010582290329440625   -0.008426655876090509   -0.00017165505194543309
-0.015019455856845472   -0.008465745371903444   -0.00028180692940235125
-0.01477002964689777   -0.016424804326269995   -0.00040254889719622283
-0.015067707163757963   -0.008407845884501417   -0.0002629858420212033
-0.01034006144620245   -0.0163881473150982   -0.00026990689908618456
-0.01482349897358359   -0.016374166029719854   -0.00037410971362500454
-0.015067707163757963   -0.008407845884501417   -0.0002629858420212033
-0.01477002964689777   -0.016424804326269995   -0.00040254889719622283
-0.01034006144620245   -0.0163881473150982   -0.00026990689908618456
-0.015067707163757963   -0.008407845884501417   -0.0002629858420212033
-0.010635834643228582   -0.00836212190689725   -0.0001458827209691075
-0.010582290329440625   -0.008426655876090509   -0.00017165505194543309
-0.01034006144620245   -0.0163881473150982   -0.00026990689908618456
-0.015067707163757963   -0.008407845884501417   -0.0002629858420212033
-0.010582290329440625   -0.008426655876090509   -0.00017165505194543309
-0.01477002964689777   -0.016424804326269995   -0.00040254889719622283
-0.01034006144620245   -0.0163881473150982   -0.00026990689908618456
-0.010635834643228582   -0.00836212190689725   -0.0001458827209691075
-0.01482349897358359   -0.016374166029719854   -0.00037410971362500454
-0.010393493770506265   -0.016324768704197766   -0.0002372022533552782
-0.010635834643228582   -0.00836212190689725   -0.0001458827209691075
-0.015067707163757963   -0.008407845884501417   -0.0002629858420212033
-0.01482349897358359   -0.016374166029719854   -0.00037410971362500454
-0.015110706754350191   -0.008344731952304795   -0.00024467892487685286
-0.010393493770506265   -0.016324768704197766   -0.0002372022533552782
-0.01486876786900304   -0.016320760123257196   -0.00034372020371969454
-0.015110706754350191   -0.008344731952304795   -0.00024467892487685286
-0.01482349897358359   -0.016374166029719854   -0.00037410971362500454
-0.010393493770506265   -0.016324768704197766   -0.0002372022533552782
-0.015110706754350191   -0.008344731952304795   -0.00024467892487685286
-0.010687125303899427   -0.008293923790604379   -0.00012016942391523329
-0.010635834643228582   -0.00836212190689725   -0.0001458827209691075
-0.010393493770506265   -0.016324768704197766   -0.0002372022533552782
-0.015110706754350191   -0.008344731952304795   -0.00024467892487685286
-0.010635834643228582   -0.00836212190689725   -0.0001458827209691075
-0.01482349897358359   -0.016374166029719854   -0.00037410971362500454
-0.010393493770506265   -0.016324768704197766   -0.0002372022533552782
-0.010687125303899427   -0.008293923790604379   -0.00012016942391523329
-0.01486876786900304   -0.016320760123257196   -0.00034372020371969454
-0.010446390402182499   -0.016259925662714156   -0.00020191468055463663
-0.010687125303899427   -0.008293923790604379   -0.00012016942391523329
-0.015110706754350191   -0.008344731952304795   -0.00024467892487685286
-0.01486876786900304   -0.016320760123257196   -0.00034372020371969454
-0.015149653503311841   -0.008277522588816708   -0.00022580226528289352
-0.010446390402182499   -0.016259925662714156   -0.00020191468055463663
-0.01491155157846943   -0.01626597289983652   -0.0003105383194458977
-0.015149653503311841   -0.008277522588816708   -0.00022580226528289352
-0.01486876786900304   -0.016320760123257196   -0.00034372020371969454
-0.010446390402182499   -0.016259925662714156   -0.00020191468055463663
-0.015149653503311841   -0.008277522588816708   -0.00022580226528289352
-0.010734434515354836   -0.008220054979290207   -9.214918171260686e-05
-0.010687125303899427   -0.008293923790604379   -0.00012016942391523329
-0.010446390402182499   -0.016259925662714156   -0.00020191468055463663
-0.015149653503311841   -0.008277522588816708   -0.00022580226528289352
-0.010687125303899427   -0.008293923790604379   -0.00012016942391523329
-0.01486876786900304   -0.016320760123257196   -0.00034372020371969454
-0.01477002964689777   -0.016424804326269995   -0.00040254889719622283
-0.015019455856845472   -0.008465745371903444   -0.00028180692940235125
-0.019469944862409615   -0.01638248881842358   -0.0004782428209318863
-0.01482349897358359   -0.016374166029719854   -0.00037410971362500454
-0.015019455856845472   -0.008465745371903444   -0.00028180692940235125
-0.01961528938500169   -0.008470061378212677   -0.0003730815511649894
-0.019469944862409615   -0.01638248881842358   -0.0004782428209318863
-0.019656696201341573   -0.008413887826705954   -0.0003649369558396903
-0.01482349897358359   -0.016374166029719854   -0.00037410971362500454
-0.019502986792366336   -0.01634010000829335   -0.0004567976947706258
-0.019656696201341573   -0.008413887826705954   -0.0003649369558396903
-0.019469944862409615   -0.01638248881842358   -0.0004782428209318863
-0.01482349897358359   -0.016374166029719854   -0.00037410971362500454
-0.019656696201341573   -0.008413887826705954   -0.0003649369558396903
-0.015067707163757963   -0.008407845884501417   -0.0002629858420212033
-0.015019455856845472   -0.008465745371903444   -0.00028180692940235125
-0.01482349897358359   -0.016374166029719854   -0.00037410971362500454
-0.019656696201341573   -0.008413887826705954   -0.0003649369558396903
-0.015019455856845472   -0.008465745371903444   -0.00028180692940235125
-0.019469944862409615   -0.01638248881842358   -0.0004782428209318863
-0.01482349897358359   -0.016374166029719854   -0.00037410971362500454
-0.015067707163757963   -0.008407845884501417   -0.0002629858420212033
-0.019502986792366336   -0.01634010000829335   -0.0004567976947706258
-0.01486876786900304   -0.016320760123257196   -0.00034372020371969454
-0.015067707163757963   -0.008407845884501417   -0.0002629858420212033
-0.019656696201341573   -0.008413887826705954   -0.0003649369558396903
-0.019502986792366336   -0.01634010000829335   -0.0004567976947706258
-0.019693793146027025   -0.00835310226693315   -0.00035539948946126785
-0.01486876786900304   -0.016320760123257196   -0.00034372020371969454
-0.019533199957295064   -0.016292085561184878   -0.00043058394635057045
-0.019693793146027025   -0.00835310226693315   -0.00035539948946126785
-0.019502986792366336   -0.01634010000829335   -0.0004567976947706258
-0.01486876786900304   -0.016320760123257196   -0.00034372020371969454
-0.019693793146027025   -0.00835310226693315   -0.00035539948946126785
-0.015110706754350191   -0.008344731952304795   -0.00024467892487685286
-0.015067707163757963   -0.008407845884501417   -0.0002629858420212033
-0.01486876786900304   -0.016320760123257196   -0.00034372020371969454
-0.019693793146027025   -0.00835310226693315   -0.00035539948946126785
-0.015067707163757963   -0.008407845884501417   -0.0002629858420212033
-0.019502986792366336   -0.01634010000829335   -0.0004567976947706258
-0.01486876786900304   -0.016320760123257196   -0.00034372020371969454
-0.015110706754350191   -0.008344731952304795   -0.00024467892487685286
-0.019533199957295064   -0.016292085561184878   -0.00043058394635057045
-0.01491155157846943   -0.01626597289983652   -0.0003105383194458977
-0.015110706754350191   -0.008344731952304795   -0.00024467892487685286
-0.019693793146027025   -0.00835310226693315   -0.00035539948946126785
-0.019533199957295064   -0.016292085561184878   -0.00043058394635057045
-0.019724923413423075   -0.008288745803794401   -0.0003464883204931367
-0.01491155157846943   -0.01626597289983652   -0.0003105383194458977
-0.019547629849312787   -0.016248173160473337   -0.0004007848132087111
-0.019724923413423075   -0.008288745803794401   -0.0003464883204931367
-0.019533199957295064   -0.016292085561184878   -0.00043058394635057045
-0.01491155157846943   -0.01626597289983652   -0.0003105383194458977
-0.019724923413423075   -0.008288745803794401   -0.0003464883204931367
-0.015149653503311841   -0.008277522588816708   -0.00022580226528289352
-0.015110706754350191   -0.008344731952304795   -0.00024467892487685286
-0.01491155157846943   -0.01626597289983652   -0.0003105383194458977
-0.019724923413423075   -0.008288745803794401   -0.0003464883204931367
-0.015110706754350191   -0.008344731952304795   -0.00024467892487685286
-0.019533199957295064   -0.016292085561184878   -0.00043058394635057045
0.0022877392986763536   -0.008316840192677562   0.00010644233229016097
0.0   0.0   0.0
-0.0021109843017540525   -0.008209664300382079   5.5223314817821914e-05
0.002086488674712957   -0.008211973905438113   0.00022217148719143684
0.0   0.0   0.0
-0.0026481997589597123   -0.0006746238844861002   -2.1560378964358938e-05
-0.0021109843017540525   -0.008209664300382079   5.5223314817821914e-05
-0.0028064909125779724   -0.0005249366089721363   6.9986098182327e-05
0.002086488674712957   -0.008211973905438113   0.00022217148719143684
-0.00217552144817381   -0.008168802680383062   0.0001020252783247257
-0.0028064909125779724   -0.0005249366089721363   6.9986098182327e-05
-0.0021109843017540525   -0.008209664300382079   5.5223314817821914e-05
0.002086488674712957   -0.008211973905438113   0.00022217148719143684
-0.0028064909125779724   -0.0005249366089721363   6.9986098182327e-05
0.0   0.0   0.0
0.0   0.0   0.0
0.002086488674712957   -0.008211973905438113   0.00022217148719143684
-0.0028064909125779724   -0.0005249366089721363   6.9986098182327e-05
0.0   0.0   0.0
-0.0021109843017540525   -0.008209664300382079   5.5223314817821914e-05
0.002086488674712957   -0.008211973905438113   0.00022217148719143684
0.0   0.0   0.0
-0.00217552144817381   -0.008168802680383062   0.0001020252783247257
0.0019687056434414974   -0.008126430172182793   0.00030845497290765336
0.0   0.0   0.0
-0.0028064909125779724   -0.0005249366089721363   6.9986098182327e-05
-0.00217552144817381   -0.008168802680383062   0.0001020252783247257
-0.0029059297180656168   -0.0004528871207573933   0.00012293859549831378
0.0019687056434414974   -0.008126430172182793   0.00030845497290765336
-0.0022604850020457607   -0.008095538866227095   0.00015889811511862054
-0.0029059297180656168   -0.0004528871207573933   0.00012293859549831378
-0.00217552144817381   -0.008168802680383062   0.0001020252783247257
0.0019687056434414974   -0.008126430172182793   0.00030845497290765336
-0.0029059297180656168   -0.0004528871207573933   0.00012293859549831378
0.0   0.0   0.0
0.0   0.0   0.0
0.0019687056434414974   -0.008126430172182793   0.00030845497290765336
-0.0029059297180656168   -0.0004528871207573933   0.00012293859549831378
0.0   0.0   0.0
-0.00217552144817381   -0.008168802680383062   0.0001020252783247257
0.0019687056434414974   -0.008126430172182793   0.00030845497290765336
0.0   0.0   0.0
-0.0022604850020457607   -0.008095538866227095   0.00015889811511862054
0.0018176572199097292   -0.007995470147843296   0.00040729091372650265
0.0   0.0   0.0
-0.0029059297180656168   -0.0004528871207573933   0.00012293859549831378
-0.0022604850020457607   -0.008095538866227095   0.00015889811511862054
-0.0030394177858227723   -0.0003571557725329422   0.0001837397371792576
0.0018176572199097292   -0.007995470147843296   0.00040729091372650265
-0.00233198088853809   -0.008016852423561715   0.00020895382228138434
-0.0030394177858227723   -0.0003571557725329422   0.0001837397371792576
-0.0022604850020457607   -0.008095538866227095   0.00015889811511862054
0.0018176572199097292   -0.007995470147843296   0.00040729091372650265
-0.0030394177858227723   -0.0003571557725329422   0.0001837397371792576
0.0   0.0   0.0
0.0   0.0   0.0
0.0018176572199097292   -0.007995470147843296   0.00040729091372650265
-0.0030394177858227723   -0.0003571557725329422   0.0001837397371792576
0.0   0.0   0.0
-0.0022604850020457607   -0.008095538866227095   0.00015889811511862054
-0.0021109843017540525   -0.008209664300382079   5.5223314817821914e-05
-0.0026481997589597123   -0.0006746238844861002   -2.1560378964358938e-05
-0.006295717480385764   -0.00833148173533824   -5.2281410608717054e-05
-0.00217552144817381   -0.008168802680383062   0.0001020252783247257
-0.0026481997589597123   -0.0006746238844861002   -2.1560378964358938e-05
-0.00648267406744705   -0.0008848270906868304   -1.925562897033881e-05
-0.006295717480385764   -0.00833148173533824   -5.2281410608717054e-05
-0.006564365259810164   -0.000803182296875618   4.346219535863567e-06
-0.00217552144817381   -0.008168802680383062   0.0001020252783247257
-0.006355271173321117   -0.008268649331299206   -1.907697460474376e-05
-0.006564365259810164   -0.000803182296875618   4.346219535863567e-06
-0.006295717480385764   -0.00833148173533824   -5.2281410608717054e-05
-0.00217552144817381   -0.008168802680383062   0.0001020252783247257
-0.006564365259810164   -0.000803182296875618   4.346219535863567e-06
-0.0028064909125779724   -0.0005249366089721363   6.9986098182327e-05
-0.0026481997589597123   -0.0006746238844861002   -2.1560378964358938e-05
-0.00217552144817381   -0.008168802680383062   0.0001020252783247257
-0.006564365259810164   -0.000803182296875618   4.346219535863567e-06
-0.0026481997589597123   -0.0006746238844861002   -2.1560378964358938e-05
-0.006295717480385764   -0.00833148173533824   -5.2281410608717054e-05
-0.00217552144817381   -0.008168802680383062   0.0001020252783247257
-0.0028064909125779724   -0.0005249366089721363   6.9986098182327e-05
-0.006355271173321117   -0.008268649331299206   -1.907697460474376e-05
-0.0022604850020457607   -0.008095538866227095   0.00015889811511862054
-0.0028064909125779724   -0.0005249366089721363   6.9986098182327e-05
-0.006564365259810164   -0.000803182296875618   4.346219535863567e-06
-0.006355271173321117   -0.008268649331299206   -1.907697460474376e-05
-0.006645756702893338   -0.0007076111387935185   4.6521273226538234e-05
-0.0022604850020457607   -0.008095538866227095   0.00015889811511862054
-0.006417677524690676   -0.008197616437053374   1.609895234779995e-05
-0.006645756702893338   -0.0007076111387935185   4.6521273226538234e-05
-0.006355271173321117   -0.008268649331299206   -1.907697460474376e-05
-0.0022604850020457607   -0.008095538866227095   0.00015889811511862054
-0.006645756702893338   -0.0007076111387935185   4.6521273226538234e-05
-0.0029059297180656168   -0.0004528871207573933   0.00012293859549831378
-0.0028064909125779724   -0.0005249366089721363   6.9986098182327e-05
-0.0022604850020457607   -0.008095538866227095   0.00015889811511862054
-0.006645756702893338   -0.0007076111387935185   4.6521273226538234e-05
-0.0028064909125779724   -0.0005249366089721363   6.9986098182327e-05
-0.006355271173321117   -0.008268649331299206   -1.907697460474376e-05
-0.0022604850020457607   -0.008095538866227095   0.00015889811511862054
-0.0029059297180656168   -0.0004528871207573933   0.00012293859549831378
-0.006417677524690676   -0.008197616437053374   1.609895234779995e-05
-0.00233198088853809   -0.008016852423561715   0.00020895382228138434
-0.0029059297180656168   -0.0004528871207573933   0.00012293859549831378
-0.006645756702893338   -0.0007076111387935185   4.6521273226538234e-05
-0.006417677524690676   -0.008197616437053374   1.609895234779995e-05
-0.006736054634819302   -0.0005970175668512436   8.696740655457608e-05
-0.00233198088853809   -0.008016852423561715   0.00020895382228138434
-0.0064770520723054946   -0.00811976336812739   5.491341092348955e-05
-0.006736054634819302   -0.0005970175668512436   8.696740655457608e-05
-0.006417677524690676   -0.008197616437053374   1.609895234779995e-05
-0.00233198088853809   -0.008016852423561715   0.00020895382228138434
-0.006736054634819302   -0.0005970175668512436   8.696740655457608e-05
-0.0030394177858227723   -0.0003571557725329422   0.0001837397371792576
-0.0029059297180656168   -0.0004528871207573933   0.00012293859549831378
-0.00233198088853809   -0.008016852423561715   0.00020895382228138434
-0.006736054634819302   -0.0005970175668512436   8.696740655457608e-05
-0.0029059297180656168   -0.0004528871207573933   0.00012293859549831378
-0.006417677524690676   -0.008197616437053374   1.609895234779995e-05
-0.006295717480385764   -0.00833148173533824   -5.2281410608717054e-05
-0.00648267406744705   -0.0008848270906868304   -1.925562897033881e-05
-0.010582290329440625   -0.008426655876090509   -0.00017165505194543309
-0.006355271173321117   -0.008268649331299206   -1.907697460474376e-05
-0.00648267406744705   -0.0008848270906868304   -1.925562897033881e-05
-0.010686708078786042   -0.0009441597900512881   -9.443378487380944e-05
-0.010582290329440625   -0.008426655876090509   -0.00017165505194543309
-0.010736329352310111   -0.0008806474214211683   -8.785703118702473e-05
-0.006355271173321117   -0.008268649331299206   -1.907697460474376e-05
-0.010635834643228582   -0.00836212190689725   -0.0001458827209691075
-0.010736329352310111   -0.0008806474214211683   -8.785703118702473e-05
-0.010582290329440625   -0.008426655876090509   -0.00017165505194543309
-0.006355271173321117   -0.008268649331299206   -1.907697460474376e-05
-0.010736329352310111   -0.0008806474214211683   -8.785703118702473e-05
-0.006564365259810164   -0.000803182296875618   4.346219535863567e-06
-0.00648267406744705   -0.0008848270906868304   -1.925562897033881e-05
-0.006355271173321117   -0.008268649331299206   -1.907697460474376e-05
-0.010736329352310111   -0.0008806474214211683   -8.785703118702473e-05
-0.00648267406744705   -0.0008848270906868304   -1.925562897033881e-05
-0.010582290329440625   -0.008426655876090509   -0.00017165505194543309
-0.006355271173321117   -0.008268649331299206   -1.907697460474376e-05
-0.006564365259810164   -0.000803182296875618   4.346219535863567e-06
-0.010635834643228582   -0.00836212190689725   -0.0001458827209691075
-0.006417677524690676   -0.008197616437053374   1.609895234779995e-05
-0.006564365259810164   -0.000803182296875618   4.346219535863567e-06
-0.010736329352310111   -0.0008806474214211683   -8.785703118702473e-05
-0.010635834643228582   -0.00836212190689725   -0.0001458827209691075
-0.01078793600929717   -0.0008068555849801528   -7.633749256430165e-05
-0.006417677524690676   -0.008197616437053374   1.609895234779995e-05
-0.010687125303899427   -0.008293923790604379   -0.00012016942391523329
-0.01078793600929717   -0.0008068555849801528   -7.633749256430165e-05
-0.010635834643228582   -0.00836212190689725   -0.0001458827209691075
-0.006417677524690676   -0.008197616437053374   1.609895234779995e-05
-0.01078793600929717   -0.0008068555849801528   -7.633749256430165e-05
-0.006645756702893338   -0.0007076111387935185   4.6521273226538234e-05
-0.006564365259810164   -0.000803182296875618   4.346219535863567e-06
-0.006417677524690676   -0.008197616437053374   1.609895234779995e-05
-0.01078793600929717   -0.0008068555849801528   -7.633749256430165e-05
-0.006564365259810164   -0.000803182296875618   4.346219535863567e-06
-0.010635834643228582   -0.00836212190689725   -0.0001458827209691075
-0.006417677524690676   -0.008197616437053374   1.609895234779995e-05
-0.006645756702893338   -0.0007076111387935185   4.6521273226538234e-05
-0.010687125303899427   -0.008293923790604379   -0.00012016942391523329
-0.0064770520723054946   -0.00811976336812739   5.491341092348955e-05
-0.006645756702893338   -0.0007076111387935185   4.6521273226538234e-05
-0.01078793600929717   -0.0008068555849801528   -7.633749256430165e-05
-0.010687125303899427   -0.008293923790604379   -0.00012016942391523329
-0.010837042466602437   -0.0007169471413376884   -6.109532976662839e-05
-0.0064770520723054946   -0.00811976336812739   5.491341092348955e-05
-0.010734434515354836   -0.008220054979290207   -9.214918171260686e-05
-0.010837042466602437   -0.0007169471413376884   -6.109532976662839e-05
-0.010687125303899427   -0.008293923790604379   -0.00012016942391523329
-0.0064770520723054946   -0.00811976336812739   5.491341092348955e-05
-0.010837042466602437   -0.0007169471413376884   -6.109532976662839e-05
-0.006736054634819302   -0.0005970175668512436   8.696740655457608e-05
-0.006645756702893338   -0.0007076111387935185   4.6521273226538234e-05
-0.0064770520723054946   -0.00811976336812739   5.491341092348955e-05
-0.010837042466602437   -0.0007169471413376884   -6.109532976662839e-05
-0.006645756702893338   -0.0007076111387935185   4.6521273226538234e-05
-0.010687125303899427   -0.008293923790604379   -0.00012016942391523329
-0.010582290329440625   -0.008426655876090509   -0.00017165505194543309
-0.010686708078786042   -0.0009441597900512881   -9.443378487380944e-05
-0.015019455856845472   -0.008465745371903444   -0.00028180692940235125
-0.010635834643228582   -0.00836212190689725   -0.0001458827209691075
-0.010686708078786042   -0.0009441597900512881   -9.443378487380944e-05
-0.015097271902444578   -0.0009346417808183023   -0.00020295510764867938
-0.015019455856845472   -0.008465745371903444   -0.00028180692940235125
-0.015130801465076822   -0.000877683355201853   -0.00020013347076478275
-0.010635834643228582   -0.00836212190689725   -0.0001458827209691075
-0.015067707163757963   -0.008407845884501417   -0.0002629858420212033
-0.015130801465076822   -0.000877683355201853   -0.00020013347076478275
-0.015019455856845472   -0.008465745371903444   -0.00028180692940235125
-0.010635834643228582   -0.00836212190689725   -0.0001458827209691075
-0.015130801465076822   -0.000877683355201853   -0.00020013347076478275
-0.010736329352310111   -0.0008806474214211683   -8.785703118702473e-05
-0.010686708078786042   -0.0009441597900512881   -9.443378487380944e-05
-0.010635834643228582   -0.00836212190689725   -0.0001458827209691075
-0.015130801465076822   -0.000877683355201853   -0.00020013347076478275
-0.010686708078786042   -0.0009441597900512881   -9.443378487380944e-05
-0.015019455856845472   -0.008465745371903444   -0.00028180692940235125
-0.010635834643228582   -0.00836212190689725   -0.0001458827209691075
-0.010736329352310111   -0.0008806474214211683   -8.785703118702473e-05
-0.015067707163757963   -0.008407845884501417   -0.0002629858420212033
-0.010687125303899427   -0.008293923790604379   -0.00012016942391523329
-0.010736329352310111   -0.0008806474214211683   -8.785703118702473e-05
-0.015130801465076822   -0.000877683355201853   -0.00020013347076478275
-0.015067707163757963   -0.008407845884501417   -0.0002629858420212033
-0.015165779174673277   -0.0008142121579094416   -0.00019813764771062784
-0.010687125303899427   -0.008293923790604379   -0.00012016942391523329
-0.015110706754350191   -0.008344731952304795   -0.00024467892487685286
-0.015165779174673277   -0.0008142121579094416   -0.00019813764771062784
-0.015067707163757963   -0.008407845884501417   -0.0002629858420212033
-0.010687125303899427   -0.008293923790604379   -0.00012016942391523329
-0.015165779174673277   -0.0008142121579094416   -0.00019813764771062784
-0.01078793600929717   -0.0008068555849801528   -7.633749256430165e-05
-0.010736329352310111   -0.0008806474214211683   -8.785703118702473e-05
-0.010687125303899427   -0.008293923790604379   -0.00012016942391523329
-0.015165779174673277   -0.0008142121579094416   -0.00019813764771062784
-0.010736329352310111   -0.0008806474214211683   -8.785703118702473e-05
-0.015067707163757963   -0.008407845884501417   -0.0002629858420212033
-0.010687125303899427   -0.008293923790604379   -0.00012016942391523329
-0.01078793600929717   -0.0008068555849801528   -7.633749256430165e-05
-0.015110706754350191   -0.008344731952304795   -0.00024467892487685286
-0.010734434515354836   -0.008220054979290207   -9.214918171260686e-05
-0.01078793600929717   -0.0008068555849801528   -7.633749256430165e-05
-0.015165779174673277   -0.0008142121579094416   -0.00019813764771062784
-0.015110706754350191   -0.008344731952304795   -0.00024467892487685286
-0.015192429442137641   -0.0007454145492750289   -0.00019711340378012789
-0.010734434515354836   -0.008220054979290207   -9.214918171260686e-05
-0.015149653503311841   -0.008277522588816708   -0.00022580226528289352
-0.015192429442137641   -0.0007454145492750289   -0.00019711340378012789
-0.015110706754350191   -0.008344731952304795   -0.00024467892487685286
-0.010734434515354836   -0.008220054979290207   -9.214918171260686e-05
-0.015192429442137641   -0.0007454145492750289   -0.00019711340378012789
-0.010837042466602437   -0.0007169471413376884   -6.109532976662839e-05
-0.01078793600929717   -0.0008068555849801528   -7.633749256430165e-05
-0.010734434515354836   -0.008220054979290207   -9.214918171260686e-05
-0.015192429442137641   -0.0007454145492750289   -0.00019711340378012789
-0.01078793600929717   -0.0008068555849801528   -7.633749256430165e-05
-0.015110706754350191   -0.008344731952304795   -0.00024467892487685286
-0.015019455856845472   -0.008465745371903444   -0.00028180692940235125
-0.015097271902444578   -0.0009346417808183023   -0.00020295510764867938
-0.01961528938500169   -0.008470061378212677   -0.0003730815511649894
-0.015067707163757963   -0.008407845884501417   -0.0002629858420212033
-0.015097271902444578   -0.0009346417808183023   -0.00020295510764867938
-0.01963005523992314   -0.0009280266677440677   -0.00030982587963345284
-0.01961528938500169   -0.008470061378212677   -0.0003730815511649894
-0.019657016386605945   -0.0008662667515630514   -0.0003097513008916292
-0.015067707163757963   -0.008407845884501417   -0.0002629858420212033
-0.019656696201341573   -0.008413887826705954   -0.0003649369558396903
-0.019657016386605945   -0.0008662667515630514   -0.0003097513008916292
-0.01961528938500169   -0.008470061378212677   -0.0003730815511649894
-0.015067707163757963   -0.008407845884501417   -0.0002629858420212033
-0.019657016386605945   -0.0008662667515630514   -0.0003097513008916292
-0.015130801465076822   -0.000877683355201853   -0.00020013347076478275
-0.015097271902444578   -0.0009346417808183023   -0.00020295510764867938
-0.015067707163757963   -0.008407845884501417   -0.0002629858420212033
-0.019657016386605945   -0.0008662667515630514   -0.0003097513008916292
-0.015097271902444578   -0.0009346417808183023   -0.00020295510764867938
-0.01961528938500169   -0.008470061378212677   -0.0003730815511649894
-0.015067707163757963   -0.008407845884501417   -0.0002629858420212033
-0.015130801465076822   -0.000877683355201853   -0.00020013347076478275
-0.019656696201341573   -0.008413887826705954   -0.0003649369558396903
-0.015110706754350191   -0.008344731952304795   -0.00024467892487685286
-0.015130801465076822   -0.000877683355201853   -0.00020013347076478275
-0.019657016386605945   -0.0008662667515630514   -0.0003097513008916292
-0.019656696201341573   -0.008413887826705954   -0.0003649369558396903
-0.01968660554643806   -0.0008045178951387967   -0.0003144984499117978
-0.015110706754350191   -0.008344731952304795   -0.00024467892487685286
-0.019693793146027025   -0.00835310226693315   -0.00035539948946126785
-0.01968660554643806   -0.0008045178951387967   -0.0003144984499117978
-0.019656696201341573   -0.008413887826705954   -0.0003649369558396903
-0.015110706754350191   -0.008344731952304795   -0.00024467892487685286
-0.01968660554643806   -0.0008045178951387967   -0.0003144984499117978
-0.015165779174673277   -0.0008142121579094416   -0.00019813764771062784
-0.015130801465076822   -0.000877683355201853   -0.00020013347076478275
-0.015110706754350191   -0.008344731952304795   -0.00024467892487685286
-0.01968660554643806   -0.0008045178951387967   -0.0003144984499117978
-0.015130801465076822   -0.000877683355201853   -0.00020013347076478275
-0.019656696201341573   -0.008413887826705954   -0.0003649369558396903
-0.015110706754350191   -0.008344731952304795   -0.00024467892487685286
-0.015165779174673277   -0.0008142121579094416   -0.00019813764771062784
-0.019693793146027025   -0.00835310226693315   -0.00035539948946126785
-0.015149653503311841   -0.008277522588816708   -0.00022580226528289352
-0.015165779174673277   -0.0008142121579094416   -0.00019813764771062784
-0.01968660554643806   -0.0008045178951387967   -0.0003144984499117978
-0.019693793146027025   -0.00835310226693315   -0.00035539948946126785
-0.019708432318601334   -0.0007372559201412651   -0.00031953406822577795
-0.015149653503311841   -0.008277522588816708   -0.00022580226528289352
-0.019724923413423075   -0.008288745803794401   -0.0003464883204931367
-0.019708432318601334   -0.0007372559201412651   -0.00031953406822577795
-0.019693793146027025   -0.00835310226693315   -0.00035539948946126785
-0.015149653503311841   -0.008277522588816708   -0.00022580226528289352
-0.019708432318601334   -0.0007372559201412651   -0.00031953406822577795
-0.015192429442137641   -0.0007454145492750289   -0.00019711340378012789
-0.015165779174673277   -0.0008142121579094416   -0.00019813764771062784
-0.015149653503311841   -0.008277522588816708   -0.00022580226528289352
-0.019708432318601334   -0.0007372559201412651   -0.00031953406822577795
-0.015165779174673277   -0.0008142121579094416   -0.00019813764771062784
-0.019693793146027025   -0.00835310226693315   -0.00035539948946126785
              </DataArray>   
          </PointData>  
       </Piece>  
   </UnstructuredGrid> 
</VTKFile> 
