<?xml version="1.0"?> 
<VTKFile type="UnstructuredGrid"> 
   <UnstructuredGrid> 
      <Piece NumberOfPoints="6000"  NumberOfCells="1500">  
          <Points>  
             <DataArray type="Float64" NumberOfComponents="3" format="ascii">   
-500.0   0.0   0.0
-450.0   0.0   0.0
-500.0   30.0   0.0
-500.0   0.0   16.666666666666668
-450.0   0.0   0.0
-450.0   30.0   0.0
-500.0   30.0   0.0
-450.0   30.0   16.666666666666668
-500.0   0.0   16.666666666666668
-500.0   30.0   16.666666666666668
-450.0   30.0   16.666666666666668
-500.0   30.0   0.0
-500.0   0.0   16.666666666666668
-450.0   30.0   16.666666666666668
-450.0   0.0   16.666666666666668
-450.0   0.0   0.0
-500.0   0.0   16.666666666666668
-450.0   30.0   16.666666666666668
-450.0   0.0   0.0
-500.0   30.0   0.0
-500.0   0.0   16.666666666666668
-450.0   0.0   16.666666666666668
-500.0   30.0   16.666666666666668
-500.0   0.0   33.333333333333336
-450.0   0.0   16.666666666666668
-450.0   30.0   16.666666666666668
-500.0   30.0   16.666666666666668
-450.0   30.0   33.333333333333336
-500.0   0.0   33.333333333333336
-500.0   30.0   33.333333333333336
-450.0   30.0   33.333333333333336
-500.0   30.0   16.666666666666668
-500.0   0.0   33.333333333333336
-450.0   30.0   33.333333333333336
-450.0   0.0   33.333333333333336
-450.0   0.0   16.666666666666668
-500.0   0.0   33.333333333333336
-450.0   30.0   33.333333333333336
-450.0   0.0   16.666666666666668
-500.0   30.0   16.666666666666668
-500.0   0.0   33.333333333333336
-450.0   0.0   33.333333333333336
-500.0   30.0   33.333333333333336
-500.0   0.0   50.0
-450.0   0.0   33.333333333333336
-450.0   30.0   33.333333333333336
-500.0   30.0   33.333333333333336
-450.0   30.0   50.0
-500.0   0.0   50.0
-500.0   30.0   50.0
-450.0   30.0   50.0
-500.0   30.0   33.333333333333336
-500.0   0.0   50.0
-450.0   30.0   50.0
-450.0   0.0   50.0
-450.0   0.0   33.333333333333336
-500.0   0.0   50.0
-450.0   30.0   50.0
-450.0   0.0   33.333333333333336
-500.0   30.0   33.333333333333336
-500.0   30.0   0.0
-450.0   30.0   0.0
-500.0   60.0   0.0
-500.0   30.0   16.666666666666668
-450.0   30.0   0.0
-450.0   60.0   0.0
-500.0   60.0   0.0
-450.0   60.0   16.666666666666668
-500.0   30.0   16.666666666666668
-500.0   60.0   16.666666666666668
-450.0   60.0   16.666666666666668
-500.0   60.0   0.0
-500.0   30.0   16.666666666666668
-450.0   60.0   16.666666666666668
-450.0   30.0   16.666666666666668
-450.0   30.0   0.0
-500.0   30.0   16.666666666666668
-450.0   60.0   16.666666666666668
-450.0   30.0   0.0
-500.0   60.0   0.0
-500.0   30.0   16.666666666666668
-450.0   30.0   16.666666666666668
-500.0   60.0   16.666666666666668
-500.0   30.0   33.333333333333336
-450.0   30.0   16.666666666666668
-450.0   60.0   16.666666666666668
-500.0   60.0   16.666666666666668
-450.0   60.0   33.333333333333336
-500.0   30.0   33.333333333333336
-500.0   60.0   33.333333333333336
-450.0   60.0   33.333333333333336
-500.0   60.0   16.666666666666668
-500.0   30.0   33.333333333333336
-450.0   60.0   33.333333333333336
-450.0   30.0   33.333333333333336
-450.0   30.0   16.666666666666668
-500.0   30.0   33.333333333333336
-450.0   60.0   33.333333333333336
-450.0   30.0   16.666666666666668
-500.0   60.0   16.666666666666668
-500.0   30.0   33.333333333333336
-450.0   30.0   33.333333333333336
-500.0   60.0   33.333333333333336
-500.0   30.0   50.0
-450.0   30.0   33.333333333333336
-450.0   60.0   33.333333333333336
-500.0   60.0   33.333333333333336
-450.0   60.0   50.0
-500.0   30.0   50.0
-500.0   60.0   50.0
-450.0   60.0   50.0
-500.0   60.0   33.333333333333336
-500.0   30.0   50.0
-450.0   60.0   50.0
-450.0   30.0   50.0
-450.0   30.0   33.333333333333336
-500.0   30.0   50.0
-450.0   60.0   50.0
-450.0   30.0   33.333333333333336
-500.0   60.0   33.333333333333336
-500.0   60.0   0.0
-450.0   60.0   0.0
-500.0   90.0   0.0
-500.0   60.0   16.666666666666668
-450.0   60.0   0.0
-450.0   90.0   0.0
-500.0   90.0   0.0
-450.0   90.0   16.666666666666668
-500.0   60.0   16.666666666666668
-500.0   90.0   16.666666666666668
-450.0   90.0   16.666666666666668
-500.0   90.0   0.0
-500.0   60.0   16.666666666666668
-450.0   90.0   16.666666666666668
-450.0   60.0   16.666666666666668
-450.0   60.0   0.0
-500.0   60.0   16.666666666666668
-450.0   90.0   16.666666666666668
-450.0   60.0   0.0
-500.0   90.0   0.0
-500.0   60.0   16.666666666666668
-450.0   60.0   16.666666666666668
-500.0   90.0   16.666666666666668
-500.0   60.0   33.333333333333336
-450.0   60.0   16.666666666666668
-450.0   90.0   16.666666666666668
-500.0   90.0   16.666666666666668
-450.0   90.0   33.333333333333336
-500.0   60.0   33.333333333333336
-500.0   90.0   33.333333333333336
-450.0   90.0   33.333333333333336
-500.0   90.0   16.666666666666668
-500.0   60.0   33.333333333333336
-450.0   90.0   33.333333333333336
-450.0   60.0   33.333333333333336
-450.0   60.0   16.666666666666668
-500.0   60.0   33.333333333333336
-450.0   90.0   33.333333333333336
-450.0   60.0   16.666666666666668
-500.0   90.0   16.666666666666668
-500.0   60.0   33.333333333333336
-450.0   60.0   33.333333333333336
-500.0   90.0   33.333333333333336
-500.0   60.0   50.0
-450.0   60.0   33.333333333333336
-450.0   90.0   33.333333333333336
-500.0   90.0   33.333333333333336
-450.0   90.0   50.0
-500.0   60.0   50.0
-500.0   90.0   50.0
-450.0   90.0   50.0
-500.0   90.0   33.333333333333336
-500.0   60.0   50.0
-450.0   90.0   50.0
-450.0   60.0   50.0
-450.0   60.0   33.333333333333336
-500.0   60.0   50.0
-450.0   90.0   50.0
-450.0   60.0   33.333333333333336
-500.0   90.0   33.333333333333336
-500.0   90.0   0.0
-450.0   90.0   0.0
-500.0   120.0   0.0
-500.0   90.0   16.666666666666668
-450.0   90.0   0.0
-450.0   120.0   0.0
-500.0   120.0   0.0
-450.0   120.0   16.666666666666668
-500.0   90.0   16.666666666666668
-500.0   120.0   16.666666666666668
-450.0   120.0   16.666666666666668
-500.0   120.0   0.0
-500.0   90.0   16.666666666666668
-450.0   120.0   16.666666666666668
-450.0   90.0   16.666666666666668
-450.0   90.0   0.0
-500.0   90.0   16.666666666666668
-450.0   120.0   16.666666666666668
-450.0   90.0   0.0
-500.0   120.0   0.0
-500.0   90.0   16.666666666666668
-450.0   90.0   16.666666666666668
-500.0   120.0   16.666666666666668
-500.0   90.0   33.333333333333336
-450.0   90.0   16.666666666666668
-450.0   120.0   16.666666666666668
-500.0   120.0   16.666666666666668
-450.0   120.0   33.333333333333336
-500.0   90.0   33.333333333333336
-500.0   120.0   33.333333333333336
-450.0   120.0   33.333333333333336
-500.0   120.0   16.666666666666668
-500.0   90.0   33.333333333333336
-450.0   120.0   33.333333333333336
-450.0   90.0   33.333333333333336
-450.0   90.0   16.666666666666668
-500.0   90.0   33.333333333333336
-450.0   120.0   33.333333333333336
-450.0   90.0   16.666666666666668
-500.0   120.0   16.666666666666668
-500.0   90.0   33.333333333333336
-450.0   90.0   33.333333333333336
-500.0   120.0   33.333333333333336
-500.0   90.0   50.0
-450.0   90.0   33.333333333333336
-450.0   120.0   33.333333333333336
-500.0   120.0   33.333333333333336
-450.0   120.0   50.0
-500.0   90.0   50.0
-500.0   120.0   50.0
-450.0   120.0   50.0
-500.0   120.0   33.333333333333336
-500.0   90.0   50.0
-450.0   120.0   50.0
-450.0   90.0   50.0
-450.0   90.0   33.333333333333336
-500.0   90.0   50.0
-450.0   120.0   50.0
-450.0   90.0   33.333333333333336
-500.0   120.0   33.333333333333336
-500.0   120.0   0.0
-450.0   120.0   0.0
-500.0   150.0   0.0
-500.0   120.0   16.666666666666668
-450.0   120.0   0.0
-450.0   150.0   0.0
-500.0   150.0   0.0
-450.0   150.0   16.666666666666668
-500.0   120.0   16.666666666666668
-500.0   150.0   16.666666666666668
-450.0   150.0   16.666666666666668
-500.0   150.0   0.0
-500.0   120.0   16.666666666666668
-450.0   150.0   16.666666666666668
-450.0   120.0   16.666666666666668
-450.0   120.0   0.0
-500.0   120.0   16.666666666666668
-450.0   150.0   16.666666666666668
-450.0   120.0   0.0
-500.0   150.0   0.0
-500.0   120.0   16.666666666666668
-450.0   120.0   16.666666666666668
-500.0   150.0   16.666666666666668
-500.0   120.0   33.333333333333336
-450.0   120.0   16.666666666666668
-450.0   150.0   16.666666666666668
-500.0   150.0   16.666666666666668
-450.0   150.0   33.333333333333336
-500.0   120.0   33.333333333333336
-500.0   150.0   33.333333333333336
-450.0   150.0   33.333333333333336
-500.0   150.0   16.666666666666668
-500.0   120.0   33.333333333333336
-450.0   150.0   33.333333333333336
-450.0   120.0   33.333333333333336
-450.0   120.0   16.666666666666668
-500.0   120.0   33.333333333333336
-450.0   150.0   33.333333333333336
-450.0   120.0   16.666666666666668
-500.0   150.0   16.666666666666668
-500.0   120.0   33.333333333333336
-450.0   120.0   33.333333333333336
-500.0   150.0   33.333333333333336
-500.0   120.0   50.0
-450.0   120.0   33.333333333333336
-450.0   150.0   33.333333333333336
-500.0   150.0   33.333333333333336
-450.0   150.0   50.0
-500.0   120.0   50.0
-500.0   150.0   50.0
-450.0   150.0   50.0
-500.0   150.0   33.333333333333336
-500.0   120.0   50.0
-450.0   150.0   50.0
-450.0   120.0   50.0
-450.0   120.0   33.333333333333336
-500.0   120.0   50.0
-450.0   150.0   50.0
-450.0   120.0   33.333333333333336
-500.0   150.0   33.333333333333336
-450.0   0.0   0.0
-400.0   0.0   0.0
-450.0   30.0   0.0
-450.0   0.0   16.666666666666668
-400.0   0.0   0.0
-400.0   30.0   0.0
-450.0   30.0   0.0
-400.0   30.0   16.666666666666668
-450.0   0.0   16.666666666666668
-450.0   30.0   16.666666666666668
-400.0   30.0   16.666666666666668
-450.0   30.0   0.0
-450.0   0.0   16.666666666666668
-400.0   30.0   16.666666666666668
-400.0   0.0   16.666666666666668
-400.0   0.0   0.0
-450.0   0.0   16.666666666666668
-400.0   30.0   16.666666666666668
-400.0   0.0   0.0
-450.0   30.0   0.0
-450.0   0.0   16.666666666666668
-400.0   0.0   16.666666666666668
-450.0   30.0   16.666666666666668
-450.0   0.0   33.333333333333336
-400.0   0.0   16.666666666666668
-400.0   30.0   16.666666666666668
-450.0   30.0   16.666666666666668
-400.0   30.0   33.333333333333336
-450.0   0.0   33.333333333333336
-450.0   30.0   33.333333333333336
-400.0   30.0   33.333333333333336
-450.0   30.0   16.666666666666668
-450.0   0.0   33.333333333333336
-400.0   30.0   33.333333333333336
-400.0   0.0   33.333333333333336
-400.0   0.0   16.666666666666668
-450.0   0.0   33.333333333333336
-400.0   30.0   33.333333333333336
-400.0   0.0   16.666666666666668
-450.0   30.0   16.666666666666668
-450.0   0.0   33.333333333333336
-400.0   0.0   33.333333333333336
-450.0   30.0   33.333333333333336
-450.0   0.0   50.0
-400.0   0.0   33.333333333333336
-400.0   30.0   33.333333333333336
-450.0   30.0   33.333333333333336
-400.0   30.0   50.0
-450.0   0.0   50.0
-450.0   30.0   50.0
-400.0   30.0   50.0
-450.0   30.0   33.333333333333336
-450.0   0.0   50.0
-400.0   30.0   50.0
-400.0   0.0   50.0
-400.0   0.0   33.333333333333336
-450.0   0.0   50.0
-400.0   30.0   50.0
-400.0   0.0   33.333333333333336
-450.0   30.0   33.333333333333336
-450.0   30.0   0.0
-400.0   30.0   0.0
-450.0   60.0   0.0
-450.0   30.0   16.666666666666668
-400.0   30.0   0.0
-400.0   60.0   0.0
-450.0   60.0   0.0
-400.0   60.0   16.666666666666668
-450.0   30.0   16.666666666666668
-450.0   60.0   16.666666666666668
-400.0   60.0   16.666666666666668
-450.0   60.0   0.0
-450.0   30.0   16.666666666666668
-400.0   60.0   16.666666666666668
-400.0   30.0   16.666666666666668
-400.0   30.0   0.0
-450.0   30.0   16.666666666666668
-400.0   60.0   16.666666666666668
-400.0   30.0   0.0
-450.0   60.0   0.0
-450.0   30.0   16.666666666666668
-400.0   30.0   16.666666666666668
-450.0   60.0   16.666666666666668
-450.0   30.0   33.333333333333336
-400.0   30.0   16.666666666666668
-400.0   60.0   16.666666666666668
-450.0   60.0   16.666666666666668
-400.0   60.0   33.333333333333336
-450.0   30.0   33.333333333333336
-450.0   60.0   33.333333333333336
-400.0   60.0   33.333333333333336
-450.0   60.0   16.666666666666668
-450.0   30.0   33.333333333333336
-400.0   60.0   33.333333333333336
-400.0   30.0   33.333333333333336
-400.0   30.0   16.666666666666668
-450.0   30.0   33.333333333333336
-400.0   60.0   33.333333333333336
-400.0   30.0   16.666666666666668
-450.0   60.0   16.666666666666668
-450.0   30.0   33.333333333333336
-400.0   30.0   33.333333333333336
-450.0   60.0   33.333333333333336
-450.0   30.0   50.0
-400.0   30.0   33.333333333333336
-400.0   60.0   33.333333333333336
-450.0   60.0   33.333333333333336
-400.0   60.0   50.0
-450.0   30.0   50.0
-450.0   60.0   50.0
-400.0   60.0   50.0
-450.0   60.0   33.333333333333336
-450.0   30.0   50.0
-400.0   60.0   50.0
-400.0   30.0   50.0
-400.0   30.0   33.333333333333336
-450.0   30.0   50.0
-400.0   60.0   50.0
-400.0   30.0   33.333333333333336
-450.0   60.0   33.333333333333336
-450.0   60.0   0.0
-400.0   60.0   0.0
-450.0   90.0   0.0
-450.0   60.0   16.666666666666668
-400.0   60.0   0.0
-400.0   90.0   0.0
-450.0   90.0   0.0
-400.0   90.0   16.666666666666668
-450.0   60.0   16.666666666666668
-450.0   90.0   16.666666666666668
-400.0   90.0   16.666666666666668
-450.0   90.0   0.0
-450.0   60.0   16.666666666666668
-400.0   90.0   16.666666666666668
-400.0   60.0   16.666666666666668
-400.0   60.0   0.0
-450.0   60.0   16.666666666666668
-400.0   90.0   16.666666666666668
-400.0   60.0   0.0
-450.0   90.0   0.0
-450.0   60.0   16.666666666666668
-400.0   60.0   16.666666666666668
-450.0   90.0   16.666666666666668
-450.0   60.0   33.333333333333336
-400.0   60.0   16.666666666666668
-400.0   90.0   16.666666666666668
-450.0   90.0   16.666666666666668
-400.0   90.0   33.333333333333336
-450.0   60.0   33.333333333333336
-450.0   90.0   33.333333333333336
-400.0   90.0   33.333333333333336
-450.0   90.0   16.666666666666668
-450.0   60.0   33.333333333333336
-400.0   90.0   33.333333333333336
-400.0   60.0   33.333333333333336
-400.0   60.0   16.666666666666668
-450.0   60.0   33.333333333333336
-400.0   90.0   33.333333333333336
-400.0   60.0   16.666666666666668
-450.0   90.0   16.666666666666668
-450.0   60.0   33.333333333333336
-400.0   60.0   33.333333333333336
-450.0   90.0   33.333333333333336
-450.0   60.0   50.0
-400.0   60.0   33.333333333333336
-400.0   90.0   33.333333333333336
-450.0   90.0   33.333333333333336
-400.0   90.0   50.0
-450.0   60.0   50.0
-450.0   90.0   50.0
-400.0   90.0   50.0
-450.0   90.0   33.333333333333336
-450.0   60.0   50.0
-400.0   90.0   50.0
-400.0   60.0   50.0
-400.0   60.0   33.333333333333336
-450.0   60.0   50.0
-400.0   90.0   50.0
-400.0   60.0   33.333333333333336
-450.0   90.0   33.333333333333336
-450.0   90.0   0.0
-400.0   90.0   0.0
-450.0   120.0   0.0
-450.0   90.0   16.666666666666668
-400.0   90.0   0.0
-400.0   120.0   0.0
-450.0   120.0   0.0
-400.0   120.0   16.666666666666668
-450.0   90.0   16.666666666666668
-450.0   120.0   16.666666666666668
-400.0   120.0   16.666666666666668
-450.0   120.0   0.0
-450.0   90.0   16.666666666666668
-400.0   120.0   16.666666666666668
-400.0   90.0   16.666666666666668
-400.0   90.0   0.0
-450.0   90.0   16.666666666666668
-400.0   120.0   16.666666666666668
-400.0   90.0   0.0
-450.0   120.0   0.0
-450.0   90.0   16.666666666666668
-400.0   90.0   16.666666666666668
-450.0   120.0   16.666666666666668
-450.0   90.0   33.333333333333336
-400.0   90.0   16.666666666666668
-400.0   120.0   16.666666666666668
-450.0   120.0   16.666666666666668
-400.0   120.0   33.333333333333336
-450.0   90.0   33.333333333333336
-450.0   120.0   33.333333333333336
-400.0   120.0   33.333333333333336
-450.0   120.0   16.666666666666668
-450.0   90.0   33.333333333333336
-400.0   120.0   33.333333333333336
-400.0   90.0   33.333333333333336
-400.0   90.0   16.666666666666668
-450.0   90.0   33.333333333333336
-400.0   120.0   33.333333333333336
-400.0   90.0   16.666666666666668
-450.0   120.0   16.666666666666668
-450.0   90.0   33.333333333333336
-400.0   90.0   33.333333333333336
-450.0   120.0   33.333333333333336
-450.0   90.0   50.0
-400.0   90.0   33.333333333333336
-400.0   120.0   33.333333333333336
-450.0   120.0   33.333333333333336
-400.0   120.0   50.0
-450.0   90.0   50.0
-450.0   120.0   50.0
-400.0   120.0   50.0
-450.0   120.0   33.333333333333336
-450.0   90.0   50.0
-400.0   120.0   50.0
-400.0   90.0   50.0
-400.0   90.0   33.333333333333336
-450.0   90.0   50.0
-400.0   120.0   50.0
-400.0   90.0   33.333333333333336
-450.0   120.0   33.333333333333336
-450.0   120.0   0.0
-400.0   120.0   0.0
-450.0   150.0   0.0
-450.0   120.0   16.666666666666668
-400.0   120.0   0.0
-400.0   150.0   0.0
-450.0   150.0   0.0
-400.0   150.0   16.666666666666668
-450.0   120.0   16.666666666666668
-450.0   150.0   16.666666666666668
-400.0   150.0   16.666666666666668
-450.0   150.0   0.0
-450.0   120.0   16.666666666666668
-400.0   150.0   16.666666666666668
-400.0   120.0   16.666666666666668
-400.0   120.0   0.0
-450.0   120.0   16.666666666666668
-400.0   150.0   16.666666666666668
-400.0   120.0   0.0
-450.0   150.0   0.0
-450.0   120.0   16.666666666666668
-400.0   120.0   16.666666666666668
-450.0   150.0   16.666666666666668
-450.0   120.0   33.333333333333336
-400.0   120.0   16.666666666666668
-400.0   150.0   16.666666666666668
-450.0   150.0   16.666666666666668
-400.0   150.0   33.333333333333336
-450.0   120.0   33.333333333333336
-450.0   150.0   33.333333333333336
-400.0   150.0   33.333333333333336
-450.0   150.0   16.666666666666668
-450.0   120.0   33.333333333333336
-400.0   150.0   33.333333333333336
-400.0   120.0   33.333333333333336
-400.0   120.0   16.666666666666668
-450.0   120.0   33.333333333333336
-400.0   150.0   33.333333333333336
-400.0   120.0   16.666666666666668
-450.0   150.0   16.666666666666668
-450.0   120.0   33.333333333333336
-400.0   120.0   33.333333333333336
-450.0   150.0   33.333333333333336
-450.0   120.0   50.0
-400.0   120.0   33.333333333333336
-400.0   150.0   33.333333333333336
-450.0   150.0   33.333333333333336
-400.0   150.0   50.0
-450.0   120.0   50.0
-450.0   150.0   50.0
-400.0   150.0   50.0
-450.0   150.0   33.333333333333336
-450.0   120.0   50.0
-400.0   150.0   50.0
-400.0   120.0   50.0
-400.0   120.0   33.333333333333336
-450.0   120.0   50.0
-400.0   150.0   50.0
-400.0   120.0   33.333333333333336
-450.0   150.0   33.333333333333336
-400.0   0.0   0.0
-350.0   0.0   0.0
-400.0   30.0   0.0
-400.0   0.0   16.666666666666668
-350.0   0.0   0.0
-350.0   30.0   0.0
-400.0   30.0   0.0
-350.0   30.0   16.666666666666668
-400.0   0.0   16.666666666666668
-400.0   30.0   16.666666666666668
-350.0   30.0   16.666666666666668
-400.0   30.0   0.0
-400.0   0.0   16.666666666666668
-350.0   30.0   16.666666666666668
-350.0   0.0   16.666666666666668
-350.0   0.0   0.0
-400.0   0.0   16.666666666666668
-350.0   30.0   16.666666666666668
-350.0   0.0   0.0
-400.0   30.0   0.0
-400.0   0.0   16.666666666666668
-350.0   0.0   16.666666666666668
-400.0   30.0   16.666666666666668
-400.0   0.0   33.333333333333336
-350.0   0.0   16.666666666666668
-350.0   30.0   16.666666666666668
-400.0   30.0   16.666666666666668
-350.0   30.0   33.333333333333336
-400.0   0.0   33.333333333333336
-400.0   30.0   33.333333333333336
-350.0   30.0   33.333333333333336
-400.0   30.0   16.666666666666668
-400.0   0.0   33.333333333333336
-350.0   30.0   33.333333333333336
-350.0   0.0   33.333333333333336
-350.0   0.0   16.666666666666668
-400.0   0.0   33.333333333333336
-350.0   30.0   33.333333333333336
-350.0   0.0   16.666666666666668
-400.0   30.0   16.666666666666668
-400.0   0.0   33.333333333333336
-350.0   0.0   33.333333333333336
-400.0   30.0   33.333333333333336
-400.0   0.0   50.0
-350.0   0.0   33.333333333333336
-350.0   30.0   33.333333333333336
-400.0   30.0   33.333333333333336
-350.0   30.0   50.0
-400.0   0.0   50.0
-400.0   30.0   50.0
-350.0   30.0   50.0
-400.0   30.0   33.333333333333336
-400.0   0.0   50.0
-350.0   30.0   50.0
-350.0   0.0   50.0
-350.0   0.0   33.333333333333336
-400.0   0.0   50.0
-350.0   30.0   50.0
-350.0   0.0   33.333333333333336
-400.0   30.0   33.333333333333336
-400.0   30.0   0.0
-350.0   30.0   0.0
-400.0   60.0   0.0
-400.0   30.0   16.666666666666668
-350.0   30.0   0.0
-350.0   60.0   0.0
-400.0   60.0   0.0
-350.0   60.0   16.666666666666668
-400.0   30.0   16.666666666666668
-400.0   60.0   16.666666666666668
-350.0   60.0   16.666666666666668
-400.0   60.0   0.0
-400.0   30.0   16.666666666666668
-350.0   60.0   16.666666666666668
-350.0   30.0   16.666666666666668
-350.0   30.0   0.0
-400.0   30.0   16.666666666666668
-350.0   60.0   16.666666666666668
-350.0   30.0   0.0
-400.0   60.0   0.0
-400.0   30.0   16.666666666666668
-350.0   30.0   16.666666666666668
-400.0   60.0   16.666666666666668
-400.0   30.0   33.333333333333336
-350.0   30.0   16.666666666666668
-350.0   60.0   16.666666666666668
-400.0   60.0   16.666666666666668
-350.0   60.0   33.333333333333336
-400.0   30.0   33.333333333333336
-400.0   60.0   33.333333333333336
-350.0   60.0   33.333333333333336
-400.0   60.0   16.666666666666668
-400.0   30.0   33.333333333333336
-350.0   60.0   33.333333333333336
-350.0   30.0   33.333333333333336
-350.0   30.0   16.666666666666668
-400.0   30.0   33.333333333333336
-350.0   60.0   33.333333333333336
-350.0   30.0   16.666666666666668
-400.0   60.0   16.666666666666668
-400.0   30.0   33.333333333333336
-350.0   30.0   33.333333333333336
-400.0   60.0   33.333333333333336
-400.0   30.0   50.0
-350.0   30.0   33.333333333333336
-350.0   60.0   33.333333333333336
-400.0   60.0   33.333333333333336
-350.0   60.0   50.0
-400.0   30.0   50.0
-400.0   60.0   50.0
-350.0   60.0   50.0
-400.0   60.0   33.333333333333336
-400.0   30.0   50.0
-350.0   60.0   50.0
-350.0   30.0   50.0
-350.0   30.0   33.333333333333336
-400.0   30.0   50.0
-350.0   60.0   50.0
-350.0   30.0   33.333333333333336
-400.0   60.0   33.333333333333336
-400.0   60.0   0.0
-350.0   60.0   0.0
-400.0   90.0   0.0
-400.0   60.0   16.666666666666668
-350.0   60.0   0.0
-350.0   90.0   0.0
-400.0   90.0   0.0
-350.0   90.0   16.666666666666668
-400.0   60.0   16.666666666666668
-400.0   90.0   16.666666666666668
-350.0   90.0   16.666666666666668
-400.0   90.0   0.0
-400.0   60.0   16.666666666666668
-350.0   90.0   16.666666666666668
-350.0   60.0   16.666666666666668
-350.0   60.0   0.0
-400.0   60.0   16.666666666666668
-350.0   90.0   16.666666666666668
-350.0   60.0   0.0
-400.0   90.0   0.0
-400.0   60.0   16.666666666666668
-350.0   60.0   16.666666666666668
-400.0   90.0   16.666666666666668
-400.0   60.0   33.333333333333336
-350.0   60.0   16.666666666666668
-350.0   90.0   16.666666666666668
-400.0   90.0   16.666666666666668
-350.0   90.0   33.333333333333336
-400.0   60.0   33.333333333333336
-400.0   90.0   33.333333333333336
-350.0   90.0   33.333333333333336
-400.0   90.0   16.666666666666668
-400.0   60.0   33.333333333333336
-350.0   90.0   33.333333333333336
-350.0   60.0   33.333333333333336
-350.0   60.0   16.666666666666668
-400.0   60.0   33.333333333333336
-350.0   90.0   33.333333333333336
-350.0   60.0   16.666666666666668
-400.0   90.0   16.666666666666668
-400.0   60.0   33.333333333333336
-350.0   60.0   33.333333333333336
-400.0   90.0   33.333333333333336
-400.0   60.0   50.0
-350.0   60.0   33.333333333333336
-350.0   90.0   33.333333333333336
-400.0   90.0   33.333333333333336
-350.0   90.0   50.0
-400.0   60.0   50.0
-400.0   90.0   50.0
-350.0   90.0   50.0
-400.0   90.0   33.333333333333336
-400.0   60.0   50.0
-350.0   90.0   50.0
-350.0   60.0   50.0
-350.0   60.0   33.333333333333336
-400.0   60.0   50.0
-350.0   90.0   50.0
-350.0   60.0   33.333333333333336
-400.0   90.0   33.333333333333336
-400.0   90.0   0.0
-350.0   90.0   0.0
-400.0   120.0   0.0
-400.0   90.0   16.666666666666668
-350.0   90.0   0.0
-350.0   120.0   0.0
-400.0   120.0   0.0
-350.0   120.0   16.666666666666668
-400.0   90.0   16.666666666666668
-400.0   120.0   16.666666666666668
-350.0   120.0   16.666666666666668
-400.0   120.0   0.0
-400.0   90.0   16.666666666666668
-350.0   120.0   16.666666666666668
-350.0   90.0   16.666666666666668
-350.0   90.0   0.0
-400.0   90.0   16.666666666666668
-350.0   120.0   16.666666666666668
-350.0   90.0   0.0
-400.0   120.0   0.0
-400.0   90.0   16.666666666666668
-350.0   90.0   16.666666666666668
-400.0   120.0   16.666666666666668
-400.0   90.0   33.333333333333336
-350.0   90.0   16.666666666666668
-350.0   120.0   16.666666666666668
-400.0   120.0   16.666666666666668
-350.0   120.0   33.333333333333336
-400.0   90.0   33.333333333333336
-400.0   120.0   33.333333333333336
-350.0   120.0   33.333333333333336
-400.0   120.0   16.666666666666668
-400.0   90.0   33.333333333333336
-350.0   120.0   33.333333333333336
-350.0   90.0   33.333333333333336
-350.0   90.0   16.666666666666668
-400.0   90.0   33.333333333333336
-350.0   120.0   33.333333333333336
-350.0   90.0   16.666666666666668
-400.0   120.0   16.666666666666668
-400.0   90.0   33.333333333333336
-350.0   90.0   33.333333333333336
-400.0   120.0   33.333333333333336
-400.0   90.0   50.0
-350.0   90.0   33.333333333333336
-350.0   120.0   33.333333333333336
-400.0   120.0   33.333333333333336
-350.0   120.0   50.0
-400.0   90.0   50.0
-400.0   120.0   50.0
-350.0   120.0   50.0
-400.0   120.0   33.333333333333336
-400.0   90.0   50.0
-350.0   120.0   50.0
-350.0   90.0   50.0
-350.0   90.0   33.333333333333336
-400.0   90.0   50.0
-350.0   120.0   50.0
-350.0   90.0   33.333333333333336
-400.0   120.0   33.333333333333336
-400.0   120.0   0.0
-350.0   120.0   0.0
-400.0   150.0   0.0
-400.0   120.0   16.666666666666668
-350.0   120.0   0.0
-350.0   150.0   0.0
-400.0   150.0   0.0
-350.0   150.0   16.666666666666668
-400.0   120.0   16.666666666666668
-400.0   150.0   16.666666666666668
-350.0   150.0   16.666666666666668
-400.0   150.0   0.0
-400.0   120.0   16.666666666666668
-350.0   150.0   16.666666666666668
-350.0   120.0   16.666666666666668
-350.0   120.0   0.0
-400.0   120.0   16.666666666666668
-350.0   150.0   16.666666666666668
-350.0   120.0   0.0
-400.0   150.0   0.0
-400.0   120.0   16.666666666666668
-350.0   120.0   16.666666666666668
-400.0   150.0   16.666666666666668
-400.0   120.0   33.333333333333336
-350.0   120.0   16.666666666666668
-350.0   150.0   16.666666666666668
-400.0   150.0   16.666666666666668
-350.0   150.0   33.333333333333336
-400.0   120.0   33.333333333333336
-400.0   150.0   33.333333333333336
-350.0   150.0   33.333333333333336
-400.0   150.0   16.666666666666668
-400.0   120.0   33.333333333333336
-350.0   150.0   33.333333333333336
-350.0   120.0   33.333333333333336
-350.0   120.0   16.666666666666668
-400.0   120.0   33.333333333333336
-350.0   150.0   33.333333333333336
-350.0   120.0   16.666666666666668
-400.0   150.0   16.666666666666668
-400.0   120.0   33.333333333333336
-350.0   120.0   33.333333333333336
-400.0   150.0   33.333333333333336
-400.0   120.0   50.0
-350.0   120.0   33.333333333333336
-350.0   150.0   33.333333333333336
-400.0   150.0   33.333333333333336
-350.0   150.0   50.0
-400.0   120.0   50.0
-400.0   150.0   50.0
-350.0   150.0   50.0
-400.0   150.0   33.333333333333336
-400.0   120.0   50.0
-350.0   150.0   50.0
-350.0   120.0   50.0
-350.0   120.0   33.333333333333336
-400.0   120.0   50.0
-350.0   150.0   50.0
-350.0   120.0   33.333333333333336
-400.0   150.0   33.333333333333336
-350.0   0.0   0.0
-300.0   0.0   0.0
-350.0   30.0   0.0
-350.0   0.0   16.666666666666668
-300.0   0.0   0.0
-300.0   30.0   0.0
-350.0   30.0   0.0
-300.0   30.0   16.666666666666668
-350.0   0.0   16.666666666666668
-350.0   30.0   16.666666666666668
-300.0   30.0   16.666666666666668
-350.0   30.0   0.0
-350.0   0.0   16.666666666666668
-300.0   30.0   16.666666666666668
-300.0   0.0   16.666666666666668
-300.0   0.0   0.0
-350.0   0.0   16.666666666666668
-300.0   30.0   16.666666666666668
-300.0   0.0   0.0
-350.0   30.0   0.0
-350.0   0.0   16.666666666666668
-300.0   0.0   16.666666666666668
-350.0   30.0   16.666666666666668
-350.0   0.0   33.333333333333336
-300.0   0.0   16.666666666666668
-300.0   30.0   16.666666666666668
-350.0   30.0   16.666666666666668
-300.0   30.0   33.333333333333336
-350.0   0.0   33.333333333333336
-350.0   30.0   33.333333333333336
-300.0   30.0   33.333333333333336
-350.0   30.0   16.666666666666668
-350.0   0.0   33.333333333333336
-300.0   30.0   33.333333333333336
-300.0   0.0   33.333333333333336
-300.0   0.0   16.666666666666668
-350.0   0.0   33.333333333333336
-300.0   30.0   33.333333333333336
-300.0   0.0   16.666666666666668
-350.0   30.0   16.666666666666668
-350.0   0.0   33.333333333333336
-300.0   0.0   33.333333333333336
-350.0   30.0   33.333333333333336
-350.0   0.0   50.0
-300.0   0.0   33.333333333333336
-300.0   30.0   33.333333333333336
-350.0   30.0   33.333333333333336
-300.0   30.0   50.0
-350.0   0.0   50.0
-350.0   30.0   50.0
-300.0   30.0   50.0
-350.0   30.0   33.333333333333336
-350.0   0.0   50.0
-300.0   30.0   50.0
-300.0   0.0   50.0
-300.0   0.0   33.333333333333336
-350.0   0.0   50.0
-300.0   30.0   50.0
-300.0   0.0   33.333333333333336
-350.0   30.0   33.333333333333336
-350.0   30.0   0.0
-300.0   30.0   0.0
-350.0   60.0   0.0
-350.0   30.0   16.666666666666668
-300.0   30.0   0.0
-300.0   60.0   0.0
-350.0   60.0   0.0
-300.0   60.0   16.666666666666668
-350.0   30.0   16.666666666666668
-350.0   60.0   16.666666666666668
-300.0   60.0   16.666666666666668
-350.0   60.0   0.0
-350.0   30.0   16.666666666666668
-300.0   60.0   16.666666666666668
-300.0   30.0   16.666666666666668
-300.0   30.0   0.0
-350.0   30.0   16.666666666666668
-300.0   60.0   16.666666666666668
-300.0   30.0   0.0
-350.0   60.0   0.0
-350.0   30.0   16.666666666666668
-300.0   30.0   16.666666666666668
-350.0   60.0   16.666666666666668
-350.0   30.0   33.333333333333336
-300.0   30.0   16.666666666666668
-300.0   60.0   16.666666666666668
-350.0   60.0   16.666666666666668
-300.0   60.0   33.333333333333336
-350.0   30.0   33.333333333333336
-350.0   60.0   33.333333333333336
-300.0   60.0   33.333333333333336
-350.0   60.0   16.666666666666668
-350.0   30.0   33.333333333333336
-300.0   60.0   33.333333333333336
-300.0   30.0   33.333333333333336
-300.0   30.0   16.666666666666668
-350.0   30.0   33.333333333333336
-300.0   60.0   33.333333333333336
-300.0   30.0   16.666666666666668
-350.0   60.0   16.666666666666668
-350.0   30.0   33.333333333333336
-300.0   30.0   33.333333333333336
-350.0   60.0   33.333333333333336
-350.0   30.0   50.0
-300.0   30.0   33.333333333333336
-300.0   60.0   33.333333333333336
-350.0   60.0   33.333333333333336
-300.0   60.0   50.0
-350.0   30.0   50.0
-350.0   60.0   50.0
-300.0   60.0   50.0
-350.0   60.0   33.333333333333336
-350.0   30.0   50.0
-300.0   60.0   50.0
-300.0   30.0   50.0
-300.0   30.0   33.333333333333336
-350.0   30.0   50.0
-300.0   60.0   50.0
-300.0   30.0   33.333333333333336
-350.0   60.0   33.333333333333336
-350.0   60.0   0.0
-300.0   60.0   0.0
-350.0   90.0   0.0
-350.0   60.0   16.666666666666668
-300.0   60.0   0.0
-300.0   90.0   0.0
-350.0   90.0   0.0
-300.0   90.0   16.666666666666668
-350.0   60.0   16.666666666666668
-350.0   90.0   16.666666666666668
-300.0   90.0   16.666666666666668
-350.0   90.0   0.0
-350.0   60.0   16.666666666666668
-300.0   90.0   16.666666666666668
-300.0   60.0   16.666666666666668
-300.0   60.0   0.0
-350.0   60.0   16.666666666666668
-300.0   90.0   16.666666666666668
-300.0   60.0   0.0
-350.0   90.0   0.0
-350.0   60.0   16.666666666666668
-300.0   60.0   16.666666666666668
-350.0   90.0   16.666666666666668
-350.0   60.0   33.333333333333336
-300.0   60.0   16.666666666666668
-300.0   90.0   16.666666666666668
-350.0   90.0   16.666666666666668
-300.0   90.0   33.333333333333336
-350.0   60.0   33.333333333333336
-350.0   90.0   33.333333333333336
-300.0   90.0   33.333333333333336
-350.0   90.0   16.666666666666668
-350.0   60.0   33.333333333333336
-300.0   90.0   33.333333333333336
-300.0   60.0   33.333333333333336
-300.0   60.0   16.666666666666668
-350.0   60.0   33.333333333333336
-300.0   90.0   33.333333333333336
-300.0   60.0   16.666666666666668
-350.0   90.0   16.666666666666668
-350.0   60.0   33.333333333333336
-300.0   60.0   33.333333333333336
-350.0   90.0   33.333333333333336
-350.0   60.0   50.0
-300.0   60.0   33.333333333333336
-300.0   90.0   33.333333333333336
-350.0   90.0   33.333333333333336
-300.0   90.0   50.0
-350.0   60.0   50.0
-350.0   90.0   50.0
-300.0   90.0   50.0
-350.0   90.0   33.333333333333336
-350.0   60.0   50.0
-300.0   90.0   50.0
-300.0   60.0   50.0
-300.0   60.0   33.333333333333336
-350.0   60.0   50.0
-300.0   90.0   50.0
-300.0   60.0   33.333333333333336
-350.0   90.0   33.333333333333336
-350.0   90.0   0.0
-300.0   90.0   0.0
-350.0   120.0   0.0
-350.0   90.0   16.666666666666668
-300.0   90.0   0.0
-300.0   120.0   0.0
-350.0   120.0   0.0
-300.0   120.0   16.666666666666668
-350.0   90.0   16.666666666666668
-350.0   120.0   16.666666666666668
-300.0   120.0   16.666666666666668
-350.0   120.0   0.0
-350.0   90.0   16.666666666666668
-300.0   120.0   16.666666666666668
-300.0   90.0   16.666666666666668
-300.0   90.0   0.0
-350.0   90.0   16.666666666666668
-300.0   120.0   16.666666666666668
-300.0   90.0   0.0
-350.0   120.0   0.0
-350.0   90.0   16.666666666666668
-300.0   90.0   16.666666666666668
-350.0   120.0   16.666666666666668
-350.0   90.0   33.333333333333336
-300.0   90.0   16.666666666666668
-300.0   120.0   16.666666666666668
-350.0   120.0   16.666666666666668
-300.0   120.0   33.333333333333336
-350.0   90.0   33.333333333333336
-350.0   120.0   33.333333333333336
-300.0   120.0   33.333333333333336
-350.0   120.0   16.666666666666668
-350.0   90.0   33.333333333333336
-300.0   120.0   33.333333333333336
-300.0   90.0   33.333333333333336
-300.0   90.0   16.666666666666668
-350.0   90.0   33.333333333333336
-300.0   120.0   33.333333333333336
-300.0   90.0   16.666666666666668
-350.0   120.0   16.666666666666668
-350.0   90.0   33.333333333333336
-300.0   90.0   33.333333333333336
-350.0   120.0   33.333333333333336
-350.0   90.0   50.0
-300.0   90.0   33.333333333333336
-300.0   120.0   33.333333333333336
-350.0   120.0   33.333333333333336
-300.0   120.0   50.0
-350.0   90.0   50.0
-350.0   120.0   50.0
-300.0   120.0   50.0
-350.0   120.0   33.333333333333336
-350.0   90.0   50.0
-300.0   120.0   50.0
-300.0   90.0   50.0
-300.0   90.0   33.333333333333336
-350.0   90.0   50.0
-300.0   120.0   50.0
-300.0   90.0   33.333333333333336
-350.0   120.0   33.333333333333336
-350.0   120.0   0.0
-300.0   120.0   0.0
-350.0   150.0   0.0
-350.0   120.0   16.666666666666668
-300.0   120.0   0.0
-300.0   150.0   0.0
-350.0   150.0   0.0
-300.0   150.0   16.666666666666668
-350.0   120.0   16.666666666666668
-350.0   150.0   16.666666666666668
-300.0   150.0   16.666666666666668
-350.0   150.0   0.0
-350.0   120.0   16.666666666666668
-300.0   150.0   16.666666666666668
-300.0   120.0   16.666666666666668
-300.0   120.0   0.0
-350.0   120.0   16.666666666666668
-300.0   150.0   16.666666666666668
-300.0   120.0   0.0
-350.0   150.0   0.0
-350.0   120.0   16.666666666666668
-300.0   120.0   16.666666666666668
-350.0   150.0   16.666666666666668
-350.0   120.0   33.333333333333336
-300.0   120.0   16.666666666666668
-300.0   150.0   16.666666666666668
-350.0   150.0   16.666666666666668
-300.0   150.0   33.333333333333336
-350.0   120.0   33.333333333333336
-350.0   150.0   33.333333333333336
-300.0   150.0   33.333333333333336
-350.0   150.0   16.666666666666668
-350.0   120.0   33.333333333333336
-300.0   150.0   33.333333333333336
-300.0   120.0   33.333333333333336
-300.0   120.0   16.666666666666668
-350.0   120.0   33.333333333333336
-300.0   150.0   33.333333333333336
-300.0   120.0   16.666666666666668
-350.0   150.0   16.666666666666668
-350.0   120.0   33.333333333333336
-300.0   120.0   33.333333333333336
-350.0   150.0   33.333333333333336
-350.0   120.0   50.0
-300.0   120.0   33.333333333333336
-300.0   150.0   33.333333333333336
-350.0   150.0   33.333333333333336
-300.0   150.0   50.0
-350.0   120.0   50.0
-350.0   150.0   50.0
-300.0   150.0   50.0
-350.0   150.0   33.333333333333336
-350.0   120.0   50.0
-300.0   150.0   50.0
-300.0   120.0   50.0
-300.0   120.0   33.333333333333336
-350.0   120.0   50.0
-300.0   150.0   50.0
-300.0   120.0   33.333333333333336
-350.0   150.0   33.333333333333336
-300.0   0.0   0.0
-250.0   0.0   0.0
-300.0   30.0   0.0
-300.0   0.0   16.666666666666668
-250.0   0.0   0.0
-250.0   30.0   0.0
-300.0   30.0   0.0
-250.0   30.0   16.666666666666668
-300.0   0.0   16.666666666666668
-300.0   30.0   16.666666666666668
-250.0   30.0   16.666666666666668
-300.0   30.0   0.0
-300.0   0.0   16.666666666666668
-250.0   30.0   16.666666666666668
-250.0   0.0   16.666666666666668
-250.0   0.0   0.0
-300.0   0.0   16.666666666666668
-250.0   30.0   16.666666666666668
-250.0   0.0   0.0
-300.0   30.0   0.0
-300.0   0.0   16.666666666666668
-250.0   0.0   16.666666666666668
-300.0   30.0   16.666666666666668
-300.0   0.0   33.333333333333336
-250.0   0.0   16.666666666666668
-250.0   30.0   16.666666666666668
-300.0   30.0   16.666666666666668
-250.0   30.0   33.333333333333336
-300.0   0.0   33.333333333333336
-300.0   30.0   33.333333333333336
-250.0   30.0   33.333333333333336
-300.0   30.0   16.666666666666668
-300.0   0.0   33.333333333333336
-250.0   30.0   33.333333333333336
-250.0   0.0   33.333333333333336
-250.0   0.0   16.666666666666668
-300.0   0.0   33.333333333333336
-250.0   30.0   33.333333333333336
-250.0   0.0   16.666666666666668
-300.0   30.0   16.666666666666668
-300.0   0.0   33.333333333333336
-250.0   0.0   33.333333333333336
-300.0   30.0   33.333333333333336
-300.0   0.0   50.0
-250.0   0.0   33.333333333333336
-250.0   30.0   33.333333333333336
-300.0   30.0   33.333333333333336
-250.0   30.0   50.0
-300.0   0.0   50.0
-300.0   30.0   50.0
-250.0   30.0   50.0
-300.0   30.0   33.333333333333336
-300.0   0.0   50.0
-250.0   30.0   50.0
-250.0   0.0   50.0
-250.0   0.0   33.333333333333336
-300.0   0.0   50.0
-250.0   30.0   50.0
-250.0   0.0   33.333333333333336
-300.0   30.0   33.333333333333336
-300.0   30.0   0.0
-250.0   30.0   0.0
-300.0   60.0   0.0
-300.0   30.0   16.666666666666668
-250.0   30.0   0.0
-250.0   60.0   0.0
-300.0   60.0   0.0
-250.0   60.0   16.666666666666668
-300.0   30.0   16.666666666666668
-300.0   60.0   16.666666666666668
-250.0   60.0   16.666666666666668
-300.0   60.0   0.0
-300.0   30.0   16.666666666666668
-250.0   60.0   16.666666666666668
-250.0   30.0   16.666666666666668
-250.0   30.0   0.0
-300.0   30.0   16.666666666666668
-250.0   60.0   16.666666666666668
-250.0   30.0   0.0
-300.0   60.0   0.0
-300.0   30.0   16.666666666666668
-250.0   30.0   16.666666666666668
-300.0   60.0   16.666666666666668
-300.0   30.0   33.333333333333336
-250.0   30.0   16.666666666666668
-250.0   60.0   16.666666666666668
-300.0   60.0   16.666666666666668
-250.0   60.0   33.333333333333336
-300.0   30.0   33.333333333333336
-300.0   60.0   33.333333333333336
-250.0   60.0   33.333333333333336
-300.0   60.0   16.666666666666668
-300.0   30.0   33.333333333333336
-250.0   60.0   33.333333333333336
-250.0   30.0   33.333333333333336
-250.0   30.0   16.666666666666668
-300.0   30.0   33.333333333333336
-250.0   60.0   33.333333333333336
-250.0   30.0   16.666666666666668
-300.0   60.0   16.666666666666668
-300.0   30.0   33.333333333333336
-250.0   30.0   33.333333333333336
-300.0   60.0   33.333333333333336
-300.0   30.0   50.0
-250.0   30.0   33.333333333333336
-250.0   60.0   33.333333333333336
-300.0   60.0   33.333333333333336
-250.0   60.0   50.0
-300.0   30.0   50.0
-300.0   60.0   50.0
-250.0   60.0   50.0
-300.0   60.0   33.333333333333336
-300.0   30.0   50.0
-250.0   60.0   50.0
-250.0   30.0   50.0
-250.0   30.0   33.333333333333336
-300.0   30.0   50.0
-250.0   60.0   50.0
-250.0   30.0   33.333333333333336
-300.0   60.0   33.333333333333336
-300.0   60.0   0.0
-250.0   60.0   0.0
-300.0   90.0   0.0
-300.0   60.0   16.666666666666668
-250.0   60.0   0.0
-250.0   90.0   0.0
-300.0   90.0   0.0
-250.0   90.0   16.666666666666668
-300.0   60.0   16.666666666666668
-300.0   90.0   16.666666666666668
-250.0   90.0   16.666666666666668
-300.0   90.0   0.0
-300.0   60.0   16.666666666666668
-250.0   90.0   16.666666666666668
-250.0   60.0   16.666666666666668
-250.0   60.0   0.0
-300.0   60.0   16.666666666666668
-250.0   90.0   16.666666666666668
-250.0   60.0   0.0
-300.0   90.0   0.0
-300.0   60.0   16.666666666666668
-250.0   60.0   16.666666666666668
-300.0   90.0   16.666666666666668
-300.0   60.0   33.333333333333336
-250.0   60.0   16.666666666666668
-250.0   90.0   16.666666666666668
-300.0   90.0   16.666666666666668
-250.0   90.0   33.333333333333336
-300.0   60.0   33.333333333333336
-300.0   90.0   33.333333333333336
-250.0   90.0   33.333333333333336
-300.0   90.0   16.666666666666668
-300.0   60.0   33.333333333333336
-250.0   90.0   33.333333333333336
-250.0   60.0   33.333333333333336
-250.0   60.0   16.666666666666668
-300.0   60.0   33.333333333333336
-250.0   90.0   33.333333333333336
-250.0   60.0   16.666666666666668
-300.0   90.0   16.666666666666668
-300.0   60.0   33.333333333333336
-250.0   60.0   33.333333333333336
-300.0   90.0   33.333333333333336
-300.0   60.0   50.0
-250.0   60.0   33.333333333333336
-250.0   90.0   33.333333333333336
-300.0   90.0   33.333333333333336
-250.0   90.0   50.0
-300.0   60.0   50.0
-300.0   90.0   50.0
-250.0   90.0   50.0
-300.0   90.0   33.333333333333336
-300.0   60.0   50.0
-250.0   90.0   50.0
-250.0   60.0   50.0
-250.0   60.0   33.333333333333336
-300.0   60.0   50.0
-250.0   90.0   50.0
-250.0   60.0   33.333333333333336
-300.0   90.0   33.333333333333336
-300.0   90.0   0.0
-250.0   90.0   0.0
-300.0   120.0   0.0
-300.0   90.0   16.666666666666668
-250.0   90.0   0.0
-250.0   120.0   0.0
-300.0   120.0   0.0
-250.0   120.0   16.666666666666668
-300.0   90.0   16.666666666666668
-300.0   120.0   16.666666666666668
-250.0   120.0   16.666666666666668
-300.0   120.0   0.0
-300.0   90.0   16.666666666666668
-250.0   120.0   16.666666666666668
-250.0   90.0   16.666666666666668
-250.0   90.0   0.0
-300.0   90.0   16.666666666666668
-250.0   120.0   16.666666666666668
-250.0   90.0   0.0
-300.0   120.0   0.0
-300.0   90.0   16.666666666666668
-250.0   90.0   16.666666666666668
-300.0   120.0   16.666666666666668
-300.0   90.0   33.333333333333336
-250.0   90.0   16.666666666666668
-250.0   120.0   16.666666666666668
-300.0   120.0   16.666666666666668
-250.0   120.0   33.333333333333336
-300.0   90.0   33.333333333333336
-300.0   120.0   33.333333333333336
-250.0   120.0   33.333333333333336
-300.0   120.0   16.666666666666668
-300.0   90.0   33.333333333333336
-250.0   120.0   33.333333333333336
-250.0   90.0   33.333333333333336
-250.0   90.0   16.666666666666668
-300.0   90.0   33.333333333333336
-250.0   120.0   33.333333333333336
-250.0   90.0   16.666666666666668
-300.0   120.0   16.666666666666668
-300.0   90.0   33.333333333333336
-250.0   90.0   33.333333333333336
-300.0   120.0   33.333333333333336
-300.0   90.0   50.0
-250.0   90.0   33.333333333333336
-250.0   120.0   33.333333333333336
-300.0   120.0   33.333333333333336
-250.0   120.0   50.0
-300.0   90.0   50.0
-300.0   120.0   50.0
-250.0   120.0   50.0
-300.0   120.0   33.333333333333336
-300.0   90.0   50.0
-250.0   120.0   50.0
-250.0   90.0   50.0
-250.0   90.0   33.333333333333336
-300.0   90.0   50.0
-250.0   120.0   50.0
-250.0   90.0   33.333333333333336
-300.0   120.0   33.333333333333336
-300.0   120.0   0.0
-250.0   120.0   0.0
-300.0   150.0   0.0
-300.0   120.0   16.666666666666668
-250.0   120.0   0.0
-250.0   150.0   0.0
-300.0   150.0   0.0
-250.0   150.0   16.666666666666668
-300.0   120.0   16.666666666666668
-300.0   150.0   16.666666666666668
-250.0   150.0   16.666666666666668
-300.0   150.0   0.0
-300.0   120.0   16.666666666666668
-250.0   150.0   16.666666666666668
-250.0   120.0   16.666666666666668
-250.0   120.0   0.0
-300.0   120.0   16.666666666666668
-250.0   150.0   16.666666666666668
-250.0   120.0   0.0
-300.0   150.0   0.0
-300.0   120.0   16.666666666666668
-250.0   120.0   16.666666666666668
-300.0   150.0   16.666666666666668
-300.0   120.0   33.333333333333336
-250.0   120.0   16.666666666666668
-250.0   150.0   16.666666666666668
-300.0   150.0   16.666666666666668
-250.0   150.0   33.333333333333336
-300.0   120.0   33.333333333333336
-300.0   150.0   33.333333333333336
-250.0   150.0   33.333333333333336
-300.0   150.0   16.666666666666668
-300.0   120.0   33.333333333333336
-250.0   150.0   33.333333333333336
-250.0   120.0   33.333333333333336
-250.0   120.0   16.666666666666668
-300.0   120.0   33.333333333333336
-250.0   150.0   33.333333333333336
-250.0   120.0   16.666666666666668
-300.0   150.0   16.666666666666668
-300.0   120.0   33.333333333333336
-250.0   120.0   33.333333333333336
-300.0   150.0   33.333333333333336
-300.0   120.0   50.0
-250.0   120.0   33.333333333333336
-250.0   150.0   33.333333333333336
-300.0   150.0   33.333333333333336
-250.0   150.0   50.0
-300.0   120.0   50.0
-300.0   150.0   50.0
-250.0   150.0   50.0
-300.0   150.0   33.333333333333336
-300.0   120.0   50.0
-250.0   150.0   50.0
-250.0   120.0   50.0
-250.0   120.0   33.333333333333336
-300.0   120.0   50.0
-250.0   150.0   50.0
-250.0   120.0   33.333333333333336
-300.0   150.0   33.333333333333336
-250.0   0.0   0.0
-200.0   0.0   0.0
-250.0   30.0   0.0
-250.0   0.0   16.666666666666668
-200.0   0.0   0.0
-200.0   30.0   0.0
-250.0   30.0   0.0
-200.0   30.0   16.666666666666668
-250.0   0.0   16.666666666666668
-250.0   30.0   16.666666666666668
-200.0   30.0   16.666666666666668
-250.0   30.0   0.0
-250.0   0.0   16.666666666666668
-200.0   30.0   16.666666666666668
-200.0   0.0   16.666666666666668
-200.0   0.0   0.0
-250.0   0.0   16.666666666666668
-200.0   30.0   16.666666666666668
-200.0   0.0   0.0
-250.0   30.0   0.0
-250.0   0.0   16.666666666666668
-200.0   0.0   16.666666666666668
-250.0   30.0   16.666666666666668
-250.0   0.0   33.333333333333336
-200.0   0.0   16.666666666666668
-200.0   30.0   16.666666666666668
-250.0   30.0   16.666666666666668
-200.0   30.0   33.333333333333336
-250.0   0.0   33.333333333333336
-250.0   30.0   33.333333333333336
-200.0   30.0   33.333333333333336
-250.0   30.0   16.666666666666668
-250.0   0.0   33.333333333333336
-200.0   30.0   33.333333333333336
-200.0   0.0   33.333333333333336
-200.0   0.0   16.666666666666668
-250.0   0.0   33.333333333333336
-200.0   30.0   33.333333333333336
-200.0   0.0   16.666666666666668
-250.0   30.0   16.666666666666668
-250.0   0.0   33.333333333333336
-200.0   0.0   33.333333333333336
-250.0   30.0   33.333333333333336
-250.0   0.0   50.0
-200.0   0.0   33.333333333333336
-200.0   30.0   33.333333333333336
-250.0   30.0   33.333333333333336
-200.0   30.0   50.0
-250.0   0.0   50.0
-250.0   30.0   50.0
-200.0   30.0   50.0
-250.0   30.0   33.333333333333336
-250.0   0.0   50.0
-200.0   30.0   50.0
-200.0   0.0   50.0
-200.0   0.0   33.333333333333336
-250.0   0.0   50.0
-200.0   30.0   50.0
-200.0   0.0   33.333333333333336
-250.0   30.0   33.333333333333336
-250.0   30.0   0.0
-200.0   30.0   0.0
-250.0   60.0   0.0
-250.0   30.0   16.666666666666668
-200.0   30.0   0.0
-200.0   60.0   0.0
-250.0   60.0   0.0
-200.0   60.0   16.666666666666668
-250.0   30.0   16.666666666666668
-250.0   60.0   16.666666666666668
-200.0   60.0   16.666666666666668
-250.0   60.0   0.0
-250.0   30.0   16.666666666666668
-200.0   60.0   16.666666666666668
-200.0   30.0   16.666666666666668
-200.0   30.0   0.0
-250.0   30.0   16.666666666666668
-200.0   60.0   16.666666666666668
-200.0   30.0   0.0
-250.0   60.0   0.0
-250.0   30.0   16.666666666666668
-200.0   30.0   16.666666666666668
-250.0   60.0   16.666666666666668
-250.0   30.0   33.333333333333336
-200.0   30.0   16.666666666666668
-200.0   60.0   16.666666666666668
-250.0   60.0   16.666666666666668
-200.0   60.0   33.333333333333336
-250.0   30.0   33.333333333333336
-250.0   60.0   33.333333333333336
-200.0   60.0   33.333333333333336
-250.0   60.0   16.666666666666668
-250.0   30.0   33.333333333333336
-200.0   60.0   33.333333333333336
-200.0   30.0   33.333333333333336
-200.0   30.0   16.666666666666668
-250.0   30.0   33.333333333333336
-200.0   60.0   33.333333333333336
-200.0   30.0   16.666666666666668
-250.0   60.0   16.666666666666668
-250.0   30.0   33.333333333333336
-200.0   30.0   33.333333333333336
-250.0   60.0   33.333333333333336
-250.0   30.0   50.0
-200.0   30.0   33.333333333333336
-200.0   60.0   33.333333333333336
-250.0   60.0   33.333333333333336
-200.0   60.0   50.0
-250.0   30.0   50.0
-250.0   60.0   50.0
-200.0   60.0   50.0
-250.0   60.0   33.333333333333336
-250.0   30.0   50.0
-200.0   60.0   50.0
-200.0   30.0   50.0
-200.0   30.0   33.333333333333336
-250.0   30.0   50.0
-200.0   60.0   50.0
-200.0   30.0   33.333333333333336
-250.0   60.0   33.333333333333336
-250.0   60.0   0.0
-200.0   60.0   0.0
-250.0   90.0   0.0
-250.0   60.0   16.666666666666668
-200.0   60.0   0.0
-200.0   90.0   0.0
-250.0   90.0   0.0
-200.0   90.0   16.666666666666668
-250.0   60.0   16.666666666666668
-250.0   90.0   16.666666666666668
-200.0   90.0   16.666666666666668
-250.0   90.0   0.0
-250.0   60.0   16.666666666666668
-200.0   90.0   16.666666666666668
-200.0   60.0   16.666666666666668
-200.0   60.0   0.0
-250.0   60.0   16.666666666666668
-200.0   90.0   16.666666666666668
-200.0   60.0   0.0
-250.0   90.0   0.0
-250.0   60.0   16.666666666666668
-200.0   60.0   16.666666666666668
-250.0   90.0   16.666666666666668
-250.0   60.0   33.333333333333336
-200.0   60.0   16.666666666666668
-200.0   90.0   16.666666666666668
-250.0   90.0   16.666666666666668
-200.0   90.0   33.333333333333336
-250.0   60.0   33.333333333333336
-250.0   90.0   33.333333333333336
-200.0   90.0   33.333333333333336
-250.0   90.0   16.666666666666668
-250.0   60.0   33.333333333333336
-200.0   90.0   33.333333333333336
-200.0   60.0   33.333333333333336
-200.0   60.0   16.666666666666668
-250.0   60.0   33.333333333333336
-200.0   90.0   33.333333333333336
-200.0   60.0   16.666666666666668
-250.0   90.0   16.666666666666668
-250.0   60.0   33.333333333333336
-200.0   60.0   33.333333333333336
-250.0   90.0   33.333333333333336
-250.0   60.0   50.0
-200.0   60.0   33.333333333333336
-200.0   90.0   33.333333333333336
-250.0   90.0   33.333333333333336
-200.0   90.0   50.0
-250.0   60.0   50.0
-250.0   90.0   50.0
-200.0   90.0   50.0
-250.0   90.0   33.333333333333336
-250.0   60.0   50.0
-200.0   90.0   50.0
-200.0   60.0   50.0
-200.0   60.0   33.333333333333336
-250.0   60.0   50.0
-200.0   90.0   50.0
-200.0   60.0   33.333333333333336
-250.0   90.0   33.333333333333336
-250.0   90.0   0.0
-200.0   90.0   0.0
-250.0   120.0   0.0
-250.0   90.0   16.666666666666668
-200.0   90.0   0.0
-200.0   120.0   0.0
-250.0   120.0   0.0
-200.0   120.0   16.666666666666668
-250.0   90.0   16.666666666666668
-250.0   120.0   16.666666666666668
-200.0   120.0   16.666666666666668
-250.0   120.0   0.0
-250.0   90.0   16.666666666666668
-200.0   120.0   16.666666666666668
-200.0   90.0   16.666666666666668
-200.0   90.0   0.0
-250.0   90.0   16.666666666666668
-200.0   120.0   16.666666666666668
-200.0   90.0   0.0
-250.0   120.0   0.0
-250.0   90.0   16.666666666666668
-200.0   90.0   16.666666666666668
-250.0   120.0   16.666666666666668
-250.0   90.0   33.333333333333336
-200.0   90.0   16.666666666666668
-200.0   120.0   16.666666666666668
-250.0   120.0   16.666666666666668
-200.0   120.0   33.333333333333336
-250.0   90.0   33.333333333333336
-250.0   120.0   33.333333333333336
-200.0   120.0   33.333333333333336
-250.0   120.0   16.666666666666668
-250.0   90.0   33.333333333333336
-200.0   120.0   33.333333333333336
-200.0   90.0   33.333333333333336
-200.0   90.0   16.666666666666668
-250.0   90.0   33.333333333333336
-200.0   120.0   33.333333333333336
-200.0   90.0   16.666666666666668
-250.0   120.0   16.666666666666668
-250.0   90.0   33.333333333333336
-200.0   90.0   33.333333333333336
-250.0   120.0   33.333333333333336
-250.0   90.0   50.0
-200.0   90.0   33.333333333333336
-200.0   120.0   33.333333333333336
-250.0   120.0   33.333333333333336
-200.0   120.0   50.0
-250.0   90.0   50.0
-250.0   120.0   50.0
-200.0   120.0   50.0
-250.0   120.0   33.333333333333336
-250.0   90.0   50.0
-200.0   120.0   50.0
-200.0   90.0   50.0
-200.0   90.0   33.333333333333336
-250.0   90.0   50.0
-200.0   120.0   50.0
-200.0   90.0   33.333333333333336
-250.0   120.0   33.333333333333336
-250.0   120.0   0.0
-200.0   120.0   0.0
-250.0   150.0   0.0
-250.0   120.0   16.666666666666668
-200.0   120.0   0.0
-200.0   150.0   0.0
-250.0   150.0   0.0
-200.0   150.0   16.666666666666668
-250.0   120.0   16.666666666666668
-250.0   150.0   16.666666666666668
-200.0   150.0   16.666666666666668
-250.0   150.0   0.0
-250.0   120.0   16.666666666666668
-200.0   150.0   16.666666666666668
-200.0   120.0   16.666666666666668
-200.0   120.0   0.0
-250.0   120.0   16.666666666666668
-200.0   150.0   16.666666666666668
-200.0   120.0   0.0
-250.0   150.0   0.0
-250.0   120.0   16.666666666666668
-200.0   120.0   16.666666666666668
-250.0   150.0   16.666666666666668
-250.0   120.0   33.333333333333336
-200.0   120.0   16.666666666666668
-200.0   150.0   16.666666666666668
-250.0   150.0   16.666666666666668
-200.0   150.0   33.333333333333336
-250.0   120.0   33.333333333333336
-250.0   150.0   33.333333333333336
-200.0   150.0   33.333333333333336
-250.0   150.0   16.666666666666668
-250.0   120.0   33.333333333333336
-200.0   150.0   33.333333333333336
-200.0   120.0   33.333333333333336
-200.0   120.0   16.666666666666668
-250.0   120.0   33.333333333333336
-200.0   150.0   33.333333333333336
-200.0   120.0   16.666666666666668
-250.0   150.0   16.666666666666668
-250.0   120.0   33.333333333333336
-200.0   120.0   33.333333333333336
-250.0   150.0   33.333333333333336
-250.0   120.0   50.0
-200.0   120.0   33.333333333333336
-200.0   150.0   33.333333333333336
-250.0   150.0   33.333333333333336
-200.0   150.0   50.0
-250.0   120.0   50.0
-250.0   150.0   50.0
-200.0   150.0   50.0
-250.0   150.0   33.333333333333336
-250.0   120.0   50.0
-200.0   150.0   50.0
-200.0   120.0   50.0
-200.0   120.0   33.333333333333336
-250.0   120.0   50.0
-200.0   150.0   50.0
-200.0   120.0   33.333333333333336
-250.0   150.0   33.333333333333336
-200.0   0.0   0.0
-150.0   0.0   0.0
-200.0   30.0   0.0
-200.0   0.0   16.666666666666668
-150.0   0.0   0.0
-150.0   30.0   0.0
-200.0   30.0   0.0
-150.0   30.0   16.666666666666668
-200.0   0.0   16.666666666666668
-200.0   30.0   16.666666666666668
-150.0   30.0   16.666666666666668
-200.0   30.0   0.0
-200.0   0.0   16.666666666666668
-150.0   30.0   16.666666666666668
-150.0   0.0   16.666666666666668
-150.0   0.0   0.0
-200.0   0.0   16.666666666666668
-150.0   30.0   16.666666666666668
-150.0   0.0   0.0
-200.0   30.0   0.0
-200.0   0.0   16.666666666666668
-150.0   0.0   16.666666666666668
-200.0   30.0   16.666666666666668
-200.0   0.0   33.333333333333336
-150.0   0.0   16.666666666666668
-150.0   30.0   16.666666666666668
-200.0   30.0   16.666666666666668
-150.0   30.0   33.333333333333336
-200.0   0.0   33.333333333333336
-200.0   30.0   33.333333333333336
-150.0   30.0   33.333333333333336
-200.0   30.0   16.666666666666668
-200.0   0.0   33.333333333333336
-150.0   30.0   33.333333333333336
-150.0   0.0   33.333333333333336
-150.0   0.0   16.666666666666668
-200.0   0.0   33.333333333333336
-150.0   30.0   33.333333333333336
-150.0   0.0   16.666666666666668
-200.0   30.0   16.666666666666668
-200.0   0.0   33.333333333333336
-150.0   0.0   33.333333333333336
-200.0   30.0   33.333333333333336
-200.0   0.0   50.0
-150.0   0.0   33.333333333333336
-150.0   30.0   33.333333333333336
-200.0   30.0   33.333333333333336
-150.0   30.0   50.0
-200.0   0.0   50.0
-200.0   30.0   50.0
-150.0   30.0   50.0
-200.0   30.0   33.333333333333336
-200.0   0.0   50.0
-150.0   30.0   50.0
-150.0   0.0   50.0
-150.0   0.0   33.333333333333336
-200.0   0.0   50.0
-150.0   30.0   50.0
-150.0   0.0   33.333333333333336
-200.0   30.0   33.333333333333336
-200.0   30.0   0.0
-150.0   30.0   0.0
-200.0   60.0   0.0
-200.0   30.0   16.666666666666668
-150.0   30.0   0.0
-150.0   60.0   0.0
-200.0   60.0   0.0
-150.0   60.0   16.666666666666668
-200.0   30.0   16.666666666666668
-200.0   60.0   16.666666666666668
-150.0   60.0   16.666666666666668
-200.0   60.0   0.0
-200.0   30.0   16.666666666666668
-150.0   60.0   16.666666666666668
-150.0   30.0   16.666666666666668
-150.0   30.0   0.0
-200.0   30.0   16.666666666666668
-150.0   60.0   16.666666666666668
-150.0   30.0   0.0
-200.0   60.0   0.0
-200.0   30.0   16.666666666666668
-150.0   30.0   16.666666666666668
-200.0   60.0   16.666666666666668
-200.0   30.0   33.333333333333336
-150.0   30.0   16.666666666666668
-150.0   60.0   16.666666666666668
-200.0   60.0   16.666666666666668
-150.0   60.0   33.333333333333336
-200.0   30.0   33.333333333333336
-200.0   60.0   33.333333333333336
-150.0   60.0   33.333333333333336
-200.0   60.0   16.666666666666668
-200.0   30.0   33.333333333333336
-150.0   60.0   33.333333333333336
-150.0   30.0   33.333333333333336
-150.0   30.0   16.666666666666668
-200.0   30.0   33.333333333333336
-150.0   60.0   33.333333333333336
-150.0   30.0   16.666666666666668
-200.0   60.0   16.666666666666668
-200.0   30.0   33.333333333333336
-150.0   30.0   33.333333333333336
-200.0   60.0   33.333333333333336
-200.0   30.0   50.0
-150.0   30.0   33.333333333333336
-150.0   60.0   33.333333333333336
-200.0   60.0   33.333333333333336
-150.0   60.0   50.0
-200.0   30.0   50.0
-200.0   60.0   50.0
-150.0   60.0   50.0
-200.0   60.0   33.333333333333336
-200.0   30.0   50.0
-150.0   60.0   50.0
-150.0   30.0   50.0
-150.0   30.0   33.333333333333336
-200.0   30.0   50.0
-150.0   60.0   50.0
-150.0   30.0   33.333333333333336
-200.0   60.0   33.333333333333336
-200.0   60.0   0.0
-150.0   60.0   0.0
-200.0   90.0   0.0
-200.0   60.0   16.666666666666668
-150.0   60.0   0.0
-150.0   90.0   0.0
-200.0   90.0   0.0
-150.0   90.0   16.666666666666668
-200.0   60.0   16.666666666666668
-200.0   90.0   16.666666666666668
-150.0   90.0   16.666666666666668
-200.0   90.0   0.0
-200.0   60.0   16.666666666666668
-150.0   90.0   16.666666666666668
-150.0   60.0   16.666666666666668
-150.0   60.0   0.0
-200.0   60.0   16.666666666666668
-150.0   90.0   16.666666666666668
-150.0   60.0   0.0
-200.0   90.0   0.0
-200.0   60.0   16.666666666666668
-150.0   60.0   16.666666666666668
-200.0   90.0   16.666666666666668
-200.0   60.0   33.333333333333336
-150.0   60.0   16.666666666666668
-150.0   90.0   16.666666666666668
-200.0   90.0   16.666666666666668
-150.0   90.0   33.333333333333336
-200.0   60.0   33.333333333333336
-200.0   90.0   33.333333333333336
-150.0   90.0   33.333333333333336
-200.0   90.0   16.666666666666668
-200.0   60.0   33.333333333333336
-150.0   90.0   33.333333333333336
-150.0   60.0   33.333333333333336
-150.0   60.0   16.666666666666668
-200.0   60.0   33.333333333333336
-150.0   90.0   33.333333333333336
-150.0   60.0   16.666666666666668
-200.0   90.0   16.666666666666668
-200.0   60.0   33.333333333333336
-150.0   60.0   33.333333333333336
-200.0   90.0   33.333333333333336
-200.0   60.0   50.0
-150.0   60.0   33.333333333333336
-150.0   90.0   33.333333333333336
-200.0   90.0   33.333333333333336
-150.0   90.0   50.0
-200.0   60.0   50.0
-200.0   90.0   50.0
-150.0   90.0   50.0
-200.0   90.0   33.333333333333336
-200.0   60.0   50.0
-150.0   90.0   50.0
-150.0   60.0   50.0
-150.0   60.0   33.333333333333336
-200.0   60.0   50.0
-150.0   90.0   50.0
-150.0   60.0   33.333333333333336
-200.0   90.0   33.333333333333336
-200.0   90.0   0.0
-150.0   90.0   0.0
-200.0   120.0   0.0
-200.0   90.0   16.666666666666668
-150.0   90.0   0.0
-150.0   120.0   0.0
-200.0   120.0   0.0
-150.0   120.0   16.666666666666668
-200.0   90.0   16.666666666666668
-200.0   120.0   16.666666666666668
-150.0   120.0   16.666666666666668
-200.0   120.0   0.0
-200.0   90.0   16.666666666666668
-150.0   120.0   16.666666666666668
-150.0   90.0   16.666666666666668
-150.0   90.0   0.0
-200.0   90.0   16.666666666666668
-150.0   120.0   16.666666666666668
-150.0   90.0   0.0
-200.0   120.0   0.0
-200.0   90.0   16.666666666666668
-150.0   90.0   16.666666666666668
-200.0   120.0   16.666666666666668
-200.0   90.0   33.333333333333336
-150.0   90.0   16.666666666666668
-150.0   120.0   16.666666666666668
-200.0   120.0   16.666666666666668
-150.0   120.0   33.333333333333336
-200.0   90.0   33.333333333333336
-200.0   120.0   33.333333333333336
-150.0   120.0   33.333333333333336
-200.0   120.0   16.666666666666668
-200.0   90.0   33.333333333333336
-150.0   120.0   33.333333333333336
-150.0   90.0   33.333333333333336
-150.0   90.0   16.666666666666668
-200.0   90.0   33.333333333333336
-150.0   120.0   33.333333333333336
-150.0   90.0   16.666666666666668
-200.0   120.0   16.666666666666668
-200.0   90.0   33.333333333333336
-150.0   90.0   33.333333333333336
-200.0   120.0   33.333333333333336
-200.0   90.0   50.0
-150.0   90.0   33.333333333333336
-150.0   120.0   33.333333333333336
-200.0   120.0   33.333333333333336
-150.0   120.0   50.0
-200.0   90.0   50.0
-200.0   120.0   50.0
-150.0   120.0   50.0
-200.0   120.0   33.333333333333336
-200.0   90.0   50.0
-150.0   120.0   50.0
-150.0   90.0   50.0
-150.0   90.0   33.333333333333336
-200.0   90.0   50.0
-150.0   120.0   50.0
-150.0   90.0   33.333333333333336
-200.0   120.0   33.333333333333336
-200.0   120.0   0.0
-150.0   120.0   0.0
-200.0   150.0   0.0
-200.0   120.0   16.666666666666668
-150.0   120.0   0.0
-150.0   150.0   0.0
-200.0   150.0   0.0
-150.0   150.0   16.666666666666668
-200.0   120.0   16.666666666666668
-200.0   150.0   16.666666666666668
-150.0   150.0   16.666666666666668
-200.0   150.0   0.0
-200.0   120.0   16.666666666666668
-150.0   150.0   16.666666666666668
-150.0   120.0   16.666666666666668
-150.0   120.0   0.0
-200.0   120.0   16.666666666666668
-150.0   150.0   16.666666666666668
-150.0   120.0   0.0
-200.0   150.0   0.0
-200.0   120.0   16.666666666666668
-150.0   120.0   16.666666666666668
-200.0   150.0   16.666666666666668
-200.0   120.0   33.333333333333336
-150.0   120.0   16.666666666666668
-150.0   150.0   16.666666666666668
-200.0   150.0   16.666666666666668
-150.0   150.0   33.333333333333336
-200.0   120.0   33.333333333333336
-200.0   150.0   33.333333333333336
-150.0   150.0   33.333333333333336
-200.0   150.0   16.666666666666668
-200.0   120.0   33.333333333333336
-150.0   150.0   33.333333333333336
-150.0   120.0   33.333333333333336
-150.0   120.0   16.666666666666668
-200.0   120.0   33.333333333333336
-150.0   150.0   33.333333333333336
-150.0   120.0   16.666666666666668
-200.0   150.0   16.666666666666668
-200.0   120.0   33.333333333333336
-150.0   120.0   33.333333333333336
-200.0   150.0   33.333333333333336
-200.0   120.0   50.0
-150.0   120.0   33.333333333333336
-150.0   150.0   33.333333333333336
-200.0   150.0   33.333333333333336
-150.0   150.0   50.0
-200.0   120.0   50.0
-200.0   150.0   50.0
-150.0   150.0   50.0
-200.0   150.0   33.333333333333336
-200.0   120.0   50.0
-150.0   150.0   50.0
-150.0   120.0   50.0
-150.0   120.0   33.333333333333336
-200.0   120.0   50.0
-150.0   150.0   50.0
-150.0   120.0   33.333333333333336
-200.0   150.0   33.333333333333336
-150.0   0.0   0.0
-100.0   0.0   0.0
-150.0   30.0   0.0
-150.0   0.0   16.666666666666668
-100.0   0.0   0.0
-100.0   30.0   0.0
-150.0   30.0   0.0
-100.0   30.0   16.666666666666668
-150.0   0.0   16.666666666666668
-150.0   30.0   16.666666666666668
-100.0   30.0   16.666666666666668
-150.0   30.0   0.0
-150.0   0.0   16.666666666666668
-100.0   30.0   16.666666666666668
-100.0   0.0   16.666666666666668
-100.0   0.0   0.0
-150.0   0.0   16.666666666666668
-100.0   30.0   16.666666666666668
-100.0   0.0   0.0
-150.0   30.0   0.0
-150.0   0.0   16.666666666666668
-100.0   0.0   16.666666666666668
-150.0   30.0   16.666666666666668
-150.0   0.0   33.333333333333336
-100.0   0.0   16.666666666666668
-100.0   30.0   16.666666666666668
-150.0   30.0   16.666666666666668
-100.0   30.0   33.333333333333336
-150.0   0.0   33.333333333333336
-150.0   30.0   33.333333333333336
-100.0   30.0   33.333333333333336
-150.0   30.0   16.666666666666668
-150.0   0.0   33.333333333333336
-100.0   30.0   33.333333333333336
-100.0   0.0   33.333333333333336
-100.0   0.0   16.666666666666668
-150.0   0.0   33.333333333333336
-100.0   30.0   33.333333333333336
-100.0   0.0   16.666666666666668
-150.0   30.0   16.666666666666668
-150.0   0.0   33.333333333333336
-100.0   0.0   33.333333333333336
-150.0   30.0   33.333333333333336
-150.0   0.0   50.0
-100.0   0.0   33.333333333333336
-100.0   30.0   33.333333333333336
-150.0   30.0   33.333333333333336
-100.0   30.0   50.0
-150.0   0.0   50.0
-150.0   30.0   50.0
-100.0   30.0   50.0
-150.0   30.0   33.333333333333336
-150.0   0.0   50.0
-100.0   30.0   50.0
-100.0   0.0   50.0
-100.0   0.0   33.333333333333336
-150.0   0.0   50.0
-100.0   30.0   50.0
-100.0   0.0   33.333333333333336
-150.0   30.0   33.333333333333336
-150.0   30.0   0.0
-100.0   30.0   0.0
-150.0   60.0   0.0
-150.0   30.0   16.666666666666668
-100.0   30.0   0.0
-100.0   60.0   0.0
-150.0   60.0   0.0
-100.0   60.0   16.666666666666668
-150.0   30.0   16.666666666666668
-150.0   60.0   16.666666666666668
-100.0   60.0   16.666666666666668
-150.0   60.0   0.0
-150.0   30.0   16.666666666666668
-100.0   60.0   16.666666666666668
-100.0   30.0   16.666666666666668
-100.0   30.0   0.0
-150.0   30.0   16.666666666666668
-100.0   60.0   16.666666666666668
-100.0   30.0   0.0
-150.0   60.0   0.0
-150.0   30.0   16.666666666666668
-100.0   30.0   16.666666666666668
-150.0   60.0   16.666666666666668
-150.0   30.0   33.333333333333336
-100.0   30.0   16.666666666666668
-100.0   60.0   16.666666666666668
-150.0   60.0   16.666666666666668
-100.0   60.0   33.333333333333336
-150.0   30.0   33.333333333333336
-150.0   60.0   33.333333333333336
-100.0   60.0   33.333333333333336
-150.0   60.0   16.666666666666668
-150.0   30.0   33.333333333333336
-100.0   60.0   33.333333333333336
-100.0   30.0   33.333333333333336
-100.0   30.0   16.666666666666668
-150.0   30.0   33.333333333333336
-100.0   60.0   33.333333333333336
-100.0   30.0   16.666666666666668
-150.0   60.0   16.666666666666668
-150.0   30.0   33.333333333333336
-100.0   30.0   33.333333333333336
-150.0   60.0   33.333333333333336
-150.0   30.0   50.0
-100.0   30.0   33.333333333333336
-100.0   60.0   33.333333333333336
-150.0   60.0   33.333333333333336
-100.0   60.0   50.0
-150.0   30.0   50.0
-150.0   60.0   50.0
-100.0   60.0   50.0
-150.0   60.0   33.333333333333336
-150.0   30.0   50.0
-100.0   60.0   50.0
-100.0   30.0   50.0
-100.0   30.0   33.333333333333336
-150.0   30.0   50.0
-100.0   60.0   50.0
-100.0   30.0   33.333333333333336
-150.0   60.0   33.333333333333336
-150.0   60.0   0.0
-100.0   60.0   0.0
-150.0   90.0   0.0
-150.0   60.0   16.666666666666668
-100.0   60.0   0.0
-100.0   90.0   0.0
-150.0   90.0   0.0
-100.0   90.0   16.666666666666668
-150.0   60.0   16.666666666666668
-150.0   90.0   16.666666666666668
-100.0   90.0   16.666666666666668
-150.0   90.0   0.0
-150.0   60.0   16.666666666666668
-100.0   90.0   16.666666666666668
-100.0   60.0   16.666666666666668
-100.0   60.0   0.0
-150.0   60.0   16.666666666666668
-100.0   90.0   16.666666666666668
-100.0   60.0   0.0
-150.0   90.0   0.0
-150.0   60.0   16.666666666666668
-100.0   60.0   16.666666666666668
-150.0   90.0   16.666666666666668
-150.0   60.0   33.333333333333336
-100.0   60.0   16.666666666666668
-100.0   90.0   16.666666666666668
-150.0   90.0   16.666666666666668
-100.0   90.0   33.333333333333336
-150.0   60.0   33.333333333333336
-150.0   90.0   33.333333333333336
-100.0   90.0   33.333333333333336
-150.0   90.0   16.666666666666668
-150.0   60.0   33.333333333333336
-100.0   90.0   33.333333333333336
-100.0   60.0   33.333333333333336
-100.0   60.0   16.666666666666668
-150.0   60.0   33.333333333333336
-100.0   90.0   33.333333333333336
-100.0   60.0   16.666666666666668
-150.0   90.0   16.666666666666668
-150.0   60.0   33.333333333333336
-100.0   60.0   33.333333333333336
-150.0   90.0   33.333333333333336
-150.0   60.0   50.0
-100.0   60.0   33.333333333333336
-100.0   90.0   33.333333333333336
-150.0   90.0   33.333333333333336
-100.0   90.0   50.0
-150.0   60.0   50.0
-150.0   90.0   50.0
-100.0   90.0   50.0
-150.0   90.0   33.333333333333336
-150.0   60.0   50.0
-100.0   90.0   50.0
-100.0   60.0   50.0
-100.0   60.0   33.333333333333336
-150.0   60.0   50.0
-100.0   90.0   50.0
-100.0   60.0   33.333333333333336
-150.0   90.0   33.333333333333336
-150.0   90.0   0.0
-100.0   90.0   0.0
-150.0   120.0   0.0
-150.0   90.0   16.666666666666668
-100.0   90.0   0.0
-100.0   120.0   0.0
-150.0   120.0   0.0
-100.0   120.0   16.666666666666668
-150.0   90.0   16.666666666666668
-150.0   120.0   16.666666666666668
-100.0   120.0   16.666666666666668
-150.0   120.0   0.0
-150.0   90.0   16.666666666666668
-100.0   120.0   16.666666666666668
-100.0   90.0   16.666666666666668
-100.0   90.0   0.0
-150.0   90.0   16.666666666666668
-100.0   120.0   16.666666666666668
-100.0   90.0   0.0
-150.0   120.0   0.0
-150.0   90.0   16.666666666666668
-100.0   90.0   16.666666666666668
-150.0   120.0   16.666666666666668
-150.0   90.0   33.333333333333336
-100.0   90.0   16.666666666666668
-100.0   120.0   16.666666666666668
-150.0   120.0   16.666666666666668
-100.0   120.0   33.333333333333336
-150.0   90.0   33.333333333333336
-150.0   120.0   33.333333333333336
-100.0   120.0   33.333333333333336
-150.0   120.0   16.666666666666668
-150.0   90.0   33.333333333333336
-100.0   120.0   33.333333333333336
-100.0   90.0   33.333333333333336
-100.0   90.0   16.666666666666668
-150.0   90.0   33.333333333333336
-100.0   120.0   33.333333333333336
-100.0   90.0   16.666666666666668
-150.0   120.0   16.666666666666668
-150.0   90.0   33.333333333333336
-100.0   90.0   33.333333333333336
-150.0   120.0   33.333333333333336
-150.0   90.0   50.0
-100.0   90.0   33.333333333333336
-100.0   120.0   33.333333333333336
-150.0   120.0   33.333333333333336
-100.0   120.0   50.0
-150.0   90.0   50.0
-150.0   120.0   50.0
-100.0   120.0   50.0
-150.0   120.0   33.333333333333336
-150.0   90.0   50.0
-100.0   120.0   50.0
-100.0   90.0   50.0
-100.0   90.0   33.333333333333336
-150.0   90.0   50.0
-100.0   120.0   50.0
-100.0   90.0   33.333333333333336
-150.0   120.0   33.333333333333336
-150.0   120.0   0.0
-100.0   120.0   0.0
-150.0   150.0   0.0
-150.0   120.0   16.666666666666668
-100.0   120.0   0.0
-100.0   150.0   0.0
-150.0   150.0   0.0
-100.0   150.0   16.666666666666668
-150.0   120.0   16.666666666666668
-150.0   150.0   16.666666666666668
-100.0   150.0   16.666666666666668
-150.0   150.0   0.0
-150.0   120.0   16.666666666666668
-100.0   150.0   16.666666666666668
-100.0   120.0   16.666666666666668
-100.0   120.0   0.0
-150.0   120.0   16.666666666666668
-100.0   150.0   16.666666666666668
-100.0   120.0   0.0
-150.0   150.0   0.0
-150.0   120.0   16.666666666666668
-100.0   120.0   16.666666666666668
-150.0   150.0   16.666666666666668
-150.0   120.0   33.333333333333336
-100.0   120.0   16.666666666666668
-100.0   150.0   16.666666666666668
-150.0   150.0   16.666666666666668
-100.0   150.0   33.333333333333336
-150.0   120.0   33.333333333333336
-150.0   150.0   33.333333333333336
-100.0   150.0   33.333333333333336
-150.0   150.0   16.666666666666668
-150.0   120.0   33.333333333333336
-100.0   150.0   33.333333333333336
-100.0   120.0   33.333333333333336
-100.0   120.0   16.666666666666668
-150.0   120.0   33.333333333333336
-100.0   150.0   33.333333333333336
-100.0   120.0   16.666666666666668
-150.0   150.0   16.666666666666668
-150.0   120.0   33.333333333333336
-100.0   120.0   33.333333333333336
-150.0   150.0   33.333333333333336
-150.0   120.0   50.0
-100.0   120.0   33.333333333333336
-100.0   150.0   33.333333333333336
-150.0   150.0   33.333333333333336
-100.0   150.0   50.0
-150.0   120.0   50.0
-150.0   150.0   50.0
-100.0   150.0   50.0
-150.0   150.0   33.333333333333336
-150.0   120.0   50.0
-100.0   150.0   50.0
-100.0   120.0   50.0
-100.0   120.0   33.333333333333336
-150.0   120.0   50.0
-100.0   150.0   50.0
-100.0   120.0   33.333333333333336
-150.0   150.0   33.333333333333336
-100.0   0.0   0.0
-50.0   0.0   0.0
-100.0   30.0   0.0
-100.0   0.0   16.666666666666668
-50.0   0.0   0.0
-50.0   30.0   0.0
-100.0   30.0   0.0
-50.0   30.0   16.666666666666668
-100.0   0.0   16.666666666666668
-100.0   30.0   16.666666666666668
-50.0   30.0   16.666666666666668
-100.0   30.0   0.0
-100.0   0.0   16.666666666666668
-50.0   30.0   16.666666666666668
-50.0   0.0   16.666666666666668
-50.0   0.0   0.0
-100.0   0.0   16.666666666666668
-50.0   30.0   16.666666666666668
-50.0   0.0   0.0
-100.0   30.0   0.0
-100.0   0.0   16.666666666666668
-50.0   0.0   16.666666666666668
-100.0   30.0   16.666666666666668
-100.0   0.0   33.333333333333336
-50.0   0.0   16.666666666666668
-50.0   30.0   16.666666666666668
-100.0   30.0   16.666666666666668
-50.0   30.0   33.333333333333336
-100.0   0.0   33.333333333333336
-100.0   30.0   33.333333333333336
-50.0   30.0   33.333333333333336
-100.0   30.0   16.666666666666668
-100.0   0.0   33.333333333333336
-50.0   30.0   33.333333333333336
-50.0   0.0   33.333333333333336
-50.0   0.0   16.666666666666668
-100.0   0.0   33.333333333333336
-50.0   30.0   33.333333333333336
-50.0   0.0   16.666666666666668
-100.0   30.0   16.666666666666668
-100.0   0.0   33.333333333333336
-50.0   0.0   33.333333333333336
-100.0   30.0   33.333333333333336
-100.0   0.0   50.0
-50.0   0.0   33.333333333333336
-50.0   30.0   33.333333333333336
-100.0   30.0   33.333333333333336
-50.0   30.0   50.0
-100.0   0.0   50.0
-100.0   30.0   50.0
-50.0   30.0   50.0
-100.0   30.0   33.333333333333336
-100.0   0.0   50.0
-50.0   30.0   50.0
-50.0   0.0   50.0
-50.0   0.0   33.333333333333336
-100.0   0.0   50.0
-50.0   30.0   50.0
-50.0   0.0   33.333333333333336
-100.0   30.0   33.333333333333336
-100.0   30.0   0.0
-50.0   30.0   0.0
-100.0   60.0   0.0
-100.0   30.0   16.666666666666668
-50.0   30.0   0.0
-50.0   60.0   0.0
-100.0   60.0   0.0
-50.0   60.0   16.666666666666668
-100.0   30.0   16.666666666666668
-100.0   60.0   16.666666666666668
-50.0   60.0   16.666666666666668
-100.0   60.0   0.0
-100.0   30.0   16.666666666666668
-50.0   60.0   16.666666666666668
-50.0   30.0   16.666666666666668
-50.0   30.0   0.0
-100.0   30.0   16.666666666666668
-50.0   60.0   16.666666666666668
-50.0   30.0   0.0
-100.0   60.0   0.0
-100.0   30.0   16.666666666666668
-50.0   30.0   16.666666666666668
-100.0   60.0   16.666666666666668
-100.0   30.0   33.333333333333336
-50.0   30.0   16.666666666666668
-50.0   60.0   16.666666666666668
-100.0   60.0   16.666666666666668
-50.0   60.0   33.333333333333336
-100.0   30.0   33.333333333333336
-100.0   60.0   33.333333333333336
-50.0   60.0   33.333333333333336
-100.0   60.0   16.666666666666668
-100.0   30.0   33.333333333333336
-50.0   60.0   33.333333333333336
-50.0   30.0   33.333333333333336
-50.0   30.0   16.666666666666668
-100.0   30.0   33.333333333333336
-50.0   60.0   33.333333333333336
-50.0   30.0   16.666666666666668
-100.0   60.0   16.666666666666668
-100.0   30.0   33.333333333333336
-50.0   30.0   33.333333333333336
-100.0   60.0   33.333333333333336
-100.0   30.0   50.0
-50.0   30.0   33.333333333333336
-50.0   60.0   33.333333333333336
-100.0   60.0   33.333333333333336
-50.0   60.0   50.0
-100.0   30.0   50.0
-100.0   60.0   50.0
-50.0   60.0   50.0
-100.0   60.0   33.333333333333336
-100.0   30.0   50.0
-50.0   60.0   50.0
-50.0   30.0   50.0
-50.0   30.0   33.333333333333336
-100.0   30.0   50.0
-50.0   60.0   50.0
-50.0   30.0   33.333333333333336
-100.0   60.0   33.333333333333336
-100.0   60.0   0.0
-50.0   60.0   0.0
-100.0   90.0   0.0
-100.0   60.0   16.666666666666668
-50.0   60.0   0.0
-50.0   90.0   0.0
-100.0   90.0   0.0
-50.0   90.0   16.666666666666668
-100.0   60.0   16.666666666666668
-100.0   90.0   16.666666666666668
-50.0   90.0   16.666666666666668
-100.0   90.0   0.0
-100.0   60.0   16.666666666666668
-50.0   90.0   16.666666666666668
-50.0   60.0   16.666666666666668
-50.0   60.0   0.0
-100.0   60.0   16.666666666666668
-50.0   90.0   16.666666666666668
-50.0   60.0   0.0
-100.0   90.0   0.0
-100.0   60.0   16.666666666666668
-50.0   60.0   16.666666666666668
-100.0   90.0   16.666666666666668
-100.0   60.0   33.333333333333336
-50.0   60.0   16.666666666666668
-50.0   90.0   16.666666666666668
-100.0   90.0   16.666666666666668
-50.0   90.0   33.333333333333336
-100.0   60.0   33.333333333333336
-100.0   90.0   33.333333333333336
-50.0   90.0   33.333333333333336
-100.0   90.0   16.666666666666668
-100.0   60.0   33.333333333333336
-50.0   90.0   33.333333333333336
-50.0   60.0   33.333333333333336
-50.0   60.0   16.666666666666668
-100.0   60.0   33.333333333333336
-50.0   90.0   33.333333333333336
-50.0   60.0   16.666666666666668
-100.0   90.0   16.666666666666668
-100.0   60.0   33.333333333333336
-50.0   60.0   33.333333333333336
-100.0   90.0   33.333333333333336
-100.0   60.0   50.0
-50.0   60.0   33.333333333333336
-50.0   90.0   33.333333333333336
-100.0   90.0   33.333333333333336
-50.0   90.0   50.0
-100.0   60.0   50.0
-100.0   90.0   50.0
-50.0   90.0   50.0
-100.0   90.0   33.333333333333336
-100.0   60.0   50.0
-50.0   90.0   50.0
-50.0   60.0   50.0
-50.0   60.0   33.333333333333336
-100.0   60.0   50.0
-50.0   90.0   50.0
-50.0   60.0   33.333333333333336
-100.0   90.0   33.333333333333336
-100.0   90.0   0.0
-50.0   90.0   0.0
-100.0   120.0   0.0
-100.0   90.0   16.666666666666668
-50.0   90.0   0.0
-50.0   120.0   0.0
-100.0   120.0   0.0
-50.0   120.0   16.666666666666668
-100.0   90.0   16.666666666666668
-100.0   120.0   16.666666666666668
-50.0   120.0   16.666666666666668
-100.0   120.0   0.0
-100.0   90.0   16.666666666666668
-50.0   120.0   16.666666666666668
-50.0   90.0   16.666666666666668
-50.0   90.0   0.0
-100.0   90.0   16.666666666666668
-50.0   120.0   16.666666666666668
-50.0   90.0   0.0
-100.0   120.0   0.0
-100.0   90.0   16.666666666666668
-50.0   90.0   16.666666666666668
-100.0   120.0   16.666666666666668
-100.0   90.0   33.333333333333336
-50.0   90.0   16.666666666666668
-50.0   120.0   16.666666666666668
-100.0   120.0   16.666666666666668
-50.0   120.0   33.333333333333336
-100.0   90.0   33.333333333333336
-100.0   120.0   33.333333333333336
-50.0   120.0   33.333333333333336
-100.0   120.0   16.666666666666668
-100.0   90.0   33.333333333333336
-50.0   120.0   33.333333333333336
-50.0   90.0   33.333333333333336
-50.0   90.0   16.666666666666668
-100.0   90.0   33.333333333333336
-50.0   120.0   33.333333333333336
-50.0   90.0   16.666666666666668
-100.0   120.0   16.666666666666668
-100.0   90.0   33.333333333333336
-50.0   90.0   33.333333333333336
-100.0   120.0   33.333333333333336
-100.0   90.0   50.0
-50.0   90.0   33.333333333333336
-50.0   120.0   33.333333333333336
-100.0   120.0   33.333333333333336
-50.0   120.0   50.0
-100.0   90.0   50.0
-100.0   120.0   50.0
-50.0   120.0   50.0
-100.0   120.0   33.333333333333336
-100.0   90.0   50.0
-50.0   120.0   50.0
-50.0   90.0   50.0
-50.0   90.0   33.333333333333336
-100.0   90.0   50.0
-50.0   120.0   50.0
-50.0   90.0   33.333333333333336
-100.0   120.0   33.333333333333336
-100.0   120.0   0.0
-50.0   120.0   0.0
-100.0   150.0   0.0
-100.0   120.0   16.666666666666668
-50.0   120.0   0.0
-50.0   150.0   0.0
-100.0   150.0   0.0
-50.0   150.0   16.666666666666668
-100.0   120.0   16.666666666666668
-100.0   150.0   16.666666666666668
-50.0   150.0   16.666666666666668
-100.0   150.0   0.0
-100.0   120.0   16.666666666666668
-50.0   150.0   16.666666666666668
-50.0   120.0   16.666666666666668
-50.0   120.0   0.0
-100.0   120.0   16.666666666666668
-50.0   150.0   16.666666666666668
-50.0   120.0   0.0
-100.0   150.0   0.0
-100.0   120.0   16.666666666666668
-50.0   120.0   16.666666666666668
-100.0   150.0   16.666666666666668
-100.0   120.0   33.333333333333336
-50.0   120.0   16.666666666666668
-50.0   150.0   16.666666666666668
-100.0   150.0   16.666666666666668
-50.0   150.0   33.333333333333336
-100.0   120.0   33.333333333333336
-100.0   150.0   33.333333333333336
-50.0   150.0   33.333333333333336
-100.0   150.0   16.666666666666668
-100.0   120.0   33.333333333333336
-50.0   150.0   33.333333333333336
-50.0   120.0   33.333333333333336
-50.0   120.0   16.666666666666668
-100.0   120.0   33.333333333333336
-50.0   150.0   33.333333333333336
-50.0   120.0   16.666666666666668
-100.0   150.0   16.666666666666668
-100.0   120.0   33.333333333333336
-50.0   120.0   33.333333333333336
-100.0   150.0   33.333333333333336
-100.0   120.0   50.0
-50.0   120.0   33.333333333333336
-50.0   150.0   33.333333333333336
-100.0   150.0   33.333333333333336
-50.0   150.0   50.0
-100.0   120.0   50.0
-100.0   150.0   50.0
-50.0   150.0   50.0
-100.0   150.0   33.333333333333336
-100.0   120.0   50.0
-50.0   150.0   50.0
-50.0   120.0   50.0
-50.0   120.0   33.333333333333336
-100.0   120.0   50.0
-50.0   150.0   50.0
-50.0   120.0   33.333333333333336
-100.0   150.0   33.333333333333336
-50.0   0.0   0.0
0.0   0.0   0.0
-50.0   30.0   0.0
-50.0   0.0   16.666666666666668
0.0   0.0   0.0
0.0   30.0   0.0
-50.0   30.0   0.0
0.0   30.0   16.666666666666668
-50.0   0.0   16.666666666666668
-50.0   30.0   16.666666666666668
0.0   30.0   16.666666666666668
-50.0   30.0   0.0
-50.0   0.0   16.666666666666668
0.0   30.0   16.666666666666668
0.0   0.0   16.666666666666668
0.0   0.0   0.0
-50.0   0.0   16.666666666666668
0.0   30.0   16.666666666666668
0.0   0.0   0.0
-50.0   30.0   0.0
-50.0   0.0   16.666666666666668
0.0   0.0   16.666666666666668
-50.0   30.0   16.666666666666668
-50.0   0.0   33.333333333333336
0.0   0.0   16.666666666666668
0.0   30.0   16.666666666666668
-50.0   30.0   16.666666666666668
0.0   30.0   33.333333333333336
-50.0   0.0   33.333333333333336
-50.0   30.0   33.333333333333336
0.0   30.0   33.333333333333336
-50.0   30.0   16.666666666666668
-50.0   0.0   33.333333333333336
0.0   30.0   33.333333333333336
0.0   0.0   33.333333333333336
0.0   0.0   16.666666666666668
-50.0   0.0   33.333333333333336
0.0   30.0   33.333333333333336
0.0   0.0   16.666666666666668
-50.0   30.0   16.666666666666668
-50.0   0.0   33.333333333333336
0.0   0.0   33.333333333333336
-50.0   30.0   33.333333333333336
-50.0   0.0   50.0
0.0   0.0   33.333333333333336
0.0   30.0   33.333333333333336
-50.0   30.0   33.333333333333336
0.0   30.0   50.0
-50.0   0.0   50.0
-50.0   30.0   50.0
0.0   30.0   50.0
-50.0   30.0   33.333333333333336
-50.0   0.0   50.0
0.0   30.0   50.0
0.0   0.0   50.0
0.0   0.0   33.333333333333336
-50.0   0.0   50.0
0.0   30.0   50.0
0.0   0.0   33.333333333333336
-50.0   30.0   33.333333333333336
-50.0   30.0   0.0
0.0   30.0   0.0
-50.0   60.0   0.0
-50.0   30.0   16.666666666666668
0.0   30.0   0.0
0.0   60.0   0.0
-50.0   60.0   0.0
0.0   60.0   16.666666666666668
-50.0   30.0   16.666666666666668
-50.0   60.0   16.666666666666668
0.0   60.0   16.666666666666668
-50.0   60.0   0.0
-50.0   30.0   16.666666666666668
0.0   60.0   16.666666666666668
0.0   30.0   16.666666666666668
0.0   30.0   0.0
-50.0   30.0   16.666666666666668
0.0   60.0   16.666666666666668
0.0   30.0   0.0
-50.0   60.0   0.0
-50.0   30.0   16.666666666666668
0.0   30.0   16.666666666666668
-50.0   60.0   16.666666666666668
-50.0   30.0   33.333333333333336
0.0   30.0   16.666666666666668
0.0   60.0   16.666666666666668
-50.0   60.0   16.666666666666668
0.0   60.0   33.333333333333336
-50.0   30.0   33.333333333333336
-50.0   60.0   33.333333333333336
0.0   60.0   33.333333333333336
-50.0   60.0   16.666666666666668
-50.0   30.0   33.333333333333336
0.0   60.0   33.333333333333336
0.0   30.0   33.333333333333336
0.0   30.0   16.666666666666668
-50.0   30.0   33.333333333333336
0.0   60.0   33.333333333333336
0.0   30.0   16.666666666666668
-50.0   60.0   16.666666666666668
-50.0   30.0   33.333333333333336
0.0   30.0   33.333333333333336
-50.0   60.0   33.333333333333336
-50.0   30.0   50.0
0.0   30.0   33.333333333333336
0.0   60.0   33.333333333333336
-50.0   60.0   33.333333333333336
0.0   60.0   50.0
-50.0   30.0   50.0
-50.0   60.0   50.0
0.0   60.0   50.0
-50.0   60.0   33.333333333333336
-50.0   30.0   50.0
0.0   60.0   50.0
0.0   30.0   50.0
0.0   30.0   33.333333333333336
-50.0   30.0   50.0
0.0   60.0   50.0
0.0   30.0   33.333333333333336
-50.0   60.0   33.333333333333336
-50.0   60.0   0.0
0.0   60.0   0.0
-50.0   90.0   0.0
-50.0   60.0   16.666666666666668
0.0   60.0   0.0
0.0   90.0   0.0
-50.0   90.0   0.0
0.0   90.0   16.666666666666668
-50.0   60.0   16.666666666666668
-50.0   90.0   16.666666666666668
0.0   90.0   16.666666666666668
-50.0   90.0   0.0
-50.0   60.0   16.666666666666668
0.0   90.0   16.666666666666668
0.0   60.0   16.666666666666668
0.0   60.0   0.0
-50.0   60.0   16.666666666666668
0.0   90.0   16.666666666666668
0.0   60.0   0.0
-50.0   90.0   0.0
-50.0   60.0   16.666666666666668
0.0   60.0   16.666666666666668
-50.0   90.0   16.666666666666668
-50.0   60.0   33.333333333333336
0.0   60.0   16.666666666666668
0.0   90.0   16.666666666666668
-50.0   90.0   16.666666666666668
0.0   90.0   33.333333333333336
-50.0   60.0   33.333333333333336
-50.0   90.0   33.333333333333336
0.0   90.0   33.333333333333336
-50.0   90.0   16.666666666666668
-50.0   60.0   33.333333333333336
0.0   90.0   33.333333333333336
0.0   60.0   33.333333333333336
0.0   60.0   16.666666666666668
-50.0   60.0   33.333333333333336
0.0   90.0   33.333333333333336
0.0   60.0   16.666666666666668
-50.0   90.0   16.666666666666668
-50.0   60.0   33.333333333333336
0.0   60.0   33.333333333333336
-50.0   90.0   33.333333333333336
-50.0   60.0   50.0
0.0   60.0   33.333333333333336
0.0   90.0   33.333333333333336
-50.0   90.0   33.333333333333336
0.0   90.0   50.0
-50.0   60.0   50.0
-50.0   90.0   50.0
0.0   90.0   50.0
-50.0   90.0   33.333333333333336
-50.0   60.0   50.0
0.0   90.0   50.0
0.0   60.0   50.0
0.0   60.0   33.333333333333336
-50.0   60.0   50.0
0.0   90.0   50.0
0.0   60.0   33.333333333333336
-50.0   90.0   33.333333333333336
-50.0   90.0   0.0
0.0   90.0   0.0
-50.0   120.0   0.0
-50.0   90.0   16.666666666666668
0.0   90.0   0.0
0.0   120.0   0.0
-50.0   120.0   0.0
0.0   120.0   16.666666666666668
-50.0   90.0   16.666666666666668
-50.0   120.0   16.666666666666668
0.0   120.0   16.666666666666668
-50.0   120.0   0.0
-50.0   90.0   16.666666666666668
0.0   120.0   16.666666666666668
0.0   90.0   16.666666666666668
0.0   90.0   0.0
-50.0   90.0   16.666666666666668
0.0   120.0   16.666666666666668
0.0   90.0   0.0
-50.0   120.0   0.0
-50.0   90.0   16.666666666666668
0.0   90.0   16.666666666666668
-50.0   120.0   16.666666666666668
-50.0   90.0   33.333333333333336
0.0   90.0   16.666666666666668
0.0   120.0   16.666666666666668
-50.0   120.0   16.666666666666668
0.0   120.0   33.333333333333336
-50.0   90.0   33.333333333333336
-50.0   120.0   33.333333333333336
0.0   120.0   33.333333333333336
-50.0   120.0   16.666666666666668
-50.0   90.0   33.333333333333336
0.0   120.0   33.333333333333336
0.0   90.0   33.333333333333336
0.0   90.0   16.666666666666668
-50.0   90.0   33.333333333333336
0.0   120.0   33.333333333333336
0.0   90.0   16.666666666666668
-50.0   120.0   16.666666666666668
-50.0   90.0   33.333333333333336
0.0   90.0   33.333333333333336
-50.0   120.0   33.333333333333336
-50.0   90.0   50.0
0.0   90.0   33.333333333333336
0.0   120.0   33.333333333333336
-50.0   120.0   33.333333333333336
0.0   120.0   50.0
-50.0   90.0   50.0
-50.0   120.0   50.0
0.0   120.0   50.0
-50.0   120.0   33.333333333333336
-50.0   90.0   50.0
0.0   120.0   50.0
0.0   90.0   50.0
0.0   90.0   33.333333333333336
-50.0   90.0   50.0
0.0   120.0   50.0
0.0   90.0   33.333333333333336
-50.0   120.0   33.333333333333336
-50.0   120.0   0.0
0.0   120.0   0.0
-50.0   150.0   0.0
-50.0   120.0   16.666666666666668
0.0   120.0   0.0
0.0   150.0   0.0
-50.0   150.0   0.0
0.0   150.0   16.666666666666668
-50.0   120.0   16.666666666666668
-50.0   150.0   16.666666666666668
0.0   150.0   16.666666666666668
-50.0   150.0   0.0
-50.0   120.0   16.666666666666668
0.0   150.0   16.666666666666668
0.0   120.0   16.666666666666668
0.0   120.0   0.0
-50.0   120.0   16.666666666666668
0.0   150.0   16.666666666666668
0.0   120.0   0.0
-50.0   150.0   0.0
-50.0   120.0   16.666666666666668
0.0   120.0   16.666666666666668
-50.0   150.0   16.666666666666668
-50.0   120.0   33.333333333333336
0.0   120.0   16.666666666666668
0.0   150.0   16.666666666666668
-50.0   150.0   16.666666666666668
0.0   150.0   33.333333333333336
-50.0   120.0   33.333333333333336
-50.0   150.0   33.333333333333336
0.0   150.0   33.333333333333336
-50.0   150.0   16.666666666666668
-50.0   120.0   33.333333333333336
0.0   150.0   33.333333333333336
0.0   120.0   33.333333333333336
0.0   120.0   16.666666666666668
-50.0   120.0   33.333333333333336
0.0   150.0   33.333333333333336
0.0   120.0   16.666666666666668
-50.0   150.0   16.666666666666668
-50.0   120.0   33.333333333333336
0.0   120.0   33.333333333333336
-50.0   150.0   33.333333333333336
-50.0   120.0   50.0
0.0   120.0   33.333333333333336
0.0   150.0   33.333333333333336
-50.0   150.0   33.333333333333336
0.0   150.0   50.0
-50.0   120.0   50.0
-50.0   150.0   50.0
0.0   150.0   50.0
-50.0   150.0   33.333333333333336
-50.0   120.0   50.0
0.0   150.0   50.0
0.0   120.0   50.0
0.0   120.0   33.333333333333336
-50.0   120.0   50.0
0.0   150.0   50.0
0.0   120.0   33.333333333333336
-50.0   150.0   33.333333333333336
0.0   0.0   0.0
50.0   0.0   0.0
0.0   30.0   0.0
0.0   0.0   16.666666666666668
50.0   0.0   0.0
50.0   30.0   0.0
0.0   30.0   0.0
50.0   30.0   16.666666666666668
0.0   0.0   16.666666666666668
0.0   30.0   16.666666666666668
50.0   30.0   16.666666666666668
0.0   30.0   0.0
0.0   0.0   16.666666666666668
50.0   30.0   16.666666666666668
50.0   0.0   16.666666666666668
50.0   0.0   0.0
0.0   0.0   16.666666666666668
50.0   30.0   16.666666666666668
50.0   0.0   0.0
0.0   30.0   0.0
0.0   0.0   16.666666666666668
50.0   0.0   16.666666666666668
0.0   30.0   16.666666666666668
0.0   0.0   33.333333333333336
50.0   0.0   16.666666666666668
50.0   30.0   16.666666666666668
0.0   30.0   16.666666666666668
50.0   30.0   33.333333333333336
0.0   0.0   33.333333333333336
0.0   30.0   33.333333333333336
50.0   30.0   33.333333333333336
0.0   30.0   16.666666666666668
0.0   0.0   33.333333333333336
50.0   30.0   33.333333333333336
50.0   0.0   33.333333333333336
50.0   0.0   16.666666666666668
0.0   0.0   33.333333333333336
50.0   30.0   33.333333333333336
50.0   0.0   16.666666666666668
0.0   30.0   16.666666666666668
0.0   0.0   33.333333333333336
50.0   0.0   33.333333333333336
0.0   30.0   33.333333333333336
0.0   0.0   50.0
50.0   0.0   33.333333333333336
50.0   30.0   33.333333333333336
0.0   30.0   33.333333333333336
50.0   30.0   50.0
0.0   0.0   50.0
0.0   30.0   50.0
50.0   30.0   50.0
0.0   30.0   33.333333333333336
0.0   0.0   50.0
50.0   30.0   50.0
50.0   0.0   50.0
50.0   0.0   33.333333333333336
0.0   0.0   50.0
50.0   30.0   50.0
50.0   0.0   33.333333333333336
0.0   30.0   33.333333333333336
0.0   30.0   0.0
50.0   30.0   0.0
0.0   60.0   0.0
0.0   30.0   16.666666666666668
50.0   30.0   0.0
50.0   60.0   0.0
0.0   60.0   0.0
50.0   60.0   16.666666666666668
0.0   30.0   16.666666666666668
0.0   60.0   16.666666666666668
50.0   60.0   16.666666666666668
0.0   60.0   0.0
0.0   30.0   16.666666666666668
50.0   60.0   16.666666666666668
50.0   30.0   16.666666666666668
50.0   30.0   0.0
0.0   30.0   16.666666666666668
50.0   60.0   16.666666666666668
50.0   30.0   0.0
0.0   60.0   0.0
0.0   30.0   16.666666666666668
50.0   30.0   16.666666666666668
0.0   60.0   16.666666666666668
0.0   30.0   33.333333333333336
50.0   30.0   16.666666666666668
50.0   60.0   16.666666666666668
0.0   60.0   16.666666666666668
50.0   60.0   33.333333333333336
0.0   30.0   33.333333333333336
0.0   60.0   33.333333333333336
50.0   60.0   33.333333333333336
0.0   60.0   16.666666666666668
0.0   30.0   33.333333333333336
50.0   60.0   33.333333333333336
50.0   30.0   33.333333333333336
50.0   30.0   16.666666666666668
0.0   30.0   33.333333333333336
50.0   60.0   33.333333333333336
50.0   30.0   16.666666666666668
0.0   60.0   16.666666666666668
0.0   30.0   33.333333333333336
50.0   30.0   33.333333333333336
0.0   60.0   33.333333333333336
0.0   30.0   50.0
50.0   30.0   33.333333333333336
50.0   60.0   33.333333333333336
0.0   60.0   33.333333333333336
50.0   60.0   50.0
0.0   30.0   50.0
0.0   60.0   50.0
50.0   60.0   50.0
0.0   60.0   33.333333333333336
0.0   30.0   50.0
50.0   60.0   50.0
50.0   30.0   50.0
50.0   30.0   33.333333333333336
0.0   30.0   50.0
50.0   60.0   50.0
50.0   30.0   33.333333333333336
0.0   60.0   33.333333333333336
0.0   60.0   0.0
50.0   60.0   0.0
0.0   90.0   0.0
0.0   60.0   16.666666666666668
50.0   60.0   0.0
50.0   90.0   0.0
0.0   90.0   0.0
50.0   90.0   16.666666666666668
0.0   60.0   16.666666666666668
0.0   90.0   16.666666666666668
50.0   90.0   16.666666666666668
0.0   90.0   0.0
0.0   60.0   16.666666666666668
50.0   90.0   16.666666666666668
50.0   60.0   16.666666666666668
50.0   60.0   0.0
0.0   60.0   16.666666666666668
50.0   90.0   16.666666666666668
50.0   60.0   0.0
0.0   90.0   0.0
0.0   60.0   16.666666666666668
50.0   60.0   16.666666666666668
0.0   90.0   16.666666666666668
0.0   60.0   33.333333333333336
50.0   60.0   16.666666666666668
50.0   90.0   16.666666666666668
0.0   90.0   16.666666666666668
50.0   90.0   33.333333333333336
0.0   60.0   33.333333333333336
0.0   90.0   33.333333333333336
50.0   90.0   33.333333333333336
0.0   90.0   16.666666666666668
0.0   60.0   33.333333333333336
50.0   90.0   33.333333333333336
50.0   60.0   33.333333333333336
50.0   60.0   16.666666666666668
0.0   60.0   33.333333333333336
50.0   90.0   33.333333333333336
50.0   60.0   16.666666666666668
0.0   90.0   16.666666666666668
0.0   60.0   33.333333333333336
50.0   60.0   33.333333333333336
0.0   90.0   33.333333333333336
0.0   60.0   50.0
50.0   60.0   33.333333333333336
50.0   90.0   33.333333333333336
0.0   90.0   33.333333333333336
50.0   90.0   50.0
0.0   60.0   50.0
0.0   90.0   50.0
50.0   90.0   50.0
0.0   90.0   33.333333333333336
0.0   60.0   50.0
50.0   90.0   50.0
50.0   60.0   50.0
50.0   60.0   33.333333333333336
0.0   60.0   50.0
50.0   90.0   50.0
50.0   60.0   33.333333333333336
0.0   90.0   33.333333333333336
0.0   90.0   0.0
50.0   90.0   0.0
0.0   120.0   0.0
0.0   90.0   16.666666666666668
50.0   90.0   0.0
50.0   120.0   0.0
0.0   120.0   0.0
50.0   120.0   16.666666666666668
0.0   90.0   16.666666666666668
0.0   120.0   16.666666666666668
50.0   120.0   16.666666666666668
0.0   120.0   0.0
0.0   90.0   16.666666666666668
50.0   120.0   16.666666666666668
50.0   90.0   16.666666666666668
50.0   90.0   0.0
0.0   90.0   16.666666666666668
50.0   120.0   16.666666666666668
50.0   90.0   0.0
0.0   120.0   0.0
0.0   90.0   16.666666666666668
50.0   90.0   16.666666666666668
0.0   120.0   16.666666666666668
0.0   90.0   33.333333333333336
50.0   90.0   16.666666666666668
50.0   120.0   16.666666666666668
0.0   120.0   16.666666666666668
50.0   120.0   33.333333333333336
0.0   90.0   33.333333333333336
0.0   120.0   33.333333333333336
50.0   120.0   33.333333333333336
0.0   120.0   16.666666666666668
0.0   90.0   33.333333333333336
50.0   120.0   33.333333333333336
50.0   90.0   33.333333333333336
50.0   90.0   16.666666666666668
0.0   90.0   33.333333333333336
50.0   120.0   33.333333333333336
50.0   90.0   16.666666666666668
0.0   120.0   16.666666666666668
0.0   90.0   33.333333333333336
50.0   90.0   33.333333333333336
0.0   120.0   33.333333333333336
0.0   90.0   50.0
50.0   90.0   33.333333333333336
50.0   120.0   33.333333333333336
0.0   120.0   33.333333333333336
50.0   120.0   50.0
0.0   90.0   50.0
0.0   120.0   50.0
50.0   120.0   50.0
0.0   120.0   33.333333333333336
0.0   90.0   50.0
50.0   120.0   50.0
50.0   90.0   50.0
50.0   90.0   33.333333333333336
0.0   90.0   50.0
50.0   120.0   50.0
50.0   90.0   33.333333333333336
0.0   120.0   33.333333333333336
0.0   120.0   0.0
50.0   120.0   0.0
0.0   150.0   0.0
0.0   120.0   16.666666666666668
50.0   120.0   0.0
50.0   150.0   0.0
0.0   150.0   0.0
50.0   150.0   16.666666666666668
0.0   120.0   16.666666666666668
0.0   150.0   16.666666666666668
50.0   150.0   16.666666666666668
0.0   150.0   0.0
0.0   120.0   16.666666666666668
50.0   150.0   16.666666666666668
50.0   120.0   16.666666666666668
50.0   120.0   0.0
0.0   120.0   16.666666666666668
50.0   150.0   16.666666666666668
50.0   120.0   0.0
0.0   150.0   0.0
0.0   120.0   16.666666666666668
50.0   120.0   16.666666666666668
0.0   150.0   16.666666666666668
0.0   120.0   33.333333333333336
50.0   120.0   16.666666666666668
50.0   150.0   16.666666666666668
0.0   150.0   16.666666666666668
50.0   150.0   33.333333333333336
0.0   120.0   33.333333333333336
0.0   150.0   33.333333333333336
50.0   150.0   33.333333333333336
0.0   150.0   16.666666666666668
0.0   120.0   33.333333333333336
50.0   150.0   33.333333333333336
50.0   120.0   33.333333333333336
50.0   120.0   16.666666666666668
0.0   120.0   33.333333333333336
50.0   150.0   33.333333333333336
50.0   120.0   16.666666666666668
0.0   150.0   16.666666666666668
0.0   120.0   33.333333333333336
50.0   120.0   33.333333333333336
0.0   150.0   33.333333333333336
0.0   120.0   50.0
50.0   120.0   33.333333333333336
50.0   150.0   33.333333333333336
0.0   150.0   33.333333333333336
50.0   150.0   50.0
0.0   120.0   50.0
0.0   150.0   50.0
50.0   150.0   50.0
0.0   150.0   33.333333333333336
0.0   120.0   50.0
50.0   150.0   50.0
50.0   120.0   50.0
50.0   120.0   33.333333333333336
0.0   120.0   50.0
50.0   150.0   50.0
50.0   120.0   33.333333333333336
0.0   150.0   33.333333333333336
50.0   0.0   0.0
100.0   0.0   0.0
50.0   30.0   0.0
50.0   0.0   16.666666666666668
100.0   0.0   0.0
100.0   30.0   0.0
50.0   30.0   0.0
100.0   30.0   16.666666666666668
50.0   0.0   16.666666666666668
50.0   30.0   16.666666666666668
100.0   30.0   16.666666666666668
50.0   30.0   0.0
50.0   0.0   16.666666666666668
100.0   30.0   16.666666666666668
100.0   0.0   16.666666666666668
100.0   0.0   0.0
50.0   0.0   16.666666666666668
100.0   30.0   16.666666666666668
100.0   0.0   0.0
50.0   30.0   0.0
50.0   0.0   16.666666666666668
100.0   0.0   16.666666666666668
50.0   30.0   16.666666666666668
50.0   0.0   33.333333333333336
100.0   0.0   16.666666666666668
100.0   30.0   16.666666666666668
50.0   30.0   16.666666666666668
100.0   30.0   33.333333333333336
50.0   0.0   33.333333333333336
50.0   30.0   33.333333333333336
100.0   30.0   33.333333333333336
50.0   30.0   16.666666666666668
50.0   0.0   33.333333333333336
100.0   30.0   33.333333333333336
100.0   0.0   33.333333333333336
100.0   0.0   16.666666666666668
50.0   0.0   33.333333333333336
100.0   30.0   33.333333333333336
100.0   0.0   16.666666666666668
50.0   30.0   16.666666666666668
50.0   0.0   33.333333333333336
100.0   0.0   33.333333333333336
50.0   30.0   33.333333333333336
50.0   0.0   50.0
100.0   0.0   33.333333333333336
100.0   30.0   33.333333333333336
50.0   30.0   33.333333333333336
100.0   30.0   50.0
50.0   0.0   50.0
50.0   30.0   50.0
100.0   30.0   50.0
50.0   30.0   33.333333333333336
50.0   0.0   50.0
100.0   30.0   50.0
100.0   0.0   50.0
100.0   0.0   33.333333333333336
50.0   0.0   50.0
100.0   30.0   50.0
100.0   0.0   33.333333333333336
50.0   30.0   33.333333333333336
50.0   30.0   0.0
100.0   30.0   0.0
50.0   60.0   0.0
50.0   30.0   16.666666666666668
100.0   30.0   0.0
100.0   60.0   0.0
50.0   60.0   0.0
100.0   60.0   16.666666666666668
50.0   30.0   16.666666666666668
50.0   60.0   16.666666666666668
100.0   60.0   16.666666666666668
50.0   60.0   0.0
50.0   30.0   16.666666666666668
100.0   60.0   16.666666666666668
100.0   30.0   16.666666666666668
100.0   30.0   0.0
50.0   30.0   16.666666666666668
100.0   60.0   16.666666666666668
100.0   30.0   0.0
50.0   60.0   0.0
50.0   30.0   16.666666666666668
100.0   30.0   16.666666666666668
50.0   60.0   16.666666666666668
50.0   30.0   33.333333333333336
100.0   30.0   16.666666666666668
100.0   60.0   16.666666666666668
50.0   60.0   16.666666666666668
100.0   60.0   33.333333333333336
50.0   30.0   33.333333333333336
50.0   60.0   33.333333333333336
100.0   60.0   33.333333333333336
50.0   60.0   16.666666666666668
50.0   30.0   33.333333333333336
100.0   60.0   33.333333333333336
100.0   30.0   33.333333333333336
100.0   30.0   16.666666666666668
50.0   30.0   33.333333333333336
100.0   60.0   33.333333333333336
100.0   30.0   16.666666666666668
50.0   60.0   16.666666666666668
50.0   30.0   33.333333333333336
100.0   30.0   33.333333333333336
50.0   60.0   33.333333333333336
50.0   30.0   50.0
100.0   30.0   33.333333333333336
100.0   60.0   33.333333333333336
50.0   60.0   33.333333333333336
100.0   60.0   50.0
50.0   30.0   50.0
50.0   60.0   50.0
100.0   60.0   50.0
50.0   60.0   33.333333333333336
50.0   30.0   50.0
100.0   60.0   50.0
100.0   30.0   50.0
100.0   30.0   33.333333333333336
50.0   30.0   50.0
100.0   60.0   50.0
100.0   30.0   33.333333333333336
50.0   60.0   33.333333333333336
50.0   60.0   0.0
100.0   60.0   0.0
50.0   90.0   0.0
50.0   60.0   16.666666666666668
100.0   60.0   0.0
100.0   90.0   0.0
50.0   90.0   0.0
100.0   90.0   16.666666666666668
50.0   60.0   16.666666666666668
50.0   90.0   16.666666666666668
100.0   90.0   16.666666666666668
50.0   90.0   0.0
50.0   60.0   16.666666666666668
100.0   90.0   16.666666666666668
100.0   60.0   16.666666666666668
100.0   60.0   0.0
50.0   60.0   16.666666666666668
100.0   90.0   16.666666666666668
100.0   60.0   0.0
50.0   90.0   0.0
50.0   60.0   16.666666666666668
100.0   60.0   16.666666666666668
50.0   90.0   16.666666666666668
50.0   60.0   33.333333333333336
100.0   60.0   16.666666666666668
100.0   90.0   16.666666666666668
50.0   90.0   16.666666666666668
100.0   90.0   33.333333333333336
50.0   60.0   33.333333333333336
50.0   90.0   33.333333333333336
100.0   90.0   33.333333333333336
50.0   90.0   16.666666666666668
50.0   60.0   33.333333333333336
100.0   90.0   33.333333333333336
100.0   60.0   33.333333333333336
100.0   60.0   16.666666666666668
50.0   60.0   33.333333333333336
100.0   90.0   33.333333333333336
100.0   60.0   16.666666666666668
50.0   90.0   16.666666666666668
50.0   60.0   33.333333333333336
100.0   60.0   33.333333333333336
50.0   90.0   33.333333333333336
50.0   60.0   50.0
100.0   60.0   33.333333333333336
100.0   90.0   33.333333333333336
50.0   90.0   33.333333333333336
100.0   90.0   50.0
50.0   60.0   50.0
50.0   90.0   50.0
100.0   90.0   50.0
50.0   90.0   33.333333333333336
50.0   60.0   50.0
100.0   90.0   50.0
100.0   60.0   50.0
100.0   60.0   33.333333333333336
50.0   60.0   50.0
100.0   90.0   50.0
100.0   60.0   33.333333333333336
50.0   90.0   33.333333333333336
50.0   90.0   0.0
100.0   90.0   0.0
50.0   120.0   0.0
50.0   90.0   16.666666666666668
100.0   90.0   0.0
100.0   120.0   0.0
50.0   120.0   0.0
100.0   120.0   16.666666666666668
50.0   90.0   16.666666666666668
50.0   120.0   16.666666666666668
100.0   120.0   16.666666666666668
50.0   120.0   0.0
50.0   90.0   16.666666666666668
100.0   120.0   16.666666666666668
100.0   90.0   16.666666666666668
100.0   90.0   0.0
50.0   90.0   16.666666666666668
100.0   120.0   16.666666666666668
100.0   90.0   0.0
50.0   120.0   0.0
50.0   90.0   16.666666666666668
100.0   90.0   16.666666666666668
50.0   120.0   16.666666666666668
50.0   90.0   33.333333333333336
100.0   90.0   16.666666666666668
100.0   120.0   16.666666666666668
50.0   120.0   16.666666666666668
100.0   120.0   33.333333333333336
50.0   90.0   33.333333333333336
50.0   120.0   33.333333333333336
100.0   120.0   33.333333333333336
50.0   120.0   16.666666666666668
50.0   90.0   33.333333333333336
100.0   120.0   33.333333333333336
100.0   90.0   33.333333333333336
100.0   90.0   16.666666666666668
50.0   90.0   33.333333333333336
100.0   120.0   33.333333333333336
100.0   90.0   16.666666666666668
50.0   120.0   16.666666666666668
50.0   90.0   33.333333333333336
100.0   90.0   33.333333333333336
50.0   120.0   33.333333333333336
50.0   90.0   50.0
100.0   90.0   33.333333333333336
100.0   120.0   33.333333333333336
50.0   120.0   33.333333333333336
100.0   120.0   50.0
50.0   90.0   50.0
50.0   120.0   50.0
100.0   120.0   50.0
50.0   120.0   33.333333333333336
50.0   90.0   50.0
100.0   120.0   50.0
100.0   90.0   50.0
100.0   90.0   33.333333333333336
50.0   90.0   50.0
100.0   120.0   50.0
100.0   90.0   33.333333333333336
50.0   120.0   33.333333333333336
50.0   120.0   0.0
100.0   120.0   0.0
50.0   150.0   0.0
50.0   120.0   16.666666666666668
100.0   120.0   0.0
100.0   150.0   0.0
50.0   150.0   0.0
100.0   150.0   16.666666666666668
50.0   120.0   16.666666666666668
50.0   150.0   16.666666666666668
100.0   150.0   16.666666666666668
50.0   150.0   0.0
50.0   120.0   16.666666666666668
100.0   150.0   16.666666666666668
100.0   120.0   16.666666666666668
100.0   120.0   0.0
50.0   120.0   16.666666666666668
100.0   150.0   16.666666666666668
100.0   120.0   0.0
50.0   150.0   0.0
50.0   120.0   16.666666666666668
100.0   120.0   16.666666666666668
50.0   150.0   16.666666666666668
50.0   120.0   33.333333333333336
100.0   120.0   16.666666666666668
100.0   150.0   16.666666666666668
50.0   150.0   16.666666666666668
100.0   150.0   33.333333333333336
50.0   120.0   33.333333333333336
50.0   150.0   33.333333333333336
100.0   150.0   33.333333333333336
50.0   150.0   16.666666666666668
50.0   120.0   33.333333333333336
100.0   150.0   33.333333333333336
100.0   120.0   33.333333333333336
100.0   120.0   16.666666666666668
50.0   120.0   33.333333333333336
100.0   150.0   33.333333333333336
100.0   120.0   16.666666666666668
50.0   150.0   16.666666666666668
50.0   120.0   33.333333333333336
100.0   120.0   33.333333333333336
50.0   150.0   33.333333333333336
50.0   120.0   50.0
100.0   120.0   33.333333333333336
100.0   150.0   33.333333333333336
50.0   150.0   33.333333333333336
100.0   150.0   50.0
50.0   120.0   50.0
50.0   150.0   50.0
100.0   150.0   50.0
50.0   150.0   33.333333333333336
50.0   120.0   50.0
100.0   150.0   50.0
100.0   120.0   50.0
100.0   120.0   33.333333333333336
50.0   120.0   50.0
100.0   150.0   50.0
100.0   120.0   33.333333333333336
50.0   150.0   33.333333333333336
100.0   0.0   0.0
150.0   0.0   0.0
100.0   30.0   0.0
100.0   0.0   16.666666666666668
150.0   0.0   0.0
150.0   30.0   0.0
100.0   30.0   0.0
150.0   30.0   16.666666666666668
100.0   0.0   16.666666666666668
100.0   30.0   16.666666666666668
150.0   30.0   16.666666666666668
100.0   30.0   0.0
100.0   0.0   16.666666666666668
150.0   30.0   16.666666666666668
150.0   0.0   16.666666666666668
150.0   0.0   0.0
100.0   0.0   16.666666666666668
150.0   30.0   16.666666666666668
150.0   0.0   0.0
100.0   30.0   0.0
100.0   0.0   16.666666666666668
150.0   0.0   16.666666666666668
100.0   30.0   16.666666666666668
100.0   0.0   33.333333333333336
150.0   0.0   16.666666666666668
150.0   30.0   16.666666666666668
100.0   30.0   16.666666666666668
150.0   30.0   33.333333333333336
100.0   0.0   33.333333333333336
100.0   30.0   33.333333333333336
150.0   30.0   33.333333333333336
100.0   30.0   16.666666666666668
100.0   0.0   33.333333333333336
150.0   30.0   33.333333333333336
150.0   0.0   33.333333333333336
150.0   0.0   16.666666666666668
100.0   0.0   33.333333333333336
150.0   30.0   33.333333333333336
150.0   0.0   16.666666666666668
100.0   30.0   16.666666666666668
100.0   0.0   33.333333333333336
150.0   0.0   33.333333333333336
100.0   30.0   33.333333333333336
100.0   0.0   50.0
150.0   0.0   33.333333333333336
150.0   30.0   33.333333333333336
100.0   30.0   33.333333333333336
150.0   30.0   50.0
100.0   0.0   50.0
100.0   30.0   50.0
150.0   30.0   50.0
100.0   30.0   33.333333333333336
100.0   0.0   50.0
150.0   30.0   50.0
150.0   0.0   50.0
150.0   0.0   33.333333333333336
100.0   0.0   50.0
150.0   30.0   50.0
150.0   0.0   33.333333333333336
100.0   30.0   33.333333333333336
100.0   30.0   0.0
150.0   30.0   0.0
100.0   60.0   0.0
100.0   30.0   16.666666666666668
150.0   30.0   0.0
150.0   60.0   0.0
100.0   60.0   0.0
150.0   60.0   16.666666666666668
100.0   30.0   16.666666666666668
100.0   60.0   16.666666666666668
150.0   60.0   16.666666666666668
100.0   60.0   0.0
100.0   30.0   16.666666666666668
150.0   60.0   16.666666666666668
150.0   30.0   16.666666666666668
150.0   30.0   0.0
100.0   30.0   16.666666666666668
150.0   60.0   16.666666666666668
150.0   30.0   0.0
100.0   60.0   0.0
100.0   30.0   16.666666666666668
150.0   30.0   16.666666666666668
100.0   60.0   16.666666666666668
100.0   30.0   33.333333333333336
150.0   30.0   16.666666666666668
150.0   60.0   16.666666666666668
100.0   60.0   16.666666666666668
150.0   60.0   33.333333333333336
100.0   30.0   33.333333333333336
100.0   60.0   33.333333333333336
150.0   60.0   33.333333333333336
100.0   60.0   16.666666666666668
100.0   30.0   33.333333333333336
150.0   60.0   33.333333333333336
150.0   30.0   33.333333333333336
150.0   30.0   16.666666666666668
100.0   30.0   33.333333333333336
150.0   60.0   33.333333333333336
150.0   30.0   16.666666666666668
100.0   60.0   16.666666666666668
100.0   30.0   33.333333333333336
150.0   30.0   33.333333333333336
100.0   60.0   33.333333333333336
100.0   30.0   50.0
150.0   30.0   33.333333333333336
150.0   60.0   33.333333333333336
100.0   60.0   33.333333333333336
150.0   60.0   50.0
100.0   30.0   50.0
100.0   60.0   50.0
150.0   60.0   50.0
100.0   60.0   33.333333333333336
100.0   30.0   50.0
150.0   60.0   50.0
150.0   30.0   50.0
150.0   30.0   33.333333333333336
100.0   30.0   50.0
150.0   60.0   50.0
150.0   30.0   33.333333333333336
100.0   60.0   33.333333333333336
100.0   60.0   0.0
150.0   60.0   0.0
100.0   90.0   0.0
100.0   60.0   16.666666666666668
150.0   60.0   0.0
150.0   90.0   0.0
100.0   90.0   0.0
150.0   90.0   16.666666666666668
100.0   60.0   16.666666666666668
100.0   90.0   16.666666666666668
150.0   90.0   16.666666666666668
100.0   90.0   0.0
100.0   60.0   16.666666666666668
150.0   90.0   16.666666666666668
150.0   60.0   16.666666666666668
150.0   60.0   0.0
100.0   60.0   16.666666666666668
150.0   90.0   16.666666666666668
150.0   60.0   0.0
100.0   90.0   0.0
100.0   60.0   16.666666666666668
150.0   60.0   16.666666666666668
100.0   90.0   16.666666666666668
100.0   60.0   33.333333333333336
150.0   60.0   16.666666666666668
150.0   90.0   16.666666666666668
100.0   90.0   16.666666666666668
150.0   90.0   33.333333333333336
100.0   60.0   33.333333333333336
100.0   90.0   33.333333333333336
150.0   90.0   33.333333333333336
100.0   90.0   16.666666666666668
100.0   60.0   33.333333333333336
150.0   90.0   33.333333333333336
150.0   60.0   33.333333333333336
150.0   60.0   16.666666666666668
100.0   60.0   33.333333333333336
150.0   90.0   33.333333333333336
150.0   60.0   16.666666666666668
100.0   90.0   16.666666666666668
100.0   60.0   33.333333333333336
150.0   60.0   33.333333333333336
100.0   90.0   33.333333333333336
100.0   60.0   50.0
150.0   60.0   33.333333333333336
150.0   90.0   33.333333333333336
100.0   90.0   33.333333333333336
150.0   90.0   50.0
100.0   60.0   50.0
100.0   90.0   50.0
150.0   90.0   50.0
100.0   90.0   33.333333333333336
100.0   60.0   50.0
150.0   90.0   50.0
150.0   60.0   50.0
150.0   60.0   33.333333333333336
100.0   60.0   50.0
150.0   90.0   50.0
150.0   60.0   33.333333333333336
100.0   90.0   33.333333333333336
100.0   90.0   0.0
150.0   90.0   0.0
100.0   120.0   0.0
100.0   90.0   16.666666666666668
150.0   90.0   0.0
150.0   120.0   0.0
100.0   120.0   0.0
150.0   120.0   16.666666666666668
100.0   90.0   16.666666666666668
100.0   120.0   16.666666666666668
150.0   120.0   16.666666666666668
100.0   120.0   0.0
100.0   90.0   16.666666666666668
150.0   120.0   16.666666666666668
150.0   90.0   16.666666666666668
150.0   90.0   0.0
100.0   90.0   16.666666666666668
150.0   120.0   16.666666666666668
150.0   90.0   0.0
100.0   120.0   0.0
100.0   90.0   16.666666666666668
150.0   90.0   16.666666666666668
100.0   120.0   16.666666666666668
100.0   90.0   33.333333333333336
150.0   90.0   16.666666666666668
150.0   120.0   16.666666666666668
100.0   120.0   16.666666666666668
150.0   120.0   33.333333333333336
100.0   90.0   33.333333333333336
100.0   120.0   33.333333333333336
150.0   120.0   33.333333333333336
100.0   120.0   16.666666666666668
100.0   90.0   33.333333333333336
150.0   120.0   33.333333333333336
150.0   90.0   33.333333333333336
150.0   90.0   16.666666666666668
100.0   90.0   33.333333333333336
150.0   120.0   33.333333333333336
150.0   90.0   16.666666666666668
100.0   120.0   16.666666666666668
100.0   90.0   33.333333333333336
150.0   90.0   33.333333333333336
100.0   120.0   33.333333333333336
100.0   90.0   50.0
150.0   90.0   33.333333333333336
150.0   120.0   33.333333333333336
100.0   120.0   33.333333333333336
150.0   120.0   50.0
100.0   90.0   50.0
100.0   120.0   50.0
150.0   120.0   50.0
100.0   120.0   33.333333333333336
100.0   90.0   50.0
150.0   120.0   50.0
150.0   90.0   50.0
150.0   90.0   33.333333333333336
100.0   90.0   50.0
150.0   120.0   50.0
150.0   90.0   33.333333333333336
100.0   120.0   33.333333333333336
100.0   120.0   0.0
150.0   120.0   0.0
100.0   150.0   0.0
100.0   120.0   16.666666666666668
150.0   120.0   0.0
150.0   150.0   0.0
100.0   150.0   0.0
150.0   150.0   16.666666666666668
100.0   120.0   16.666666666666668
100.0   150.0   16.666666666666668
150.0   150.0   16.666666666666668
100.0   150.0   0.0
100.0   120.0   16.666666666666668
150.0   150.0   16.666666666666668
150.0   120.0   16.666666666666668
150.0   120.0   0.0
100.0   120.0   16.666666666666668
150.0   150.0   16.666666666666668
150.0   120.0   0.0
100.0   150.0   0.0
100.0   120.0   16.666666666666668
150.0   120.0   16.666666666666668
100.0   150.0   16.666666666666668
100.0   120.0   33.333333333333336
150.0   120.0   16.666666666666668
150.0   150.0   16.666666666666668
100.0   150.0   16.666666666666668
150.0   150.0   33.333333333333336
100.0   120.0   33.333333333333336
100.0   150.0   33.333333333333336
150.0   150.0   33.333333333333336
100.0   150.0   16.666666666666668
100.0   120.0   33.333333333333336
150.0   150.0   33.333333333333336
150.0   120.0   33.333333333333336
150.0   120.0   16.666666666666668
100.0   120.0   33.333333333333336
150.0   150.0   33.333333333333336
150.0   120.0   16.666666666666668
100.0   150.0   16.666666666666668
100.0   120.0   33.333333333333336
150.0   120.0   33.333333333333336
100.0   150.0   33.333333333333336
100.0   120.0   50.0
150.0   120.0   33.333333333333336
150.0   150.0   33.333333333333336
100.0   150.0   33.333333333333336
150.0   150.0   50.0
100.0   120.0   50.0
100.0   150.0   50.0
150.0   150.0   50.0
100.0   150.0   33.333333333333336
100.0   120.0   50.0
150.0   150.0   50.0
150.0   120.0   50.0
150.0   120.0   33.333333333333336
100.0   120.0   50.0
150.0   150.0   50.0
150.0   120.0   33.333333333333336
100.0   150.0   33.333333333333336
150.0   0.0   0.0
200.0   0.0   0.0
150.0   30.0   0.0
150.0   0.0   16.666666666666668
200.0   0.0   0.0
200.0   30.0   0.0
150.0   30.0   0.0
200.0   30.0   16.666666666666668
150.0   0.0   16.666666666666668
150.0   30.0   16.666666666666668
200.0   30.0   16.666666666666668
150.0   30.0   0.0
150.0   0.0   16.666666666666668
200.0   30.0   16.666666666666668
200.0   0.0   16.666666666666668
200.0   0.0   0.0
150.0   0.0   16.666666666666668
200.0   30.0   16.666666666666668
200.0   0.0   0.0
150.0   30.0   0.0
150.0   0.0   16.666666666666668
200.0   0.0   16.666666666666668
150.0   30.0   16.666666666666668
150.0   0.0   33.333333333333336
200.0   0.0   16.666666666666668
200.0   30.0   16.666666666666668
150.0   30.0   16.666666666666668
200.0   30.0   33.333333333333336
150.0   0.0   33.333333333333336
150.0   30.0   33.333333333333336
200.0   30.0   33.333333333333336
150.0   30.0   16.666666666666668
150.0   0.0   33.333333333333336
200.0   30.0   33.333333333333336
200.0   0.0   33.333333333333336
200.0   0.0   16.666666666666668
150.0   0.0   33.333333333333336
200.0   30.0   33.333333333333336
200.0   0.0   16.666666666666668
150.0   30.0   16.666666666666668
150.0   0.0   33.333333333333336
200.0   0.0   33.333333333333336
150.0   30.0   33.333333333333336
150.0   0.0   50.0
200.0   0.0   33.333333333333336
200.0   30.0   33.333333333333336
150.0   30.0   33.333333333333336
200.0   30.0   50.0
150.0   0.0   50.0
150.0   30.0   50.0
200.0   30.0   50.0
150.0   30.0   33.333333333333336
150.0   0.0   50.0
200.0   30.0   50.0
200.0   0.0   50.0
200.0   0.0   33.333333333333336
150.0   0.0   50.0
200.0   30.0   50.0
200.0   0.0   33.333333333333336
150.0   30.0   33.333333333333336
150.0   30.0   0.0
200.0   30.0   0.0
150.0   60.0   0.0
150.0   30.0   16.666666666666668
200.0   30.0   0.0
200.0   60.0   0.0
150.0   60.0   0.0
200.0   60.0   16.666666666666668
150.0   30.0   16.666666666666668
150.0   60.0   16.666666666666668
200.0   60.0   16.666666666666668
150.0   60.0   0.0
150.0   30.0   16.666666666666668
200.0   60.0   16.666666666666668
200.0   30.0   16.666666666666668
200.0   30.0   0.0
150.0   30.0   16.666666666666668
200.0   60.0   16.666666666666668
200.0   30.0   0.0
150.0   60.0   0.0
150.0   30.0   16.666666666666668
200.0   30.0   16.666666666666668
150.0   60.0   16.666666666666668
150.0   30.0   33.333333333333336
200.0   30.0   16.666666666666668
200.0   60.0   16.666666666666668
150.0   60.0   16.666666666666668
200.0   60.0   33.333333333333336
150.0   30.0   33.333333333333336
150.0   60.0   33.333333333333336
200.0   60.0   33.333333333333336
150.0   60.0   16.666666666666668
150.0   30.0   33.333333333333336
200.0   60.0   33.333333333333336
200.0   30.0   33.333333333333336
200.0   30.0   16.666666666666668
150.0   30.0   33.333333333333336
200.0   60.0   33.333333333333336
200.0   30.0   16.666666666666668
150.0   60.0   16.666666666666668
150.0   30.0   33.333333333333336
200.0   30.0   33.333333333333336
150.0   60.0   33.333333333333336
150.0   30.0   50.0
200.0   30.0   33.333333333333336
200.0   60.0   33.333333333333336
150.0   60.0   33.333333333333336
200.0   60.0   50.0
150.0   30.0   50.0
150.0   60.0   50.0
200.0   60.0   50.0
150.0   60.0   33.333333333333336
150.0   30.0   50.0
200.0   60.0   50.0
200.0   30.0   50.0
200.0   30.0   33.333333333333336
150.0   30.0   50.0
200.0   60.0   50.0
200.0   30.0   33.333333333333336
150.0   60.0   33.333333333333336
150.0   60.0   0.0
200.0   60.0   0.0
150.0   90.0   0.0
150.0   60.0   16.666666666666668
200.0   60.0   0.0
200.0   90.0   0.0
150.0   90.0   0.0
200.0   90.0   16.666666666666668
150.0   60.0   16.666666666666668
150.0   90.0   16.666666666666668
200.0   90.0   16.666666666666668
150.0   90.0   0.0
150.0   60.0   16.666666666666668
200.0   90.0   16.666666666666668
200.0   60.0   16.666666666666668
200.0   60.0   0.0
150.0   60.0   16.666666666666668
200.0   90.0   16.666666666666668
200.0   60.0   0.0
150.0   90.0   0.0
150.0   60.0   16.666666666666668
200.0   60.0   16.666666666666668
150.0   90.0   16.666666666666668
150.0   60.0   33.333333333333336
200.0   60.0   16.666666666666668
200.0   90.0   16.666666666666668
150.0   90.0   16.666666666666668
200.0   90.0   33.333333333333336
150.0   60.0   33.333333333333336
150.0   90.0   33.333333333333336
200.0   90.0   33.333333333333336
150.0   90.0   16.666666666666668
150.0   60.0   33.333333333333336
200.0   90.0   33.333333333333336
200.0   60.0   33.333333333333336
200.0   60.0   16.666666666666668
150.0   60.0   33.333333333333336
200.0   90.0   33.333333333333336
200.0   60.0   16.666666666666668
150.0   90.0   16.666666666666668
150.0   60.0   33.333333333333336
200.0   60.0   33.333333333333336
150.0   90.0   33.333333333333336
150.0   60.0   50.0
200.0   60.0   33.333333333333336
200.0   90.0   33.333333333333336
150.0   90.0   33.333333333333336
200.0   90.0   50.0
150.0   60.0   50.0
150.0   90.0   50.0
200.0   90.0   50.0
150.0   90.0   33.333333333333336
150.0   60.0   50.0
200.0   90.0   50.0
200.0   60.0   50.0
200.0   60.0   33.333333333333336
150.0   60.0   50.0
200.0   90.0   50.0
200.0   60.0   33.333333333333336
150.0   90.0   33.333333333333336
150.0   90.0   0.0
200.0   90.0   0.0
150.0   120.0   0.0
150.0   90.0   16.666666666666668
200.0   90.0   0.0
200.0   120.0   0.0
150.0   120.0   0.0
200.0   120.0   16.666666666666668
150.0   90.0   16.666666666666668
150.0   120.0   16.666666666666668
200.0   120.0   16.666666666666668
150.0   120.0   0.0
150.0   90.0   16.666666666666668
200.0   120.0   16.666666666666668
200.0   90.0   16.666666666666668
200.0   90.0   0.0
150.0   90.0   16.666666666666668
200.0   120.0   16.666666666666668
200.0   90.0   0.0
150.0   120.0   0.0
150.0   90.0   16.666666666666668
200.0   90.0   16.666666666666668
150.0   120.0   16.666666666666668
150.0   90.0   33.333333333333336
200.0   90.0   16.666666666666668
200.0   120.0   16.666666666666668
150.0   120.0   16.666666666666668
200.0   120.0   33.333333333333336
150.0   90.0   33.333333333333336
150.0   120.0   33.333333333333336
200.0   120.0   33.333333333333336
150.0   120.0   16.666666666666668
150.0   90.0   33.333333333333336
200.0   120.0   33.333333333333336
200.0   90.0   33.333333333333336
200.0   90.0   16.666666666666668
150.0   90.0   33.333333333333336
200.0   120.0   33.333333333333336
200.0   90.0   16.666666666666668
150.0   120.0   16.666666666666668
150.0   90.0   33.333333333333336
200.0   90.0   33.333333333333336
150.0   120.0   33.333333333333336
150.0   90.0   50.0
200.0   90.0   33.333333333333336
200.0   120.0   33.333333333333336
150.0   120.0   33.333333333333336
200.0   120.0   50.0
150.0   90.0   50.0
150.0   120.0   50.0
200.0   120.0   50.0
150.0   120.0   33.333333333333336
150.0   90.0   50.0
200.0   120.0   50.0
200.0   90.0   50.0
200.0   90.0   33.333333333333336
150.0   90.0   50.0
200.0   120.0   50.0
200.0   90.0   33.333333333333336
150.0   120.0   33.333333333333336
150.0   120.0   0.0
200.0   120.0   0.0
150.0   150.0   0.0
150.0   120.0   16.666666666666668
200.0   120.0   0.0
200.0   150.0   0.0
150.0   150.0   0.0
200.0   150.0   16.666666666666668
150.0   120.0   16.666666666666668
150.0   150.0   16.666666666666668
200.0   150.0   16.666666666666668
150.0   150.0   0.0
150.0   120.0   16.666666666666668
200.0   150.0   16.666666666666668
200.0   120.0   16.666666666666668
200.0   120.0   0.0
150.0   120.0   16.666666666666668
200.0   150.0   16.666666666666668
200.0   120.0   0.0
150.0   150.0   0.0
150.0   120.0   16.666666666666668
200.0   120.0   16.666666666666668
150.0   150.0   16.666666666666668
150.0   120.0   33.333333333333336
200.0   120.0   16.666666666666668
200.0   150.0   16.666666666666668
150.0   150.0   16.666666666666668
200.0   150.0   33.333333333333336
150.0   120.0   33.333333333333336
150.0   150.0   33.333333333333336
200.0   150.0   33.333333333333336
150.0   150.0   16.666666666666668
150.0   120.0   33.333333333333336
200.0   150.0   33.333333333333336
200.0   120.0   33.333333333333336
200.0   120.0   16.666666666666668
150.0   120.0   33.333333333333336
200.0   150.0   33.333333333333336
200.0   120.0   16.666666666666668
150.0   150.0   16.666666666666668
150.0   120.0   33.333333333333336
200.0   120.0   33.333333333333336
150.0   150.0   33.333333333333336
150.0   120.0   50.0
200.0   120.0   33.333333333333336
200.0   150.0   33.333333333333336
150.0   150.0   33.333333333333336
200.0   150.0   50.0
150.0   120.0   50.0
150.0   150.0   50.0
200.0   150.0   50.0
150.0   150.0   33.333333333333336
150.0   120.0   50.0
200.0   150.0   50.0
200.0   120.0   50.0
200.0   120.0   33.333333333333336
150.0   120.0   50.0
200.0   150.0   50.0
200.0   120.0   33.333333333333336
150.0   150.0   33.333333333333336
200.0   0.0   0.0
250.0   0.0   0.0
200.0   30.0   0.0
200.0   0.0   16.666666666666668
250.0   0.0   0.0
250.0   30.0   0.0
200.0   30.0   0.0
250.0   30.0   16.666666666666668
200.0   0.0   16.666666666666668
200.0   30.0   16.666666666666668
250.0   30.0   16.666666666666668
200.0   30.0   0.0
200.0   0.0   16.666666666666668
250.0   30.0   16.666666666666668
250.0   0.0   16.666666666666668
250.0   0.0   0.0
200.0   0.0   16.666666666666668
250.0   30.0   16.666666666666668
250.0   0.0   0.0
200.0   30.0   0.0
200.0   0.0   16.666666666666668
250.0   0.0   16.666666666666668
200.0   30.0   16.666666666666668
200.0   0.0   33.333333333333336
250.0   0.0   16.666666666666668
250.0   30.0   16.666666666666668
200.0   30.0   16.666666666666668
250.0   30.0   33.333333333333336
200.0   0.0   33.333333333333336
200.0   30.0   33.333333333333336
250.0   30.0   33.333333333333336
200.0   30.0   16.666666666666668
200.0   0.0   33.333333333333336
250.0   30.0   33.333333333333336
250.0   0.0   33.333333333333336
250.0   0.0   16.666666666666668
200.0   0.0   33.333333333333336
250.0   30.0   33.333333333333336
250.0   0.0   16.666666666666668
200.0   30.0   16.666666666666668
200.0   0.0   33.333333333333336
250.0   0.0   33.333333333333336
200.0   30.0   33.333333333333336
200.0   0.0   50.0
250.0   0.0   33.333333333333336
250.0   30.0   33.333333333333336
200.0   30.0   33.333333333333336
250.0   30.0   50.0
200.0   0.0   50.0
200.0   30.0   50.0
250.0   30.0   50.0
200.0   30.0   33.333333333333336
200.0   0.0   50.0
250.0   30.0   50.0
250.0   0.0   50.0
250.0   0.0   33.333333333333336
200.0   0.0   50.0
250.0   30.0   50.0
250.0   0.0   33.333333333333336
200.0   30.0   33.333333333333336
200.0   30.0   0.0
250.0   30.0   0.0
200.0   60.0   0.0
200.0   30.0   16.666666666666668
250.0   30.0   0.0
250.0   60.0   0.0
200.0   60.0   0.0
250.0   60.0   16.666666666666668
200.0   30.0   16.666666666666668
200.0   60.0   16.666666666666668
250.0   60.0   16.666666666666668
200.0   60.0   0.0
200.0   30.0   16.666666666666668
250.0   60.0   16.666666666666668
250.0   30.0   16.666666666666668
250.0   30.0   0.0
200.0   30.0   16.666666666666668
250.0   60.0   16.666666666666668
250.0   30.0   0.0
200.0   60.0   0.0
200.0   30.0   16.666666666666668
250.0   30.0   16.666666666666668
200.0   60.0   16.666666666666668
200.0   30.0   33.333333333333336
250.0   30.0   16.666666666666668
250.0   60.0   16.666666666666668
200.0   60.0   16.666666666666668
250.0   60.0   33.333333333333336
200.0   30.0   33.333333333333336
200.0   60.0   33.333333333333336
250.0   60.0   33.333333333333336
200.0   60.0   16.666666666666668
200.0   30.0   33.333333333333336
250.0   60.0   33.333333333333336
250.0   30.0   33.333333333333336
250.0   30.0   16.666666666666668
200.0   30.0   33.333333333333336
250.0   60.0   33.333333333333336
250.0   30.0   16.666666666666668
200.0   60.0   16.666666666666668
200.0   30.0   33.333333333333336
250.0   30.0   33.333333333333336
200.0   60.0   33.333333333333336
200.0   30.0   50.0
250.0   30.0   33.333333333333336
250.0   60.0   33.333333333333336
200.0   60.0   33.333333333333336
250.0   60.0   50.0
200.0   30.0   50.0
200.0   60.0   50.0
250.0   60.0   50.0
200.0   60.0   33.333333333333336
200.0   30.0   50.0
250.0   60.0   50.0
250.0   30.0   50.0
250.0   30.0   33.333333333333336
200.0   30.0   50.0
250.0   60.0   50.0
250.0   30.0   33.333333333333336
200.0   60.0   33.333333333333336
200.0   60.0   0.0
250.0   60.0   0.0
200.0   90.0   0.0
200.0   60.0   16.666666666666668
250.0   60.0   0.0
250.0   90.0   0.0
200.0   90.0   0.0
250.0   90.0   16.666666666666668
200.0   60.0   16.666666666666668
200.0   90.0   16.666666666666668
250.0   90.0   16.666666666666668
200.0   90.0   0.0
200.0   60.0   16.666666666666668
250.0   90.0   16.666666666666668
250.0   60.0   16.666666666666668
250.0   60.0   0.0
200.0   60.0   16.666666666666668
250.0   90.0   16.666666666666668
250.0   60.0   0.0
200.0   90.0   0.0
200.0   60.0   16.666666666666668
250.0   60.0   16.666666666666668
200.0   90.0   16.666666666666668
200.0   60.0   33.333333333333336
250.0   60.0   16.666666666666668
250.0   90.0   16.666666666666668
200.0   90.0   16.666666666666668
250.0   90.0   33.333333333333336
200.0   60.0   33.333333333333336
200.0   90.0   33.333333333333336
250.0   90.0   33.333333333333336
200.0   90.0   16.666666666666668
200.0   60.0   33.333333333333336
250.0   90.0   33.333333333333336
250.0   60.0   33.333333333333336
250.0   60.0   16.666666666666668
200.0   60.0   33.333333333333336
250.0   90.0   33.333333333333336
250.0   60.0   16.666666666666668
200.0   90.0   16.666666666666668
200.0   60.0   33.333333333333336
250.0   60.0   33.333333333333336
200.0   90.0   33.333333333333336
200.0   60.0   50.0
250.0   60.0   33.333333333333336
250.0   90.0   33.333333333333336
200.0   90.0   33.333333333333336
250.0   90.0   50.0
200.0   60.0   50.0
200.0   90.0   50.0
250.0   90.0   50.0
200.0   90.0   33.333333333333336
200.0   60.0   50.0
250.0   90.0   50.0
250.0   60.0   50.0
250.0   60.0   33.333333333333336
200.0   60.0   50.0
250.0   90.0   50.0
250.0   60.0   33.333333333333336
200.0   90.0   33.333333333333336
200.0   90.0   0.0
250.0   90.0   0.0
200.0   120.0   0.0
200.0   90.0   16.666666666666668
250.0   90.0   0.0
250.0   120.0   0.0
200.0   120.0   0.0
250.0   120.0   16.666666666666668
200.0   90.0   16.666666666666668
200.0   120.0   16.666666666666668
250.0   120.0   16.666666666666668
200.0   120.0   0.0
200.0   90.0   16.666666666666668
250.0   120.0   16.666666666666668
250.0   90.0   16.666666666666668
250.0   90.0   0.0
200.0   90.0   16.666666666666668
250.0   120.0   16.666666666666668
250.0   90.0   0.0
200.0   120.0   0.0
200.0   90.0   16.666666666666668
250.0   90.0   16.666666666666668
200.0   120.0   16.666666666666668
200.0   90.0   33.333333333333336
250.0   90.0   16.666666666666668
250.0   120.0   16.666666666666668
200.0   120.0   16.666666666666668
250.0   120.0   33.333333333333336
200.0   90.0   33.333333333333336
200.0   120.0   33.333333333333336
250.0   120.0   33.333333333333336
200.0   120.0   16.666666666666668
200.0   90.0   33.333333333333336
250.0   120.0   33.333333333333336
250.0   90.0   33.333333333333336
250.0   90.0   16.666666666666668
200.0   90.0   33.333333333333336
250.0   120.0   33.333333333333336
250.0   90.0   16.666666666666668
200.0   120.0   16.666666666666668
200.0   90.0   33.333333333333336
250.0   90.0   33.333333333333336
200.0   120.0   33.333333333333336
200.0   90.0   50.0
250.0   90.0   33.333333333333336
250.0   120.0   33.333333333333336
200.0   120.0   33.333333333333336
250.0   120.0   50.0
200.0   90.0   50.0
200.0   120.0   50.0
250.0   120.0   50.0
200.0   120.0   33.333333333333336
200.0   90.0   50.0
250.0   120.0   50.0
250.0   90.0   50.0
250.0   90.0   33.333333333333336
200.0   90.0   50.0
250.0   120.0   50.0
250.0   90.0   33.333333333333336
200.0   120.0   33.333333333333336
200.0   120.0   0.0
250.0   120.0   0.0
200.0   150.0   0.0
200.0   120.0   16.666666666666668
250.0   120.0   0.0
250.0   150.0   0.0
200.0   150.0   0.0
250.0   150.0   16.666666666666668
200.0   120.0   16.666666666666668
200.0   150.0   16.666666666666668
250.0   150.0   16.666666666666668
200.0   150.0   0.0
200.0   120.0   16.666666666666668
250.0   150.0   16.666666666666668
250.0   120.0   16.666666666666668
250.0   120.0   0.0
200.0   120.0   16.666666666666668
250.0   150.0   16.666666666666668
250.0   120.0   0.0
200.0   150.0   0.0
200.0   120.0   16.666666666666668
250.0   120.0   16.666666666666668
200.0   150.0   16.666666666666668
200.0   120.0   33.333333333333336
250.0   120.0   16.666666666666668
250.0   150.0   16.666666666666668
200.0   150.0   16.666666666666668
250.0   150.0   33.333333333333336
200.0   120.0   33.333333333333336
200.0   150.0   33.333333333333336
250.0   150.0   33.333333333333336
200.0   150.0   16.666666666666668
200.0   120.0   33.333333333333336
250.0   150.0   33.333333333333336
250.0   120.0   33.333333333333336
250.0   120.0   16.666666666666668
200.0   120.0   33.333333333333336
250.0   150.0   33.333333333333336
250.0   120.0   16.666666666666668
200.0   150.0   16.666666666666668
200.0   120.0   33.333333333333336
250.0   120.0   33.333333333333336
200.0   150.0   33.333333333333336
200.0   120.0   50.0
250.0   120.0   33.333333333333336
250.0   150.0   33.333333333333336
200.0   150.0   33.333333333333336
250.0   150.0   50.0
200.0   120.0   50.0
200.0   150.0   50.0
250.0   150.0   50.0
200.0   150.0   33.333333333333336
200.0   120.0   50.0
250.0   150.0   50.0
250.0   120.0   50.0
250.0   120.0   33.333333333333336
200.0   120.0   50.0
250.0   150.0   50.0
250.0   120.0   33.333333333333336
200.0   150.0   33.333333333333336
250.0   0.0   0.0
300.0   0.0   0.0
250.0   30.0   0.0
250.0   0.0   16.666666666666668
300.0   0.0   0.0
300.0   30.0   0.0
250.0   30.0   0.0
300.0   30.0   16.666666666666668
250.0   0.0   16.666666666666668
250.0   30.0   16.666666666666668
300.0   30.0   16.666666666666668
250.0   30.0   0.0
250.0   0.0   16.666666666666668
300.0   30.0   16.666666666666668
300.0   0.0   16.666666666666668
300.0   0.0   0.0
250.0   0.0   16.666666666666668
300.0   30.0   16.666666666666668
300.0   0.0   0.0
250.0   30.0   0.0
250.0   0.0   16.666666666666668
300.0   0.0   16.666666666666668
250.0   30.0   16.666666666666668
250.0   0.0   33.333333333333336
300.0   0.0   16.666666666666668
300.0   30.0   16.666666666666668
250.0   30.0   16.666666666666668
300.0   30.0   33.333333333333336
250.0   0.0   33.333333333333336
250.0   30.0   33.333333333333336
300.0   30.0   33.333333333333336
250.0   30.0   16.666666666666668
250.0   0.0   33.333333333333336
300.0   30.0   33.333333333333336
300.0   0.0   33.333333333333336
300.0   0.0   16.666666666666668
250.0   0.0   33.333333333333336
300.0   30.0   33.333333333333336
300.0   0.0   16.666666666666668
250.0   30.0   16.666666666666668
250.0   0.0   33.333333333333336
300.0   0.0   33.333333333333336
250.0   30.0   33.333333333333336
250.0   0.0   50.0
300.0   0.0   33.333333333333336
300.0   30.0   33.333333333333336
250.0   30.0   33.333333333333336
300.0   30.0   50.0
250.0   0.0   50.0
250.0   30.0   50.0
300.0   30.0   50.0
250.0   30.0   33.333333333333336
250.0   0.0   50.0
300.0   30.0   50.0
300.0   0.0   50.0
300.0   0.0   33.333333333333336
250.0   0.0   50.0
300.0   30.0   50.0
300.0   0.0   33.333333333333336
250.0   30.0   33.333333333333336
250.0   30.0   0.0
300.0   30.0   0.0
250.0   60.0   0.0
250.0   30.0   16.666666666666668
300.0   30.0   0.0
300.0   60.0   0.0
250.0   60.0   0.0
300.0   60.0   16.666666666666668
250.0   30.0   16.666666666666668
250.0   60.0   16.666666666666668
300.0   60.0   16.666666666666668
250.0   60.0   0.0
250.0   30.0   16.666666666666668
300.0   60.0   16.666666666666668
300.0   30.0   16.666666666666668
300.0   30.0   0.0
250.0   30.0   16.666666666666668
300.0   60.0   16.666666666666668
300.0   30.0   0.0
250.0   60.0   0.0
250.0   30.0   16.666666666666668
300.0   30.0   16.666666666666668
250.0   60.0   16.666666666666668
250.0   30.0   33.333333333333336
300.0   30.0   16.666666666666668
300.0   60.0   16.666666666666668
250.0   60.0   16.666666666666668
300.0   60.0   33.333333333333336
250.0   30.0   33.333333333333336
250.0   60.0   33.333333333333336
300.0   60.0   33.333333333333336
250.0   60.0   16.666666666666668
250.0   30.0   33.333333333333336
300.0   60.0   33.333333333333336
300.0   30.0   33.333333333333336
300.0   30.0   16.666666666666668
250.0   30.0   33.333333333333336
300.0   60.0   33.333333333333336
300.0   30.0   16.666666666666668
250.0   60.0   16.666666666666668
250.0   30.0   33.333333333333336
300.0   30.0   33.333333333333336
250.0   60.0   33.333333333333336
250.0   30.0   50.0
300.0   30.0   33.333333333333336
300.0   60.0   33.333333333333336
250.0   60.0   33.333333333333336
300.0   60.0   50.0
250.0   30.0   50.0
250.0   60.0   50.0
300.0   60.0   50.0
250.0   60.0   33.333333333333336
250.0   30.0   50.0
300.0   60.0   50.0
300.0   30.0   50.0
300.0   30.0   33.333333333333336
250.0   30.0   50.0
300.0   60.0   50.0
300.0   30.0   33.333333333333336
250.0   60.0   33.333333333333336
250.0   60.0   0.0
300.0   60.0   0.0
250.0   90.0   0.0
250.0   60.0   16.666666666666668
300.0   60.0   0.0
300.0   90.0   0.0
250.0   90.0   0.0
300.0   90.0   16.666666666666668
250.0   60.0   16.666666666666668
250.0   90.0   16.666666666666668
300.0   90.0   16.666666666666668
250.0   90.0   0.0
250.0   60.0   16.666666666666668
300.0   90.0   16.666666666666668
300.0   60.0   16.666666666666668
300.0   60.0   0.0
250.0   60.0   16.666666666666668
300.0   90.0   16.666666666666668
300.0   60.0   0.0
250.0   90.0   0.0
250.0   60.0   16.666666666666668
300.0   60.0   16.666666666666668
250.0   90.0   16.666666666666668
250.0   60.0   33.333333333333336
300.0   60.0   16.666666666666668
300.0   90.0   16.666666666666668
250.0   90.0   16.666666666666668
300.0   90.0   33.333333333333336
250.0   60.0   33.333333333333336
250.0   90.0   33.333333333333336
300.0   90.0   33.333333333333336
250.0   90.0   16.666666666666668
250.0   60.0   33.333333333333336
300.0   90.0   33.333333333333336
300.0   60.0   33.333333333333336
300.0   60.0   16.666666666666668
250.0   60.0   33.333333333333336
300.0   90.0   33.333333333333336
300.0   60.0   16.666666666666668
250.0   90.0   16.666666666666668
250.0   60.0   33.333333333333336
300.0   60.0   33.333333333333336
250.0   90.0   33.333333333333336
250.0   60.0   50.0
300.0   60.0   33.333333333333336
300.0   90.0   33.333333333333336
250.0   90.0   33.333333333333336
300.0   90.0   50.0
250.0   60.0   50.0
250.0   90.0   50.0
300.0   90.0   50.0
250.0   90.0   33.333333333333336
250.0   60.0   50.0
300.0   90.0   50.0
300.0   60.0   50.0
300.0   60.0   33.333333333333336
250.0   60.0   50.0
300.0   90.0   50.0
300.0   60.0   33.333333333333336
250.0   90.0   33.333333333333336
250.0   90.0   0.0
300.0   90.0   0.0
250.0   120.0   0.0
250.0   90.0   16.666666666666668
300.0   90.0   0.0
300.0   120.0   0.0
250.0   120.0   0.0
300.0   120.0   16.666666666666668
250.0   90.0   16.666666666666668
250.0   120.0   16.666666666666668
300.0   120.0   16.666666666666668
250.0   120.0   0.0
250.0   90.0   16.666666666666668
300.0   120.0   16.666666666666668
300.0   90.0   16.666666666666668
300.0   90.0   0.0
250.0   90.0   16.666666666666668
300.0   120.0   16.666666666666668
300.0   90.0   0.0
250.0   120.0   0.0
250.0   90.0   16.666666666666668
300.0   90.0   16.666666666666668
250.0   120.0   16.666666666666668
250.0   90.0   33.333333333333336
300.0   90.0   16.666666666666668
300.0   120.0   16.666666666666668
250.0   120.0   16.666666666666668
300.0   120.0   33.333333333333336
250.0   90.0   33.333333333333336
250.0   120.0   33.333333333333336
300.0   120.0   33.333333333333336
250.0   120.0   16.666666666666668
250.0   90.0   33.333333333333336
300.0   120.0   33.333333333333336
300.0   90.0   33.333333333333336
300.0   90.0   16.666666666666668
250.0   90.0   33.333333333333336
300.0   120.0   33.333333333333336
300.0   90.0   16.666666666666668
250.0   120.0   16.666666666666668
250.0   90.0   33.333333333333336
300.0   90.0   33.333333333333336
250.0   120.0   33.333333333333336
250.0   90.0   50.0
300.0   90.0   33.333333333333336
300.0   120.0   33.333333333333336
250.0   120.0   33.333333333333336
300.0   120.0   50.0
250.0   90.0   50.0
250.0   120.0   50.0
300.0   120.0   50.0
250.0   120.0   33.333333333333336
250.0   90.0   50.0
300.0   120.0   50.0
300.0   90.0   50.0
300.0   90.0   33.333333333333336
250.0   90.0   50.0
300.0   120.0   50.0
300.0   90.0   33.333333333333336
250.0   120.0   33.333333333333336
250.0   120.0   0.0
300.0   120.0   0.0
250.0   150.0   0.0
250.0   120.0   16.666666666666668
300.0   120.0   0.0
300.0   150.0   0.0
250.0   150.0   0.0
300.0   150.0   16.666666666666668
250.0   120.0   16.666666666666668
250.0   150.0   16.666666666666668
300.0   150.0   16.666666666666668
250.0   150.0   0.0
250.0   120.0   16.666666666666668
300.0   150.0   16.666666666666668
300.0   120.0   16.666666666666668
300.0   120.0   0.0
250.0   120.0   16.666666666666668
300.0   150.0   16.666666666666668
300.0   120.0   0.0
250.0   150.0   0.0
250.0   120.0   16.666666666666668
300.0   120.0   16.666666666666668
250.0   150.0   16.666666666666668
250.0   120.0   33.333333333333336
300.0   120.0   16.666666666666668
300.0   150.0   16.666666666666668
250.0   150.0   16.666666666666668
300.0   150.0   33.333333333333336
250.0   120.0   33.333333333333336
250.0   150.0   33.333333333333336
300.0   150.0   33.333333333333336
250.0   150.0   16.666666666666668
250.0   120.0   33.333333333333336
300.0   150.0   33.333333333333336
300.0   120.0   33.333333333333336
300.0   120.0   16.666666666666668
250.0   120.0   33.333333333333336
300.0   150.0   33.333333333333336
300.0   120.0   16.666666666666668
250.0   150.0   16.666666666666668
250.0   120.0   33.333333333333336
300.0   120.0   33.333333333333336
250.0   150.0   33.333333333333336
250.0   120.0   50.0
300.0   120.0   33.333333333333336
300.0   150.0   33.333333333333336
250.0   150.0   33.333333333333336
300.0   150.0   50.0
250.0   120.0   50.0
250.0   150.0   50.0
300.0   150.0   50.0
250.0   150.0   33.333333333333336
250.0   120.0   50.0
300.0   150.0   50.0
300.0   120.0   50.0
300.0   120.0   33.333333333333336
250.0   120.0   50.0
300.0   150.0   50.0
300.0   120.0   33.333333333333336
250.0   150.0   33.333333333333336
300.0   0.0   0.0
350.0   0.0   0.0
300.0   30.0   0.0
300.0   0.0   16.666666666666668
350.0   0.0   0.0
350.0   30.0   0.0
300.0   30.0   0.0
350.0   30.0   16.666666666666668
300.0   0.0   16.666666666666668
300.0   30.0   16.666666666666668
350.0   30.0   16.666666666666668
300.0   30.0   0.0
300.0   0.0   16.666666666666668
350.0   30.0   16.666666666666668
350.0   0.0   16.666666666666668
350.0   0.0   0.0
300.0   0.0   16.666666666666668
350.0   30.0   16.666666666666668
350.0   0.0   0.0
300.0   30.0   0.0
300.0   0.0   16.666666666666668
350.0   0.0   16.666666666666668
300.0   30.0   16.666666666666668
300.0   0.0   33.333333333333336
350.0   0.0   16.666666666666668
350.0   30.0   16.666666666666668
300.0   30.0   16.666666666666668
350.0   30.0   33.333333333333336
300.0   0.0   33.333333333333336
300.0   30.0   33.333333333333336
350.0   30.0   33.333333333333336
300.0   30.0   16.666666666666668
300.0   0.0   33.333333333333336
350.0   30.0   33.333333333333336
350.0   0.0   33.333333333333336
350.0   0.0   16.666666666666668
300.0   0.0   33.333333333333336
350.0   30.0   33.333333333333336
350.0   0.0   16.666666666666668
300.0   30.0   16.666666666666668
300.0   0.0   33.333333333333336
350.0   0.0   33.333333333333336
300.0   30.0   33.333333333333336
300.0   0.0   50.0
350.0   0.0   33.333333333333336
350.0   30.0   33.333333333333336
300.0   30.0   33.333333333333336
350.0   30.0   50.0
300.0   0.0   50.0
300.0   30.0   50.0
350.0   30.0   50.0
300.0   30.0   33.333333333333336
300.0   0.0   50.0
350.0   30.0   50.0
350.0   0.0   50.0
350.0   0.0   33.333333333333336
300.0   0.0   50.0
350.0   30.0   50.0
350.0   0.0   33.333333333333336
300.0   30.0   33.333333333333336
300.0   30.0   0.0
350.0   30.0   0.0
300.0   60.0   0.0
300.0   30.0   16.666666666666668
350.0   30.0   0.0
350.0   60.0   0.0
300.0   60.0   0.0
350.0   60.0   16.666666666666668
300.0   30.0   16.666666666666668
300.0   60.0   16.666666666666668
350.0   60.0   16.666666666666668
300.0   60.0   0.0
300.0   30.0   16.666666666666668
350.0   60.0   16.666666666666668
350.0   30.0   16.666666666666668
350.0   30.0   0.0
300.0   30.0   16.666666666666668
350.0   60.0   16.666666666666668
350.0   30.0   0.0
300.0   60.0   0.0
300.0   30.0   16.666666666666668
350.0   30.0   16.666666666666668
300.0   60.0   16.666666666666668
300.0   30.0   33.333333333333336
350.0   30.0   16.666666666666668
350.0   60.0   16.666666666666668
300.0   60.0   16.666666666666668
350.0   60.0   33.333333333333336
300.0   30.0   33.333333333333336
300.0   60.0   33.333333333333336
350.0   60.0   33.333333333333336
300.0   60.0   16.666666666666668
300.0   30.0   33.333333333333336
350.0   60.0   33.333333333333336
350.0   30.0   33.333333333333336
350.0   30.0   16.666666666666668
300.0   30.0   33.333333333333336
350.0   60.0   33.333333333333336
350.0   30.0   16.666666666666668
300.0   60.0   16.666666666666668
300.0   30.0   33.333333333333336
350.0   30.0   33.333333333333336
300.0   60.0   33.333333333333336
300.0   30.0   50.0
350.0   30.0   33.333333333333336
350.0   60.0   33.333333333333336
300.0   60.0   33.333333333333336
350.0   60.0   50.0
300.0   30.0   50.0
300.0   60.0   50.0
350.0   60.0   50.0
300.0   60.0   33.333333333333336
300.0   30.0   50.0
350.0   60.0   50.0
350.0   30.0   50.0
350.0   30.0   33.333333333333336
300.0   30.0   50.0
350.0   60.0   50.0
350.0   30.0   33.333333333333336
300.0   60.0   33.333333333333336
300.0   60.0   0.0
350.0   60.0   0.0
300.0   90.0   0.0
300.0   60.0   16.666666666666668
350.0   60.0   0.0
350.0   90.0   0.0
300.0   90.0   0.0
350.0   90.0   16.666666666666668
300.0   60.0   16.666666666666668
300.0   90.0   16.666666666666668
350.0   90.0   16.666666666666668
300.0   90.0   0.0
300.0   60.0   16.666666666666668
350.0   90.0   16.666666666666668
350.0   60.0   16.666666666666668
350.0   60.0   0.0
300.0   60.0   16.666666666666668
350.0   90.0   16.666666666666668
350.0   60.0   0.0
300.0   90.0   0.0
300.0   60.0   16.666666666666668
350.0   60.0   16.666666666666668
300.0   90.0   16.666666666666668
300.0   60.0   33.333333333333336
350.0   60.0   16.666666666666668
350.0   90.0   16.666666666666668
300.0   90.0   16.666666666666668
350.0   90.0   33.333333333333336
300.0   60.0   33.333333333333336
300.0   90.0   33.333333333333336
350.0   90.0   33.333333333333336
300.0   90.0   16.666666666666668
300.0   60.0   33.333333333333336
350.0   90.0   33.333333333333336
350.0   60.0   33.333333333333336
350.0   60.0   16.666666666666668
300.0   60.0   33.333333333333336
350.0   90.0   33.333333333333336
350.0   60.0   16.666666666666668
300.0   90.0   16.666666666666668
300.0   60.0   33.333333333333336
350.0   60.0   33.333333333333336
300.0   90.0   33.333333333333336
300.0   60.0   50.0
350.0   60.0   33.333333333333336
350.0   90.0   33.333333333333336
300.0   90.0   33.333333333333336
350.0   90.0   50.0
300.0   60.0   50.0
300.0   90.0   50.0
350.0   90.0   50.0
300.0   90.0   33.333333333333336
300.0   60.0   50.0
350.0   90.0   50.0
350.0   60.0   50.0
350.0   60.0   33.333333333333336
300.0   60.0   50.0
350.0   90.0   50.0
350.0   60.0   33.333333333333336
300.0   90.0   33.333333333333336
300.0   90.0   0.0
350.0   90.0   0.0
300.0   120.0   0.0
300.0   90.0   16.666666666666668
350.0   90.0   0.0
350.0   120.0   0.0
300.0   120.0   0.0
350.0   120.0   16.666666666666668
300.0   90.0   16.666666666666668
300.0   120.0   16.666666666666668
350.0   120.0   16.666666666666668
300.0   120.0   0.0
300.0   90.0   16.666666666666668
350.0   120.0   16.666666666666668
350.0   90.0   16.666666666666668
350.0   90.0   0.0
300.0   90.0   16.666666666666668
350.0   120.0   16.666666666666668
350.0   90.0   0.0
300.0   120.0   0.0
300.0   90.0   16.666666666666668
350.0   90.0   16.666666666666668
300.0   120.0   16.666666666666668
300.0   90.0   33.333333333333336
350.0   90.0   16.666666666666668
350.0   120.0   16.666666666666668
300.0   120.0   16.666666666666668
350.0   120.0   33.333333333333336
300.0   90.0   33.333333333333336
300.0   120.0   33.333333333333336
350.0   120.0   33.333333333333336
300.0   120.0   16.666666666666668
300.0   90.0   33.333333333333336
350.0   120.0   33.333333333333336
350.0   90.0   33.333333333333336
350.0   90.0   16.666666666666668
300.0   90.0   33.333333333333336
350.0   120.0   33.333333333333336
350.0   90.0   16.666666666666668
300.0   120.0   16.666666666666668
300.0   90.0   33.333333333333336
350.0   90.0   33.333333333333336
300.0   120.0   33.333333333333336
300.0   90.0   50.0
350.0   90.0   33.333333333333336
350.0   120.0   33.333333333333336
300.0   120.0   33.333333333333336
350.0   120.0   50.0
300.0   90.0   50.0
300.0   120.0   50.0
350.0   120.0   50.0
300.0   120.0   33.333333333333336
300.0   90.0   50.0
350.0   120.0   50.0
350.0   90.0   50.0
350.0   90.0   33.333333333333336
300.0   90.0   50.0
350.0   120.0   50.0
350.0   90.0   33.333333333333336
300.0   120.0   33.333333333333336
300.0   120.0   0.0
350.0   120.0   0.0
300.0   150.0   0.0
300.0   120.0   16.666666666666668
350.0   120.0   0.0
350.0   150.0   0.0
300.0   150.0   0.0
350.0   150.0   16.666666666666668
300.0   120.0   16.666666666666668
300.0   150.0   16.666666666666668
350.0   150.0   16.666666666666668
300.0   150.0   0.0
300.0   120.0   16.666666666666668
350.0   150.0   16.666666666666668
350.0   120.0   16.666666666666668
350.0   120.0   0.0
300.0   120.0   16.666666666666668
350.0   150.0   16.666666666666668
350.0   120.0   0.0
300.0   150.0   0.0
300.0   120.0   16.666666666666668
350.0   120.0   16.666666666666668
300.0   150.0   16.666666666666668
300.0   120.0   33.333333333333336
350.0   120.0   16.666666666666668
350.0   150.0   16.666666666666668
300.0   150.0   16.666666666666668
350.0   150.0   33.333333333333336
300.0   120.0   33.333333333333336
300.0   150.0   33.333333333333336
350.0   150.0   33.333333333333336
300.0   150.0   16.666666666666668
300.0   120.0   33.333333333333336
350.0   150.0   33.333333333333336
350.0   120.0   33.333333333333336
350.0   120.0   16.666666666666668
300.0   120.0   33.333333333333336
350.0   150.0   33.333333333333336
350.0   120.0   16.666666666666668
300.0   150.0   16.666666666666668
300.0   120.0   33.333333333333336
350.0   120.0   33.333333333333336
300.0   150.0   33.333333333333336
300.0   120.0   50.0
350.0   120.0   33.333333333333336
350.0   150.0   33.333333333333336
300.0   150.0   33.333333333333336
350.0   150.0   50.0
300.0   120.0   50.0
300.0   150.0   50.0
350.0   150.0   50.0
300.0   150.0   33.333333333333336
300.0   120.0   50.0
350.0   150.0   50.0
350.0   120.0   50.0
350.0   120.0   33.333333333333336
300.0   120.0   50.0
350.0   150.0   50.0
350.0   120.0   33.333333333333336
300.0   150.0   33.333333333333336
350.0   0.0   0.0
400.0   0.0   0.0
350.0   30.0   0.0
350.0   0.0   16.666666666666668
400.0   0.0   0.0
400.0   30.0   0.0
350.0   30.0   0.0
400.0   30.0   16.666666666666668
350.0   0.0   16.666666666666668
350.0   30.0   16.666666666666668
400.0   30.0   16.666666666666668
350.0   30.0   0.0
350.0   0.0   16.666666666666668
400.0   30.0   16.666666666666668
400.0   0.0   16.666666666666668
400.0   0.0   0.0
350.0   0.0   16.666666666666668
400.0   30.0   16.666666666666668
400.0   0.0   0.0
350.0   30.0   0.0
350.0   0.0   16.666666666666668
400.0   0.0   16.666666666666668
350.0   30.0   16.666666666666668
350.0   0.0   33.333333333333336
400.0   0.0   16.666666666666668
400.0   30.0   16.666666666666668
350.0   30.0   16.666666666666668
400.0   30.0   33.333333333333336
350.0   0.0   33.333333333333336
350.0   30.0   33.333333333333336
400.0   30.0   33.333333333333336
350.0   30.0   16.666666666666668
350.0   0.0   33.333333333333336
400.0   30.0   33.333333333333336
400.0   0.0   33.333333333333336
400.0   0.0   16.666666666666668
350.0   0.0   33.333333333333336
400.0   30.0   33.333333333333336
400.0   0.0   16.666666666666668
350.0   30.0   16.666666666666668
350.0   0.0   33.333333333333336
400.0   0.0   33.333333333333336
350.0   30.0   33.333333333333336
350.0   0.0   50.0
400.0   0.0   33.333333333333336
400.0   30.0   33.333333333333336
350.0   30.0   33.333333333333336
400.0   30.0   50.0
350.0   0.0   50.0
350.0   30.0   50.0
400.0   30.0   50.0
350.0   30.0   33.333333333333336
350.0   0.0   50.0
400.0   30.0   50.0
400.0   0.0   50.0
400.0   0.0   33.333333333333336
350.0   0.0   50.0
400.0   30.0   50.0
400.0   0.0   33.333333333333336
350.0   30.0   33.333333333333336
350.0   30.0   0.0
400.0   30.0   0.0
350.0   60.0   0.0
350.0   30.0   16.666666666666668
400.0   30.0   0.0
400.0   60.0   0.0
350.0   60.0   0.0
400.0   60.0   16.666666666666668
350.0   30.0   16.666666666666668
350.0   60.0   16.666666666666668
400.0   60.0   16.666666666666668
350.0   60.0   0.0
350.0   30.0   16.666666666666668
400.0   60.0   16.666666666666668
400.0   30.0   16.666666666666668
400.0   30.0   0.0
350.0   30.0   16.666666666666668
400.0   60.0   16.666666666666668
400.0   30.0   0.0
350.0   60.0   0.0
350.0   30.0   16.666666666666668
400.0   30.0   16.666666666666668
350.0   60.0   16.666666666666668
350.0   30.0   33.333333333333336
400.0   30.0   16.666666666666668
400.0   60.0   16.666666666666668
350.0   60.0   16.666666666666668
400.0   60.0   33.333333333333336
350.0   30.0   33.333333333333336
350.0   60.0   33.333333333333336
400.0   60.0   33.333333333333336
350.0   60.0   16.666666666666668
350.0   30.0   33.333333333333336
400.0   60.0   33.333333333333336
400.0   30.0   33.333333333333336
400.0   30.0   16.666666666666668
350.0   30.0   33.333333333333336
400.0   60.0   33.333333333333336
400.0   30.0   16.666666666666668
350.0   60.0   16.666666666666668
350.0   30.0   33.333333333333336
400.0   30.0   33.333333333333336
350.0   60.0   33.333333333333336
350.0   30.0   50.0
400.0   30.0   33.333333333333336
400.0   60.0   33.333333333333336
350.0   60.0   33.333333333333336
400.0   60.0   50.0
350.0   30.0   50.0
350.0   60.0   50.0
400.0   60.0   50.0
350.0   60.0   33.333333333333336
350.0   30.0   50.0
400.0   60.0   50.0
400.0   30.0   50.0
400.0   30.0   33.333333333333336
350.0   30.0   50.0
400.0   60.0   50.0
400.0   30.0   33.333333333333336
350.0   60.0   33.333333333333336
350.0   60.0   0.0
400.0   60.0   0.0
350.0   90.0   0.0
350.0   60.0   16.666666666666668
400.0   60.0   0.0
400.0   90.0   0.0
350.0   90.0   0.0
400.0   90.0   16.666666666666668
350.0   60.0   16.666666666666668
350.0   90.0   16.666666666666668
400.0   90.0   16.666666666666668
350.0   90.0   0.0
350.0   60.0   16.666666666666668
400.0   90.0   16.666666666666668
400.0   60.0   16.666666666666668
400.0   60.0   0.0
350.0   60.0   16.666666666666668
400.0   90.0   16.666666666666668
400.0   60.0   0.0
350.0   90.0   0.0
350.0   60.0   16.666666666666668
400.0   60.0   16.666666666666668
350.0   90.0   16.666666666666668
350.0   60.0   33.333333333333336
400.0   60.0   16.666666666666668
400.0   90.0   16.666666666666668
350.0   90.0   16.666666666666668
400.0   90.0   33.333333333333336
350.0   60.0   33.333333333333336
350.0   90.0   33.333333333333336
400.0   90.0   33.333333333333336
350.0   90.0   16.666666666666668
350.0   60.0   33.333333333333336
400.0   90.0   33.333333333333336
400.0   60.0   33.333333333333336
400.0   60.0   16.666666666666668
350.0   60.0   33.333333333333336
400.0   90.0   33.333333333333336
400.0   60.0   16.666666666666668
350.0   90.0   16.666666666666668
350.0   60.0   33.333333333333336
400.0   60.0   33.333333333333336
350.0   90.0   33.333333333333336
350.0   60.0   50.0
400.0   60.0   33.333333333333336
400.0   90.0   33.333333333333336
350.0   90.0   33.333333333333336
400.0   90.0   50.0
350.0   60.0   50.0
350.0   90.0   50.0
400.0   90.0   50.0
350.0   90.0   33.333333333333336
350.0   60.0   50.0
400.0   90.0   50.0
400.0   60.0   50.0
400.0   60.0   33.333333333333336
350.0   60.0   50.0
400.0   90.0   50.0
400.0   60.0   33.333333333333336
350.0   90.0   33.333333333333336
350.0   90.0   0.0
400.0   90.0   0.0
350.0   120.0   0.0
350.0   90.0   16.666666666666668
400.0   90.0   0.0
400.0   120.0   0.0
350.0   120.0   0.0
400.0   120.0   16.666666666666668
350.0   90.0   16.666666666666668
350.0   120.0   16.666666666666668
400.0   120.0   16.666666666666668
350.0   120.0   0.0
350.0   90.0   16.666666666666668
400.0   120.0   16.666666666666668
400.0   90.0   16.666666666666668
400.0   90.0   0.0
350.0   90.0   16.666666666666668
400.0   120.0   16.666666666666668
400.0   90.0   0.0
350.0   120.0   0.0
350.0   90.0   16.666666666666668
400.0   90.0   16.666666666666668
350.0   120.0   16.666666666666668
350.0   90.0   33.333333333333336
400.0   90.0   16.666666666666668
400.0   120.0   16.666666666666668
350.0   120.0   16.666666666666668
400.0   120.0   33.333333333333336
350.0   90.0   33.333333333333336
350.0   120.0   33.333333333333336
400.0   120.0   33.333333333333336
350.0   120.0   16.666666666666668
350.0   90.0   33.333333333333336
400.0   120.0   33.333333333333336
400.0   90.0   33.333333333333336
400.0   90.0   16.666666666666668
350.0   90.0   33.333333333333336
400.0   120.0   33.333333333333336
400.0   90.0   16.666666666666668
350.0   120.0   16.666666666666668
350.0   90.0   33.333333333333336
400.0   90.0   33.333333333333336
350.0   120.0   33.333333333333336
350.0   90.0   50.0
400.0   90.0   33.333333333333336
400.0   120.0   33.333333333333336
350.0   120.0   33.333333333333336
400.0   120.0   50.0
350.0   90.0   50.0
350.0   120.0   50.0
400.0   120.0   50.0
350.0   120.0   33.333333333333336
350.0   90.0   50.0
400.0   120.0   50.0
400.0   90.0   50.0
400.0   90.0   33.333333333333336
350.0   90.0   50.0
400.0   120.0   50.0
400.0   90.0   33.333333333333336
350.0   120.0   33.333333333333336
350.0   120.0   0.0
400.0   120.0   0.0
350.0   150.0   0.0
350.0   120.0   16.666666666666668
400.0   120.0   0.0
400.0   150.0   0.0
350.0   150.0   0.0
400.0   150.0   16.666666666666668
350.0   120.0   16.666666666666668
350.0   150.0   16.666666666666668
400.0   150.0   16.666666666666668
350.0   150.0   0.0
350.0   120.0   16.666666666666668
400.0   150.0   16.666666666666668
400.0   120.0   16.666666666666668
400.0   120.0   0.0
350.0   120.0   16.666666666666668
400.0   150.0   16.666666666666668
400.0   120.0   0.0
350.0   150.0   0.0
350.0   120.0   16.666666666666668
400.0   120.0   16.666666666666668
350.0   150.0   16.666666666666668
350.0   120.0   33.333333333333336
400.0   120.0   16.666666666666668
400.0   150.0   16.666666666666668
350.0   150.0   16.666666666666668
400.0   150.0   33.333333333333336
350.0   120.0   33.333333333333336
350.0   150.0   33.333333333333336
400.0   150.0   33.333333333333336
350.0   150.0   16.666666666666668
350.0   120.0   33.333333333333336
400.0   150.0   33.333333333333336
400.0   120.0   33.333333333333336
400.0   120.0   16.666666666666668
350.0   120.0   33.333333333333336
400.0   150.0   33.333333333333336
400.0   120.0   16.666666666666668
350.0   150.0   16.666666666666668
350.0   120.0   33.333333333333336
400.0   120.0   33.333333333333336
350.0   150.0   33.333333333333336
350.0   120.0   50.0
400.0   120.0   33.333333333333336
400.0   150.0   33.333333333333336
350.0   150.0   33.333333333333336
400.0   150.0   50.0
350.0   120.0   50.0
350.0   150.0   50.0
400.0   150.0   50.0
350.0   150.0   33.333333333333336
350.0   120.0   50.0
400.0   150.0   50.0
400.0   120.0   50.0
400.0   120.0   33.333333333333336
350.0   120.0   50.0
400.0   150.0   50.0
400.0   120.0   33.333333333333336
350.0   150.0   33.333333333333336
400.0   0.0   0.0
450.0   0.0   0.0
400.0   30.0   0.0
400.0   0.0   16.666666666666668
450.0   0.0   0.0
450.0   30.0   0.0
400.0   30.0   0.0
450.0   30.0   16.666666666666668
400.0   0.0   16.666666666666668
400.0   30.0   16.666666666666668
450.0   30.0   16.666666666666668
400.0   30.0   0.0
400.0   0.0   16.666666666666668
450.0   30.0   16.666666666666668
450.0   0.0   16.666666666666668
450.0   0.0   0.0
400.0   0.0   16.666666666666668
450.0   30.0   16.666666666666668
450.0   0.0   0.0
400.0   30.0   0.0
400.0   0.0   16.666666666666668
450.0   0.0   16.666666666666668
400.0   30.0   16.666666666666668
400.0   0.0   33.333333333333336
450.0   0.0   16.666666666666668
450.0   30.0   16.666666666666668
400.0   30.0   16.666666666666668
450.0   30.0   33.333333333333336
400.0   0.0   33.333333333333336
400.0   30.0   33.333333333333336
450.0   30.0   33.333333333333336
400.0   30.0   16.666666666666668
400.0   0.0   33.333333333333336
450.0   30.0   33.333333333333336
450.0   0.0   33.333333333333336
450.0   0.0   16.666666666666668
400.0   0.0   33.333333333333336
450.0   30.0   33.333333333333336
450.0   0.0   16.666666666666668
400.0   30.0   16.666666666666668
400.0   0.0   33.333333333333336
450.0   0.0   33.333333333333336
400.0   30.0   33.333333333333336
400.0   0.0   50.0
450.0   0.0   33.333333333333336
450.0   30.0   33.333333333333336
400.0   30.0   33.333333333333336
450.0   30.0   50.0
400.0   0.0   50.0
400.0   30.0   50.0
450.0   30.0   50.0
400.0   30.0   33.333333333333336
400.0   0.0   50.0
450.0   30.0   50.0
450.0   0.0   50.0
450.0   0.0   33.333333333333336
400.0   0.0   50.0
450.0   30.0   50.0
450.0   0.0   33.333333333333336
400.0   30.0   33.333333333333336
400.0   30.0   0.0
450.0   30.0   0.0
400.0   60.0   0.0
400.0   30.0   16.666666666666668
450.0   30.0   0.0
450.0   60.0   0.0
400.0   60.0   0.0
450.0   60.0   16.666666666666668
400.0   30.0   16.666666666666668
400.0   60.0   16.666666666666668
450.0   60.0   16.666666666666668
400.0   60.0   0.0
400.0   30.0   16.666666666666668
450.0   60.0   16.666666666666668
450.0   30.0   16.666666666666668
450.0   30.0   0.0
400.0   30.0   16.666666666666668
450.0   60.0   16.666666666666668
450.0   30.0   0.0
400.0   60.0   0.0
400.0   30.0   16.666666666666668
450.0   30.0   16.666666666666668
400.0   60.0   16.666666666666668
400.0   30.0   33.333333333333336
450.0   30.0   16.666666666666668
450.0   60.0   16.666666666666668
400.0   60.0   16.666666666666668
450.0   60.0   33.333333333333336
400.0   30.0   33.333333333333336
400.0   60.0   33.333333333333336
450.0   60.0   33.333333333333336
400.0   60.0   16.666666666666668
400.0   30.0   33.333333333333336
450.0   60.0   33.333333333333336
450.0   30.0   33.333333333333336
450.0   30.0   16.666666666666668
400.0   30.0   33.333333333333336
450.0   60.0   33.333333333333336
450.0   30.0   16.666666666666668
400.0   60.0   16.666666666666668
400.0   30.0   33.333333333333336
450.0   30.0   33.333333333333336
400.0   60.0   33.333333333333336
400.0   30.0   50.0
450.0   30.0   33.333333333333336
450.0   60.0   33.333333333333336
400.0   60.0   33.333333333333336
450.0   60.0   50.0
400.0   30.0   50.0
400.0   60.0   50.0
450.0   60.0   50.0
400.0   60.0   33.333333333333336
400.0   30.0   50.0
450.0   60.0   50.0
450.0   30.0   50.0
450.0   30.0   33.333333333333336
400.0   30.0   50.0
450.0   60.0   50.0
450.0   30.0   33.333333333333336
400.0   60.0   33.333333333333336
400.0   60.0   0.0
450.0   60.0   0.0
400.0   90.0   0.0
400.0   60.0   16.666666666666668
450.0   60.0   0.0
450.0   90.0   0.0
400.0   90.0   0.0
450.0   90.0   16.666666666666668
400.0   60.0   16.666666666666668
400.0   90.0   16.666666666666668
450.0   90.0   16.666666666666668
400.0   90.0   0.0
400.0   60.0   16.666666666666668
450.0   90.0   16.666666666666668
450.0   60.0   16.666666666666668
450.0   60.0   0.0
400.0   60.0   16.666666666666668
450.0   90.0   16.666666666666668
450.0   60.0   0.0
400.0   90.0   0.0
400.0   60.0   16.666666666666668
450.0   60.0   16.666666666666668
400.0   90.0   16.666666666666668
400.0   60.0   33.333333333333336
450.0   60.0   16.666666666666668
450.0   90.0   16.666666666666668
400.0   90.0   16.666666666666668
450.0   90.0   33.333333333333336
400.0   60.0   33.333333333333336
400.0   90.0   33.333333333333336
450.0   90.0   33.333333333333336
400.0   90.0   16.666666666666668
400.0   60.0   33.333333333333336
450.0   90.0   33.333333333333336
450.0   60.0   33.333333333333336
450.0   60.0   16.666666666666668
400.0   60.0   33.333333333333336
450.0   90.0   33.333333333333336
450.0   60.0   16.666666666666668
400.0   90.0   16.666666666666668
400.0   60.0   33.333333333333336
450.0   60.0   33.333333333333336
400.0   90.0   33.333333333333336
400.0   60.0   50.0
450.0   60.0   33.333333333333336
450.0   90.0   33.333333333333336
400.0   90.0   33.333333333333336
450.0   90.0   50.0
400.0   60.0   50.0
400.0   90.0   50.0
450.0   90.0   50.0
400.0   90.0   33.333333333333336
400.0   60.0   50.0
450.0   90.0   50.0
450.0   60.0   50.0
450.0   60.0   33.333333333333336
400.0   60.0   50.0
450.0   90.0   50.0
450.0   60.0   33.333333333333336
400.0   90.0   33.333333333333336
400.0   90.0   0.0
450.0   90.0   0.0
400.0   120.0   0.0
400.0   90.0   16.666666666666668
450.0   90.0   0.0
450.0   120.0   0.0
400.0   120.0   0.0
450.0   120.0   16.666666666666668
400.0   90.0   16.666666666666668
400.0   120.0   16.666666666666668
450.0   120.0   16.666666666666668
400.0   120.0   0.0
400.0   90.0   16.666666666666668
450.0   120.0   16.666666666666668
450.0   90.0   16.666666666666668
450.0   90.0   0.0
400.0   90.0   16.666666666666668
450.0   120.0   16.666666666666668
450.0   90.0   0.0
400.0   120.0   0.0
400.0   90.0   16.666666666666668
450.0   90.0   16.666666666666668
400.0   120.0   16.666666666666668
400.0   90.0   33.333333333333336
450.0   90.0   16.666666666666668
450.0   120.0   16.666666666666668
400.0   120.0   16.666666666666668
450.0   120.0   33.333333333333336
400.0   90.0   33.333333333333336
400.0   120.0   33.333333333333336
450.0   120.0   33.333333333333336
400.0   120.0   16.666666666666668
400.0   90.0   33.333333333333336
450.0   120.0   33.333333333333336
450.0   90.0   33.333333333333336
450.0   90.0   16.666666666666668
400.0   90.0   33.333333333333336
450.0   120.0   33.333333333333336
450.0   90.0   16.666666666666668
400.0   120.0   16.666666666666668
400.0   90.0   33.333333333333336
450.0   90.0   33.333333333333336
400.0   120.0   33.333333333333336
400.0   90.0   50.0
450.0   90.0   33.333333333333336
450.0   120.0   33.333333333333336
400.0   120.0   33.333333333333336
450.0   120.0   50.0
400.0   90.0   50.0
400.0   120.0   50.0
450.0   120.0   50.0
400.0   120.0   33.333333333333336
400.0   90.0   50.0
450.0   120.0   50.0
450.0   90.0   50.0
450.0   90.0   33.333333333333336
400.0   90.0   50.0
450.0   120.0   50.0
450.0   90.0   33.333333333333336
400.0   120.0   33.333333333333336
400.0   120.0   0.0
450.0   120.0   0.0
400.0   150.0   0.0
400.0   120.0   16.666666666666668
450.0   120.0   0.0
450.0   150.0   0.0
400.0   150.0   0.0
450.0   150.0   16.666666666666668
400.0   120.0   16.666666666666668
400.0   150.0   16.666666666666668
450.0   150.0   16.666666666666668
400.0   150.0   0.0
400.0   120.0   16.666666666666668
450.0   150.0   16.666666666666668
450.0   120.0   16.666666666666668
450.0   120.0   0.0
400.0   120.0   16.666666666666668
450.0   150.0   16.666666666666668
450.0   120.0   0.0
400.0   150.0   0.0
400.0   120.0   16.666666666666668
450.0   120.0   16.666666666666668
400.0   150.0   16.666666666666668
400.0   120.0   33.333333333333336
450.0   120.0   16.666666666666668
450.0   150.0   16.666666666666668
400.0   150.0   16.666666666666668
450.0   150.0   33.333333333333336
400.0   120.0   33.333333333333336
400.0   150.0   33.333333333333336
450.0   150.0   33.333333333333336
400.0   150.0   16.666666666666668
400.0   120.0   33.333333333333336
450.0   150.0   33.333333333333336
450.0   120.0   33.333333333333336
450.0   120.0   16.666666666666668
400.0   120.0   33.333333333333336
450.0   150.0   33.333333333333336
450.0   120.0   16.666666666666668
400.0   150.0   16.666666666666668
400.0   120.0   33.333333333333336
450.0   120.0   33.333333333333336
400.0   150.0   33.333333333333336
400.0   120.0   50.0
450.0   120.0   33.333333333333336
450.0   150.0   33.333333333333336
400.0   150.0   33.333333333333336
450.0   150.0   50.0
400.0   120.0   50.0
400.0   150.0   50.0
450.0   150.0   50.0
400.0   150.0   33.333333333333336
400.0   120.0   50.0
450.0   150.0   50.0
450.0   120.0   50.0
450.0   120.0   33.333333333333336
400.0   120.0   50.0
450.0   150.0   50.0
450.0   120.0   33.333333333333336
400.0   150.0   33.333333333333336
450.0   0.0   0.0
500.0   0.0   0.0
450.0   30.0   0.0
450.0   0.0   16.666666666666668
500.0   0.0   0.0
500.0   30.0   0.0
450.0   30.0   0.0
500.0   30.0   16.666666666666668
450.0   0.0   16.666666666666668
450.0   30.0   16.666666666666668
500.0   30.0   16.666666666666668
450.0   30.0   0.0
450.0   0.0   16.666666666666668
500.0   30.0   16.666666666666668
500.0   0.0   16.666666666666668
500.0   0.0   0.0
450.0   0.0   16.666666666666668
500.0   30.0   16.666666666666668
500.0   0.0   0.0
450.0   30.0   0.0
450.0   0.0   16.666666666666668
500.0   0.0   16.666666666666668
450.0   30.0   16.666666666666668
450.0   0.0   33.333333333333336
500.0   0.0   16.666666666666668
500.0   30.0   16.666666666666668
450.0   30.0   16.666666666666668
500.0   30.0   33.333333333333336
450.0   0.0   33.333333333333336
450.0   30.0   33.333333333333336
500.0   30.0   33.333333333333336
450.0   30.0   16.666666666666668
450.0   0.0   33.333333333333336
500.0   30.0   33.333333333333336
500.0   0.0   33.333333333333336
500.0   0.0   16.666666666666668
450.0   0.0   33.333333333333336
500.0   30.0   33.333333333333336
500.0   0.0   16.666666666666668
450.0   30.0   16.666666666666668
450.0   0.0   33.333333333333336
500.0   0.0   33.333333333333336
450.0   30.0   33.333333333333336
450.0   0.0   50.0
500.0   0.0   33.333333333333336
500.0   30.0   33.333333333333336
450.0   30.0   33.333333333333336
500.0   30.0   50.0
450.0   0.0   50.0
450.0   30.0   50.0
500.0   30.0   50.0
450.0   30.0   33.333333333333336
450.0   0.0   50.0
500.0   30.0   50.0
500.0   0.0   50.0
500.0   0.0   33.333333333333336
450.0   0.0   50.0
500.0   30.0   50.0
500.0   0.0   33.333333333333336
450.0   30.0   33.333333333333336
450.0   30.0   0.0
500.0   30.0   0.0
450.0   60.0   0.0
450.0   30.0   16.666666666666668
500.0   30.0   0.0
500.0   60.0   0.0
450.0   60.0   0.0
500.0   60.0   16.666666666666668
450.0   30.0   16.666666666666668
450.0   60.0   16.666666666666668
500.0   60.0   16.666666666666668
450.0   60.0   0.0
450.0   30.0   16.666666666666668
500.0   60.0   16.666666666666668
500.0   30.0   16.666666666666668
500.0   30.0   0.0
450.0   30.0   16.666666666666668
500.0   60.0   16.666666666666668
500.0   30.0   0.0
450.0   60.0   0.0
450.0   30.0   16.666666666666668
500.0   30.0   16.666666666666668
450.0   60.0   16.666666666666668
450.0   30.0   33.333333333333336
500.0   30.0   16.666666666666668
500.0   60.0   16.666666666666668
450.0   60.0   16.666666666666668
500.0   60.0   33.333333333333336
450.0   30.0   33.333333333333336
450.0   60.0   33.333333333333336
500.0   60.0   33.333333333333336
450.0   60.0   16.666666666666668
450.0   30.0   33.333333333333336
500.0   60.0   33.333333333333336
500.0   30.0   33.333333333333336
500.0   30.0   16.666666666666668
450.0   30.0   33.333333333333336
500.0   60.0   33.333333333333336
500.0   30.0   16.666666666666668
450.0   60.0   16.666666666666668
450.0   30.0   33.333333333333336
500.0   30.0   33.333333333333336
450.0   60.0   33.333333333333336
450.0   30.0   50.0
500.0   30.0   33.333333333333336
500.0   60.0   33.333333333333336
450.0   60.0   33.333333333333336
500.0   60.0   50.0
450.0   30.0   50.0
450.0   60.0   50.0
500.0   60.0   50.0
450.0   60.0   33.333333333333336
450.0   30.0   50.0
500.0   60.0   50.0
500.0   30.0   50.0
500.0   30.0   33.333333333333336
450.0   30.0   50.0
500.0   60.0   50.0
500.0   30.0   33.333333333333336
450.0   60.0   33.333333333333336
450.0   60.0   0.0
500.0   60.0   0.0
450.0   90.0   0.0
450.0   60.0   16.666666666666668
500.0   60.0   0.0
500.0   90.0   0.0
450.0   90.0   0.0
500.0   90.0   16.666666666666668
450.0   60.0   16.666666666666668
450.0   90.0   16.666666666666668
500.0   90.0   16.666666666666668
450.0   90.0   0.0
450.0   60.0   16.666666666666668
500.0   90.0   16.666666666666668
500.0   60.0   16.666666666666668
500.0   60.0   0.0
450.0   60.0   16.666666666666668
500.0   90.0   16.666666666666668
500.0   60.0   0.0
450.0   90.0   0.0
450.0   60.0   16.666666666666668
500.0   60.0   16.666666666666668
450.0   90.0   16.666666666666668
450.0   60.0   33.333333333333336
500.0   60.0   16.666666666666668
500.0   90.0   16.666666666666668
450.0   90.0   16.666666666666668
500.0   90.0   33.333333333333336
450.0   60.0   33.333333333333336
450.0   90.0   33.333333333333336
500.0   90.0   33.333333333333336
450.0   90.0   16.666666666666668
450.0   60.0   33.333333333333336
500.0   90.0   33.333333333333336
500.0   60.0   33.333333333333336
500.0   60.0   16.666666666666668
450.0   60.0   33.333333333333336
500.0   90.0   33.333333333333336
500.0   60.0   16.666666666666668
450.0   90.0   16.666666666666668
450.0   60.0   33.333333333333336
500.0   60.0   33.333333333333336
450.0   90.0   33.333333333333336
450.0   60.0   50.0
500.0   60.0   33.333333333333336
500.0   90.0   33.333333333333336
450.0   90.0   33.333333333333336
500.0   90.0   50.0
450.0   60.0   50.0
450.0   90.0   50.0
500.0   90.0   50.0
450.0   90.0   33.333333333333336
450.0   60.0   50.0
500.0   90.0   50.0
500.0   60.0   50.0
500.0   60.0   33.333333333333336
450.0   60.0   50.0
500.0   90.0   50.0
500.0   60.0   33.333333333333336
450.0   90.0   33.333333333333336
450.0   90.0   0.0
500.0   90.0   0.0
450.0   120.0   0.0
450.0   90.0   16.666666666666668
500.0   90.0   0.0
500.0   120.0   0.0
450.0   120.0   0.0
500.0   120.0   16.666666666666668
450.0   90.0   16.666666666666668
450.0   120.0   16.666666666666668
500.0   120.0   16.666666666666668
450.0   120.0   0.0
450.0   90.0   16.666666666666668
500.0   120.0   16.666666666666668
500.0   90.0   16.666666666666668
500.0   90.0   0.0
450.0   90.0   16.666666666666668
500.0   120.0   16.666666666666668
500.0   90.0   0.0
450.0   120.0   0.0
450.0   90.0   16.666666666666668
500.0   90.0   16.666666666666668
450.0   120.0   16.666666666666668
450.0   90.0   33.333333333333336
500.0   90.0   16.666666666666668
500.0   120.0   16.666666666666668
450.0   120.0   16.666666666666668
500.0   120.0   33.333333333333336
450.0   90.0   33.333333333333336
450.0   120.0   33.333333333333336
500.0   120.0   33.333333333333336
450.0   120.0   16.666666666666668
450.0   90.0   33.333333333333336
500.0   120.0   33.333333333333336
500.0   90.0   33.333333333333336
500.0   90.0   16.666666666666668
450.0   90.0   33.333333333333336
500.0   120.0   33.333333333333336
500.0   90.0   16.666666666666668
450.0   120.0   16.666666666666668
450.0   90.0   33.333333333333336
500.0   90.0   33.333333333333336
450.0   120.0   33.333333333333336
450.0   90.0   50.0
500.0   90.0   33.333333333333336
500.0   120.0   33.333333333333336
450.0   120.0   33.333333333333336
500.0   120.0   50.0
450.0   90.0   50.0
450.0   120.0   50.0
500.0   120.0   50.0
450.0   120.0   33.333333333333336
450.0   90.0   50.0
500.0   120.0   50.0
500.0   90.0   50.0
500.0   90.0   33.333333333333336
450.0   90.0   50.0
500.0   120.0   50.0
500.0   90.0   33.333333333333336
450.0   120.0   33.333333333333336
450.0   120.0   0.0
500.0   120.0   0.0
450.0   150.0   0.0
450.0   120.0   16.666666666666668
500.0   120.0   0.0
500.0   150.0   0.0
450.0   150.0   0.0
500.0   150.0   16.666666666666668
450.0   120.0   16.666666666666668
450.0   150.0   16.666666666666668
500.0   150.0   16.666666666666668
450.0   150.0   0.0
450.0   120.0   16.666666666666668
500.0   150.0   16.666666666666668
500.0   120.0   16.666666666666668
500.0   120.0   0.0
450.0   120.0   16.666666666666668
500.0   150.0   16.666666666666668
500.0   120.0   0.0
450.0   150.0   0.0
450.0   120.0   16.666666666666668
500.0   120.0   16.666666666666668
450.0   150.0   16.666666666666668
450.0   120.0   33.333333333333336
500.0   120.0   16.666666666666668
500.0   150.0   16.666666666666668
450.0   150.0   16.666666666666668
500.0   150.0   33.333333333333336
450.0   120.0   33.333333333333336
450.0   150.0   33.333333333333336
500.0   150.0   33.333333333333336
450.0   150.0   16.666666666666668
450.0   120.0   33.333333333333336
500.0   150.0   33.333333333333336
500.0   120.0   33.333333333333336
500.0   120.0   16.666666666666668
450.0   120.0   33.333333333333336
500.0   150.0   33.333333333333336
500.0   120.0   16.666666666666668
450.0   150.0   16.666666666666668
450.0   120.0   33.333333333333336
500.0   120.0   33.333333333333336
450.0   150.0   33.333333333333336
450.0   120.0   50.0
500.0   120.0   33.333333333333336
500.0   150.0   33.333333333333336
450.0   150.0   33.333333333333336
500.0   150.0   50.0
450.0   120.0   50.0
450.0   150.0   50.0
500.0   150.0   50.0
450.0   150.0   33.333333333333336
450.0   120.0   50.0
500.0   150.0   50.0
500.0   120.0   50.0
500.0   120.0   33.333333333333336
450.0   120.0   50.0
500.0   150.0   50.0
500.0   120.0   33.333333333333336
450.0   150.0   33.333333333333336
             </DataArray>   
          </Points>  
          <Cells>  
             <DataArray type="Int32" Name="connectivity" format="ascii">   
0   1   2   3
4   5   6   7
8   9   10   11
12   13   14   15
16   17   18   19
20   21   22   23
24   25   26   27
28   29   30   31
32   33   34   35
36   37   38   39
40   41   42   43
44   45   46   47
48   49   50   51
52   53   54   55
56   57   58   59
60   61   62   63
64   65   66   67
68   69   70   71
72   73   74   75
76   77   78   79
80   81   82   83
84   85   86   87
88   89   90   91
92   93   94   95
96   97   98   99
100   101   102   103
104   105   106   107
108   109   110   111
112   113   114   115
116   117   118   119
120   121   122   123
124   125   126   127
128   129   130   131
132   133   134   135
136   137   138   139
140   141   142   143
144   145   146   147
148   149   150   151
152   153   154   155
156   157   158   159
160   161   162   163
164   165   166   167
168   169   170   171
172   173   174   175
176   177   178   179
180   181   182   183
184   185   186   187
188   189   190   191
192   193   194   195
196   197   198   199
200   201   202   203
204   205   206   207
208   209   210   211
212   213   214   215
216   217   218   219
220   221   222   223
224   225   226   227
228   229   230   231
232   233   234   235
236   237   238   239
240   241   242   243
244   245   246   247
248   249   250   251
252   253   254   255
256   257   258   259
260   261   262   263
264   265   266   267
268   269   270   271
272   273   274   275
276   277   278   279
280   281   282   283
284   285   286   287
288   289   290   291
292   293   294   295
296   297   298   299
300   301   302   303
304   305   306   307
308   309   310   311
312   313   314   315
316   317   318   319
320   321   322   323
324   325   326   327
328   329   330   331
332   333   334   335
336   337   338   339
340   341   342   343
344   345   346   347
348   349   350   351
352   353   354   355
356   357   358   359
360   361   362   363
364   365   366   367
368   369   370   371
372   373   374   375
376   377   378   379
380   381   382   383
384   385   386   387
388   389   390   391
392   393   394   395
396   397   398   399
400   401   402   403
404   405   406   407
408   409   410   411
412   413   414   415
416   417   418   419
420   421   422   423
424   425   426   427
428   429   430   431
432   433   434   435
436   437   438   439
440   441   442   443
444   445   446   447
448   449   450   451
452   453   454   455
456   457   458   459
460   461   462   463
464   465   466   467
468   469   470   471
472   473   474   475
476   477   478   479
480   481   482   483
484   485   486   487
488   489   490   491
492   493   494   495
496   497   498   499
500   501   502   503
504   505   506   507
508   509   510   511
512   513   514   515
516   517   518   519
520   521   522   523
524   525   526   527
528   529   530   531
532   533   534   535
536   537   538   539
540   541   542   543
544   545   546   547
548   549   550   551
552   553   554   555
556   557   558   559
560   561   562   563
564   565   566   567
568   569   570   571
572   573   574   575
576   577   578   579
580   581   582   583
584   585   586   587
588   589   590   591
592   593   594   595
596   597   598   599
600   601   602   603
604   605   606   607
608   609   610   611
612   613   614   615
616   617   618   619
620   621   622   623
624   625   626   627
628   629   630   631
632   633   634   635
636   637   638   639
640   641   642   643
644   645   646   647
648   649   650   651
652   653   654   655
656   657   658   659
660   661   662   663
664   665   666   667
668   669   670   671
672   673   674   675
676   677   678   679
680   681   682   683
684   685   686   687
688   689   690   691
692   693   694   695
696   697   698   699
700   701   702   703
704   705   706   707
708   709   710   711
712   713   714   715
716   717   718   719
720   721   722   723
724   725   726   727
728   729   730   731
732   733   734   735
736   737   738   739
740   741   742   743
744   745   746   747
748   749   750   751
752   753   754   755
756   757   758   759
760   761   762   763
764   765   766   767
768   769   770   771
772   773   774   775
776   777   778   779
780   781   782   783
784   785   786   787
788   789   790   791
792   793   794   795
796   797   798   799
800   801   802   803
804   805   806   807
808   809   810   811
812   813   814   815
816   817   818   819
820   821   822   823
824   825   826   827
828   829   830   831
832   833   834   835
836   837   838   839
840   841   842   843
844   845   846   847
848   849   850   851
852   853   854   855
856   857   858   859
860   861   862   863
864   865   866   867
868   869   870   871
872   873   874   875
876   877   878   879
880   881   882   883
884   885   886   887
888   889   890   891
892   893   894   895
896   897   898   899
900   901   902   903
904   905   906   907
908   909   910   911
912   913   914   915
916   917   918   919
920   921   922   923
924   925   926   927
928   929   930   931
932   933   934   935
936   937   938   939
940   941   942   943
944   945   946   947
948   949   950   951
952   953   954   955
956   957   958   959
960   961   962   963
964   965   966   967
968   969   970   971
972   973   974   975
976   977   978   979
980   981   982   983
984   985   986   987
988   989   990   991
992   993   994   995
996   997   998   999
1000   1001   1002   1003
1004   1005   1006   1007
1008   1009   1010   1011
1012   1013   1014   1015
1016   1017   1018   1019
1020   1021   1022   1023
1024   1025   1026   1027
1028   1029   1030   1031
1032   1033   1034   1035
1036   1037   1038   1039
1040   1041   1042   1043
1044   1045   1046   1047
1048   1049   1050   1051
1052   1053   1054   1055
1056   1057   1058   1059
1060   1061   1062   1063
1064   1065   1066   1067
1068   1069   1070   1071
1072   1073   1074   1075
1076   1077   1078   1079
1080   1081   1082   1083
1084   1085   1086   1087
1088   1089   1090   1091
1092   1093   1094   1095
1096   1097   1098   1099
1100   1101   1102   1103
1104   1105   1106   1107
1108   1109   1110   1111
1112   1113   1114   1115
1116   1117   1118   1119
1120   1121   1122   1123
1124   1125   1126   1127
1128   1129   1130   1131
1132   1133   1134   1135
1136   1137   1138   1139
1140   1141   1142   1143
1144   1145   1146   1147
1148   1149   1150   1151
1152   1153   1154   1155
1156   1157   1158   1159
1160   1161   1162   1163
1164   1165   1166   1167
1168   1169   1170   1171
1172   1173   1174   1175
1176   1177   1178   1179
1180   1181   1182   1183
1184   1185   1186   1187
1188   1189   1190   1191
1192   1193   1194   1195
1196   1197   1198   1199
1200   1201   1202   1203
1204   1205   1206   1207
1208   1209   1210   1211
1212   1213   1214   1215
1216   1217   1218   1219
1220   1221   1222   1223
1224   1225   1226   1227
1228   1229   1230   1231
1232   1233   1234   1235
1236   1237   1238   1239
1240   1241   1242   1243
1244   1245   1246   1247
1248   1249   1250   1251
1252   1253   1254   1255
1256   1257   1258   1259
1260   1261   1262   1263
1264   1265   1266   1267
1268   1269   1270   1271
1272   1273   1274   1275
1276   1277   1278   1279
1280   1281   1282   1283
1284   1285   1286   1287
1288   1289   1290   1291
1292   1293   1294   1295
1296   1297   1298   1299
1300   1301   1302   1303
1304   1305   1306   1307
1308   1309   1310   1311
1312   1313   1314   1315
1316   1317   1318   1319
1320   1321   1322   1323
1324   1325   1326   1327
1328   1329   1330   1331
1332   1333   1334   1335
1336   1337   1338   1339
1340   1341   1342   1343
1344   1345   1346   1347
1348   1349   1350   1351
1352   1353   1354   1355
1356   1357   1358   1359
1360   1361   1362   1363
1364   1365   1366   1367
1368   1369   1370   1371
1372   1373   1374   1375
1376   1377   1378   1379
1380   1381   1382   1383
1384   1385   1386   1387
1388   1389   1390   1391
1392   1393   1394   1395
1396   1397   1398   1399
1400   1401   1402   1403
1404   1405   1406   1407
1408   1409   1410   1411
1412   1413   1414   1415
1416   1417   1418   1419
1420   1421   1422   1423
1424   1425   1426   1427
1428   1429   1430   1431
1432   1433   1434   1435
1436   1437   1438   1439
1440   1441   1442   1443
1444   1445   1446   1447
1448   1449   1450   1451
1452   1453   1454   1455
1456   1457   1458   1459
1460   1461   1462   1463
1464   1465   1466   1467
1468   1469   1470   1471
1472   1473   1474   1475
1476   1477   1478   1479
1480   1481   1482   1483
1484   1485   1486   1487
1488   1489   1490   1491
1492   1493   1494   1495
1496   1497   1498   1499
1500   1501   1502   1503
1504   1505   1506   1507
1508   1509   1510   1511
1512   1513   1514   1515
1516   1517   1518   1519
1520   1521   1522   1523
1524   1525   1526   1527
1528   1529   1530   1531
1532   1533   1534   1535
1536   1537   1538   1539
1540   1541   1542   1543
1544   1545   1546   1547
1548   1549   1550   1551
1552   1553   1554   1555
1556   1557   1558   1559
1560   1561   1562   1563
1564   1565   1566   1567
1568   1569   1570   1571
1572   1573   1574   1575
1576   1577   1578   1579
1580   1581   1582   1583
1584   1585   1586   1587
1588   1589   1590   1591
1592   1593   1594   1595
1596   1597   1598   1599
1600   1601   1602   1603
1604   1605   1606   1607
1608   1609   1610   1611
1612   1613   1614   1615
1616   1617   1618   1619
1620   1621   1622   1623
1624   1625   1626   1627
1628   1629   1630   1631
1632   1633   1634   1635
1636   1637   1638   1639
1640   1641   1642   1643
1644   1645   1646   1647
1648   1649   1650   1651
1652   1653   1654   1655
1656   1657   1658   1659
1660   1661   1662   1663
1664   1665   1666   1667
1668   1669   1670   1671
1672   1673   1674   1675
1676   1677   1678   1679
1680   1681   1682   1683
1684   1685   1686   1687
1688   1689   1690   1691
1692   1693   1694   1695
1696   1697   1698   1699
1700   1701   1702   1703
1704   1705   1706   1707
1708   1709   1710   1711
1712   1713   1714   1715
1716   1717   1718   1719
1720   1721   1722   1723
1724   1725   1726   1727
1728   1729   1730   1731
1732   1733   1734   1735
1736   1737   1738   1739
1740   1741   1742   1743
1744   1745   1746   1747
1748   1749   1750   1751
1752   1753   1754   1755
1756   1757   1758   1759
1760   1761   1762   1763
1764   1765   1766   1767
1768   1769   1770   1771
1772   1773   1774   1775
1776   1777   1778   1779
1780   1781   1782   1783
1784   1785   1786   1787
1788   1789   1790   1791
1792   1793   1794   1795
1796   1797   1798   1799
1800   1801   1802   1803
1804   1805   1806   1807
1808   1809   1810   1811
1812   1813   1814   1815
1816   1817   1818   1819
1820   1821   1822   1823
1824   1825   1826   1827
1828   1829   1830   1831
1832   1833   1834   1835
1836   1837   1838   1839
1840   1841   1842   1843
1844   1845   1846   1847
1848   1849   1850   1851
1852   1853   1854   1855
1856   1857   1858   1859
1860   1861   1862   1863
1864   1865   1866   1867
1868   1869   1870   1871
1872   1873   1874   1875
1876   1877   1878   1879
1880   1881   1882   1883
1884   1885   1886   1887
1888   1889   1890   1891
1892   1893   1894   1895
1896   1897   1898   1899
1900   1901   1902   1903
1904   1905   1906   1907
1908   1909   1910   1911
1912   1913   1914   1915
1916   1917   1918   1919
1920   1921   1922   1923
1924   1925   1926   1927
1928   1929   1930   1931
1932   1933   1934   1935
1936   1937   1938   1939
1940   1941   1942   1943
1944   1945   1946   1947
1948   1949   1950   1951
1952   1953   1954   1955
1956   1957   1958   1959
1960   1961   1962   1963
1964   1965   1966   1967
1968   1969   1970   1971
1972   1973   1974   1975
1976   1977   1978   1979
1980   1981   1982   1983
1984   1985   1986   1987
1988   1989   1990   1991
1992   1993   1994   1995
1996   1997   1998   1999
2000   2001   2002   2003
2004   2005   2006   2007
2008   2009   2010   2011
2012   2013   2014   2015
2016   2017   2018   2019
2020   2021   2022   2023
2024   2025   2026   2027
2028   2029   2030   2031
2032   2033   2034   2035
2036   2037   2038   2039
2040   2041   2042   2043
2044   2045   2046   2047
2048   2049   2050   2051
2052   2053   2054   2055
2056   2057   2058   2059
2060   2061   2062   2063
2064   2065   2066   2067
2068   2069   2070   2071
2072   2073   2074   2075
2076   2077   2078   2079
2080   2081   2082   2083
2084   2085   2086   2087
2088   2089   2090   2091
2092   2093   2094   2095
2096   2097   2098   2099
2100   2101   2102   2103
2104   2105   2106   2107
2108   2109   2110   2111
2112   2113   2114   2115
2116   2117   2118   2119
2120   2121   2122   2123
2124   2125   2126   2127
2128   2129   2130   2131
2132   2133   2134   2135
2136   2137   2138   2139
2140   2141   2142   2143
2144   2145   2146   2147
2148   2149   2150   2151
2152   2153   2154   2155
2156   2157   2158   2159
2160   2161   2162   2163
2164   2165   2166   2167
2168   2169   2170   2171
2172   2173   2174   2175
2176   2177   2178   2179
2180   2181   2182   2183
2184   2185   2186   2187
2188   2189   2190   2191
2192   2193   2194   2195
2196   2197   2198   2199
2200   2201   2202   2203
2204   2205   2206   2207
2208   2209   2210   2211
2212   2213   2214   2215
2216   2217   2218   2219
2220   2221   2222   2223
2224   2225   2226   2227
2228   2229   2230   2231
2232   2233   2234   2235
2236   2237   2238   2239
2240   2241   2242   2243
2244   2245   2246   2247
2248   2249   2250   2251
2252   2253   2254   2255
2256   2257   2258   2259
2260   2261   2262   2263
2264   2265   2266   2267
2268   2269   2270   2271
2272   2273   2274   2275
2276   2277   2278   2279
2280   2281   2282   2283
2284   2285   2286   2287
2288   2289   2290   2291
2292   2293   2294   2295
2296   2297   2298   2299
2300   2301   2302   2303
2304   2305   2306   2307
2308   2309   2310   2311
2312   2313   2314   2315
2316   2317   2318   2319
2320   2321   2322   2323
2324   2325   2326   2327
2328   2329   2330   2331
2332   2333   2334   2335
2336   2337   2338   2339
2340   2341   2342   2343
2344   2345   2346   2347
2348   2349   2350   2351
2352   2353   2354   2355
2356   2357   2358   2359
2360   2361   2362   2363
2364   2365   2366   2367
2368   2369   2370   2371
2372   2373   2374   2375
2376   2377   2378   2379
2380   2381   2382   2383
2384   2385   2386   2387
2388   2389   2390   2391
2392   2393   2394   2395
2396   2397   2398   2399
2400   2401   2402   2403
2404   2405   2406   2407
2408   2409   2410   2411
2412   2413   2414   2415
2416   2417   2418   2419
2420   2421   2422   2423
2424   2425   2426   2427
2428   2429   2430   2431
2432   2433   2434   2435
2436   2437   2438   2439
2440   2441   2442   2443
2444   2445   2446   2447
2448   2449   2450   2451
2452   2453   2454   2455
2456   2457   2458   2459
2460   2461   2462   2463
2464   2465   2466   2467
2468   2469   2470   2471
2472   2473   2474   2475
2476   2477   2478   2479
2480   2481   2482   2483
2484   2485   2486   2487
2488   2489   2490   2491
2492   2493   2494   2495
2496   2497   2498   2499
2500   2501   2502   2503
2504   2505   2506   2507
2508   2509   2510   2511
2512   2513   2514   2515
2516   2517   2518   2519
2520   2521   2522   2523
2524   2525   2526   2527
2528   2529   2530   2531
2532   2533   2534   2535
2536   2537   2538   2539
2540   2541   2542   2543
2544   2545   2546   2547
2548   2549   2550   2551
2552   2553   2554   2555
2556   2557   2558   2559
2560   2561   2562   2563
2564   2565   2566   2567
2568   2569   2570   2571
2572   2573   2574   2575
2576   2577   2578   2579
2580   2581   2582   2583
2584   2585   2586   2587
2588   2589   2590   2591
2592   2593   2594   2595
2596   2597   2598   2599
2600   2601   2602   2603
2604   2605   2606   2607
2608   2609   2610   2611
2612   2613   2614   2615
2616   2617   2618   2619
2620   2621   2622   2623
2624   2625   2626   2627
2628   2629   2630   2631
2632   2633   2634   2635
2636   2637   2638   2639
2640   2641   2642   2643
2644   2645   2646   2647
2648   2649   2650   2651
2652   2653   2654   2655
2656   2657   2658   2659
2660   2661   2662   2663
2664   2665   2666   2667
2668   2669   2670   2671
2672   2673   2674   2675
2676   2677   2678   2679
2680   2681   2682   2683
2684   2685   2686   2687
2688   2689   2690   2691
2692   2693   2694   2695
2696   2697   2698   2699
2700   2701   2702   2703
2704   2705   2706   2707
2708   2709   2710   2711
2712   2713   2714   2715
2716   2717   2718   2719
2720   2721   2722   2723
2724   2725   2726   2727
2728   2729   2730   2731
2732   2733   2734   2735
2736   2737   2738   2739
2740   2741   2742   2743
2744   2745   2746   2747
2748   2749   2750   2751
2752   2753   2754   2755
2756   2757   2758   2759
2760   2761   2762   2763
2764   2765   2766   2767
2768   2769   2770   2771
2772   2773   2774   2775
2776   2777   2778   2779
2780   2781   2782   2783
2784   2785   2786   2787
2788   2789   2790   2791
2792   2793   2794   2795
2796   2797   2798   2799
2800   2801   2802   2803
2804   2805   2806   2807
2808   2809   2810   2811
2812   2813   2814   2815
2816   2817   2818   2819
2820   2821   2822   2823
2824   2825   2826   2827
2828   2829   2830   2831
2832   2833   2834   2835
2836   2837   2838   2839
2840   2841   2842   2843
2844   2845   2846   2847
2848   2849   2850   2851
2852   2853   2854   2855
2856   2857   2858   2859
2860   2861   2862   2863
2864   2865   2866   2867
2868   2869   2870   2871
2872   2873   2874   2875
2876   2877   2878   2879
2880   2881   2882   2883
2884   2885   2886   2887
2888   2889   2890   2891
2892   2893   2894   2895
2896   2897   2898   2899
2900   2901   2902   2903
2904   2905   2906   2907
2908   2909   2910   2911
2912   2913   2914   2915
2916   2917   2918   2919
2920   2921   2922   2923
2924   2925   2926   2927
2928   2929   2930   2931
2932   2933   2934   2935
2936   2937   2938   2939
2940   2941   2942   2943
2944   2945   2946   2947
2948   2949   2950   2951
2952   2953   2954   2955
2956   2957   2958   2959
2960   2961   2962   2963
2964   2965   2966   2967
2968   2969   2970   2971
2972   2973   2974   2975
2976   2977   2978   2979
2980   2981   2982   2983
2984   2985   2986   2987
2988   2989   2990   2991
2992   2993   2994   2995
2996   2997   2998   2999
3000   3001   3002   3003
3004   3005   3006   3007
3008   3009   3010   3011
3012   3013   3014   3015
3016   3017   3018   3019
3020   3021   3022   3023
3024   3025   3026   3027
3028   3029   3030   3031
3032   3033   3034   3035
3036   3037   3038   3039
3040   3041   3042   3043
3044   3045   3046   3047
3048   3049   3050   3051
3052   3053   3054   3055
3056   3057   3058   3059
3060   3061   3062   3063
3064   3065   3066   3067
3068   3069   3070   3071
3072   3073   3074   3075
3076   3077   3078   3079
3080   3081   3082   3083
3084   3085   3086   3087
3088   3089   3090   3091
3092   3093   3094   3095
3096   3097   3098   3099
3100   3101   3102   3103
3104   3105   3106   3107
3108   3109   3110   3111
3112   3113   3114   3115
3116   3117   3118   3119
3120   3121   3122   3123
3124   3125   3126   3127
3128   3129   3130   3131
3132   3133   3134   3135
3136   3137   3138   3139
3140   3141   3142   3143
3144   3145   3146   3147
3148   3149   3150   3151
3152   3153   3154   3155
3156   3157   3158   3159
3160   3161   3162   3163
3164   3165   3166   3167
3168   3169   3170   3171
3172   3173   3174   3175
3176   3177   3178   3179
3180   3181   3182   3183
3184   3185   3186   3187
3188   3189   3190   3191
3192   3193   3194   3195
3196   3197   3198   3199
3200   3201   3202   3203
3204   3205   3206   3207
3208   3209   3210   3211
3212   3213   3214   3215
3216   3217   3218   3219
3220   3221   3222   3223
3224   3225   3226   3227
3228   3229   3230   3231
3232   3233   3234   3235
3236   3237   3238   3239
3240   3241   3242   3243
3244   3245   3246   3247
3248   3249   3250   3251
3252   3253   3254   3255
3256   3257   3258   3259
3260   3261   3262   3263
3264   3265   3266   3267
3268   3269   3270   3271
3272   3273   3274   3275
3276   3277   3278   3279
3280   3281   3282   3283
3284   3285   3286   3287
3288   3289   3290   3291
3292   3293   3294   3295
3296   3297   3298   3299
3300   3301   3302   3303
3304   3305   3306   3307
3308   3309   3310   3311
3312   3313   3314   3315
3316   3317   3318   3319
3320   3321   3322   3323
3324   3325   3326   3327
3328   3329   3330   3331
3332   3333   3334   3335
3336   3337   3338   3339
3340   3341   3342   3343
3344   3345   3346   3347
3348   3349   3350   3351
3352   3353   3354   3355
3356   3357   3358   3359
3360   3361   3362   3363
3364   3365   3366   3367
3368   3369   3370   3371
3372   3373   3374   3375
3376   3377   3378   3379
3380   3381   3382   3383
3384   3385   3386   3387
3388   3389   3390   3391
3392   3393   3394   3395
3396   3397   3398   3399
3400   3401   3402   3403
3404   3405   3406   3407
3408   3409   3410   3411
3412   3413   3414   3415
3416   3417   3418   3419
3420   3421   3422   3423
3424   3425   3426   3427
3428   3429   3430   3431
3432   3433   3434   3435
3436   3437   3438   3439
3440   3441   3442   3443
3444   3445   3446   3447
3448   3449   3450   3451
3452   3453   3454   3455
3456   3457   3458   3459
3460   3461   3462   3463
3464   3465   3466   3467
3468   3469   3470   3471
3472   3473   3474   3475
3476   3477   3478   3479
3480   3481   3482   3483
3484   3485   3486   3487
3488   3489   3490   3491
3492   3493   3494   3495
3496   3497   3498   3499
3500   3501   3502   3503
3504   3505   3506   3507
3508   3509   3510   3511
3512   3513   3514   3515
3516   3517   3518   3519
3520   3521   3522   3523
3524   3525   3526   3527
3528   3529   3530   3531
3532   3533   3534   3535
3536   3537   3538   3539
3540   3541   3542   3543
3544   3545   3546   3547
3548   3549   3550   3551
3552   3553   3554   3555
3556   3557   3558   3559
3560   3561   3562   3563
3564   3565   3566   3567
3568   3569   3570   3571
3572   3573   3574   3575
3576   3577   3578   3579
3580   3581   3582   3583
3584   3585   3586   3587
3588   3589   3590   3591
3592   3593   3594   3595
3596   3597   3598   3599
3600   3601   3602   3603
3604   3605   3606   3607
3608   3609   3610   3611
3612   3613   3614   3615
3616   3617   3618   3619
3620   3621   3622   3623
3624   3625   3626   3627
3628   3629   3630   3631
3632   3633   3634   3635
3636   3637   3638   3639
3640   3641   3642   3643
3644   3645   3646   3647
3648   3649   3650   3651
3652   3653   3654   3655
3656   3657   3658   3659
3660   3661   3662   3663
3664   3665   3666   3667
3668   3669   3670   3671
3672   3673   3674   3675
3676   3677   3678   3679
3680   3681   3682   3683
3684   3685   3686   3687
3688   3689   3690   3691
3692   3693   3694   3695
3696   3697   3698   3699
3700   3701   3702   3703
3704   3705   3706   3707
3708   3709   3710   3711
3712   3713   3714   3715
3716   3717   3718   3719
3720   3721   3722   3723
3724   3725   3726   3727
3728   3729   3730   3731
3732   3733   3734   3735
3736   3737   3738   3739
3740   3741   3742   3743
3744   3745   3746   3747
3748   3749   3750   3751
3752   3753   3754   3755
3756   3757   3758   3759
3760   3761   3762   3763
3764   3765   3766   3767
3768   3769   3770   3771
3772   3773   3774   3775
3776   3777   3778   3779
3780   3781   3782   3783
3784   3785   3786   3787
3788   3789   3790   3791
3792   3793   3794   3795
3796   3797   3798   3799
3800   3801   3802   3803
3804   3805   3806   3807
3808   3809   3810   3811
3812   3813   3814   3815
3816   3817   3818   3819
3820   3821   3822   3823
3824   3825   3826   3827
3828   3829   3830   3831
3832   3833   3834   3835
3836   3837   3838   3839
3840   3841   3842   3843
3844   3845   3846   3847
3848   3849   3850   3851
3852   3853   3854   3855
3856   3857   3858   3859
3860   3861   3862   3863
3864   3865   3866   3867
3868   3869   3870   3871
3872   3873   3874   3875
3876   3877   3878   3879
3880   3881   3882   3883
3884   3885   3886   3887
3888   3889   3890   3891
3892   3893   3894   3895
3896   3897   3898   3899
3900   3901   3902   3903
3904   3905   3906   3907
3908   3909   3910   3911
3912   3913   3914   3915
3916   3917   3918   3919
3920   3921   3922   3923
3924   3925   3926   3927
3928   3929   3930   3931
3932   3933   3934   3935
3936   3937   3938   3939
3940   3941   3942   3943
3944   3945   3946   3947
3948   3949   3950   3951
3952   3953   3954   3955
3956   3957   3958   3959
3960   3961   3962   3963
3964   3965   3966   3967
3968   3969   3970   3971
3972   3973   3974   3975
3976   3977   3978   3979
3980   3981   3982   3983
3984   3985   3986   3987
3988   3989   3990   3991
3992   3993   3994   3995
3996   3997   3998   3999
4000   4001   4002   4003
4004   4005   4006   4007
4008   4009   4010   4011
4012   4013   4014   4015
4016   4017   4018   4019
4020   4021   4022   4023
4024   4025   4026   4027
4028   4029   4030   4031
4032   4033   4034   4035
4036   4037   4038   4039
4040   4041   4042   4043
4044   4045   4046   4047
4048   4049   4050   4051
4052   4053   4054   4055
4056   4057   4058   4059
4060   4061   4062   4063
4064   4065   4066   4067
4068   4069   4070   4071
4072   4073   4074   4075
4076   4077   4078   4079
4080   4081   4082   4083
4084   4085   4086   4087
4088   4089   4090   4091
4092   4093   4094   4095
4096   4097   4098   4099
4100   4101   4102   4103
4104   4105   4106   4107
4108   4109   4110   4111
4112   4113   4114   4115
4116   4117   4118   4119
4120   4121   4122   4123
4124   4125   4126   4127
4128   4129   4130   4131
4132   4133   4134   4135
4136   4137   4138   4139
4140   4141   4142   4143
4144   4145   4146   4147
4148   4149   4150   4151
4152   4153   4154   4155
4156   4157   4158   4159
4160   4161   4162   4163
4164   4165   4166   4167
4168   4169   4170   4171
4172   4173   4174   4175
4176   4177   4178   4179
4180   4181   4182   4183
4184   4185   4186   4187
4188   4189   4190   4191
4192   4193   4194   4195
4196   4197   4198   4199
4200   4201   4202   4203
4204   4205   4206   4207
4208   4209   4210   4211
4212   4213   4214   4215
4216   4217   4218   4219
4220   4221   4222   4223
4224   4225   4226   4227
4228   4229   4230   4231
4232   4233   4234   4235
4236   4237   4238   4239
4240   4241   4242   4243
4244   4245   4246   4247
4248   4249   4250   4251
4252   4253   4254   4255
4256   4257   4258   4259
4260   4261   4262   4263
4264   4265   4266   4267
4268   4269   4270   4271
4272   4273   4274   4275
4276   4277   4278   4279
4280   4281   4282   4283
4284   4285   4286   4287
4288   4289   4290   4291
4292   4293   4294   4295
4296   4297   4298   4299
4300   4301   4302   4303
4304   4305   4306   4307
4308   4309   4310   4311
4312   4313   4314   4315
4316   4317   4318   4319
4320   4321   4322   4323
4324   4325   4326   4327
4328   4329   4330   4331
4332   4333   4334   4335
4336   4337   4338   4339
4340   4341   4342   4343
4344   4345   4346   4347
4348   4349   4350   4351
4352   4353   4354   4355
4356   4357   4358   4359
4360   4361   4362   4363
4364   4365   4366   4367
4368   4369   4370   4371
4372   4373   4374   4375
4376   4377   4378   4379
4380   4381   4382   4383
4384   4385   4386   4387
4388   4389   4390   4391
4392   4393   4394   4395
4396   4397   4398   4399
4400   4401   4402   4403
4404   4405   4406   4407
4408   4409   4410   4411
4412   4413   4414   4415
4416   4417   4418   4419
4420   4421   4422   4423
4424   4425   4426   4427
4428   4429   4430   4431
4432   4433   4434   4435
4436   4437   4438   4439
4440   4441   4442   4443
4444   4445   4446   4447
4448   4449   4450   4451
4452   4453   4454   4455
4456   4457   4458   4459
4460   4461   4462   4463
4464   4465   4466   4467
4468   4469   4470   4471
4472   4473   4474   4475
4476   4477   4478   4479
4480   4481   4482   4483
4484   4485   4486   4487
4488   4489   4490   4491
4492   4493   4494   4495
4496   4497   4498   4499
4500   4501   4502   4503
4504   4505   4506   4507
4508   4509   4510   4511
4512   4513   4514   4515
4516   4517   4518   4519
4520   4521   4522   4523
4524   4525   4526   4527
4528   4529   4530   4531
4532   4533   4534   4535
4536   4537   4538   4539
4540   4541   4542   4543
4544   4545   4546   4547
4548   4549   4550   4551
4552   4553   4554   4555
4556   4557   4558   4559
4560   4561   4562   4563
4564   4565   4566   4567
4568   4569   4570   4571
4572   4573   4574   4575
4576   4577   4578   4579
4580   4581   4582   4583
4584   4585   4586   4587
4588   4589   4590   4591
4592   4593   4594   4595
4596   4597   4598   4599
4600   4601   4602   4603
4604   4605   4606   4607
4608   4609   4610   4611
4612   4613   4614   4615
4616   4617   4618   4619
4620   4621   4622   4623
4624   4625   4626   4627
4628   4629   4630   4631
4632   4633   4634   4635
4636   4637   4638   4639
4640   4641   4642   4643
4644   4645   4646   4647
4648   4649   4650   4651
4652   4653   4654   4655
4656   4657   4658   4659
4660   4661   4662   4663
4664   4665   4666   4667
4668   4669   4670   4671
4672   4673   4674   4675
4676   4677   4678   4679
4680   4681   4682   4683
4684   4685   4686   4687
4688   4689   4690   4691
4692   4693   4694   4695
4696   4697   4698   4699
4700   4701   4702   4703
4704   4705   4706   4707
4708   4709   4710   4711
4712   4713   4714   4715
4716   4717   4718   4719
4720   4721   4722   4723
4724   4725   4726   4727
4728   4729   4730   4731
4732   4733   4734   4735
4736   4737   4738   4739
4740   4741   4742   4743
4744   4745   4746   4747
4748   4749   4750   4751
4752   4753   4754   4755
4756   4757   4758   4759
4760   4761   4762   4763
4764   4765   4766   4767
4768   4769   4770   4771
4772   4773   4774   4775
4776   4777   4778   4779
4780   4781   4782   4783
4784   4785   4786   4787
4788   4789   4790   4791
4792   4793   4794   4795
4796   4797   4798   4799
4800   4801   4802   4803
4804   4805   4806   4807
4808   4809   4810   4811
4812   4813   4814   4815
4816   4817   4818   4819
4820   4821   4822   4823
4824   4825   4826   4827
4828   4829   4830   4831
4832   4833   4834   4835
4836   4837   4838   4839
4840   4841   4842   4843
4844   4845   4846   4847
4848   4849   4850   4851
4852   4853   4854   4855
4856   4857   4858   4859
4860   4861   4862   4863
4864   4865   4866   4867
4868   4869   4870   4871
4872   4873   4874   4875
4876   4877   4878   4879
4880   4881   4882   4883
4884   4885   4886   4887
4888   4889   4890   4891
4892   4893   4894   4895
4896   4897   4898   4899
4900   4901   4902   4903
4904   4905   4906   4907
4908   4909   4910   4911
4912   4913   4914   4915
4916   4917   4918   4919
4920   4921   4922   4923
4924   4925   4926   4927
4928   4929   4930   4931
4932   4933   4934   4935
4936   4937   4938   4939
4940   4941   4942   4943
4944   4945   4946   4947
4948   4949   4950   4951
4952   4953   4954   4955
4956   4957   4958   4959
4960   4961   4962   4963
4964   4965   4966   4967
4968   4969   4970   4971
4972   4973   4974   4975
4976   4977   4978   4979
4980   4981   4982   4983
4984   4985   4986   4987
4988   4989   4990   4991
4992   4993   4994   4995
4996   4997   4998   4999
5000   5001   5002   5003
5004   5005   5006   5007
5008   5009   5010   5011
5012   5013   5014   5015
5016   5017   5018   5019
5020   5021   5022   5023
5024   5025   5026   5027
5028   5029   5030   5031
5032   5033   5034   5035
5036   5037   5038   5039
5040   5041   5042   5043
5044   5045   5046   5047
5048   5049   5050   5051
5052   5053   5054   5055
5056   5057   5058   5059
5060   5061   5062   5063
5064   5065   5066   5067
5068   5069   5070   5071
5072   5073   5074   5075
5076   5077   5078   5079
5080   5081   5082   5083
5084   5085   5086   5087
5088   5089   5090   5091
5092   5093   5094   5095
5096   5097   5098   5099
5100   5101   5102   5103
5104   5105   5106   5107
5108   5109   5110   5111
5112   5113   5114   5115
5116   5117   5118   5119
5120   5121   5122   5123
5124   5125   5126   5127
5128   5129   5130   5131
5132   5133   5134   5135
5136   5137   5138   5139
5140   5141   5142   5143
5144   5145   5146   5147
5148   5149   5150   5151
5152   5153   5154   5155
5156   5157   5158   5159
5160   5161   5162   5163
5164   5165   5166   5167
5168   5169   5170   5171
5172   5173   5174   5175
5176   5177   5178   5179
5180   5181   5182   5183
5184   5185   5186   5187
5188   5189   5190   5191
5192   5193   5194   5195
5196   5197   5198   5199
5200   5201   5202   5203
5204   5205   5206   5207
5208   5209   5210   5211
5212   5213   5214   5215
5216   5217   5218   5219
5220   5221   5222   5223
5224   5225   5226   5227
5228   5229   5230   5231
5232   5233   5234   5235
5236   5237   5238   5239
5240   5241   5242   5243
5244   5245   5246   5247
5248   5249   5250   5251
5252   5253   5254   5255
5256   5257   5258   5259
5260   5261   5262   5263
5264   5265   5266   5267
5268   5269   5270   5271
5272   5273   5274   5275
5276   5277   5278   5279
5280   5281   5282   5283
5284   5285   5286   5287
5288   5289   5290   5291
5292   5293   5294   5295
5296   5297   5298   5299
5300   5301   5302   5303
5304   5305   5306   5307
5308   5309   5310   5311
5312   5313   5314   5315
5316   5317   5318   5319
5320   5321   5322   5323
5324   5325   5326   5327
5328   5329   5330   5331
5332   5333   5334   5335
5336   5337   5338   5339
5340   5341   5342   5343
5344   5345   5346   5347
5348   5349   5350   5351
5352   5353   5354   5355
5356   5357   5358   5359
5360   5361   5362   5363
5364   5365   5366   5367
5368   5369   5370   5371
5372   5373   5374   5375
5376   5377   5378   5379
5380   5381   5382   5383
5384   5385   5386   5387
5388   5389   5390   5391
5392   5393   5394   5395
5396   5397   5398   5399
5400   5401   5402   5403
5404   5405   5406   5407
5408   5409   5410   5411
5412   5413   5414   5415
5416   5417   5418   5419
5420   5421   5422   5423
5424   5425   5426   5427
5428   5429   5430   5431
5432   5433   5434   5435
5436   5437   5438   5439
5440   5441   5442   5443
5444   5445   5446   5447
5448   5449   5450   5451
5452   5453   5454   5455
5456   5457   5458   5459
5460   5461   5462   5463
5464   5465   5466   5467
5468   5469   5470   5471
5472   5473   5474   5475
5476   5477   5478   5479
5480   5481   5482   5483
5484   5485   5486   5487
5488   5489   5490   5491
5492   5493   5494   5495
5496   5497   5498   5499
5500   5501   5502   5503
5504   5505   5506   5507
5508   5509   5510   5511
5512   5513   5514   5515
5516   5517   5518   5519
5520   5521   5522   5523
5524   5525   5526   5527
5528   5529   5530   5531
5532   5533   5534   5535
5536   5537   5538   5539
5540   5541   5542   5543
5544   5545   5546   5547
5548   5549   5550   5551
5552   5553   5554   5555
5556   5557   5558   5559
5560   5561   5562   5563
5564   5565   5566   5567
5568   5569   5570   5571
5572   5573   5574   5575
5576   5577   5578   5579
5580   5581   5582   5583
5584   5585   5586   5587
5588   5589   5590   5591
5592   5593   5594   5595
5596   5597   5598   5599
5600   5601   5602   5603
5604   5605   5606   5607
5608   5609   5610   5611
5612   5613   5614   5615
5616   5617   5618   5619
5620   5621   5622   5623
5624   5625   5626   5627
5628   5629   5630   5631
5632   5633   5634   5635
5636   5637   5638   5639
5640   5641   5642   5643
5644   5645   5646   5647
5648   5649   5650   5651
5652   5653   5654   5655
5656   5657   5658   5659
5660   5661   5662   5663
5664   5665   5666   5667
5668   5669   5670   5671
5672   5673   5674   5675
5676   5677   5678   5679
5680   5681   5682   5683
5684   5685   5686   5687
5688   5689   5690   5691
5692   5693   5694   5695
5696   5697   5698   5699
5700   5701   5702   5703
5704   5705   5706   5707
5708   5709   5710   5711
5712   5713   5714   5715
5716   5717   5718   5719
5720   5721   5722   5723
5724   5725   5726   5727
5728   5729   5730   5731
5732   5733   5734   5735
5736   5737   5738   5739
5740   5741   5742   5743
5744   5745   5746   5747
5748   5749   5750   5751
5752   5753   5754   5755
5756   5757   5758   5759
5760   5761   5762   5763
5764   5765   5766   5767
5768   5769   5770   5771
5772   5773   5774   5775
5776   5777   5778   5779
5780   5781   5782   5783
5784   5785   5786   5787
5788   5789   5790   5791
5792   5793   5794   5795
5796   5797   5798   5799
5800   5801   5802   5803
5804   5805   5806   5807
5808   5809   5810   5811
5812   5813   5814   5815
5816   5817   5818   5819
5820   5821   5822   5823
5824   5825   5826   5827
5828   5829   5830   5831
5832   5833   5834   5835
5836   5837   5838   5839
5840   5841   5842   5843
5844   5845   5846   5847
5848   5849   5850   5851
5852   5853   5854   5855
5856   5857   5858   5859
5860   5861   5862   5863
5864   5865   5866   5867
5868   5869   5870   5871
5872   5873   5874   5875
5876   5877   5878   5879
5880   5881   5882   5883
5884   5885   5886   5887
5888   5889   5890   5891
5892   5893   5894   5895
5896   5897   5898   5899
5900   5901   5902   5903
5904   5905   5906   5907
5908   5909   5910   5911
5912   5913   5914   5915
5916   5917   5918   5919
5920   5921   5922   5923
5924   5925   5926   5927
5928   5929   5930   5931
5932   5933   5934   5935
5936   5937   5938   5939
5940   5941   5942   5943
5944   5945   5946   5947
5948   5949   5950   5951
5952   5953   5954   5955
5956   5957   5958   5959
5960   5961   5962   5963
5964   5965   5966   5967
5968   5969   5970   5971
5972   5973   5974   5975
5976   5977   5978   5979
5980   5981   5982   5983
5984   5985   5986   5987
5988   5989   5990   5991
5992   5993   5994   5995
5996   5997   5998   5999
              </DataArray>   
              <DataArray type="Int32" Name="offsets" format="ascii">   
4
8
12
16
20
24
28
32
36
40
44
48
52
56
60
64
68
72
76
80
84
88
92
96
100
104
108
112
116
120
124
128
132
136
140
144
148
152
156
160
164
168
172
176
180
184
188
192
196
200
204
208
212
216
220
224
228
232
236
240
244
248
252
256
260
264
268
272
276
280
284
288
292
296
300
304
308
312
316
320
324
328
332
336
340
344
348
352
356
360
364
368
372
376
380
384
388
392
396
400
404
408
412
416
420
424
428
432
436
440
444
448
452
456
460
464
468
472
476
480
484
488
492
496
500
504
508
512
516
520
524
528
532
536
540
544
548
552
556
560
564
568
572
576
580
584
588
592
596
600
604
608
612
616
620
624
628
632
636
640
644
648
652
656
660
664
668
672
676
680
684
688
692
696
700
704
708
712
716
720
724
728
732
736
740
744
748
752
756
760
764
768
772
776
780
784
788
792
796
800
804
808
812
816
820
824
828
832
836
840
844
848
852
856
860
864
868
872
876
880
884
888
892
896
900
904
908
912
916
920
924
928
932
936
940
944
948
952
956
960
964
968
972
976
980
984
988
992
996
1000
1004
1008
1012
1016
1020
1024
1028
1032
1036
1040
1044
1048
1052
1056
1060
1064
1068
1072
1076
1080
1084
1088
1092
1096
1100
1104
1108
1112
1116
1120
1124
1128
1132
1136
1140
1144
1148
1152
1156
1160
1164
1168
1172
1176
1180
1184
1188
1192
1196
1200
1204
1208
1212
1216
1220
1224
1228
1232
1236
1240
1244
1248
1252
1256
1260
1264
1268
1272
1276
1280
1284
1288
1292
1296
1300
1304
1308
1312
1316
1320
1324
1328
1332
1336
1340
1344
1348
1352
1356
1360
1364
1368
1372
1376
1380
1384
1388
1392
1396
1400
1404
1408
1412
1416
1420
1424
1428
1432
1436
1440
1444
1448
1452
1456
1460
1464
1468
1472
1476
1480
1484
1488
1492
1496
1500
1504
1508
1512
1516
1520
1524
1528
1532
1536
1540
1544
1548
1552
1556
1560
1564
1568
1572
1576
1580
1584
1588
1592
1596
1600
1604
1608
1612
1616
1620
1624
1628
1632
1636
1640
1644
1648
1652
1656
1660
1664
1668
1672
1676
1680
1684
1688
1692
1696
1700
1704
1708
1712
1716
1720
1724
1728
1732
1736
1740
1744
1748
1752
1756
1760
1764
1768
1772
1776
1780
1784
1788
1792
1796
1800
1804
1808
1812
1816
1820
1824
1828
1832
1836
1840
1844
1848
1852
1856
1860
1864
1868
1872
1876
1880
1884
1888
1892
1896
1900
1904
1908
1912
1916
1920
1924
1928
1932
1936
1940
1944
1948
1952
1956
1960
1964
1968
1972
1976
1980
1984
1988
1992
1996
2000
2004
2008
2012
2016
2020
2024
2028
2032
2036
2040
2044
2048
2052
2056
2060
2064
2068
2072
2076
2080
2084
2088
2092
2096
2100
2104
2108
2112
2116
2120
2124
2128
2132
2136
2140
2144
2148
2152
2156
2160
2164
2168
2172
2176
2180
2184
2188
2192
2196
2200
2204
2208
2212
2216
2220
2224
2228
2232
2236
2240
2244
2248
2252
2256
2260
2264
2268
2272
2276
2280
2284
2288
2292
2296
2300
2304
2308
2312
2316
2320
2324
2328
2332
2336
2340
2344
2348
2352
2356
2360
2364
2368
2372
2376
2380
2384
2388
2392
2396
2400
2404
2408
2412
2416
2420
2424
2428
2432
2436
2440
2444
2448
2452
2456
2460
2464
2468
2472
2476
2480
2484
2488
2492
2496
2500
2504
2508
2512
2516
2520
2524
2528
2532
2536
2540
2544
2548
2552
2556
2560
2564
2568
2572
2576
2580
2584
2588
2592
2596
2600
2604
2608
2612
2616
2620
2624
2628
2632
2636
2640
2644
2648
2652
2656
2660
2664
2668
2672
2676
2680
2684
2688
2692
2696
2700
2704
2708
2712
2716
2720
2724
2728
2732
2736
2740
2744
2748
2752
2756
2760
2764
2768
2772
2776
2780
2784
2788
2792
2796
2800
2804
2808
2812
2816
2820
2824
2828
2832
2836
2840
2844
2848
2852
2856
2860
2864
2868
2872
2876
2880
2884
2888
2892
2896
2900
2904
2908
2912
2916
2920
2924
2928
2932
2936
2940
2944
2948
2952
2956
2960
2964
2968
2972
2976
2980
2984
2988
2992
2996
3000
3004
3008
3012
3016
3020
3024
3028
3032
3036
3040
3044
3048
3052
3056
3060
3064
3068
3072
3076
3080
3084
3088
3092
3096
3100
3104
3108
3112
3116
3120
3124
3128
3132
3136
3140
3144
3148
3152
3156
3160
3164
3168
3172
3176
3180
3184
3188
3192
3196
3200
3204
3208
3212
3216
3220
3224
3228
3232
3236
3240
3244
3248
3252
3256
3260
3264
3268
3272
3276
3280
3284
3288
3292
3296
3300
3304
3308
3312
3316
3320
3324
3328
3332
3336
3340
3344
3348
3352
3356
3360
3364
3368
3372
3376
3380
3384
3388
3392
3396
3400
3404
3408
3412
3416
3420
3424
3428
3432
3436
3440
3444
3448
3452
3456
3460
3464
3468
3472
3476
3480
3484
3488
3492
3496
3500
3504
3508
3512
3516
3520
3524
3528
3532
3536
3540
3544
3548
3552
3556
3560
3564
3568
3572
3576
3580
3584
3588
3592
3596
3600
3604
3608
3612
3616
3620
3624
3628
3632
3636
3640
3644
3648
3652
3656
3660
3664
3668
3672
3676
3680
3684
3688
3692
3696
3700
3704
3708
3712
3716
3720
3724
3728
3732
3736
3740
3744
3748
3752
3756
3760
3764
3768
3772
3776
3780
3784
3788
3792
3796
3800
3804
3808
3812
3816
3820
3824
3828
3832
3836
3840
3844
3848
3852
3856
3860
3864
3868
3872
3876
3880
3884
3888
3892
3896
3900
3904
3908
3912
3916
3920
3924
3928
3932
3936
3940
3944
3948
3952
3956
3960
3964
3968
3972
3976
3980
3984
3988
3992
3996
4000
4004
4008
4012
4016
4020
4024
4028
4032
4036
4040
4044
4048
4052
4056
4060
4064
4068
4072
4076
4080
4084
4088
4092
4096
4100
4104
4108
4112
4116
4120
4124
4128
4132
4136
4140
4144
4148
4152
4156
4160
4164
4168
4172
4176
4180
4184
4188
4192
4196
4200
4204
4208
4212
4216
4220
4224
4228
4232
4236
4240
4244
4248
4252
4256
4260
4264
4268
4272
4276
4280
4284
4288
4292
4296
4300
4304
4308
4312
4316
4320
4324
4328
4332
4336
4340
4344
4348
4352
4356
4360
4364
4368
4372
4376
4380
4384
4388
4392
4396
4400
4404
4408
4412
4416
4420
4424
4428
4432
4436
4440
4444
4448
4452
4456
4460
4464
4468
4472
4476
4480
4484
4488
4492
4496
4500
4504
4508
4512
4516
4520
4524
4528
4532
4536
4540
4544
4548
4552
4556
4560
4564
4568
4572
4576
4580
4584
4588
4592
4596
4600
4604
4608
4612
4616
4620
4624
4628
4632
4636
4640
4644
4648
4652
4656
4660
4664
4668
4672
4676
4680
4684
4688
4692
4696
4700
4704
4708
4712
4716
4720
4724
4728
4732
4736
4740
4744
4748
4752
4756
4760
4764
4768
4772
4776
4780
4784
4788
4792
4796
4800
4804
4808
4812
4816
4820
4824
4828
4832
4836
4840
4844
4848
4852
4856
4860
4864
4868
4872
4876
4880
4884
4888
4892
4896
4900
4904
4908
4912
4916
4920
4924
4928
4932
4936
4940
4944
4948
4952
4956
4960
4964
4968
4972
4976
4980
4984
4988
4992
4996
5000
5004
5008
5012
5016
5020
5024
5028
5032
5036
5040
5044
5048
5052
5056
5060
5064
5068
5072
5076
5080
5084
5088
5092
5096
5100
5104
5108
5112
5116
5120
5124
5128
5132
5136
5140
5144
5148
5152
5156
5160
5164
5168
5172
5176
5180
5184
5188
5192
5196
5200
5204
5208
5212
5216
5220
5224
5228
5232
5236
5240
5244
5248
5252
5256
5260
5264
5268
5272
5276
5280
5284
5288
5292
5296
5300
5304
5308
5312
5316
5320
5324
5328
5332
5336
5340
5344
5348
5352
5356
5360
5364
5368
5372
5376
5380
5384
5388
5392
5396
5400
5404
5408
5412
5416
5420
5424
5428
5432
5436
5440
5444
5448
5452
5456
5460
5464
5468
5472
5476
5480
5484
5488
5492
5496
5500
5504
5508
5512
5516
5520
5524
5528
5532
5536
5540
5544
5548
5552
5556
5560
5564
5568
5572
5576
5580
5584
5588
5592
5596
5600
5604
5608
5612
5616
5620
5624
5628
5632
5636
5640
5644
5648
5652
5656
5660
5664
5668
5672
5676
5680
5684
5688
5692
5696
5700
5704
5708
5712
5716
5720
5724
5728
5732
5736
5740
5744
5748
5752
5756
5760
5764
5768
5772
5776
5780
5784
5788
5792
5796
5800
5804
5808
5812
5816
5820
5824
5828
5832
5836
5840
5844
5848
5852
5856
5860
5864
5868
5872
5876
5880
5884
5888
5892
5896
5900
5904
5908
5912
5916
5920
5924
5928
5932
5936
5940
5944
5948
5952
5956
5960
5964
5968
5972
5976
5980
5984
5988
5992
5996
6000
              </DataArray>   
              <DataArray type="UInt8" Name="types" format="ascii">   
10
10
10
10
10
10
10
10
10
10
10
10
10
10
10
10
10
10
10
10
10
10
10
10
10
10
10
10
10
10
10
10
10
10
10
10
10
10
10
10
10
10
10
10
10
10
10
10
10
10
10
10
10
10
10
10
10
10
10
10
10
10
10
10
10
10
10
10
10
10
10
10
10
10
10
10
10
10
10
10
10
10
10
10
10
10
10
10
10
10
10
10
10
10
10
10
10
10
10
10
10
10
10
10
10
10
10
10
10
10
10
10
10
10
10
10
10
10
10
10
10
10
10
10
10
10
10
10
10
10
10
10
10
10
10
10
10
10
10
10
10
10
10
10
10
10
10
10
10
10
10
10
10
10
10
10
10
10
10
10
10
10
10
10
10
10
10
10
10
10
10
10
10
10
10
10
10
10
10
10
10
10
10
10
10
10
10
10
10
10
10
10
10
10
10
10
10
10
10
10
10
10
10
10
10
10
10
10
10
10
10
10
10
10
10
10
10
10
10
10
10
10
10
10
10
10
10
10
10
10
10
10
10
10
10
10
10
10
10
10
10
10
10
10
10
10
10
10
10
10
10
10
10
10
10
10
10
10
10
10
10
10
10
10
10
10
10
10
10
10
10
10
10
10
10
10
10
10
10
10
10
10
10
10
10
10
10
10
10
10
10
10
10
10
10
10
10
10
10
10
10
10
10
10
10
10
10
10
10
10
10
10
10
10
10
10
10
10
10
10
10
10
10
10
10
10
10
10
10
10
10
10
10
10
10
10
10
10
10
10
10
10
10
10
10
10
10
10
10
10
10
10
10
10
10
10
10
10
10
10
10
10
10
10
10
10
10
10
10
10
10
10
10
10
10
10
10
10
10
10
10
10
10
10
10
10
10
10
10
10
10
10
10
10
10
10
10
10
10
10
10
10
10
10
10
10
10
10
10
10
10
10
10
10
10
10
10
10
10
10
10
10
10
10
10
10
10
10
10
10
10
10
10
10
10
10
10
10
10
10
10
10
10
10
10
10
10
10
10
10
10
10
10
10
10
10
10
10
10
10
10
10
10
10
10
10
10
10
10
10
10
10
10
10
10
10
10
10
10
10
10
10
10
10
10
10
10
10
10
10
10
10
10
10
10
10
10
10
10
10
10
10
10
10
10
10
10
10
10
10
10
10
10
10
10
10
10
10
10
10
10
10
10
10
10
10
10
10
10
10
10
10
10
10
10
10
10
10
10
10
10
10
10
10
10
10
10
10
10
10
10
10
10
10
10
10
10
10
10
10
10
10
10
10
10
10
10
10
10
10
10
10
10
10
10
10
10
10
10
10
10
10
10
10
10
10
10
10
10
10
10
10
10
10
10
10
10
10
10
10
10
10
10
10
10
10
10
10
10
10
10
10
10
10
10
10
10
10
10
10
10
10
10
10
10
10
10
10
10
10
10
10
10
10
10
10
10
10
10
10
10
10
10
10
10
10
10
10
10
10
10
10
10
10
10
10
10
10
10
10
10
10
10
10
10
10
10
10
10
10
10
10
10
10
10
10
10
10
10
10
10
10
10
10
10
10
10
10
10
10
10
10
10
10
10
10
10
10
10
10
10
10
10
10
10
10
10
10
10
10
10
10
10
10
10
10
10
10
10
10
10
10
10
10
10
10
10
10
10
10
10
10
10
10
10
10
10
10
10
10
10
10
10
10
10
10
10
10
10
10
10
10
10
10
10
10
10
10
10
10
10
10
10
10
10
10
10
10
10
10
10
10
10
10
10
10
10
10
10
10
10
10
10
10
10
10
10
10
10
10
10
10
10
10
10
10
10
10
10
10
10
10
10
10
10
10
10
10
10
10
10
10
10
10
10
10
10
10
10
10
10
10
10
10
10
10
10
10
10
10
10
10
10
10
10
10
10
10
10
10
10
10
10
10
10
10
10
10
10
10
10
10
10
10
10
10
10
10
10
10
10
10
10
10
10
10
10
10
10
10
10
10
10
10
10
10
10
10
10
10
10
10
10
10
10
10
10
10
10
10
10
10
10
10
10
10
10
10
10
10
10
10
10
10
10
10
10
10
10
10
10
10
10
10
10
10
10
10
10
10
10
10
10
10
10
10
10
10
10
10
10
10
10
10
10
10
10
10
10
10
10
10
10
10
10
10
10
10
10
10
10
10
10
10
10
10
10
10
10
10
10
10
10
10
10
10
10
10
10
10
10
10
10
10
10
10
10
10
10
10
10
10
10
10
10
10
10
10
10
10
10
10
10
10
10
10
10
10
10
10
10
10
10
10
10
10
10
10
10
10
10
10
10
10
10
10
10
10
10
10
10
10
10
10
10
10
10
10
10
10
10
10
10
10
10
10
10
10
10
10
10
10
10
10
10
10
10
10
10
10
10
10
10
10
10
10
10
10
10
10
10
10
10
10
10
10
10
10
10
10
10
10
10
10
10
10
10
10
10
10
10
10
10
10
10
10
10
10
10
10
10
10
10
10
10
10
10
10
10
10
10
10
10
10
10
10
10
10
10
10
10
10
10
10
10
10
10
10
10
10
10
10
10
10
10
10
10
10
10
10
10
10
10
10
10
10
10
10
10
10
10
10
10
10
10
10
10
10
10
10
10
10
10
10
10
10
10
10
10
10
10
10
10
10
10
10
10
10
10
10
10
10
10
10
10
10
10
10
10
10
10
10
10
10
10
10
10
10
10
10
10
10
10
10
10
10
10
10
10
10
10
10
10
10
10
10
10
10
10
10
10
10
10
10
10
10
10
10
10
10
10
10
10
10
10
10
10
10
10
10
10
10
10
10
10
10
10
10
10
10
10
10
10
10
10
10
10
10
10
10
10
10
10
10
10
10
10
10
10
10
10
10
10
10
10
10
10
10
10
10
10
10
10
10
10
10
10
10
10
10
10
10
10
10
10
10
10
10
10
10
10
10
10
10
10
10
10
10
10
10
10
10
10
10
10
10
10
10
10
10
10
10
10
10
10
10
10
10
10
10
10
10
10
10
10
10
10
10
10
10
10
10
10
10
10
10
10
10
10
10
10
10
10
10
10
10
10
10
10
10
10
10
10
10
10
10
10
10
10
10
10
10
10
10
10
10
10
10
10
10
10
10
10
10
10
10
10
10
10
10
10
10
10
10
10
10
10
10
10
10
10
10
10
10
10
10
10
10
10
10
10
10
10
10
10
10
10
10
10
10
10
10
10
10
10
10
10
10
10
10
10
10
10
10
10
10
10
10
10
10
10
10
10
10
10
10
10
10
10
10
10
10
10
10
10
10
10
10
10
10
10
10
10
10
10
10
10
10
10
10
10
10
10
10
10
10
10
10
10
10
10
10
10
10
10
10
10
10
10
10
10
10
10
10
10
10
10
10
10
10
10
10
10
10
10
10
10
10
10
10
              </DataArray>   
          </Cells>  
          <PointData>  
             <DataArray type="Float64" NumberOfComponents="3" Name="Strains" format="ascii">   
-3.804594846542185e-05   0.0   -2.512614045984622e-05
-3.804594846542185e-05   0.0   -2.512614045984622e-05
-3.804594846542185e-05   0.0   -2.512614045984622e-05
-3.804594846542185e-05   0.0   -2.512614045984622e-05
-2.41938915931929e-05   4.193993296948787e-06   4.770169720379132e-07
-2.41938915931929e-05   4.193993296948787e-06   4.770169720379132e-07
-2.41938915931929e-05   4.193993296948787e-06   4.770169720379132e-07
-2.41938915931929e-05   4.193993296948787e-06   4.770169720379132e-07
-2.3704772803599355e-05   0.0   -2.3734733555814873e-05
-2.3704772803599355e-05   0.0   -2.3734733555814873e-05
-2.3704772803599355e-05   0.0   -2.3734733555814873e-05
-2.3704772803599355e-05   0.0   -2.3734733555814873e-05
-3.980372581660243e-05   5.042914426638783e-06   7.110614320709108e-08
-3.980372581660243e-05   5.042914426638783e-06   7.110614320709108e-08
-3.980372581660243e-05   5.042914426638783e-06   7.110614320709108e-08
-3.980372581660243e-05   5.042914426638783e-06   7.110614320709108e-08
-3.0875360634510554e-05   1.1595057533594567e-06   -1.2479457289645109e-05
-3.0875360634510554e-05   1.1595057533594567e-06   -1.2479457289645109e-05
-3.0875360634510554e-05   1.1595057533594567e-06   -1.2479457289645109e-05
-3.0875360634510554e-05   1.1595057533594567e-06   -1.2479457289645109e-05
-3.9803725816602504e-05   0.0   -2.6760482211798152e-05
-3.9803725816602504e-05   0.0   -2.6760482211798152e-05
-3.9803725816602504e-05   0.0   -2.6760482211798152e-05
-3.9803725816602504e-05   0.0   -2.6760482211798152e-05
-2.3704772803599355e-05   5.04291442663879e-06   3.0968547991903664e-06
-2.3704772803599355e-05   5.04291442663879e-06   3.0968547991903664e-06
-2.3704772803599355e-05   5.04291442663879e-06   3.0968547991903664e-06
-2.3704772803599355e-05   5.04291442663879e-06   3.0968547991903664e-06
-2.3760117061587843e-05   0.0   -2.431257908917812e-05
-2.3760117061587843e-05   0.0   -2.431257908917812e-05
-2.3760117061587843e-05   0.0   -2.431257908917812e-05
-2.3760117061587843e-05   0.0   -2.431257908917812e-05
-4.103291281029346e-05   5.405421547778584e-06   1.2321608966642147e-06
-4.103291281029346e-05   5.405421547778584e-06   1.2321608966642147e-06
-4.103291281029346e-05   5.405421547778584e-06   1.2321608966642147e-06
-4.103291281029346e-05   5.405421547778584e-06   1.2321608966642147e-06
-3.1781921439095116e-05   2.039919268850022e-06   -1.2166856687975894e-05
-3.1781921439095116e-05   2.039919268850022e-06   -1.2166856687975894e-05
-3.1781921439095116e-05   2.039919268850022e-06   -1.2166856687975894e-05
-3.1781921439095116e-05   2.039919268850022e-06   -1.2166856687975894e-05
-4.1032912810293534e-05   0.0   -2.7555832017845275e-05
-4.1032912810293534e-05   0.0   -2.7555832017845275e-05
-4.1032912810293534e-05   0.0   -2.7555832017845275e-05
-4.1032912810293534e-05   0.0   -2.7555832017845275e-05
-2.3760117061587843e-05   5.4054215477785904e-06   4.475413825331357e-06
-2.3760117061587843e-05   5.4054215477785904e-06   4.475413825331357e-06
-2.3760117061587843e-05   5.4054215477785904e-06   4.475413825331357e-06
-2.3760117061587843e-05   5.4054215477785904e-06   4.475413825331357e-06
-2.3734656170004782e-05   0.0   -2.4462876940899326e-05
-2.3734656170004782e-05   0.0   -2.4462876940899326e-05
-2.3734656170004782e-05   0.0   -2.4462876940899326e-05
-2.3734656170004782e-05   0.0   -2.4462876940899326e-05
-4.3692340060062596e-05   6.166310537511045e-06   5.100143220023842e-06
-4.3692340060062596e-05   6.166310537511045e-06   5.100143220023842e-06
-4.3692340060062596e-05   6.166310537511045e-06   5.100143220023842e-06
-4.3692340060062596e-05   6.166310537511045e-06   5.100143220023842e-06
-3.23837844901491e-05   2.5774625641216217e-06   -1.1594140612464981e-05
-3.23837844901491e-05   2.5774625641216217e-06   -1.1594140612464981e-05
-3.23837844901491e-05   2.5774625641216217e-06   -1.1594140612464981e-05
-3.23837844901491e-05   2.5774625641216217e-06   -1.1594140612464981e-05
-2.4193891593192942e-05   0.0   -2.2609744481676946e-05
-2.4193891593192942e-05   0.0   -2.2609744481676946e-05
-2.4193891593192942e-05   0.0   -2.2609744481676946e-05
-2.4193891593192942e-05   0.0   -2.2609744481676946e-05
-1.1031336526616418e-05   1.5341847438444045e-06   2.4835814225721597e-07
-1.1031336526616418e-05   1.5341847438444045e-06   2.4835814225721597e-07
-1.1031336526616418e-05   1.5341847438444045e-06   2.4835814225721597e-07
-1.1031336526616418e-05   1.5341847438444045e-06   2.4835814225721597e-07
-1.0598567858864075e-05   0.0   -2.2420106294875695e-05
-1.0598567858864075e-05   0.0   -2.2420106294875695e-05
-1.0598567858864075e-05   0.0   -2.2420106294875695e-05
-1.0598567858864075e-05   0.0   -2.2420106294875695e-05
-2.3704772803599355e-05   2.1910454348986343e-06   -1.8910586479227467e-06
-2.3704772803599355e-05   2.1910454348986343e-06   -1.8910586479227467e-06
-2.3704772803599355e-05   2.1910454348986343e-06   -1.8910586479227467e-06
-2.3704772803599355e-05   2.1910454348986343e-06   -1.8910586479227467e-06
-1.7396229726028477e-05   1.5803182233438027e-07   -1.1185488943002236e-05
-1.7396229726028477e-05   1.5803182233438027e-07   -1.1185488943002236e-05
-1.7396229726028477e-05   1.5803182233438027e-07   -1.1185488943002236e-05
-1.7396229726028477e-05   1.5803182233438027e-07   -1.1185488943002236e-05
-2.3704772803599334e-05   0.0   -2.3734733555814853e-05
-2.3704772803599334e-05   0.0   -2.3734733555814853e-05
-2.3704772803599334e-05   0.0   -2.3734733555814853e-05
-2.3704772803599334e-05   0.0   -2.3734733555814853e-05
-1.0598567858864075e-05   2.1910454348986343e-06   -5.764313869835681e-07
-1.0598567858864075e-05   2.1910454348986343e-06   -5.764313869835681e-07
-1.0598567858864075e-05   2.1910454348986343e-06   -5.764313869835681e-07
-1.0598567858864075e-05   2.1910454348986343e-06   -5.764313869835681e-07
-1.0350807716188937e-05   0.0   -2.269915936769492e-05
-1.0350807716188937e-05   0.0   -2.269915936769492e-05
-1.0350807716188937e-05   0.0   -2.269915936769492e-05
-1.0350807716188937e-05   0.0   -2.269915936769492e-05
-2.3760117061587843e-05   2.6890328691386725e-06   -1.9637301801799455e-06
-2.3760117061587843e-05   2.6890328691386725e-06   -1.9637301801799455e-06
-2.3760117061587843e-05   2.6890328691386725e-06   -1.9637301801799455e-06
-2.3760117061587843e-05   2.6890328691386725e-06   -1.9637301801799455e-06
-1.7027790259894112e-05   8.629784900999598e-07   -1.2088642222246176e-05
-1.7027790259894112e-05   8.629784900999598e-07   -1.2088642222246176e-05
-1.7027790259894112e-05   8.629784900999598e-07   -1.2088642222246176e-05
-1.7027790259894112e-05   8.629784900999598e-07   -1.2088642222246176e-05
-2.3760117061587843e-05   0.0   -2.431257908917812e-05
-2.3760117061587843e-05   0.0   -2.431257908917812e-05
-2.3760117061587843e-05   0.0   -2.431257908917812e-05
-2.3760117061587843e-05   0.0   -2.431257908917812e-05
-1.0350807716188937e-05   2.6890328691386725e-06   -3.5031045869674674e-07
-1.0350807716188937e-05   2.6890328691386725e-06   -3.5031045869674674e-07
-1.0350807716188937e-05   2.6890328691386725e-06   -3.5031045869674674e-07
-1.0350807716188937e-05   2.6890328691386725e-06   -3.5031045869674674e-07
-1.0123301742570337e-05   0.0   -2.2583837067842613e-05
-1.0123301742570337e-05   0.0   -2.2583837067842613e-05
-1.0123301742570337e-05   0.0   -2.2583837067842613e-05
-1.0123301742570337e-05   0.0   -2.2583837067842613e-05
-2.373465617000472e-05   3.1317331217611482e-06   -1.77728622850858e-06
-2.373465617000472e-05   3.1317331217611482e-06   -1.77728622850858e-06
-2.373465617000472e-05   3.1317331217611482e-06   -1.77728622850858e-06
-2.373465617000472e-05   3.1317331217611482e-06   -1.77728622850858e-06
-1.6941709402079085e-05   1.4406183511129108e-06   -1.2084195312662443e-05
-1.6941709402079085e-05   1.4406183511129108e-06   -1.2084195312662443e-05
-1.6941709402079085e-05   1.4406183511129108e-06   -1.2084195312662443e-05
-1.6941709402079085e-05   1.4406183511129108e-06   -1.2084195312662443e-05
-1.1031336526616439e-05   0.0   -2.1689233635370306e-05
-1.1031336526616439e-05   0.0   -2.1689233635370306e-05
-1.1031336526616439e-05   0.0   -2.1689233635370306e-05
-1.1031336526616439e-05   0.0   -2.1689233635370306e-05
1.3949707477914556e-06   -1.9956753938009148e-07   -1.098462034985183e-06
1.3949707477914556e-06   -1.9956753938009148e-07   -1.098462034985183e-06
1.3949707477914556e-06   -1.9956753938009148e-07   -1.098462034985183e-06
1.3949707477914556e-06   -1.9956753938009148e-07   -1.098462034985183e-06
1.6765405963479919e-06   0.0   -2.2186247333192485e-05
1.6765405963479919e-06   0.0   -2.2186247333192485e-05
1.6765405963479919e-06   0.0   -2.2186247333192485e-05
1.6765405963479919e-06   0.0   -2.2186247333192485e-05
-1.0598567858864075e-05   3.897649361385525e-07   -1.961592202855578e-06
-1.0598567858864075e-05   3.897649361385525e-07   -1.961592202855578e-06
-1.0598567858864075e-05   3.897649361385525e-07   -1.961592202855578e-06
-1.0598567858864075e-05   3.897649361385525e-07   -1.961592202855578e-06
-4.677397965134212e-06   -4.141780815185491e-07   -1.1347842881811044e-05
-4.677397965134212e-06   -4.141780815185491e-07   -1.1347842881811044e-05
-4.677397965134212e-06   -4.141780815185491e-07   -1.1347842881811044e-05
-4.677397965134212e-06   -4.141780815185491e-07   -1.1347842881811044e-05
-1.0598567858864075e-05   0.0   -2.2420106294875695e-05
-1.0598567858864075e-05   0.0   -2.2420106294875695e-05
-1.0598567858864075e-05   0.0   -2.2420106294875695e-05
-1.0598567858864075e-05   0.0   -2.2420106294875695e-05
1.6765405963479949e-06   3.897649361385525e-07   -1.7277332411724417e-06
1.6765405963479949e-06   3.897649361385525e-07   -1.7277332411724417e-06
1.6765405963479949e-06   3.897649361385525e-07   -1.7277332411724417e-06
1.6765405963479949e-06   3.897649361385525e-07   -1.7277332411724417e-06
1.900294351637463e-06   0.0   -2.2153622868980487e-05
1.900294351637463e-06   0.0   -2.2153622868980487e-05
1.900294351637463e-06   0.0   -2.2153622868980487e-05
1.900294351637463e-06   0.0   -2.2153622868980487e-05
-1.035080771618892e-05   9.092274978573251e-07   -2.2806559213175778e-06
-1.035080771618892e-05   9.092274978573251e-07   -2.2806559213175778e-06
-1.035080771618892e-05   9.092274978573251e-07   -2.2806559213175778e-06
-1.035080771618892e-05   9.092274978573251e-07   -2.2806559213175778e-06
-4.349136753613305e-06   2.2206952157930853e-07   -1.1871146073176818e-05
-4.349136753613305e-06   2.2206952157930853e-07   -1.1871146073176818e-05
-4.349136753613305e-06   2.2206952157930853e-07   -1.1871146073176818e-05
-4.349136753613305e-06   2.2206952157930853e-07   -1.1871146073176818e-05
-1.0350807716188937e-05   0.0   -2.269915936769492e-05
-1.0350807716188937e-05   0.0   -2.269915936769492e-05
-1.0350807716188937e-05   0.0   -2.269915936769492e-05
-1.0350807716188937e-05   0.0   -2.269915936769492e-05
1.9002943516374662e-06   9.092274978573251e-07   -1.735119422603188e-06
1.9002943516374662e-06   9.092274978573251e-07   -1.735119422603188e-06
1.9002943516374662e-06   9.092274978573251e-07   -1.735119422603188e-06
1.9002943516374662e-06   9.092274978573251e-07   -1.735119422603188e-06
2.1975361480569998e-06   0.0   -2.1677709060048214e-05
2.1975361480569998e-06   0.0   -2.1677709060048214e-05
2.1975361480569998e-06   0.0   -2.1677709060048214e-05
2.1975361480569998e-06   0.0   -2.1677709060048214e-05
-1.0123301742570328e-05   1.5102133463239692e-06   -2.0491072501303806e-06
-1.0123301742570328e-05   1.5102133463239692e-06   -2.0491072501303806e-06
-1.0123301742570328e-05   1.5102133463239692e-06   -2.0491072501303806e-06
-1.0123301742570328e-05   1.5102133463239692e-06   -2.0491072501303806e-06
-4.0766357840659604e-06   8.512085897055557e-07   -1.1731480993666607e-05
-4.0766357840659604e-06   8.512085897055557e-07   -1.1731480993666607e-05
-4.0766357840659604e-06   8.512085897055557e-07   -1.1731480993666607e-05
-4.0766357840659604e-06   8.512085897055557e-07   -1.1731480993666607e-05
1.3949707477914581e-06   0.0   -2.180897415899836e-05
1.3949707477914581e-06   0.0   -2.180897415899836e-05
1.3949707477914581e-06   0.0   -2.180897415899836e-05
1.3949707477914581e-06   0.0   -2.180897415899836e-05
1.4893329481920879e-05   -1.7468960589475072e-06   -3.598472374844788e-07
1.4893329481920879e-05   -1.7468960589475072e-06   -3.598472374844788e-07
1.4893329481920879e-05   -1.7468960589475072e-06   -3.598472374844788e-07
1.4893329481920879e-05   -1.7468960589475072e-06   -3.598472374844788e-07
1.493404020612286e-05   0.0   -2.2974458247248e-05
1.493404020612286e-05   0.0   -2.2974458247248e-05
1.493404020612286e-05   0.0   -2.2974458247248e-05
1.493404020612286e-05   0.0   -2.2974458247248e-05
1.6765405963479976e-06   -1.3136848567590575e-06   -9.041465023446296e-08
1.6765405963479976e-06   -1.3136848567590575e-06   -9.041465023446296e-08
1.6765405963479976e-06   -1.3136848567590575e-06   -9.041465023446296e-08
1.6765405963479976e-06   -1.3136848567590575e-06   -9.041465023446296e-08
8.16450547695716e-06   -9.712367402080321e-07   -1.1109158321180337e-05
8.16450547695716e-06   -9.712367402080321e-07   -1.1109158321180337e-05
8.16450547695716e-06   -9.712367402080321e-07   -1.1109158321180337e-05
8.16450547695716e-06   -9.712367402080321e-07   -1.1109158321180337e-05
1.6765405963479976e-06   0.0   -2.2186247333192563e-05
1.6765405963479976e-06   0.0   -2.2186247333192563e-05
1.6765405963479976e-06   0.0   -2.2186247333192563e-05
1.6765405963479976e-06   0.0   -2.2186247333192563e-05
1.493404020612286e-05   -1.3136848567590575e-06   -8.786255642899008e-07
1.493404020612286e-05   -1.3136848567590575e-06   -8.786255642899008e-07
1.493404020612286e-05   -1.3136848567590575e-06   -8.786255642899008e-07
1.493404020612286e-05   -1.3136848567590575e-06   -8.786255642899008e-07
1.4882341193301416e-05   0.0   -2.2646493588348748e-05
1.4882341193301416e-05   0.0   -2.2646493588348748e-05
1.4882341193301416e-05   0.0   -2.2646493588348748e-05
1.4882341193301416e-05   0.0   -2.2646493588348748e-05
1.9002943516374662e-06   -8.214511989470378e-07   -5.168781328739444e-07
1.9002943516374662e-06   -8.214511989470378e-07   -5.168781328739444e-07
1.9002943516374662e-06   -8.214511989470378e-07   -5.168781328739444e-07
1.9002943516374662e-06   -8.214511989470378e-07   -5.168781328739444e-07
8.279440894824706e-06   -3.835385459634866e-07   -1.1411536629976132e-05
8.279440894824706e-06   -3.835385459634866e-07   -1.1411536629976132e-05
8.279440894824706e-06   -3.835385459634866e-07   -1.1411536629976132e-05
8.279440894824706e-06   -3.835385459634866e-07   -1.1411536629976132e-05
1.9002943516374645e-06   0.0   -2.2153622868980507e-05
1.9002943516374645e-06   0.0   -2.2153622868980507e-05
1.9002943516374645e-06   0.0   -2.2153622868980507e-05
1.9002943516374645e-06   0.0   -2.2153622868980507e-05
1.4882341193301416e-05   -8.214511989470378e-07   -1.0097488522421689e-06
1.4882341193301416e-05   -8.214511989470378e-07   -1.0097488522421689e-06
1.4882341193301416e-05   -8.214511989470378e-07   -1.0097488522421689e-06
1.4882341193301416e-05   -8.214511989470378e-07   -1.0097488522421689e-06
1.5182348856749997e-05   0.0   -2.1774156812794797e-05
1.5182348856749997e-05   0.0   -2.1774156812794797e-05
1.5182348856749997e-05   0.0   -2.1774156812794797e-05
1.5182348856749997e-05   0.0   -2.1774156812794797e-05
2.1975361480570036e-06   -1.6074625457757427e-07   -3.63545455599315e-08
2.1975361480570036e-06   -1.6074625457757427e-07   -3.63545455599315e-08
2.1975361480570036e-06   -1.6074625457757427e-07   -3.63545455599315e-08
2.1975361480570036e-06   -1.6074625457757427e-07   -3.63545455599315e-08
8.541321604193726e-06   3.1622171348810605e-07   -1.0895511086627202e-05
8.541321604193726e-06   3.1622171348810605e-07   -1.0895511086627202e-05
8.541321604193726e-06   3.1622171348810605e-07   -1.0895511086627202e-05
8.541321604193726e-06   3.1622171348810605e-07   -1.0895511086627202e-05
1.4893329481920879e-05   0.0   -2.2857111794366863e-05
1.4893329481920879e-05   0.0   -2.2857111794366863e-05
1.4893329481920879e-05   0.0   -2.2857111794366863e-05
1.4893329481920879e-05   0.0   -2.2857111794366863e-05
3.3699046355806486e-05   -4.437945085597121e-06   5.822982610751066e-06
3.3699046355806486e-05   -4.437945085597121e-06   5.822982610751066e-06
3.3699046355806486e-05   -4.437945085597121e-06   5.822982610751066e-06
3.3699046355806486e-05   -4.437945085597121e-06   5.822982610751066e-06
3.166732381246463e-05   0.0   -2.5235540413052773e-05
3.166732381246463e-05   0.0   -2.5235540413052773e-05
3.166732381246463e-05   0.0   -2.5235540413052773e-05
3.166732381246463e-05   0.0   -2.5235540413052773e-05
1.493404020612286e-05   -3.7684702763412947e-06   4.914347763321613e-06
1.493404020612286e-05   -3.7684702763412947e-06   4.914347763321613e-06
1.493404020612286e-05   -3.7684702763412947e-06   4.914347763321613e-06
1.493404020612286e-05   -3.7684702763412947e-06   4.914347763321613e-06
2.3280326647192755e-05   -1.982023848904926e-06   -1.0067997494923348e-05
2.3280326647192755e-05   -1.982023848904926e-06   -1.0067997494923348e-05
2.3280326647192755e-05   -1.982023848904926e-06   -1.0067997494923348e-05
2.3280326647192755e-05   -1.982023848904926e-06   -1.0067997494923348e-05
1.4934040206122846e-05   0.0   -2.297445824724798e-05
1.4934040206122846e-05   0.0   -2.297445824724798e-05
1.4934040206122846e-05   0.0   -2.297445824724798e-05
1.4934040206122846e-05   0.0   -2.297445824724798e-05
3.166732381246452e-05   -3.768470276341281e-06   2.653265597516829e-06
3.166732381246452e-05   -3.768470276341281e-06   2.653265597516829e-06
3.166732381246452e-05   -3.768470276341281e-06   2.653265597516829e-06
3.166732381246452e-05   -3.768470276341281e-06   2.653265597516829e-06
3.073595362254898e-05   0.0   -2.4711014126057333e-05
3.073595362254898e-05   0.0   -2.4711014126057333e-05
3.073595362254898e-05   0.0   -2.4711014126057333e-05
3.073595362254898e-05   0.0   -2.4711014126057333e-05
1.4882341193301416e-05   -3.4408675628476464e-06   3.776193793730523e-06
1.4882341193301416e-05   -3.4408675628476464e-06   3.776193793730523e-06
1.4882341193301416e-05   -3.4408675628476464e-06   3.776193793730523e-06
1.4882341193301416e-05   -3.4408675628476464e-06   3.776193793730523e-06
2.2834996914335905e-05   -1.447129899007781e-06   -1.0674475006297548e-05
2.2834996914335905e-05   -1.447129899007781e-06   -1.0674475006297548e-05
2.2834996914335905e-05   -1.447129899007781e-06   -1.0674475006297548e-05
2.2834996914335905e-05   -1.447129899007781e-06   -1.0674475006297548e-05
1.4882341193301416e-05   0.0   -2.2646493588348748e-05
1.4882341193301416e-05   0.0   -2.2646493588348748e-05
1.4882341193301416e-05   0.0   -2.2646493588348748e-05
1.4882341193301416e-05   0.0   -2.2646493588348748e-05
3.073595362254888e-05   -3.440867562847626e-06   1.7116732560219276e-06
3.073595362254888e-05   -3.440867562847626e-06   1.7116732560219276e-06
3.073595362254888e-05   -3.440867562847626e-06   1.7116732560219276e-06
3.073595362254888e-05   -3.440867562847626e-06   1.7116732560219276e-06
2.93408354186807e-05   0.0   -2.3373452197185947e-05
2.93408354186807e-05   0.0   -2.3373452197185947e-05
2.93408354186807e-05   0.0   -2.3373452197185947e-05
2.93408354186807e-05   0.0   -2.3373452197185947e-05
1.5182348856749997e-05   -2.6654923073186524e-06   1.8233207904231177e-06
1.5182348856749997e-05   -2.6654923073186524e-06   1.8233207904231177e-06
1.5182348856749997e-05   -2.6654923073186524e-06   1.8233207904231177e-06
1.5182348856749997e-05   -2.6654923073186524e-06   1.8233207904231177e-06
2.2111588305991083e-05   -6.057988406977013e-07   -1.0961227704951248e-05
2.2111588305991083e-05   -6.057988406977013e-07   -1.0961227704951248e-05
2.2111588305991083e-05   -6.057988406977013e-07   -1.0961227704951248e-05
2.2111588305991083e-05   -6.057988406977013e-07   -1.0961227704951248e-05
-3.2894396921759885e-05   4.1939932969487805e-06   -2.1687064399752272e-05
-3.2894396921759885e-05   4.1939932969487805e-06   -2.1687064399752272e-05
-3.2894396921759885e-05   4.1939932969487805e-06   -2.1687064399752272e-05
-3.2894396921759885e-05   4.1939932969487805e-06   -2.1687064399752272e-05
-2.1079011729705077e-05   3.764570913296022e-06   -2.2524091765192643e-06
-2.1079011729705077e-05   3.764570913296022e-06   -2.2524091765192643e-06
-2.1079011729705077e-05   3.764570913296022e-06   -2.2524091765192643e-06
-2.1079011729705077e-05   3.764570913296022e-06   -2.2524091765192643e-06
-2.1603227561004623e-05   5.042914426638783e-06   -1.8223529849102667e-05
-2.1603227561004623e-05   5.042914426638783e-06   -1.8223529849102667e-05
-2.1603227561004623e-05   5.042914426638783e-06   -1.8223529849102667e-05
-2.1603227561004623e-05   5.042914426638783e-06   -1.8223529849102667e-05
-3.323762112828641e-05   4.524724351154334e-06   1.4780401416577134e-06
-3.323762112828641e-05   4.524724351154334e-06   1.4780401416577134e-06
-3.323762112828641e-05   4.524724351154334e-06   1.4780401416577134e-06
-3.323762112828641e-05   4.524724351154334e-06   1.4780401416577134e-06
-2.6125364170995183e-05   4.384043569593128e-06   -1.029131298489111e-05
-2.6125364170995183e-05   4.384043569593128e-06   -1.029131298489111e-05
-2.6125364170995183e-05   4.384043569593128e-06   -1.029131298489111e-05
-2.6125364170995183e-05   4.384043569593128e-06   -1.029131298489111e-05
-3.323762112828641e-05   5.042914426638783e-06   -1.7912615803812e-05
-3.323762112828641e-05   5.042914426638783e-06   -1.7912615803812e-05
-3.323762112828641e-05   5.042914426638783e-06   -1.7912615803812e-05
-3.323762112828641e-05   5.042914426638783e-06   -1.7912615803812e-05
-2.1603227561004697e-05   4.524724351154347e-06   1.1671260963670423e-06
-2.1603227561004697e-05   4.524724351154347e-06   1.1671260963670423e-06
-2.1603227561004697e-05   4.524724351154347e-06   1.1671260963670423e-06
-2.1603227561004697e-05   4.524724351154347e-06   1.1671260963670423e-06
-2.1706561520420356e-05   5.405421547778577e-06   -1.639118282601301e-05
-2.1706561520420356e-05   5.405421547778577e-06   -1.639118282601301e-05
-2.1706561520420356e-05   5.405421547778577e-06   -1.639118282601301e-05
-2.1706561520420356e-05   5.405421547778577e-06   -1.639118282601301e-05
-3.346043395757451e-05   4.86804939879504e-06   3.52102785863392e-06
-3.346043395757451e-05   4.86804939879504e-06   3.52102785863392e-06
-3.346043395757451e-05   4.86804939879504e-06   3.52102785863392e-06
-3.346043395757451e-05   4.86804939879504e-06   3.52102785863392e-06
-2.6885169956502157e-05   4.861691669121019e-06   -7.433930838682143e-06
-2.6885169956502157e-05   4.861691669121019e-06   -7.433930838682143e-06
-2.6885169956502157e-05   4.861691669121019e-06   -7.433930838682143e-06
-2.6885169956502157e-05   4.861691669121019e-06   -7.433930838682143e-06
-3.346043395757445e-05   5.405421547778577e-06   -1.6068759536622896e-05
-3.346043395757445e-05   5.405421547778577e-06   -1.6068759536622896e-05
-3.346043395757445e-05   5.405421547778577e-06   -1.6068759536622896e-05
-3.346043395757445e-05   5.405421547778577e-06   -1.6068759536622896e-05
-2.170656152042039e-05   4.86804939879504e-06   3.198604569243794e-06
-2.170656152042039e-05   4.86804939879504e-06   3.198604569243794e-06
-2.170656152042039e-05   4.86804939879504e-06   3.198604569243794e-06
-2.170656152042039e-05   4.86804939879504e-06   3.198604569243794e-06
-2.1576063915253584e-05   6.166310537511038e-06   -1.213312062278799e-05
-2.1576063915253584e-05   6.166310537511038e-06   -1.213312062278799e-05
-2.1576063915253584e-05   6.166310537511038e-06   -1.213312062278799e-05
-2.1576063915253584e-05   6.166310537511038e-06   -1.213312062278799e-05
-3.2516370089248925e-05   5.144477269567268e-06   6.713822961303747e-06
-3.2516370089248925e-05   5.144477269567268e-06   6.713822961303747e-06
-3.2516370089248925e-05   5.144477269567268e-06   6.713822961303747e-06
-3.2516370089248925e-05   5.144477269567268e-06   6.713822961303747e-06
-2.6175804865737964e-05   5.336553830073644e-06   -3.969031680851656e-06
-2.6175804865737964e-05   5.336553830073644e-06   -3.969031680851656e-06
-2.6175804865737964e-05   5.336553830073644e-06   -3.969031680851656e-06
-2.6175804865737964e-05   5.336553830073644e-06   -3.969031680851656e-06
-2.1079011729705077e-05   1.5341847438443977e-06   -2.3093887506031276e-05
-2.1079011729705077e-05   1.5341847438443977e-06   -2.3093887506031276e-05
-2.1079011729705077e-05   1.5341847438443977e-06   -2.3093887506031276e-05
-2.1079011729705077e-05   1.5341847438443977e-06   -2.3093887506031276e-05
-1.0007024254989924e-05   1.7519329842283985e-06   -4.509926103942252e-06
-1.0007024254989924e-05   1.7519329842283985e-06   -4.509926103942252e-06
-1.0007024254989924e-05   1.7519329842283985e-06   -4.509926103942252e-06
-1.0007024254989924e-05   1.7519329842283985e-06   -4.509926103942252e-06
-1.0239569656391004e-05   2.1910454348986276e-06   -2.305559459460615e-05
-1.0239569656391004e-05   2.1910454348986276e-06   -2.305559459460615e-05
-1.0239569656391004e-05   2.1910454348986276e-06   -2.305559459460615e-05
-1.0239569656391004e-05   2.1910454348986276e-06   -2.305559459460615e-05
-2.1603227561004623e-05   2.4507932709146192e-06   -4.272013455193017e-06
-2.1603227561004623e-05   2.4507932709146192e-06   -4.272013455193017e-06
-2.1603227561004623e-05   2.4507932709146192e-06   -4.272013455193017e-06
-2.1603227561004623e-05   2.4507932709146192e-06   -4.272013455193017e-06
-1.568746575396868e-05   1.9727899070052303e-06   -1.3844814448574071e-05
-1.568746575396868e-05   1.9727899070052303e-06   -1.3844814448574071e-05
-1.568746575396868e-05   1.9727899070052303e-06   -1.3844814448574071e-05
-1.568746575396868e-05   1.9727899070052303e-06   -1.3844814448574071e-05
-2.1603227561004606e-05   2.1910454348986276e-06   -2.3211443296215726e-05
-2.1603227561004606e-05   2.1910454348986276e-06   -2.3211443296215726e-05
-2.1603227561004606e-05   2.1910454348986276e-06   -2.3211443296215726e-05
-2.1603227561004606e-05   2.1910454348986276e-06   -2.3211443296215726e-05
-1.023956965639102e-05   2.4507932709146463e-06   -4.1161647535834185e-06
-1.023956965639102e-05   2.4507932709146463e-06   -4.1161647535834185e-06
-1.023956965639102e-05   2.4507932709146463e-06   -4.1161647535834185e-06
-1.023956965639102e-05   2.4507932709146463e-06   -4.1161647535834185e-06
-1.0307791239138953e-05   2.689032869138659e-06   -2.2625722759449587e-05
-1.0307791239138953e-05   2.689032869138659e-06   -2.2625722759449587e-05
-1.0307791239138953e-05   2.689032869138659e-06   -2.2625722759449587e-05
-1.0307791239138953e-05   2.689032869138659e-06   -2.2625722759449587e-05
-2.1706561520420356e-05   3.030039655929829e-06   -3.83237636272198e-06
-2.1706561520420356e-05   3.030039655929829e-06   -3.83237636272198e-06
-2.1706561520420356e-05   3.030039655929829e-06   -3.83237636272198e-06
-2.1706561520420356e-05   3.030039655929829e-06   -3.83237636272198e-06
-1.5803957199739993e-05   2.5071612650687984e-06   -1.33563231960059e-05
-1.5803957199739993e-05   2.5071612650687984e-06   -1.33563231960059e-05
-1.5803957199739993e-05   2.5071612650687984e-06   -1.33563231960059e-05
-1.5803957199739993e-05   2.5071612650687984e-06   -1.33563231960059e-05
-2.1706561520420356e-05   2.689032869138659e-06   -2.2830326831524294e-05
-2.1706561520420356e-05   2.689032869138659e-06   -2.2830326831524294e-05
-2.1706561520420356e-05   2.689032869138659e-06   -2.2830326831524294e-05
-2.1706561520420356e-05   2.689032869138659e-06   -2.2830326831524294e-05
-1.0307791239138989e-05   3.0300396559298424e-06   -3.62777229064728e-06
-1.0307791239138989e-05   3.0300396559298424e-06   -3.62777229064728e-06
-1.0307791239138989e-05   3.0300396559298424e-06   -3.62777229064728e-06
-1.0307791239138989e-05   3.0300396559298424e-06   -3.62777229064728e-06
-1.0276104382108645e-05   3.1317331217611482e-06   -2.2397011643900195e-05
-1.0276104382108645e-05   3.1317331217611482e-06   -2.2397011643900195e-05
-1.0276104382108645e-05   3.1317331217611482e-06   -2.2397011643900195e-05
-1.0276104382108645e-05   3.1317331217611482e-06   -2.2397011643900195e-05
-2.1576063915253564e-05   3.6539410383058194e-06   -3.8770705052521394e-06
-2.1576063915253564e-05   3.6539410383058194e-06   -3.8770705052521394e-06
-2.1576063915253564e-05   3.6539410383058194e-06   -3.8770705052521394e-06
-2.1576063915253564e-05   3.6539410383058194e-06   -3.8770705052521394e-06
-1.5890310410246754e-05   2.9908608156428576e-06   -1.2955478213332439e-05
-1.5890310410246754e-05   2.9908608156428576e-06   -1.2955478213332439e-05
-1.5890310410246754e-05   2.9908608156428576e-06   -1.2955478213332439e-05
-1.5890310410246754e-05   2.9908608156428576e-06   -1.2955478213332439e-05
-1.0007024254989909e-05   -1.9956753938009148e-07   -2.4190318215415217e-05
-1.0007024254989909e-05   -1.9956753938009148e-07   -2.4190318215415217e-05
-1.0007024254989909e-05   -1.9956753938009148e-07   -2.4190318215415217e-05
-1.0007024254989909e-05   -1.9956753938009148e-07   -2.4190318215415217e-05
9.241771778897066e-07   -5.403324592311433e-08   -5.884328584541659e-06
9.241771778897066e-07   -5.403324592311433e-08   -5.884328584541659e-06
9.241771778897066e-07   -5.403324592311433e-08   -5.884328584541659e-06
9.241771778897066e-07   -5.403324592311433e-08   -5.884328584541659e-06
8.854545084456109e-07   3.897649361385457e-07   -2.4320481189543246e-05
8.854545084456109e-07   3.897649361385457e-07   -2.4320481189543246e-05
8.854545084456109e-07   3.897649361385457e-07   -2.4320481189543246e-05
8.854545084456109e-07   3.897649361385457e-07   -2.4320481189543246e-05
-1.0239569656391004e-05   5.902219710301858e-07   -5.89904846908376e-06
-1.0239569656391004e-05   5.902219710301858e-07   -5.89904846908376e-06
-1.0239569656391004e-05   5.902219710301858e-07   -5.89904846908376e-06
-1.0239569656391004e-05   5.902219710301858e-07   -5.89904846908376e-06
-4.636384282870062e-06   1.9662791326676104e-07   -1.500153432362734e-05
-4.636384282870062e-06   1.9662791326676104e-07   -1.500153432362734e-05
-4.636384282870062e-06   1.9662791326676104e-07   -1.500153432362734e-05
-4.636384282870062e-06   1.9662791326676104e-07   -1.500153432362734e-05
-1.0239569656391004e-05   3.897649361385525e-07   -2.4440755410478172e-05
-1.0239569656391004e-05   3.897649361385525e-07   -2.4440755410478172e-05
-1.0239569656391004e-05   3.897649361385525e-07   -2.4440755410478172e-05
-1.0239569656391004e-05   3.897649361385525e-07   -2.4440755410478172e-05
8.854545084456109e-07   5.902219710301722e-07   -5.778774248148807e-06
8.854545084456109e-07   5.902219710301722e-07   -5.778774248148807e-06
8.854545084456109e-07   5.902219710301722e-07   -5.778774248148807e-06
8.854545084456109e-07   5.902219710301722e-07   -5.778774248148807e-06
8.310446671932407e-07   9.092274978573183e-07   -2.4369642994645907e-05
8.310446671932407e-07   9.092274978573183e-07   -2.4369642994645907e-05
8.310446671932407e-07   9.092274978573183e-07   -2.4369642994645907e-05
8.310446671932407e-07   9.092274978573183e-07   -2.4369642994645907e-05
-1.0307791239138953e-05   1.2199362102315346e-06   -5.9913417115168e-06
-1.0307791239138953e-05   1.2199362102315346e-06   -5.9913417115168e-06
-1.0307791239138953e-05   1.2199362102315346e-06   -5.9913417115168e-06
-1.0307791239138953e-05   1.2199362102315346e-06   -5.9913417115168e-06
-4.716265688291716e-06   7.420987682271859e-07   -1.5023848497726192e-05
-4.716265688291716e-06   7.420987682271859e-07   -1.5023848497726192e-05
-4.716265688291716e-06   7.420987682271859e-07   -1.5023848497726192e-05
-4.716265688291716e-06   7.420987682271859e-07   -1.5023848497726192e-05
-1.0307791239138953e-05   9.092274978573183e-07   -2.4556068222070432e-05
-1.0307791239138953e-05   9.092274978573183e-07   -2.4556068222070432e-05
-1.0307791239138953e-05   9.092274978573183e-07   -2.4556068222070432e-05
-1.0307791239138953e-05   9.092274978573183e-07   -2.4556068222070432e-05
8.310446671932424e-07   1.2199362102315346e-06   -5.804916484092272e-06
8.310446671932424e-07   1.2199362102315346e-06   -5.804916484092272e-06
8.310446671932424e-07   1.2199362102315346e-06   -5.804916484092272e-06
8.310446671932424e-07   1.2199362102315346e-06   -5.804916484092272e-06
7.140887859659868e-07   1.5102133463239625e-06   -2.432854078547299e-05
7.140887859659868e-07   1.5102133463239625e-06   -2.432854078547299e-05
7.140887859659868e-07   1.5102133463239625e-06   -2.432854078547299e-05
7.140887859659868e-07   1.5102133463239625e-06   -2.432854078547299e-05
-1.0276104382108652e-05   1.8757662681668163e-06   -6.230883925120984e-06
-1.0276104382108652e-05   1.8757662681668163e-06   -6.230883925120984e-06
-1.0276104382108652e-05   1.8757662681668163e-06   -6.230883925120984e-06
-1.0276104382108652e-05   1.8757662681668163e-06   -6.230883925120984e-06
-4.76198331518601e-06   1.3024713098094262e-06   -1.5077108728310936e-05
-4.76198331518601e-06   1.3024713098094262e-06   -1.5077108728310936e-05
-4.76198331518601e-06   1.3024713098094262e-06   -1.5077108728310936e-05
-4.76198331518601e-06   1.3024713098094262e-06   -1.5077108728310936e-05
9.241771778897066e-07   -1.7468960589475004e-06   -2.231624520647182e-05
9.241771778897066e-07   -1.7468960589475004e-06   -2.231624520647182e-05
9.241771778897066e-07   -1.7468960589475004e-06   -2.231624520647182e-05
9.241771778897066e-07   -1.7468960589475004e-06   -2.231624520647182e-05
1.218863472200792e-05   -1.795420981697587e-06   -3.571264253258188e-06
1.218863472200792e-05   -1.795420981697587e-06   -3.571264253258188e-06
1.218863472200792e-05   -1.795420981697587e-06   -3.571264253258188e-06
1.218863472200792e-05   -1.795420981697587e-06   -3.571264253258188e-06
1.2296100375159204e-05   -1.3136848567590575e-06   -2.2620204912603514e-05
1.2296100375159204e-05   -1.3136848567590575e-06   -2.2620204912603514e-05
1.2296100375159204e-05   -1.3136848567590575e-06   -2.2620204912603514e-05
1.2296100375159204e-05   -1.3136848567590575e-06   -2.2620204912603514e-05
8.854545084456109e-07   -1.2087553800896073e-06   -3.665419487415809e-06
8.854545084456109e-07   -1.2087553800896073e-06   -3.665419487415809e-06
8.854545084456109e-07   -1.2087553800896073e-06   -3.665419487415809e-06
8.854545084456109e-07   -1.2087553800896073e-06   -3.665419487415809e-06
6.4897092143471874e-06   -1.4490636513595255e-06   -1.2861659034489866e-05
6.4897092143471874e-06   -1.4490636513595255e-06   -1.2861659034489866e-05
6.4897092143471874e-06   -1.4490636513595255e-06   -1.2861659034489866e-05
6.4897092143471874e-06   -1.4490636513595255e-06   -1.2861659034489866e-05
8.854545084456092e-07   -1.3136848567590575e-06   -2.2683162598605217e-05
8.854545084456092e-07   -1.3136848567590575e-06   -2.2683162598605217e-05
8.854545084456092e-07   -1.3136848567590575e-06   -2.2683162598605217e-05
8.854545084456092e-07   -1.3136848567590575e-06   -2.2683162598605217e-05
1.2296100375159226e-05   -1.2087553800896073e-06   -3.602461801414136e-06
1.2296100375159226e-05   -1.2087553800896073e-06   -3.602461801414136e-06
1.2296100375159226e-05   -1.2087553800896073e-06   -3.602461801414136e-06
1.2296100375159226e-05   -1.2087553800896073e-06   -3.602461801414136e-06
1.2243249703305828e-05   -8.21451198947031e-07   -2.303946961135968e-05
1.2243249703305828e-05   -8.21451198947031e-07   -2.303946961135968e-05
1.2243249703305828e-05   -8.21451198947031e-07   -2.303946961135968e-05
1.2243249703305828e-05   -8.21451198947031e-07   -2.303946961135968e-05
8.310446671932407e-07   -6.348977096854586e-07   -4.131059978062337e-06
8.310446671932407e-07   -6.348977096854586e-07   -4.131059978062337e-06
8.310446671932407e-07   -6.348977096854586e-07   -4.131059978062337e-06
8.310446671932407e-07   -6.348977096854586e-07   -4.131059978062337e-06
6.4266257218202735e-06   -9.819172494388207e-07   -1.3248816678588668e-05
6.4266257218202735e-06   -9.819172494388207e-07   -1.3248816678588668e-05
6.4266257218202735e-06   -9.819172494388207e-07   -1.3248816678588668e-05
6.4266257218202735e-06   -9.819172494388207e-07   -1.3248816678588668e-05
8.310446671932403e-07   -8.21451198947031e-07   -2.3151401704916634e-05
8.310446671932403e-07   -8.21451198947031e-07   -2.3151401704916634e-05
8.310446671932403e-07   -8.21451198947031e-07   -2.3151401704916634e-05
8.310446671932403e-07   -8.21451198947031e-07   -2.3151401704916634e-05
1.2243249703305872e-05   -6.348977096854586e-07   -4.019127884505384e-06
1.2243249703305872e-05   -6.348977096854586e-07   -4.019127884505384e-06
1.2243249703305872e-05   -6.348977096854586e-07   -4.019127884505384e-06
1.2243249703305872e-05   -6.348977096854586e-07   -4.019127884505384e-06
1.1891047303060395e-05   -1.6074625457757427e-07   -2.3081139247929696e-05
1.1891047303060395e-05   -1.6074625457757427e-07   -2.3081139247929696e-05
1.1891047303060395e-05   -1.6074625457757427e-07   -2.3081139247929696e-05
1.1891047303060395e-05   -1.6074625457757427e-07   -2.3081139247929696e-05
7.140887859659868e-07   7.388181336771165e-08   -4.593651893539563e-06
7.140887859659868e-07   7.388181336771165e-08   -4.593651893539563e-06
7.140887859659868e-07   7.388181336771165e-08   -4.593651893539563e-06
7.140887859659868e-07   7.388181336771165e-08   -4.593651893539563e-06
6.362428918641348e-06   -4.363881612579854e-07   -1.3701390129889709e-05
6.362428918641348e-06   -4.363881612579854e-07   -1.3701390129889709e-05
6.362428918641348e-06   -4.363881612579854e-07   -1.3701390129889709e-05
6.362428918641348e-06   -4.363881612579854e-07   -1.3701390129889709e-05
1.218863472200792e-05   -4.437945085597121e-06   -1.3499763260528067e-05
1.218863472200792e-05   -4.437945085597121e-06   -1.3499763260528067e-05
1.218863472200792e-05   -4.437945085597121e-06   -1.3499763260528067e-05
1.218863472200792e-05   -4.437945085597121e-06   -1.3499763260528067e-05
2.329219049719728e-05   -3.3309657599764223e-06   5.670350626826596e-06
2.329219049719728e-05   -3.3309657599764223e-06   5.670350626826596e-06
2.329219049719728e-05   -3.3309657599764223e-06   5.670350626826596e-06
2.329219049719728e-05   -3.3309657599764223e-06   5.670350626826596e-06
2.419596395026698e-05   -3.768470276341288e-06   -1.6375612454600874e-05
2.419596395026698e-05   -3.768470276341288e-06   -1.6375612454600874e-05
2.419596395026698e-05   -3.768470276341288e-06   -1.6375612454600874e-05
2.419596395026698e-05   -3.768470276341288e-06   -1.6375612454600874e-05
1.2296100375159247e-05   -3.015771725689277e-06   3.005874373520862e-06
1.2296100375159247e-05   -3.015771725689277e-06   3.005874373520862e-06
1.2296100375159247e-05   -3.015771725689277e-06   3.005874373520862e-06
1.2296100375159247e-05   -3.015771725689277e-06   3.005874373520862e-06
1.7156082702365484e-05   -3.6213691377743956e-06   -4.730737724571831e-06
1.7156082702365484e-05   -3.6213691377743956e-06   -4.730737724571831e-06
1.7156082702365484e-05   -3.6213691377743956e-06   -4.730737724571831e-06
1.7156082702365484e-05   -3.6213691377743956e-06   -4.730737724571831e-06
1.2296100375159214e-05   -3.768470276341281e-06   -1.6827231584992008e-05
1.2296100375159214e-05   -3.768470276341281e-06   -1.6827231584992008e-05
1.2296100375159214e-05   -3.768470276341281e-06   -1.6827231584992008e-05
1.2296100375159214e-05   -3.768470276341281e-06   -1.6827231584992008e-05
2.419596395026698e-05   -3.015771725689277e-06   3.4574935039120565e-06
2.419596395026698e-05   -3.015771725689277e-06   3.4574935039120565e-06
2.419596395026698e-05   -3.015771725689277e-06   3.4574935039120565e-06
2.419596395026698e-05   -3.015771725689277e-06   3.4574935039120565e-06
2.4116616214784173e-05   -3.4408675628476397e-06   -1.7800425171241522e-05
2.4116616214784173e-05   -3.4408675628476397e-06   -1.7800425171241522e-05
2.4116616214784173e-05   -3.4408675628476397e-06   -1.7800425171241522e-05
2.4116616214784173e-05   -3.4408675628476397e-06   -1.7800425171241522e-05
1.2243249703305872e-05   -2.6856979059383955e-06   1.5354172204100808e-06
1.2243249703305872e-05   -2.6856979059383955e-06   1.5354172204100808e-06
1.2243249703305872e-05   -2.6856979059383955e-06   1.5354172204100808e-06
1.2243249703305872e-05   -2.6856979059383955e-06   1.5354172204100808e-06
1.7766522706424584e-05   -3.19389805106035e-06   -7.365117697714586e-06
1.7766522706424584e-05   -3.19389805106035e-06   -7.365117697714586e-06
1.7766522706424584e-05   -3.19389805106035e-06   -7.365117697714586e-06
1.7766522706424584e-05   -3.19389805106035e-06   -7.365117697714586e-06
1.224324970330585e-05   -3.440867562847633e-06   -1.8253526965387043e-05
1.224324970330585e-05   -3.440867562847633e-06   -1.8253526965387043e-05
1.224324970330585e-05   -3.440867562847633e-06   -1.8253526965387043e-05
1.224324970330585e-05   -3.440867562847633e-06   -1.8253526965387043e-05
2.4116616214784173e-05   -2.6856979059383955e-06   1.9885190145556124e-06
2.4116616214784173e-05   -2.6856979059383955e-06   1.9885190145556124e-06
2.4116616214784173e-05   -2.6856979059383955e-06   1.9885190145556124e-06
2.4116616214784173e-05   -2.6856979059383955e-06   1.9885190145556124e-06
2.3983801731723006e-05   -2.6654923073186456e-06   -2.071128762150402e-05
2.3983801731723006e-05   -2.6654923073186456e-06   -2.071128762150402e-05
2.3983801731723006e-05   -2.6654923073186456e-06   -2.071128762150402e-05
2.3983801731723006e-05   -2.6654923073186456e-06   -2.071128762150402e-05
1.1891047303060434e-05   -1.9759447444916972e-06   -9.704254447625757e-07
1.1891047303060434e-05   -1.9759447444916972e-06   -9.704254447625757e-07
1.1891047303060434e-05   -1.9759447444916972e-06   -9.704254447625757e-07
1.1891047303060434e-05   -1.9759447444916972e-06   -9.704254447625757e-07
1.7265962783856036e-05   -2.7469723327961374e-06   -9.466001359772579e-06
1.7265962783856036e-05   -2.7469723327961374e-06   -9.466001359772579e-06
1.7265962783856036e-05   -2.7469723327961374e-06   -9.466001359772579e-06
1.7265962783856036e-05   -2.7469723327961374e-06   -9.466001359772579e-06
-2.6108054209393337e-05   3.7645709132960357e-06   -1.80920687953562e-05
-2.6108054209393337e-05   3.7645709132960357e-06   -1.80920687953562e-05
-2.6108054209393337e-05   3.7645709132960357e-06   -1.80920687953562e-05
-2.6108054209393337e-05   3.7645709132960357e-06   -1.80920687953562e-05
-1.7139233360422525e-05   2.8682404880483396e-06   -3.6818323022201664e-06
-1.7139233360422525e-05   2.8682404880483396e-06   -3.6818323022201664e-06
-1.7139233360422525e-05   2.8682404880483396e-06   -3.6818323022201664e-06
-1.7139233360422525e-05   2.8682404880483396e-06   -3.6818323022201664e-06
-1.7218473440518245e-05   4.524724351154334e-06   -1.502616487925325e-05
-1.7218473440518245e-05   4.524724351154334e-06   -1.502616487925325e-05
-1.7218473440518245e-05   4.524724351154334e-06   -1.502616487925325e-05
-1.7218473440518245e-05   4.524724351154334e-06   -1.502616487925325e-05
-2.5701860159814378e-05   3.474228764701329e-06   -2.5688966188790706e-07
-2.5701860159814378e-05   3.474228764701329e-06   -2.5688966188790706e-07
-2.5701860159814378e-05   3.474228764701329e-06   -2.5688966188790706e-07
-2.5701860159814378e-05   3.474228764701329e-06   -2.5688966188790706e-07
-2.063031156695522e-05   3.8302557345315015e-06   -8.92308683188471e-06
-2.063031156695522e-05   3.8302557345315015e-06   -8.92308683188471e-06
-2.063031156695522e-05   3.8302557345315015e-06   -8.92308683188471e-06
-2.063031156695522e-05   3.8302557345315015e-06   -8.92308683188471e-06
-2.5701860159814378e-05   4.524724351154334e-06   -1.4395867527381461e-05
-2.5701860159814378e-05   4.524724351154334e-06   -1.4395867527381461e-05
-2.5701860159814378e-05   4.524724351154334e-06   -1.4395867527381461e-05
-2.5701860159814378e-05   4.524724351154334e-06   -1.4395867527381461e-05
-1.7218473440518245e-05   3.4742287647013563e-06   -8.871870137596284e-07
-1.7218473440518245e-05   3.4742287647013563e-06   -8.871870137596284e-07
-1.7218473440518245e-05   3.4742287647013563e-06   -8.871870137596284e-07
-1.7218473440518245e-05   3.4742287647013563e-06   -8.871870137596284e-07
-1.7197180995348617e-05   4.86804939879504e-06   -1.285821668684401e-05
-1.7197180995348617e-05   4.86804939879504e-06   -1.285821668684401e-05
-1.7197180995348617e-05   4.86804939879504e-06   -1.285821668684401e-05
-1.7197180995348617e-05   4.86804939879504e-06   -1.285821668684401e-05
-2.530796158869492e-05   3.741256323746791e-06   1.3358268137621092e-06
-2.530796158869492e-05   3.741256323746791e-06   1.3358268137621092e-06
-2.530796158869492e-05   3.741256323746791e-06   1.3358268137621092e-06
-2.530796158869492e-05   3.741256323746791e-06   1.3358268137621092e-06
-2.0802859774794073e-05   4.181482567679846e-06   -6.436811955765621e-06
-2.0802859774794073e-05   4.181482567679846e-06   -6.436811955765621e-06
-2.0802859774794073e-05   4.181482567679846e-06   -6.436811955765621e-06
-2.0802859774794073e-05   4.181482567679846e-06   -6.436811955765621e-06
-2.530796158869492e-05   4.86804939879504e-06   -1.218214084181503e-05
-2.530796158869492e-05   4.86804939879504e-06   -1.218214084181503e-05
-2.530796158869492e-05   4.86804939879504e-06   -1.218214084181503e-05
-2.530796158869492e-05   4.86804939879504e-06   -1.218214084181503e-05
-1.7197180995348644e-05   3.741256323746818e-06   6.597509687332383e-07
-1.7197180995348644e-05   3.741256323746818e-06   6.597509687332383e-07
-1.7197180995348644e-05   3.741256323746818e-06   6.597509687332383e-07
-1.7197180995348644e-05   3.741256323746818e-06   6.597509687332383e-07
-1.721186729374883e-05   5.144477269567268e-06   -9.828770158066337e-06
-1.721186729374883e-05   5.144477269567268e-06   -9.828770158066337e-06
-1.721186729374883e-05   5.144477269567268e-06   -9.828770158066337e-06
-1.721186729374883e-05   5.144477269567268e-06   -9.828770158066337e-06
-2.4796485068851267e-05   4.006662203705203e-06   3.4949485066215432e-06
-2.4796485068851267e-05   4.006662203705203e-06   3.4949485066215432e-06
-2.4796485068851267e-05   4.006662203705203e-06   3.4949485066215432e-06
-2.4796485068851267e-05   4.006662203705203e-06   3.4949485066215432e-06
-2.0324253502125183e-05   4.368347406481061e-06   -4.175781892920506e-06
-2.0324253502125183e-05   4.368347406481061e-06   -4.175781892920506e-06
-2.0324253502125183e-05   4.368347406481061e-06   -4.175781892920506e-06
-2.0324253502125183e-05   4.368347406481061e-06   -4.175781892920506e-06
-1.7139233360422525e-05   1.7519329842283985e-06   -2.1018032922158226e-05
-1.7139233360422525e-05   1.7519329842283985e-06   -2.1018032922158226e-05
-1.7139233360422525e-05   1.7519329842283985e-06   -2.1018032922158226e-05
-1.7139233360422525e-05   1.7519329842283985e-06   -2.1018032922158226e-05
-8.748273147818293e-06   1.433320855092398e-06   -7.224266511966071e-06
-8.748273147818293e-06   1.433320855092398e-06   -7.224266511966071e-06
-8.748273147818293e-06   1.433320855092398e-06   -7.224266511966071e-06
-8.748273147818293e-06   1.433320855092398e-06   -7.224266511966071e-06
-8.85156334537327e-06   2.4507932709146192e-06   -2.071779721554687e-05
-8.85156334537327e-06   2.4507932709146192e-06   -2.071779721554687e-05
-8.85156334537327e-06   2.4507932709146192e-06   -2.071779721554687e-05
-8.85156334537327e-06   2.4507932709146192e-06   -2.071779721554687e-05
-1.721847344051821e-05   2.0299719630254085e-06   -6.520454272238368e-06
-1.721847344051821e-05   2.0299719630254085e-06   -6.520454272238368e-06
-1.721847344051821e-05   2.0299719630254085e-06   -6.520454272238368e-06
-1.721847344051821e-05   2.0299719630254085e-06   -6.520454272238368e-06
-1.2877738198869288e-05   2.0247257885570684e-06   -1.3751865303638947e-05
-1.2877738198869288e-05   2.0247257885570684e-06   -1.3751865303638947e-05
-1.2877738198869288e-05   2.0247257885570684e-06   -1.3751865303638947e-05
-1.2877738198869288e-05   2.0247257885570684e-06   -1.3751865303638947e-05
-1.721847344051823e-05   2.4507932709146192e-06   -2.0465304430813256e-05
-1.721847344051823e-05   2.4507932709146192e-06   -2.0465304430813256e-05
-1.721847344051823e-05   2.4507932709146192e-06   -2.0465304430813256e-05
-1.721847344051823e-05   2.4507932709146192e-06   -2.0465304430813256e-05
-8.851563345373287e-06   2.0299719630254085e-06   -6.772947056971862e-06
-8.851563345373287e-06   2.0299719630254085e-06   -6.772947056971862e-06
-8.851563345373287e-06   2.0299719630254085e-06   -6.772947056971862e-06
-8.851563345373287e-06   2.0299719630254085e-06   -6.772947056971862e-06
-8.917522736033875e-06   3.030039655929829e-06   -2.017059859031213e-05
-8.917522736033875e-06   3.030039655929829e-06   -2.017059859031213e-05
-8.917522736033875e-06   3.030039655929829e-06   -2.017059859031213e-05
-8.917522736033875e-06   3.030039655929829e-06   -2.017059859031213e-05
-1.7197180995348617e-05   2.561038036759172e-06   -6.0897671866186245e-06
-1.7197180995348617e-05   2.561038036759172e-06   -6.0897671866186245e-06
-1.7197180995348617e-05   2.561038036759172e-06   -6.0897671866186245e-06
-1.7197180995348617e-05   2.561038036759172e-06   -6.0897671866186245e-06
-1.2898889699610352e-05   2.5162591397685774e-06   -1.322671867465444e-05
-1.2898889699610352e-05   2.5162591397685774e-06   -1.322671867465444e-05
-1.2898889699610352e-05   2.5162591397685774e-06   -1.322671867465444e-05
-1.2898889699610352e-05   2.5162591397685774e-06   -1.322671867465444e-05
-1.7197180995348617e-05   3.0300396559298424e-06   -1.988919761880977e-05
-1.7197180995348617e-05   3.0300396559298424e-06   -1.988919761880977e-05
-1.7197180995348617e-05   3.0300396559298424e-06   -1.988919761880977e-05
-1.7197180995348617e-05   3.0300396559298424e-06   -1.988919761880977e-05
-8.917522736033908e-06   2.561038036759172e-06   -6.371168158120909e-06
-8.917522736033908e-06   2.561038036759172e-06   -6.371168158120909e-06
-8.917522736033908e-06   2.561038036759172e-06   -6.371168158120909e-06
-8.917522736033908e-06   2.561038036759172e-06   -6.371168158120909e-06
-9.003973067391822e-06   3.6539410383058465e-06   -2.0122722977448194e-05
-9.003973067391822e-06   3.6539410383058465e-06   -2.0122722977448194e-05
-9.003973067391822e-06   3.6539410383058465e-06   -2.0122722977448194e-05
-9.003973067391822e-06   3.6539410383058465e-06   -2.0122722977448194e-05
-1.721186729374881e-05   3.1270088489854134e-06   -6.126739953260925e-06
-1.721186729374881e-05   3.1270088489854134e-06   -6.126739953260925e-06
-1.721186729374881e-05   3.1270088489854134e-06   -6.126739953260925e-06
-1.721186729374881e-05   3.1270088489854134e-06   -6.126739953260925e-06
-1.3048959864420668e-05   3.004004862281639e-06   -1.299111661011877e-05
-1.3048959864420668e-05   3.004004862281639e-06   -1.299111661011877e-05
-1.3048959864420668e-05   3.004004862281639e-06   -1.299111661011877e-05
-1.3048959864420668e-05   3.004004862281639e-06   -1.299111661011877e-05
-8.74827314781828e-06   -5.403324592311433e-08   -2.2670923256313426e-05
-8.74827314781828e-06   -5.403324592311433e-08   -2.2670923256313426e-05
-8.74827314781828e-06   -5.403324592311433e-08   -2.2670923256313426e-05
-8.74827314781828e-06   -5.403324592311433e-08   -2.2670923256313426e-05
-4.480038625063053e-07   7.692367204510404e-08   -8.75856696334586e-06
-4.480038625063053e-07   7.692367204510404e-08   -8.75856696334586e-06
-4.480038625063053e-07   7.692367204510404e-08   -8.75856696334586e-06
-4.480038625063053e-07   7.692367204510404e-08   -8.75856696334586e-06
-5.30505906705968e-07   5.902219710301722e-07   -2.2455724696859747e-05
-5.30505906705968e-07   5.902219710301722e-07   -2.2455724696859747e-05
-5.30505906705968e-07   5.902219710301722e-07   -2.2455724696859747e-05
-5.30505906705968e-07   5.902219710301722e-07   -2.2455724696859747e-05
-8.85156334537327e-06   6.651490280092608e-07   -8.632251866601707e-06
-8.85156334537327e-06   6.651490280092608e-07   -8.632251866601707e-06
-8.85156334537327e-06   6.651490280092608e-07   -8.632251866601707e-06
-8.85156334537327e-06   6.651490280092608e-07   -8.632251866601707e-06
-4.6180775708815365e-06   3.8822661659664655e-07   -1.5521908043907016e-05
-4.6180775708815365e-06   3.8822661659664655e-07   -1.5521908043907016e-05
-4.6180775708815365e-06   3.8822661659664655e-07   -1.5521908043907016e-05
-4.6180775708815365e-06   3.8822661659664655e-07   -1.5521908043907016e-05
-8.85156334537327e-06   5.902219710301858e-07   -2.2500680931047203e-05
-8.85156334537327e-06   5.902219710301858e-07   -2.2500680931047203e-05
-8.85156334537327e-06   5.902219710301858e-07   -2.2500680931047203e-05
-8.85156334537327e-06   5.902219710301858e-07   -2.2500680931047203e-05
-5.305059067059688e-07   6.651490280092337e-07   -8.587295632414224e-06
-5.305059067059688e-07   6.651490280092337e-07   -8.587295632414224e-06
-5.305059067059688e-07   6.651490280092337e-07   -8.587295632414224e-06
-5.305059067059688e-07   6.651490280092337e-07   -8.587295632414224e-06
-5.890892548629616e-07   1.2199362102315346e-06   -2.2515101006977627e-05
-5.890892548629616e-07   1.2199362102315346e-06   -2.2515101006977627e-05
-5.890892548629616e-07   1.2199362102315346e-06   -2.2515101006977627e-05
-5.890892548629616e-07   1.2199362102315346e-06   -2.2515101006977627e-05
-8.917522736033892e-06   1.2517145505715633e-06   -8.653445542563502e-06
-8.917522736033892e-06   1.2517145505715633e-06   -8.653445542563502e-06
-8.917522736033892e-06   1.2517145505715633e-06   -8.653445542563502e-06
-8.917522736033892e-06   1.2517145505715633e-06   -8.653445542563502e-06
-4.72542362306316e-06   9.072215910917994e-07   -1.543358162182676e-05
-4.72542362306316e-06   9.072215910917994e-07   -1.543358162182676e-05
-4.72542362306316e-06   9.072215910917994e-07   -1.543358162182676e-05
-4.72542362306316e-06   9.072215910917994e-07   -1.543358162182676e-05
-8.917522736033892e-06   1.2199362102315346e-06   -2.2534168011181666e-05
-8.917522736033892e-06   1.2199362102315346e-06   -2.2534168011181666e-05
-8.917522736033892e-06   1.2199362102315346e-06   -2.2534168011181666e-05
-8.917522736033892e-06   1.2199362102315346e-06   -2.2534168011181666e-05
-5.890892548629629e-07   1.2517145505715362e-06   -8.634378538359416e-06
-5.890892548629629e-07   1.2517145505715362e-06   -8.634378538359416e-06
-5.890892548629629e-07   1.2517145505715362e-06   -8.634378538359416e-06
-5.890892548629629e-07   1.2517145505715362e-06   -8.634378538359416e-06
-6.828247736695897e-07   1.8757662681668163e-06   -2.2804231826957906e-05
-6.828247736695897e-07   1.8757662681668163e-06   -2.2804231826957906e-05
-6.828247736695897e-07   1.8757662681668163e-06   -2.2804231826957906e-05
-6.828247736695897e-07   1.8757662681668163e-06   -2.2804231826957906e-05
-9.003973067391812e-06   1.8518151353099786e-06   -8.921280657706858e-06
-9.003973067391812e-06   1.8518151353099786e-06   -8.921280657706858e-06
-9.003973067391812e-06   1.8518151353099786e-06   -8.921280657706858e-06
-9.003973067391812e-06   1.8518151353099786e-06   -8.921280657706858e-06
-4.839627212580044e-06   1.432390997519893e-06   -1.5610202599718955e-05
-4.839627212580044e-06   1.432390997519893e-06   -1.5610202599718955e-05
-4.839627212580044e-06   1.432390997519893e-06   -1.5610202599718955e-05
-4.839627212580044e-06   1.432390997519893e-06   -1.5610202599718955e-05
-4.4800386250630634e-07   -1.795420981697587e-06   -2.0250169820598967e-05
-4.4800386250630634e-07   -1.795420981697587e-06   -2.0250169820598967e-05
-4.4800386250630634e-07   -1.795420981697587e-06   -2.0250169820598967e-05
-4.4800386250630634e-07   -1.795420981697587e-06   -2.0250169820598967e-05
7.804461048304378e-06   -1.1985105409102997e-06   -6.137915371442137e-06
7.804461048304378e-06   -1.1985105409102997e-06   -6.137915371442137e-06
7.804461048304378e-06   -1.1985105409102997e-06   -6.137915371442137e-06
7.804461048304378e-06   -1.1985105409102997e-06   -6.137915371442137e-06
7.801420397453989e-06   -1.2087553800896073e-06   -2.0011936731882988e-05
7.801420397453989e-06   -1.2087553800896073e-06   -2.0011936731882988e-05
7.801420397453989e-06   -1.2087553800896073e-06   -2.0011936731882988e-05
7.801420397453989e-06   -1.2087553800896073e-06   -2.0011936731882988e-05
-5.305059067059688e-07   -6.58033373016569e-07   -6.45582609586021e-06
-5.305059067059688e-07   -6.58033373016569e-07   -6.45582609586021e-06
-5.305059067059688e-07   -6.58033373016569e-07   -6.45582609586021e-06
-5.305059067059688e-07   -6.58033373016569e-07   -6.45582609586021e-06
3.629372866594257e-06   -1.172073382298117e-06   -1.308053337912499e-05
3.629372866594257e-06   -1.172073382298117e-06   -1.308053337912499e-05
3.629372866594257e-06   -1.172073382298117e-06   -1.308053337912499e-05
3.629372866594257e-06   -1.172073382298117e-06   -1.308053337912499e-05
-5.305059067059688e-07   -1.2087553800896073e-06   -2.0342369936126765e-05
-5.305059067059688e-07   -1.2087553800896073e-06   -2.0342369936126765e-05
-5.305059067059688e-07   -1.2087553800896073e-06   -2.0342369936126765e-05
-5.305059067059688e-07   -1.2087553800896073e-06   -2.0342369936126765e-05
7.801420397453989e-06   -6.58033373016569e-07   -6.125392891616349e-06
7.801420397453989e-06   -6.58033373016569e-07   -6.125392891616349e-06
7.801420397453989e-06   -6.58033373016569e-07   -6.125392891616349e-06
7.801420397453989e-06   -6.58033373016569e-07   -6.125392891616349e-06
7.84272457142634e-06   -6.348977096854586e-07   -2.0537137037902724e-05
7.84272457142634e-06   -6.348977096854586e-07   -2.0537137037902724e-05
7.84272457142634e-06   -6.348977096854586e-07   -2.0537137037902724e-05
7.84272457142634e-06   -6.348977096854586e-07   -2.0537137037902724e-05
-5.890892548629637e-07   -1.2805193794372866e-07   -6.7882214571323174e-06
-5.890892548629637e-07   -1.2805193794372866e-07   -6.7882214571323174e-06
-5.890892548629637e-07   -1.2805193794372866e-07   -6.7882214571323174e-06
-5.890892548629637e-07   -1.2805193794372866e-07   -6.7882214571323174e-06
3.519162533004219e-06   -7.03724687045246e-07   -1.3289904120783263e-05
3.519162533004219e-06   -7.03724687045246e-07   -1.3289904120783263e-05
3.519162533004219e-06   -7.03724687045246e-07   -1.3289904120783263e-05
3.519162533004219e-06   -7.03724687045246e-07   -1.3289904120783263e-05
-5.89089254862962e-07   -6.348977096854586e-07   -2.0841244500947686e-05
-5.89089254862962e-07   -6.348977096854586e-07   -2.0841244500947686e-05
-5.89089254862962e-07   -6.348977096854586e-07   -2.0841244500947686e-05
-5.89089254862962e-07   -6.348977096854586e-07   -2.0841244500947686e-05
7.84272457142634e-06   -1.2805193794372866e-07   -6.484113994087161e-06
7.84272457142634e-06   -1.2805193794372866e-07   -6.484113994087161e-06
7.84272457142634e-06   -1.2805193794372866e-07   -6.484113994087161e-06
7.84272457142634e-06   -1.2805193794372866e-07   -6.484113994087161e-06
7.785886430068312e-06   7.388181336771165e-08   -2.1136386471599144e-05
7.785886430068312e-06   7.388181336771165e-08   -2.1136386471599144e-05
7.785886430068312e-06   7.388181336771165e-08   -2.1136386471599144e-05
7.785886430068312e-06   7.388181336771165e-08   -2.1136386471599144e-05
-6.82824773669591e-07   4.90456941506243e-07   -7.271812875585816e-06
-6.82824773669591e-07   4.90456941506243e-07   -7.271812875585816e-06
-6.82824773669591e-07   4.90456941506243e-07   -7.271812875585816e-06
-6.82824773669591e-07   4.90456941506243e-07   -7.271812875585816e-06
3.4821582616080904e-06   -2.035697959389452e-07   -1.379703522524807e-05
3.4821582616080904e-06   -2.035697959389452e-07   -1.379703522524807e-05
3.4821582616080904e-06   -2.035697959389452e-07   -1.379703522524807e-05
3.4821582616080904e-06   -2.035697959389452e-07   -1.379703522524807e-05
7.804461048304364e-06   -3.3309657599764223e-06   -1.1314596271414236e-05
7.804461048304364e-06   -3.3309657599764223e-06   -1.1314596271414236e-05
7.804461048304364e-06   -3.3309657599764223e-06   -1.1314596271414236e-05
7.804461048304364e-06   -3.3309657599764223e-06   -1.1314596271414236e-05
1.5507869451099976e-05   -2.165436873557313e-06   2.2237350650966092e-06
1.5507869451099976e-05   -2.165436873557313e-06   2.2237350650966092e-06
1.5507869451099976e-05   -2.165436873557313e-06   2.2237350650966092e-06
1.5507869451099976e-05   -2.165436873557313e-06   2.2237350650966092e-06
1.6042527693039316e-05   -3.0157717256892636e-06   -1.2705301982419676e-05
1.6042527693039316e-05   -3.0157717256892636e-06   -1.2705301982419676e-05
1.6042527693039316e-05   -3.0157717256892636e-06   -1.2705301982419676e-05
1.6042527693039316e-05   -3.0157717256892636e-06   -1.2705301982419676e-05
7.801420397453976e-06   -1.8519407681421868e-06   3.31578269027688e-07
7.801420397453976e-06   -1.8519407681421868e-06   3.31578269027688e-07
7.801420397453976e-06   -1.8519407681421868e-06   3.31578269027688e-07
7.801420397453976e-06   -1.8519407681421868e-06   3.31578269027688e-07
1.1285431636859057e-05   -2.5598936858574545e-06   -5.050335379351665e-06
1.1285431636859057e-05   -2.5598936858574545e-06   -5.050335379351665e-06
1.1285431636859057e-05   -2.5598936858574545e-06   -5.050335379351665e-06
1.1285431636859057e-05   -2.5598936858574545e-06   -5.050335379351665e-06
7.801420397453965e-06   -3.015771725689277e-06   -1.3403600556947888e-05
7.801420397453965e-06   -3.015771725689277e-06   -1.3403600556947888e-05
7.801420397453965e-06   -3.015771725689277e-06   -1.3403600556947888e-05
7.801420397453965e-06   -3.015771725689277e-06   -1.3403600556947888e-05
1.6042527693039316e-05   -1.8519407681421868e-06   1.0298768435559544e-06
1.6042527693039316e-05   -1.8519407681421868e-06   1.0298768435559544e-06
1.6042527693039316e-05   -1.8519407681421868e-06   1.0298768435559544e-06
1.6042527693039316e-05   -1.8519407681421868e-06   1.0298768435559544e-06
1.645575975301435e-05   -2.6856979059383955e-06   -1.4322426272916002e-05
1.645575975301435e-05   -2.6856979059383955e-06   -1.4322426272916002e-05
1.645575975301435e-05   -2.6856979059383955e-06   -1.4322426272916002e-05
1.645575975301435e-05   -2.6856979059383955e-06   -1.4322426272916002e-05
7.842724571426313e-06   -1.585421805819703e-06   -6.275332970072145e-07
7.842724571426313e-06   -1.585421805819703e-06   -6.275332970072145e-07
7.842724571426313e-06   -1.585421805819703e-06   -6.275332970072145e-07
7.842724571426313e-06   -1.585421805819703e-06   -6.275332970072145e-07
1.1675505954872317e-05   -2.3578559114487087e-06   -6.552041806039724e-06
1.1675505954872317e-05   -2.3578559114487087e-06   -6.552041806039724e-06
1.1675505954872317e-05   -2.3578559114487087e-06   -6.552041806039724e-06
1.1675505954872317e-05   -2.3578559114487087e-06   -6.552041806039724e-06
7.842724571426327e-06   -2.6856979059383955e-06   -1.4982591932987204e-05
7.842724571426327e-06   -2.6856979059383955e-06   -1.4982591932987204e-05
7.842724571426327e-06   -2.6856979059383955e-06   -1.4982591932987204e-05
7.842724571426327e-06   -2.6856979059383955e-06   -1.4982591932987204e-05
1.6455759753014323e-05   -1.585421805819703e-06   3.2632363064082374e-08
1.6455759753014323e-05   -1.585421805819703e-06   3.2632363064082374e-08
1.6455759753014323e-05   -1.585421805819703e-06   3.2632363064082374e-08
1.6455759753014323e-05   -1.585421805819703e-06   3.2632363064082374e-08
1.689806297507264e-05   -1.9759447444916972e-06   -1.7079166695732403e-05
1.689806297507264e-05   -1.9759447444916972e-06   -1.7079166695732403e-05
1.689806297507264e-05   -1.9759447444916972e-06   -1.7079166695732403e-05
1.689806297507264e-05   -1.9759447444916972e-06   -1.7079166695732403e-05
7.785886430068285e-06   -1.0179944647302301e-06   -2.4669759552488197e-06
7.785886430068285e-06   -1.0179944647302301e-06   -2.4669759552488197e-06
7.785886430068285e-06   -1.0179944647302301e-06   -2.4669759552488197e-06
7.785886430068285e-06   -1.0179944647302301e-06   -2.4669759552488197e-06
1.1632524798183215e-05   -2.0283309189852224e-06   -8.271838029553943e-06
1.1632524798183215e-05   -2.0283309189852224e-06   -8.271838029553943e-06
1.1632524798183215e-05   -2.0283309189852224e-06   -8.271838029553943e-06
1.1632524798183215e-05   -2.0283309189852224e-06   -8.271838029553943e-06
-1.8679939304086648e-05   2.8682404880483396e-06   -1.4264668543859782e-05
-1.8679939304086648e-05   2.8682404880483396e-06   -1.4264668543859782e-05
-1.8679939304086648e-05   2.8682404880483396e-06   -1.4264668543859782e-05
-1.8679939304086648e-05   2.8682404880483396e-06   -1.4264668543859782e-05
-1.2750987170686637e-05   1.8167793007109012e-06   -5.013958367262178e-06
-1.2750987170686637e-05   1.8167793007109012e-06   -5.013958367262178e-06
-1.2750987170686637e-05   1.8167793007109012e-06   -5.013958367262178e-06
-1.2750987170686637e-05   1.8167793007109012e-06   -5.013958367262178e-06
-1.2703945435909293e-05   3.474228764701329e-06   -1.2119961989622507e-05
-1.2703945435909293e-05   3.474228764701329e-06   -1.2119961989622507e-05
-1.2703945435909293e-05   3.474228764701329e-06   -1.2119961989622507e-05
-1.2703945435909293e-05   3.474228764701329e-06   -1.2119961989622507e-05
-1.811361776780037e-05   2.3166044367818584e-06   -2.4092668397190052e-06
-1.811361776780037e-05   2.3166044367818584e-06   -2.4092668397190052e-06
-1.811361776780037e-05   2.3166044367818584e-06   -2.4092668397190052e-06
-1.811361776780037e-05   2.3166044367818584e-06   -2.4092668397190052e-06
-1.4901707176834702e-05   2.7633923294523733e-06   -8.030523893597438e-06
-1.4901707176834702e-05   2.7633923294523733e-06   -8.030523893597438e-06
-1.4901707176834702e-05   2.7633923294523733e-06   -8.030523893597438e-06
-1.4901707176834702e-05   2.7633923294523733e-06   -8.030523893597438e-06
-1.811361776780037e-05   3.474228764701329e-06   -1.1425387392870786e-05
-1.811361776780037e-05   3.474228764701329e-06   -1.1425387392870786e-05
-1.811361776780037e-05   3.474228764701329e-06   -1.1425387392870786e-05
-1.811361776780037e-05   3.474228764701329e-06   -1.1425387392870786e-05
-1.2703945435909306e-05   2.316604436781804e-06   -3.1038414364707256e-06
-1.2703945435909306e-05   2.316604436781804e-06   -3.1038414364707256e-06
-1.2703945435909306e-05   2.316604436781804e-06   -3.1038414364707256e-06
-1.2703945435909306e-05   2.316604436781804e-06   -3.1038414364707256e-06
-1.2607177823784828e-05   3.741256323746791e-06   -1.0569127939521431e-05
-1.2607177823784828e-05   3.741256323746791e-06   -1.0569127939521431e-05
-1.2607177823784828e-05   3.741256323746791e-06   -1.0569127939521431e-05
-1.2607177823784828e-05   3.741256323746791e-06   -1.0569127939521431e-05
-1.7691620336504377e-05   2.550592137717637e-06   -1.3806585733713373e-06
-1.7691620336504377e-05   2.550592137717637e-06   -1.3806585733713373e-06
-1.7691620336504377e-05   2.550592137717637e-06   -1.3806585733713373e-06
-1.7691620336504377e-05   2.550592137717637e-06   -1.3806585733713373e-06
-1.4900040055980115e-05   3.042520589202689e-06   -6.328449445136189e-06
-1.4900040055980115e-05   3.042520589202689e-06   -6.328449445136189e-06
-1.4900040055980115e-05   3.042520589202689e-06   -6.328449445136189e-06
-1.4900040055980115e-05   3.042520589202689e-06   -6.328449445136189e-06
-1.7691620336504377e-05   3.741256323746791e-06   -9.854729427903933e-06
-1.7691620336504377e-05   3.741256323746791e-06   -9.854729427903933e-06
-1.7691620336504377e-05   3.741256323746791e-06   -9.854729427903933e-06
-1.7691620336504377e-05   3.741256323746791e-06   -9.854729427903933e-06
-1.2607177823784855e-05   2.550592137717637e-06   -2.0950570849887808e-06
-1.2607177823784855e-05   2.550592137717637e-06   -2.0950570849887808e-06
-1.2607177823784855e-05   2.550592137717637e-06   -2.0950570849887808e-06
-1.2607177823784855e-05   2.550592137717637e-06   -2.0950570849887808e-06
-1.2569318564309244e-05   4.006662203705203e-06   -8.426498102298465e-06
-1.2569318564309244e-05   4.006662203705203e-06   -8.426498102298465e-06
-1.2569318564309244e-05   4.006662203705203e-06   -8.426498102298465e-06
-1.2569318564309244e-05   4.006662203705203e-06   -8.426498102298465e-06
-1.7141032965624524e-05   2.846527743046183e-06   -1.1089342371085084e-07
-1.7141032965624524e-05   2.846527743046183e-06   -1.1089342371085084e-07
-1.7141032965624524e-05   2.846527743046183e-06   -1.1089342371085084e-07
-1.7141032965624524e-05   2.846527743046183e-06   -1.1089342371085084e-07
-1.4457889920432078e-05   3.1958755629118854e-06   -4.7924071909510055e-06
-1.4457889920432078e-05   3.1958755629118854e-06   -4.7924071909510055e-06
-1.4457889920432078e-05   3.1958755629118854e-06   -4.7924071909510055e-06
-1.4457889920432078e-05   3.1958755629118854e-06   -4.7924071909510055e-06
-1.275098717068661e-05   1.433320855092398e-06   -1.824681218852653e-05
-1.275098717068661e-05   1.433320855092398e-06   -1.824681218852653e-05
-1.275098717068661e-05   1.433320855092398e-06   -1.824681218852653e-05
-1.275098717068661e-05   1.433320855092398e-06   -1.824681218852653e-05
-7.367023954275083e-06   9.445185882566028e-07   -9.566821521275496e-06
-7.367023954275083e-06   9.445185882566028e-07   -9.566821521275496e-06
-7.367023954275083e-06   9.445185882566028e-07   -9.566821521275496e-06
-7.367023954275083e-06   9.445185882566028e-07   -9.566821521275496e-06
-7.370910250658027e-06   2.0299719630254085e-06   -1.808743768819029e-05
-7.370910250658027e-06   2.0299719630254085e-06   -1.808743768819029e-05
-7.370910250658027e-06   2.0299719630254085e-06   -1.808743768819029e-05
-7.370910250658027e-06   2.0299719630254085e-06   -1.808743768819029e-05
-1.2703945435909293e-05   1.4729578962102978e-06   -8.864837272682394e-06
-1.2703945435909293e-05   1.4729578962102978e-06   -8.864837272682394e-06
-1.2703945435909293e-05   1.4729578962102978e-06   -8.864837272682394e-06
-1.2703945435909293e-05   1.4729578962102978e-06   -8.864837272682394e-06
-9.95531361537336e-06   1.5710276723975925e-06   -1.3504732172621317e-05
-9.95531361537336e-06   1.5710276723975925e-06   -1.3504732172621317e-05
-9.95531361537336e-06   1.5710276723975925e-06   -1.3504732172621317e-05
-9.95531361537336e-06   1.5710276723975925e-06   -1.3504732172621317e-05
-1.2703945435909279e-05   2.0299719630254085e-06   -1.7753229248101098e-05
-1.2703945435909279e-05   2.0299719630254085e-06   -1.7753229248101098e-05
-1.2703945435909279e-05   2.0299719630254085e-06   -1.7753229248101098e-05
-1.2703945435909279e-05   2.0299719630254085e-06   -1.7753229248101098e-05
-7.370910250658027e-06   1.472957896210352e-06   -9.199045712771436e-06
-7.370910250658027e-06   1.472957896210352e-06   -9.199045712771436e-06
-7.370910250658027e-06   1.472957896210352e-06   -9.199045712771436e-06
-7.370910250658027e-06   1.472957896210352e-06   -9.199045712771436e-06
-7.365909596686889e-06   2.561038036759172e-06   -1.7682324272841094e-05
-7.365909596686889e-06   2.561038036759172e-06   -1.7682324272841094e-05
-7.365909596686889e-06   2.561038036759172e-06   -1.7682324272841094e-05
-7.365909596686889e-06   2.561038036759172e-06   -1.7682324272841094e-05
-1.2607177823784828e-05   1.9549077401459915e-06   -8.583199049709924e-06
-1.2607177823784828e-05   1.9549077401459915e-06   -8.583199049709924e-06
-1.2607177823784828e-05   1.9549077401459915e-06   -8.583199049709924e-06
-1.2607177823784828e-05   1.9549077401459915e-06   -8.583199049709924e-06
-9.909445045547494e-06   2.0060300605240374e-06   -1.3110093738998905e-05
-9.909445045547494e-06   2.0060300605240374e-06   -1.3110093738998905e-05
-9.909445045547494e-06   2.0060300605240374e-06   -1.3110093738998905e-05
-9.909445045547494e-06   2.0060300605240374e-06   -1.3110093738998905e-05
-1.2607177823784828e-05   2.561038036759172e-06   -1.7318646094873158e-05
-1.2607177823784828e-05   2.561038036759172e-06   -1.7318646094873158e-05
-1.2607177823784828e-05   2.561038036759172e-06   -1.7318646094873158e-05
-1.2607177823784828e-05   2.561038036759172e-06   -1.7318646094873158e-05
-7.365909596686896e-06   1.9549077401459372e-06   -8.946877227677819e-06
-7.365909596686896e-06   1.9549077401459372e-06   -8.946877227677819e-06
-7.365909596686896e-06   1.9549077401459372e-06   -8.946877227677819e-06
-7.365909596686896e-06   1.9549077401459372e-06   -8.946877227677819e-06
-7.372467509236791e-06   3.1270088489853862e-06   -1.775398049965593e-05
-7.372467509236791e-06   3.1270088489853862e-06   -1.775398049965593e-05
-7.372467509236791e-06   3.1270088489853862e-06   -1.775398049965593e-05
-7.372467509236791e-06   3.1270088489853862e-06   -1.775398049965593e-05
-1.2569318564309258e-05   2.47953722066509e-06   -8.70407909754289e-06
-1.2569318564309258e-05   2.47953722066509e-06   -8.70407909754289e-06
-1.2569318564309258e-05   2.47953722066509e-06   -8.70407909754289e-06
-1.2569318564309258e-05   2.47953722066509e-06   -8.70407909754289e-06
-9.97408751604011e-06   2.4375360209125964e-06   -1.3004263458139934e-05
-9.97408751604011e-06   2.4375360209125964e-06   -1.3004263458139934e-05
-9.97408751604011e-06   2.4375360209125964e-06   -1.3004263458139934e-05
-9.97408751604011e-06   2.4375360209125964e-06   -1.3004263458139934e-05
-7.3670239542750725e-06   7.692367204513114e-08   -2.015296815078874e-05
-7.3670239542750725e-06   7.692367204513114e-08   -2.015296815078874e-05
-7.3670239542750725e-06   7.692367204513114e-08   -2.015296815078874e-05
-7.3670239542750725e-06   7.692367204513114e-08   -2.015296815078874e-05
-2.053053160734638e-06   1.6587724094535398e-07   -1.1242978020214577e-05
-2.053053160734638e-06   1.6587724094535398e-07   -1.1242978020214577e-05
-2.053053160734638e-06   1.6587724094535398e-07   -1.1242978020214577e-05
-2.053053160734638e-06   1.6587724094535398e-07   -1.1242978020214577e-05
-2.0574703487318168e-06   6.651490280092608e-07   -1.99268280555456e-05
-2.0574703487318168e-06   6.651490280092608e-07   -1.99268280555456e-05
-2.0574703487318168e-06   6.651490280092608e-07   -1.99268280555456e-05
-2.0574703487318168e-06   6.651490280092608e-07   -1.99268280555456e-05
-7.370910250658013e-06   6.983397651332229e-07   -1.1091009327943006e-05
-7.370910250658013e-06   6.983397651332229e-07   -1.1091009327943006e-05
-7.370910250658013e-06   6.983397651332229e-07   -1.1091009327943006e-05
-7.370910250658013e-06   6.983397651332229e-07   -1.1091009327943006e-05
-4.6805411184451935e-06   4.7141411534573673e-07   -1.543880249175856e-05
-4.6805411184451935e-06   4.7141411534573673e-07   -1.543880249175856e-05
-4.6805411184451935e-06   4.7141411534573673e-07   -1.543880249175856e-05
-4.6805411184451935e-06   4.7141411534573673e-07   -1.543880249175856e-05
-7.370910250658013e-06   6.651490280092608e-07   -1.9946742497819998e-05
-7.370910250658013e-06   6.651490280092608e-07   -1.9946742497819998e-05
-7.370910250658013e-06   6.651490280092608e-07   -1.9946742497819998e-05
-7.370910250658013e-06   6.651490280092608e-07   -1.9946742497819998e-05
-2.0574703487318168e-06   6.983397651332229e-07   -1.1071094885668607e-05
-2.0574703487318168e-06   6.983397651332229e-07   -1.1071094885668607e-05
-2.0574703487318168e-06   6.983397651332229e-07   -1.1071094885668607e-05
-2.0574703487318168e-06   6.983397651332229e-07   -1.1071094885668607e-05
-2.0508026669968113e-06   1.2517145505715362e-06   -1.997611676955743e-05
-2.0508026669968113e-06   1.2517145505715362e-06   -1.997611676955743e-05
-2.0508026669968113e-06   1.2517145505715362e-06   -1.997611676955743e-05
-2.0508026669968113e-06   1.2517145505715362e-06   -1.997611676955743e-05
-7.365909596686889e-06   1.23252269678179e-06   -1.110609010780014e-05
-7.365909596686889e-06   1.23252269678179e-06   -1.110609010780014e-05
-7.365909596686889e-06   1.23252269678179e-06   -1.110609010780014e-05
-7.365909596686889e-06   1.23252269678179e-06   -1.110609010780014e-05
-4.712265760520644e-06   9.378679564348144e-07   -1.5352036990535707e-05
-4.712265760520644e-06   9.378679564348144e-07   -1.5352036990535707e-05
-4.712265760520644e-06   9.378679564348144e-07   -1.5352036990535707e-05
-4.712265760520644e-06   9.378679564348144e-07   -1.5352036990535707e-05
-7.365909596686889e-06   1.2517145505715633e-06   -1.9964601657283592e-05
-7.365909596686889e-06   1.2517145505715633e-06   -1.9964601657283592e-05
-7.365909596686889e-06   1.2517145505715633e-06   -1.9964601657283592e-05
-7.365909596686889e-06   1.2517145505715633e-06   -1.9964601657283592e-05
-2.050802666996815e-06   1.2325226967817358e-06   -1.111760522007395e-05
-2.050802666996815e-06   1.2325226967817358e-06   -1.111760522007395e-05
-2.050802666996815e-06   1.2325226967817358e-06   -1.111760522007395e-05
-2.050802666996815e-06   1.2325226967817358e-06   -1.111760522007395e-05
-2.0541991216972316e-06   1.8518151353100057e-06   -2.0277824194679244e-05
-2.0541991216972316e-06   1.8518151353100057e-06   -2.0277824194679244e-05
-2.0541991216972316e-06   1.8518151353100057e-06   -2.0277824194679244e-05
-2.0541991216972316e-06   1.8518151353100057e-06   -2.0277824194679244e-05
-7.372467509236785e-06   1.7760446283605685e-06   -1.1368581244610226e-05
-7.372467509236785e-06   1.7760446283605685e-06   -1.1368581244610226e-05
-7.372467509236785e-06   1.7760446283605685e-06   -1.1368581244610226e-05
-7.372467509236785e-06   1.7760446283605685e-06   -1.1368581244610226e-05
-4.753150410644716e-06   1.41045731581296e-06   -1.551475735473512e-05
-4.753150410644716e-06   1.41045731581296e-06   -1.551475735473512e-05
-4.753150410644716e-06   1.41045731581296e-06   -1.551475735473512e-05
-4.753150410644716e-06   1.41045731581296e-06   -1.551475735473512e-05
-2.053053160734634e-06   -1.1985105409102997e-06   -1.7837090682017246e-05
-2.053053160734634e-06   -1.1985105409102997e-06   -1.7837090682017246e-05
-2.053053160734634e-06   -1.1985105409102997e-06   -1.7837090682017246e-05
-2.053053160734634e-06   -1.1985105409102997e-06   -1.7837090682017246e-05
3.1761158859637192e-06   -5.453094396375038e-07   -8.72988827675634e-06
3.1761158859637192e-06   -5.453094396375038e-07   -8.72988827675634e-06
3.1761158859637192e-06   -5.453094396375038e-07   -8.72988827675634e-06
3.1761158859637192e-06   -5.453094396375038e-07   -8.72988827675634e-06
3.2185436903976164e-06   -6.580333730165418e-07   -1.742610769855818e-05
3.2185436903976164e-06   -6.580333730165418e-07   -1.742610769855818e-05
3.2185436903976164e-06   -6.580333730165418e-07   -1.742610769855818e-05
3.2185436903976164e-06   -6.580333730165418e-07   -1.742610769855818e-05
-2.0574703487318168e-06   -4.261533896094847e-08   -9.002001787109143e-06
-2.0574703487318168e-06   -4.261533896094847e-08   -9.002001787109143e-06
-2.0574703487318168e-06   -4.261533896094847e-08   -9.002001787109143e-06
-2.0574703487318168e-06   -4.261533896094847e-08   -9.002001787109143e-06
5.751405606265543e-07   -5.646619590671947e-07   -1.3076458663976064e-05
5.751405606265543e-07   -5.646619590671947e-07   -1.3076458663976064e-05
5.751405606265543e-07   -5.646619590671947e-07   -1.3076458663976064e-05
5.751405606265543e-07   -5.646619590671947e-07   -1.3076458663976064e-05
-2.0574703487318168e-06   -6.58033373016569e-07   -1.779535851899157e-05
-2.0574703487318168e-06   -6.58033373016569e-07   -1.779535851899157e-05
-2.0574703487318168e-06   -6.58033373016569e-07   -1.779535851899157e-05
-2.0574703487318168e-06   -6.58033373016569e-07   -1.779535851899157e-05
3.218543690397623e-06   -4.261533896094847e-08   -8.632750966675815e-06
3.218543690397623e-06   -4.261533896094847e-08   -8.632750966675815e-06
3.218543690397623e-06   -4.261533896094847e-08   -8.632750966675815e-06
3.218543690397623e-06   -4.261533896094847e-08   -8.632750966675815e-06
3.32041931749246e-06   -1.2805193794370156e-07   -1.778918038980009e-05
3.32041931749246e-06   -1.2805193794370156e-07   -1.778918038980009e-05
3.32041931749246e-06   -1.2805193794370156e-07   -1.778918038980009e-05
3.32041931749246e-06   -1.2805193794370156e-07   -1.778918038980009e-05
-2.050802666996815e-06   4.399135596065175e-07   -9.177923047514795e-06
-2.050802666996815e-06   4.399135596065175e-07   -9.177923047514795e-06
-2.050802666996815e-06   4.399135596065175e-07   -9.177923047514795e-06
-2.050802666996815e-06   4.399135596065175e-07   -9.177923047514795e-06
5.444714460890378e-07   -1.4621910812261801e-07   -1.3151700302020427e-05
5.444714460890378e-07   -1.4621910812261801e-07   -1.3151700302020427e-05
5.444714460890378e-07   -1.4621910812261801e-07   -1.3151700302020427e-05
5.444714460890378e-07   -1.4621910812261801e-07   -1.3151700302020427e-05
-2.0508026669968134e-06   -1.2805193794372866e-07   -1.812995968833019e-05
-2.0508026669968134e-06   -1.2805193794372866e-07   -1.812995968833019e-05
-2.0508026669968134e-06   -1.2805193794372866e-07   -1.812995968833019e-05
-2.0508026669968134e-06   -1.2805193794372866e-07   -1.812995968833019e-05
3.3204193174924735e-06   4.399135596065717e-07   -8.837143748984596e-06
3.3204193174924735e-06   4.399135596065717e-07   -8.837143748984596e-06
3.3204193174924735e-06   4.399135596065717e-07   -8.837143748984596e-06
3.3204193174924735e-06   4.399135596065717e-07   -8.837143748984596e-06
3.3707574235667135e-06   4.904569415062159e-07   -1.831320971091904e-05
3.3707574235667135e-06   4.904569415062159e-07   -1.831320971091904e-05
3.3707574235667135e-06   4.904569415062159e-07   -1.831320971091904e-05
3.3707574235667135e-06   4.904569415062159e-07   -1.831320971091904e-05
-2.0541991216972282e-06   9.917503113811591e-07   -9.572391490737398e-06
-2.0541991216972282e-06   9.917503113811591e-07   -9.572391490737398e-06
-2.0541991216972282e-06   9.917503113811591e-07   -9.572391490737398e-06
-2.0541991216972282e-06   9.917503113811591e-07   -9.572391490737398e-06
5.621857410146625e-07   3.001375864857773e-07   -1.3518065293653308e-05
5.621857410146625e-07   3.001375864857773e-07   -1.3518065293653308e-05
5.621857410146625e-07   3.001375864857773e-07   -1.3518065293653308e-05
5.621857410146625e-07   3.001375864857773e-07   -1.3518065293653308e-05
3.1761158859637125e-06   -2.165436873557313e-06   -9.78283691656625e-06
3.1761158859637125e-06   -2.165436873557313e-06   -9.78283691656625e-06
3.1761158859637125e-06   -2.165436873557313e-06   -9.78283691656625e-06
3.1761158859637125e-06   -2.165436873557313e-06   -9.78283691656625e-06
7.79232851412539e-06   -9.953626342393143e-07   -1.387104659372686e-06
7.79232851412539e-06   -9.953626342393143e-07   -1.387104659372686e-06
7.79232851412539e-06   -9.953626342393143e-07   -1.387104659372686e-06
7.79232851412539e-06   -9.953626342393143e-07   -1.387104659372686e-06
8.350610024940406e-06   -1.851940768142214e-06   -1.0249992269418056e-05
8.350610024940406e-06   -1.851940768142214e-06   -1.0249992269418056e-05
8.350610024940406e-06   -1.851940768142214e-06   -1.0249992269418056e-05
8.350610024940406e-06   -1.851940768142214e-06   -1.0249992269418056e-05
3.218543690397623e-06   -6.533669873153556e-07   -2.415692647009528e-06
3.218543690397623e-06   -6.533669873153556e-07   -2.415692647009528e-06
3.218543690397623e-06   -6.533669873153556e-07   -2.415692647009528e-06
3.218543690397623e-06   -6.533669873153556e-07   -2.415692647009528e-06
5.394149668034147e-06   -1.3723924831764655e-06   -5.610287312220384e-06
5.394149668034147e-06   -1.3723924831764655e-06   -5.610287312220384e-06
5.394149668034147e-06   -1.3723924831764655e-06   -5.610287312220384e-06
5.394149668034147e-06   -1.3723924831764655e-06   -5.610287312220384e-06
3.218543690397623e-06   -1.8519407681421868e-06   -1.0969136537914109e-05
3.218543690397623e-06   -1.8519407681421868e-06   -1.0969136537914109e-05
3.218543690397623e-06   -1.8519407681421868e-06   -1.0969136537914109e-05
3.218543690397623e-06   -1.8519407681421868e-06   -1.0969136537914109e-05
8.350610024940392e-06   -6.533669873153556e-07   -1.6965483785134211e-06
8.350610024940392e-06   -6.533669873153556e-07   -1.6965483785134211e-06
8.350610024940392e-06   -6.533669873153556e-07   -1.6965483785134211e-06
8.350610024940392e-06   -6.533669873153556e-07   -1.6965483785134211e-06
8.781549454814732e-06   -1.58542180581973e-06   -1.1232512539971446e-05
8.781549454814732e-06   -1.58542180581973e-06   -1.1232512539971446e-05
8.781549454814732e-06   -1.58542180581973e-06   -1.1232512539971446e-05
8.781549454814732e-06   -1.58542180581973e-06   -1.1232512539971446e-05
3.3204193174924735e-06   -4.186098845719577e-07   -2.830716130516322e-06
3.3204193174924735e-06   -4.186098845719577e-07   -2.830716130516322e-06
3.3204193174924735e-06   -4.186098845719577e-07   -2.830716130516322e-06
3.3204193174924735e-06   -4.186098845719577e-07   -2.830716130516322e-06
5.732926395245646e-06   -1.1961607960273382e-06   -6.385030713231736e-06
5.732926395245646e-06   -1.1961607960273382e-06   -6.385030713231736e-06
5.732926395245646e-06   -1.1961607960273382e-06   -6.385030713231736e-06
5.732926395245646e-06   -1.1961607960273382e-06   -6.385030713231736e-06
3.3204193174924667e-06   -1.585421805819703e-06   -1.1932599692720104e-05
3.3204193174924667e-06   -1.585421805819703e-06   -1.1932599692720104e-05
3.3204193174924667e-06   -1.585421805819703e-06   -1.1932599692720104e-05
3.3204193174924667e-06   -1.585421805819703e-06   -1.1932599692720104e-05
8.781549454814705e-06   -4.186098845719035e-07   -2.130628977767583e-06
8.781549454814705e-06   -4.186098845719035e-07   -2.130628977767583e-06
8.781549454814705e-06   -4.186098845719035e-07   -2.130628977767583e-06
8.781549454814705e-06   -4.186098845719035e-07   -2.130628977767583e-06
9.355975267188779e-06   -1.017994464730203e-06   -1.3123318738874978e-05
9.355975267188779e-06   -1.017994464730203e-06   -1.3123318738874978e-05
9.355975267188779e-06   -1.017994464730203e-06   -1.3123318738874978e-05
9.355975267188779e-06   -1.017994464730203e-06   -1.3123318738874978e-05
3.3707574235667135e-06   4.033741625349965e-08   -3.7829547947616988e-06
3.3707574235667135e-06   4.033741625349965e-08   -3.7829547947616988e-06
3.3707574235667135e-06   4.033741625349965e-08   -3.7829547947616988e-06
3.3707574235667135e-06   4.033741625349965e-08   -3.7829547947616988e-06
5.849898998982517e-06   -9.375898588537181e-07   -7.328101055390396e-06
5.849898998982517e-06   -9.375898588537181e-07   -7.328101055390396e-06
5.849898998982517e-06   -9.375898588537181e-07   -7.328101055390396e-06
5.849898998982517e-06   -9.375898588537181e-07   -7.328101055390396e-06
-1.123477402348648e-05   1.8167793007109012e-06   -1.0577367066939673e-05
-1.123477402348648e-05   1.8167793007109012e-06   -1.0577367066939673e-05
-1.123477402348648e-05   1.8167793007109012e-06   -1.0577367066939673e-05
-1.123477402348648e-05   1.8167793007109012e-06   -1.0577367066939673e-05
-8.338612008374995e-06   7.33016093247931e-07   -6.40068829956496e-06
-8.338612008374995e-06   7.33016093247931e-07   -6.40068829956496e-06
-8.338612008374995e-06   7.33016093247931e-07   -6.40068829956496e-06
-8.338612008374995e-06   7.33016093247931e-07   -6.40068829956496e-06
-8.218359153082039e-06   2.3166044367818584e-06   -9.331427546149806e-06
-8.218359153082039e-06   2.3166044367818584e-06   -9.331427546149806e-06
-8.218359153082039e-06   2.3166044367818584e-06   -9.331427546149806e-06
-8.218359153082039e-06   2.3166044367818584e-06   -9.331427546149806e-06
-1.0618992661521001e-05   1.147380805998396e-06   -4.628837520281355e-06
-1.0618992661521001e-05   1.147380805998396e-06   -4.628837520281355e-06
-1.0618992661521001e-05   1.147380805998396e-06   -4.628837520281355e-06
-1.0618992661521001e-05   1.147380805998396e-06   -4.628837520281355e-06
-9.195971295875485e-06   1.6310989904909194e-06   -7.290770707053264e-06
-9.195971295875485e-06   1.6310989904909194e-06   -7.290770707053264e-06
-9.195971295875485e-06   1.6310989904909194e-06   -7.290770707053264e-06
-9.195971295875485e-06   1.6310989904909194e-06   -7.290770707053264e-06
-1.0618992661521001e-05   2.3166044367818584e-06   -8.629893367679761e-06
-1.0618992661521001e-05   2.3166044367818584e-06   -8.629893367679761e-06
-1.0618992661521001e-05   2.3166044367818584e-06   -8.629893367679761e-06
-1.0618992661521001e-05   2.3166044367818584e-06   -8.629893367679761e-06
-8.218359153082052e-06   1.147380805998396e-06   -5.330371698751508e-06
-8.218359153082052e-06   1.147380805998396e-06   -5.330371698751508e-06
-8.218359153082052e-06   1.147380805998396e-06   -5.330371698751508e-06
-8.218359153082052e-06   1.147380805998396e-06   -5.330371698751508e-06
-8.04599548169692e-06   2.550592137717637e-06   -8.331450295111567e-06
-8.04599548169692e-06   2.550592137717637e-06   -8.331450295111567e-06
-8.04599548169692e-06   2.550592137717637e-06   -8.331450295111567e-06
-8.04599548169692e-06   2.550592137717637e-06   -8.331450295111567e-06
-1.0129950265014731e-05   1.35808722444774e-06   -4.142689374953256e-06
-1.0129950265014731e-05   1.35808722444774e-06   -4.142689374953256e-06
-1.0129950265014731e-05   1.35808722444774e-06   -4.142689374953256e-06
-1.0129950265014731e-05   1.35808722444774e-06   -4.142689374953256e-06
-9.034751241382248e-06   1.8552374304268157e-06   -6.266311204594806e-06
-9.034751241382248e-06   1.8552374304268157e-06   -6.266311204594806e-06
-9.034751241382248e-06   1.8552374304268157e-06   -6.266311204594806e-06
-9.034751241382248e-06   1.8552374304268157e-06   -6.266311204594806e-06
-1.0129950265014718e-05   2.550592137717637e-06   -7.6159473471496344e-06
-1.0129950265014718e-05   2.550592137717637e-06   -7.6159473471496344e-06
-1.0129950265014718e-05   2.550592137717637e-06   -7.6159473471496344e-06
-1.0129950265014718e-05   2.550592137717637e-06   -7.6159473471496344e-06
-8.045995481696948e-06   1.35808722444774e-06   -4.858192322915162e-06
-8.045995481696948e-06   1.35808722444774e-06   -4.858192322915162e-06
-8.045995481696948e-06   1.35808722444774e-06   -4.858192322915162e-06
-8.045995481696948e-06   1.35808722444774e-06   -4.858192322915162e-06
-7.930493081636882e-06   2.846527743046183e-06   -7.051526930315351e-06
-7.930493081636882e-06   2.846527743046183e-06   -7.051526930315351e-06
-7.930493081636882e-06   2.846527743046183e-06   -7.051526930315351e-06
-7.930493081636882e-06   2.846527743046183e-06   -7.051526930315351e-06
-9.507748238394518e-06   1.6925190039512221e-06   -3.73036309226225e-06
-9.507748238394518e-06   1.6925190039512221e-06   -3.73036309226225e-06
-9.507748238394518e-06   1.6925190039512221e-06   -3.73036309226225e-06
-9.507748238394518e-06   1.6925190039512221e-06   -3.73036309226225e-06
-8.614006199053223e-06   2.0127561925419816e-06   -5.412075470985738e-06
-8.614006199053223e-06   2.0127561925419816e-06   -5.412075470985738e-06
-8.614006199053223e-06   2.0127561925419816e-06   -5.412075470985738e-06
-8.614006199053223e-06   2.0127561925419816e-06   -5.412075470985738e-06
-8.338612008374995e-06   9.445185882566028e-07   -1.5487206785329212e-05
-8.338612008374995e-06   9.445185882566028e-07   -1.5487206785329212e-05
-8.338612008374995e-06   9.445185882566028e-07   -1.5487206785329212e-05
-8.338612008374995e-06   9.445185882566028e-07   -1.5487206785329212e-05
-5.9801518045565625e-06   4.281130493991232e-07   -1.1866283102279681e-05
-5.9801518045565625e-06   4.281130493991232e-07   -1.1866283102279681e-05
-5.9801518045565625e-06   4.281130493991232e-07   -1.1866283102279681e-05
-5.9801518045565625e-06   4.281130493991232e-07   -1.1866283102279681e-05
-5.903063305265626e-06   1.4729578962102978e-06   -1.543380805765006e-05
-5.903063305265626e-06   1.4729578962102978e-06   -1.543380805765006e-05
-5.903063305265626e-06   1.4729578962102978e-06   -1.543380805765006e-05
-5.903063305265626e-06   1.4729578962102978e-06   -1.543380805765006e-05
-8.21835915308208e-06   9.039834373961489e-07   -1.1233596969334025e-05
-8.21835915308208e-06   9.039834373961489e-07   -1.1233596969334025e-05
-8.21835915308208e-06   9.039834373961489e-07   -1.1233596969334025e-05
-8.21835915308208e-06   9.039834373961489e-07   -1.1233596969334025e-05
-7.040666577101479e-06   1.0305397383023464e-06   -1.3272351709845768e-05
-7.040666577101479e-06   1.0305397383023464e-06   -1.3272351709845768e-05
-7.040666577101479e-06   1.0305397383023464e-06   -1.3272351709845768e-05
-7.040666577101479e-06   1.0305397383023464e-06   -1.3272351709845768e-05
-8.218359153082039e-06   1.4729578962102978e-06   -1.509242338236142e-05
-8.218359153082039e-06   1.4729578962102978e-06   -1.509242338236142e-05
-8.218359153082039e-06   1.4729578962102978e-06   -1.509242338236142e-05
-8.218359153082039e-06   1.4729578962102978e-06   -1.509242338236142e-05
-5.903063305265626e-06   9.039834373960947e-07   -1.1574981644622585e-05
-5.903063305265626e-06   9.039834373960947e-07   -1.1574981644622585e-05
-5.903063305265626e-06   9.039834373960947e-07   -1.1574981644622585e-05
-5.903063305265626e-06   9.039834373960947e-07   -1.1574981644622585e-05
-5.817700695562874e-06   1.9549077401459915e-06   -1.5183976483849394e-05
-5.817700695562874e-06   1.9549077401459915e-06   -1.5183976483849394e-05
-5.817700695562874e-06   1.9549077401459915e-06   -1.5183976483849394e-05
-5.817700695562874e-06   1.9549077401459915e-06   -1.5183976483849394e-05
-8.045995481696961e-06   1.3476007001180781e-06   -1.1105767616275796e-05
-8.045995481696961e-06   1.3476007001180781e-06   -1.1105767616275796e-05
-8.045995481696961e-06   1.3476007001180781e-06   -1.1105767616275796e-05
-8.045995481696961e-06   1.3476007001180781e-06   -1.1105767616275796e-05
-6.93843093264854e-06   1.41653025673296e-06   -1.2993066265325274e-05
-6.93843093264854e-06   1.41653025673296e-06   -1.2993066265325274e-05
-6.93843093264854e-06   1.41653025673296e-06   -1.2993066265325274e-05
-6.93843093264854e-06   1.41653025673296e-06   -1.2993066265325274e-05
-8.04599548169692e-06   1.9549077401459915e-06   -1.4819592259832602e-05
-8.04599548169692e-06   1.9549077401459915e-06   -1.4819592259832602e-05
-8.04599548169692e-06   1.9549077401459915e-06   -1.4819592259832602e-05
-8.04599548169692e-06   1.9549077401459915e-06   -1.4819592259832602e-05
-5.81770069556286e-06   1.3476007001181323e-06   -1.1470151840292506e-05
-5.81770069556286e-06   1.3476007001181323e-06   -1.1470151840292506e-05
-5.81770069556286e-06   1.3476007001181323e-06   -1.1470151840292506e-05
-5.81770069556286e-06   1.3476007001181323e-06   -1.1470151840292506e-05
-5.742428651134716e-06   2.47953722066509e-06   -1.5331367672591475e-05
-5.742428651134716e-06   2.47953722066509e-06   -1.5331367672591475e-05
-5.742428651134716e-06   2.47953722066509e-06   -1.5331367672591475e-05
-5.742428651134716e-06   2.47953722066509e-06   -1.5331367672591475e-05
-7.930493081636909e-06   1.8416443125991353e-06   -1.1301857876914843e-05
-7.930493081636909e-06   1.8416443125991353e-06   -1.1301857876914843e-05
-7.930493081636909e-06   1.8416443125991353e-06   -1.1301857876914843e-05
-7.930493081636909e-06   1.8416443125991353e-06   -1.1301857876914843e-05
-6.9006855019578796e-06   1.8087247351675564e-06   -1.2998452096587787e-05
-6.9006855019578796e-06   1.8087247351675564e-06   -1.2998452096587787e-05
-6.9006855019578796e-06   1.8087247351675564e-06   -1.2998452096587787e-05
-6.9006855019578796e-06   1.8087247351675564e-06   -1.2998452096587787e-05
-5.980151804556542e-06   1.6587724094535398e-07   -1.7526578748922994e-05
-5.980151804556542e-06   1.6587724094535398e-07   -1.7526578748922994e-05
-5.980151804556542e-06   1.6587724094535398e-07   -1.7526578748922994e-05
-5.980151804556542e-06   1.6587724094535398e-07   -1.7526578748922994e-05
-3.677443802573314e-06   2.5018458938027253e-07   -1.3638147669889968e-05
-3.677443802573314e-06   2.5018458938027253e-07   -1.3638147669889968e-05
-3.677443802573314e-06   2.5018458938027253e-07   -1.3638147669889968e-05
-3.677443802573314e-06   2.5018458938027253e-07   -1.3638147669889968e-05
-3.602710111143395e-06   6.983397651332229e-07   -1.7303092442180464e-05
-3.602710111143395e-06   6.983397651332229e-07   -1.7303092442180464e-05
-3.602710111143395e-06   6.983397651332229e-07   -1.7303092442180464e-05
-3.602710111143395e-06   6.983397651332229e-07   -1.7303092442180464e-05
-5.903063305265626e-06   7.361384828686603e-07   -1.34918496826178e-05
-5.903063305265626e-06   7.361384828686603e-07   -1.34918496826178e-05
-5.903063305265626e-06   7.361384828686603e-07   -1.34918496826178e-05
-5.903063305265626e-06   7.361384828686603e-07   -1.34918496826178e-05
-4.759990370598844e-06   5.310121274046701e-07   -1.5273895427117735e-05
-4.759990370598844e-06   5.310121274046701e-07   -1.5273895427117735e-05
-4.759990370598844e-06   5.310121274046701e-07   -1.5273895427117735e-05
-4.759990370598844e-06   5.310121274046701e-07   -1.5273895427117735e-05
-5.903063305265612e-06   6.983397651332229e-07   -1.732577167282159e-05
-5.903063305265612e-06   6.983397651332229e-07   -1.732577167282159e-05
-5.903063305265612e-06   6.983397651332229e-07   -1.732577167282159e-05
-5.903063305265612e-06   6.983397651332229e-07   -1.732577167282159e-05
-3.602710111143395e-06   7.361384828686603e-07   -1.3469170451976646e-05
-3.602710111143395e-06   7.361384828686603e-07   -1.3469170451976646e-05
-3.602710111143395e-06   7.361384828686603e-07   -1.3469170451976646e-05
-3.602710111143395e-06   7.361384828686603e-07   -1.3469170451976646e-05
-3.517911199895457e-06   1.23252269678179e-06   -1.7346928157136116e-05
-3.517911199895457e-06   1.23252269678179e-06   -1.7346928157136116e-05
-3.517911199895457e-06   1.23252269678179e-06   -1.7346928157136116e-05
-3.517911199895457e-06   1.23252269678179e-06   -1.7346928157136116e-05
-5.81770069556286e-06   1.2262913748409808e-06   -1.3510206871192591e-05
-5.81770069556286e-06   1.2262913748409808e-06   -1.3510206871192591e-05
-5.81770069556286e-06   1.2262913748409808e-06   -1.3510206871192591e-05
-5.81770069556286e-06   1.2262913748409808e-06   -1.3510206871192591e-05
-4.711063040391833e-06   9.494002379491001e-07   -1.5188468281009155e-05
-4.711063040391833e-06   9.494002379491001e-07   -1.5188468281009155e-05
-4.711063040391833e-06   9.494002379491001e-07   -1.5188468281009155e-05
-4.711063040391833e-06   9.494002379491001e-07   -1.5188468281009155e-05
-5.817700695562853e-06   1.2325226967817358e-06   -1.734318936397162e-05
-5.817700695562853e-06   1.2325226967817358e-06   -1.734318936397162e-05
-5.817700695562853e-06   1.2325226967817358e-06   -1.734318936397162e-05
-5.817700695562853e-06   1.2325226967817358e-06   -1.734318936397162e-05
-3.5179111998954628e-06   1.2262913748409808e-06   -1.3513945664357034e-05
-3.5179111998954628e-06   1.2262913748409808e-06   -1.3513945664357034e-05
-3.5179111998954628e-06   1.2262913748409808e-06   -1.3513945664357034e-05
-3.5179111998954628e-06   1.2262913748409808e-06   -1.3513945664357034e-05
-3.441932767032668e-06   1.7760446283605685e-06   -1.7638668258760173e-05
-3.441932767032668e-06   1.7760446283605685e-06   -1.7638668258760173e-05
-3.441932767032668e-06   1.7760446283605685e-06   -1.7638668258760173e-05
-3.441932767032668e-06   1.7760446283605685e-06   -1.7638668258760173e-05
-5.742428651134716e-06   1.7239089348714573e-06   -1.3773227035829812e-05
-5.742428651134716e-06   1.7239089348714573e-06   -1.3773227035829812e-05
-5.742428651134716e-06   1.7239089348714573e-06   -1.3773227035829812e-05
-5.742428651134716e-06   1.7239089348714573e-06   -1.3773227035829812e-05
-4.6713320538256765e-06   1.3733715906026232e-06   -1.5348065624783707e-05
-4.6713320538256765e-06   1.3733715906026232e-06   -1.5348065624783707e-05
-4.6713320538256765e-06   1.3733715906026232e-06   -1.5348065624783707e-05
-4.6713320538256765e-06   1.3733715906026232e-06   -1.5348065624783707e-05
-3.677443802573301e-06   -5.453094396374496e-07   -1.5354825257167455e-05
-3.677443802573301e-06   -5.453094396374496e-07   -1.5354825257167455e-05
-3.677443802573301e-06   -5.453094396374496e-07   -1.5354825257167455e-05
-3.677443802573301e-06   -5.453094396374496e-07   -1.5354825257167455e-05
-1.4530554405529946e-06   1.1561617296418185e-07   -1.1250955952906002e-05
-1.4530554405529946e-06   1.1561617296418185e-07   -1.1250955952906002e-05
-1.4530554405529946e-06   1.1561617296418185e-07   -1.1250955952906002e-05
-1.4530554405529946e-06   1.1561617296418185e-07   -1.1250955952906002e-05
-1.339670899072437e-06   -4.261533896100268e-08   -1.4856035212809415e-05
-1.339670899072437e-06   -4.261533896100268e-08   -1.4856035212809415e-05
-1.339670899072437e-06   -4.261533896100268e-08   -1.4856035212809415e-05
-1.339670899072437e-06   -4.261533896100268e-08   -1.4856035212809415e-05
-3.6027101111433885e-06   5.873248790582526e-07   -1.1462267323502596e-05
-3.6027101111433885e-06   5.873248790582526e-07   -1.1462267323502596e-05
-3.6027101111433885e-06   5.873248790582526e-07   -1.1462267323502596e-05
-3.6027101111433885e-06   5.873248790582526e-07   -1.1462267323502596e-05
-2.4927395588122656e-06   7.775766985829678e-08   -1.300647791853472e-05
-2.4927395588122656e-06   7.775766985829678e-08   -1.300647791853472e-05
-2.4927395588122656e-06   7.775766985829678e-08   -1.300647791853472e-05
-2.4927395588122656e-06   7.775766985829678e-08   -1.300647791853472e-05
-3.602710111143382e-06   -4.261533896094847e-08   -1.5233999343620925e-05
-3.602710111143382e-06   -4.261533896094847e-08   -1.5233999343620925e-05
-3.602710111143382e-06   -4.261533896094847e-08   -1.5233999343620925e-05
-3.602710111143382e-06   -4.261533896094847e-08   -1.5233999343620925e-05
-1.3396708990724303e-06   5.873248790582526e-07   -1.1084303192691132e-05
-1.3396708990724303e-06   5.873248790582526e-07   -1.1084303192691132e-05
-1.3396708990724303e-06   5.873248790582526e-07   -1.1084303192691132e-05
-1.3396708990724303e-06   5.873248790582526e-07   -1.1084303192691132e-05
-1.1685308222671569e-06   4.399135596065717e-07   -1.505267453392377e-05
-1.1685308222671569e-06   4.399135596065717e-07   -1.505267453392377e-05
-1.1685308222671569e-06   4.399135596065717e-07   -1.505267453392377e-05
-1.1685308222671569e-06   4.399135596065717e-07   -1.505267453392377e-05
-3.517911199895457e-06   1.0308659773616597e-06   -1.1491612021863018e-05
-3.517911199895457e-06   1.0308659773616597e-06   -1.1491612021863018e-05
-3.517911199895457e-06   1.0308659773616597e-06   -1.1491612021863018e-05
-3.517911199895457e-06   1.0308659773616597e-06   -1.1491612021863018e-05
-2.425019532316639e-06   4.591949673241492e-07   -1.2970095528471892e-05
-2.425019532316639e-06   4.591949673241492e-07   -1.2970095528471892e-05
-2.425019532316639e-06   4.591949673241492e-07   -1.2970095528471892e-05
-2.425019532316639e-06   4.591949673241492e-07   -1.2970095528471892e-05
-3.517911199895448e-06   4.399135596065717e-07   -1.540724598457678e-05
-3.517911199895448e-06   4.399135596065717e-07   -1.540724598457678e-05
-3.517911199895448e-06   4.399135596065717e-07   -1.540724598457678e-05
-3.517911199895448e-06   4.399135596065717e-07   -1.540724598457678e-05
-1.1685308222671636e-06   1.0308659773617139e-06   -1.113704057120995e-05
-1.1685308222671636e-06   1.0308659773617139e-06   -1.113704057120995e-05
-1.1685308222671636e-06   1.0308659773617139e-06   -1.113704057120995e-05
-1.1685308222671636e-06   1.0308659773617139e-06   -1.113704057120995e-05
-1.0495157361158853e-06   9.917503113811591e-07   -1.5473374826629945e-05
-1.0495157361158853e-06   9.917503113811591e-07   -1.5473374826629945e-05
-1.0495157361158853e-06   9.917503113811591e-07   -1.5473374826629945e-05
-1.0495157361158853e-06   9.917503113811591e-07   -1.5473374826629945e-05
-3.441932767032668e-06   1.5311526015273171e-06   -1.1809654482522895e-05
-3.441932767032668e-06   1.5311526015273171e-06   -1.1809654482522895e-05
-3.441932767032668e-06   1.5311526015273171e-06   -1.1809654482522895e-05
-3.441932767032668e-06   1.5311526015273171e-06   -1.1809654482522895e-05
-2.3546378248886276e-06   8.577366695687117e-07   -1.3217763160254547e-05
-2.3546378248886276e-06   8.577366695687117e-07   -1.3217763160254547e-05
-2.3546378248886276e-06   8.577366695687117e-07   -1.3217763160254547e-05
-2.3546378248886276e-06   8.577366695687117e-07   -1.3217763160254547e-05
-1.4530554405529878e-06   -9.953626342393686e-07   -8.317530815813622e-06
-1.4530554405529878e-06   -9.953626342393686e-07   -8.317530815813622e-06
-1.4530554405529878e-06   -9.953626342393686e-07   -8.317530815813622e-06
-1.4530554405529878e-06   -9.953626342393686e-07   -8.317530815813622e-06
1.5646751843004648e-07   1.7001734062369479e-07   -4.935764565924155e-06
1.5646751843004648e-07   1.7001734062369479e-07   -4.935764565924155e-06
1.5646751843004648e-07   1.7001734062369479e-07   -4.935764565924155e-06
1.5646751843004648e-07   1.7001734062369479e-07   -4.935764565924155e-06
7.728777557619397e-07   -6.533669873153556e-07   -7.920511630002056e-06
7.728777557619397e-07   -6.533669873153556e-07   -7.920511630002056e-06
7.728777557619397e-07   -6.533669873153556e-07   -7.920511630002056e-06
7.728777557619397e-07   -6.533669873153556e-07   -7.920511630002056e-06
-1.339670899072437e-06   5.440751179196972e-07   -5.118062468419029e-06
-1.339670899072437e-06   5.440751179196972e-07   -5.118062468419029e-06
-1.339670899072437e-06   5.440751179196972e-07   -5.118062468419029e-06
-1.339670899072437e-06   5.440751179196972e-07   -5.118062468419029e-06
-4.5137527662289715e-07   -1.8438650530310137e-07   -6.1614781985681026e-06
-4.5137527662289715e-07   -1.8438650530310137e-07   -6.1614781985681026e-06
-4.5137527662289715e-07   -1.8438650530310137e-07   -6.1614781985681026e-06
-4.5137527662289715e-07   -1.8438650530310137e-07   -6.1614781985681026e-06
-1.3396708990724303e-06   -6.533669873153556e-07   -8.638976893143033e-06
-1.3396708990724303e-06   -6.533669873153556e-07   -8.638976893143033e-06
-1.3396708990724303e-06   -6.533669873153556e-07   -8.638976893143033e-06
-1.3396708990724303e-06   -6.533669873153556e-07   -8.638976893143033e-06
7.728777557619397e-07   5.440751179196972e-07   -4.399597205278051e-06
7.728777557619397e-07   5.440751179196972e-07   -4.399597205278051e-06
7.728777557619397e-07   5.440751179196972e-07   -4.399597205278051e-06
7.728777557619397e-07   5.440751179196972e-07   -4.399597205278051e-06
1.2600127891127032e-06   -4.186098845719577e-07   -8.342793772979416e-06
1.2600127891127032e-06   -4.186098845719577e-07   -8.342793772979416e-06
1.2600127891127032e-06   -4.186098845719577e-07   -8.342793772979416e-06
1.2600127891127032e-06   -4.186098845719577e-07   -8.342793772979416e-06
-1.1685308222671569e-06   7.538120195548794e-07   -4.998674229822291e-06
-1.1685308222671569e-06   7.538120195548794e-07   -4.998674229822291e-06
-1.1685308222671569e-06   7.538120195548794e-07   -4.998674229822291e-06
-1.1685308222671569e-06   7.538120195548794e-07   -4.998674229822291e-06
-1.4241733095065015e-07   -4.201735888419763e-09   -6.254055128750453e-06
-1.4241733095065015e-07   -4.201735888419763e-09   -6.254055128750453e-06
-1.4241733095065015e-07   -4.201735888419763e-09   -6.254055128750453e-06
-1.4241733095065015e-07   -4.201735888419763e-09   -6.254055128750453e-06
-1.1685308222671569e-06   -4.186098845719577e-07   -9.046246915455497e-06
-1.1685308222671569e-06   -4.186098845719577e-07   -9.046246915455497e-06
-1.1685308222671569e-06   -4.186098845719577e-07   -9.046246915455497e-06
-1.1685308222671569e-06   -4.186098845719577e-07   -9.046246915455497e-06
1.2600127891127032e-06   7.538120195548794e-07   -4.2952210873462644e-06
1.2600127891127032e-06   7.538120195548794e-07   -4.2952210873462644e-06
1.2600127891127032e-06   7.538120195548794e-07   -4.2952210873462644e-06
1.2600127891127032e-06   7.538120195548794e-07   -4.2952210873462644e-06
1.8772408462499219e-06   4.033741625349965e-08   -9.335235970983304e-06
1.8772408462499219e-06   4.033741625349965e-08   -9.335235970983304e-06
1.8772408462499219e-06   4.033741625349965e-08   -9.335235970983304e-06
1.8772408462499219e-06   4.033741625349965e-08   -9.335235970983304e-06
-1.0495157361158853e-06   1.1228010522466641e-06   -5.106786515302731e-06
-1.0495157361158853e-06   1.1228010522466641e-06   -5.106786515302731e-06
-1.0495157361158853e-06   1.1228010522466641e-06   -5.106786515302731e-06
-1.0495157361158853e-06   1.1228010522466641e-06   -5.106786515302731e-06
1.2810057178318037e-07   1.985241090346826e-07   -6.514914195874152e-06
1.2810057178318037e-07   1.985241090346826e-07   -6.514914195874152e-06
1.2810057178318037e-07   1.985241090346826e-07   -6.514914195874152e-06
1.2810057178318037e-07   1.985241090346826e-07   -6.514914195874152e-06
-3.836019702667322e-06   7.33016093247931e-07   -6.990767814447777e-06
-3.836019702667322e-06   7.33016093247931e-07   -6.990767814447777e-06
-3.836019702667322e-06   7.33016093247931e-07   -6.990767814447777e-06
-3.836019702667322e-06   7.33016093247931e-07   -6.990767814447777e-06
-3.962668383629869e-06   -3.5234881966446363e-07   -7.85306789713287e-06
-3.962668383629869e-06   -3.5234881966446363e-07   -7.85306789713287e-06
-3.962668383629869e-06   -3.5234881966446363e-07   -7.85306789713287e-06
-3.962668383629869e-06   -3.5234881966446363e-07   -7.85306789713287e-06
-3.7685557256762872e-06   1.1473808059983418e-06   -6.57018136409975e-06
-3.7685557256762872e-06   1.1473808059983418e-06   -6.57018136409975e-06
-3.7685557256762872e-06   1.1473808059983418e-06   -6.57018136409975e-06
-3.7685557256762872e-06   1.1473808059983418e-06   -6.57018136409975e-06
-3.15266219129713e-06   -1.8620380017606367e-08   -6.8970698764553285e-06
-3.15266219129713e-06   -1.8620380017606367e-08   -6.8970698764553285e-06
-3.15266219129713e-06   -1.8620380017606367e-08   -6.8970698764553285e-06
-3.15266219129713e-06   -1.8620380017606367e-08   -6.8970698764553285e-06
-3.519456675099271e-06   5.050453830449065e-07   -6.599945194622883e-06
-3.519456675099271e-06   5.050453830449065e-07   -6.599945194622883e-06
-3.519456675099271e-06   5.050453830449065e-07   -6.599945194622883e-06
-3.519456675099271e-06   5.050453830449065e-07   -6.599945194622883e-06
-3.152662191297157e-06   1.1473808059983418e-06   -5.870580652490116e-06
-3.152662191297157e-06   1.1473808059983418e-06   -5.870580652490116e-06
-3.152662191297157e-06   1.1473808059983418e-06   -5.870580652490116e-06
-3.152662191297157e-06   1.1473808059983418e-06   -5.870580652490116e-06
-3.7685557256762872e-06   -1.8620380017606367e-08   -7.5966705880649895e-06
-3.7685557256762872e-06   -1.8620380017606367e-08   -7.5966705880649895e-06
-3.7685557256762872e-06   -1.8620380017606367e-08   -7.5966705880649895e-06
-3.7685557256762872e-06   -1.8620380017606367e-08   -7.5966705880649895e-06
-3.5227866393384776e-06   1.3580872244477941e-06   -6.0964887868133555e-06
-3.5227866393384776e-06   1.3580872244477941e-06   -6.0964887868133555e-06
-3.5227866393384776e-06   1.3580872244477941e-06   -6.0964887868133555e-06
-3.5227866393384776e-06   1.3580872244477941e-06   -6.0964887868133555e-06
-2.590103110331756e-06   1.717197774214578e-07   -6.939140866942076e-06
-2.590103110331756e-06   1.717197774214578e-07   -6.939140866942076e-06
-2.590103110331756e-06   1.717197774214578e-07   -6.939140866942076e-06
-2.590103110331756e-06   1.717197774214578e-07   -6.939140866942076e-06
-3.19832094765166e-06   6.772453819918868e-07   -6.228759834151458e-06
-3.19832094765166e-06   6.772453819918868e-07   -6.228759834151458e-06
-3.19832094765166e-06   6.772453819918868e-07   -6.228759834151458e-06
-3.19832094765166e-06   6.772453819918868e-07   -6.228759834151458e-06
-2.590103110331756e-06   1.3580872244477941e-06   -5.384668318597608e-06
-2.590103110331756e-06   1.3580872244477941e-06   -5.384668318597608e-06
-2.590103110331756e-06   1.3580872244477941e-06   -5.384668318597608e-06
-2.590103110331756e-06   1.3580872244477941e-06   -5.384668318597608e-06
-3.5227866393384776e-06   1.7171977742156622e-07   -7.65096133515785e-06
-3.5227866393384776e-06   1.7171977742156622e-07   -7.65096133515785e-06
-3.5227866393384776e-06   1.7171977742156622e-07   -7.65096133515785e-06
-3.5227866393384776e-06   1.7171977742156622e-07   -7.65096133515785e-06
-3.3332018389152816e-06   1.6925190039512221e-06   -5.659069273073261e-06
-3.3332018389152816e-06   1.6925190039512221e-06   -5.659069273073261e-06
-3.3332018389152816e-06   1.6925190039512221e-06   -5.659069273073261e-06
-3.3332018389152816e-06   1.6925190039512221e-06   -5.659069273073261e-06
-1.8955199032488106e-06   5.50801673032523e-07   -7.370175433966052e-06
-1.8955199032488106e-06   5.50801673032523e-07   -7.370175433966052e-06
-1.8955199032488106e-06   5.50801673032523e-07   -7.370175433966052e-06
-1.8955199032488106e-06   5.50801673032523e-07   -7.370175433966052e-06
-2.7987868136310088e-06   8.442310382684396e-07   -6.040788202470567e-06
-2.7987868136310088e-06   8.442310382684396e-07   -6.040788202470567e-06
-2.7987868136310088e-06   8.442310382684396e-07   -6.040788202470567e-06
-2.7987868136310088e-06   8.442310382684396e-07   -6.040788202470567e-06
-3.962668383629856e-06   4.281130493991232e-07   -1.2797738241595452e-05
-3.962668383629856e-06   4.281130493991232e-07   -1.2797738241595452e-05
-3.962668383629856e-06   4.281130493991232e-07   -1.2797738241595452e-05
-3.962668383629856e-06   4.281130493991232e-07   -1.2797738241595452e-05
-4.623960202988612e-06   -7.125131295713204e-08   -1.419950989127382e-05
-4.623960202988612e-06   -7.125131295713204e-08   -1.419950989127382e-05
-4.623960202988612e-06   -7.125131295713204e-08   -1.419950989127382e-05
-4.623960202988612e-06   -7.125131295713204e-08   -1.419950989127382e-05
-4.4688003762367686e-06   9.039834373960947e-07   -1.2805291951990968e-05
-4.4688003762367686e-06   9.039834373960947e-07   -1.2805291951990968e-05
-4.4688003762367686e-06   9.039834373960947e-07   -1.2805291951990968e-05
-4.4688003762367686e-06   9.039834373960947e-07   -1.2805291951990968e-05
-3.7685557256762872e-06   3.5084124188169193e-07   -1.3640481052283008e-05
-3.7685557256762872e-06   3.5084124188169193e-07   -1.3640481052283008e-05
-3.7685557256762872e-06   3.5084124188169193e-07   -1.3640481052283008e-05
-3.7685557256762872e-06   3.5084124188169193e-07   -1.3640481052283008e-05
-4.157145478215491e-06   4.970065355183479e-07   -1.308053064089989e-05
-4.157145478215491e-06   4.970065355183479e-07   -1.308053064089989e-05
-4.157145478215491e-06   4.970065355183479e-07   -1.308053064089989e-05
-4.157145478215491e-06   4.970065355183479e-07   -1.308053064089989e-05
-3.7685557256762872e-06   9.039834373961489e-07   -1.2473406634682185e-05
-3.7685557256762872e-06   9.039834373961489e-07   -1.2473406634682185e-05
-3.7685557256762872e-06   9.039834373961489e-07   -1.2473406634682185e-05
-3.7685557256762872e-06   9.039834373961489e-07   -1.2473406634682185e-05
-4.468800376236762e-06   3.5084124188169193e-07   -1.3972366369591682e-05
-4.468800376236762e-06   3.5084124188169193e-07   -1.3972366369591682e-05
-4.468800376236762e-06   3.5084124188169193e-07   -1.3972366369591682e-05
-4.468800376236762e-06   3.5084124188169193e-07   -1.3972366369591682e-05
-4.30727894914829e-06   1.3476007001180781e-06   -1.2697676141946133e-05
-4.30727894914829e-06   1.3476007001180781e-06   -1.2697676141946133e-05
-4.30727894914829e-06   1.3476007001180781e-06   -1.2697676141946133e-05
-4.30727894914829e-06   1.3476007001180781e-06   -1.2697676141946133e-05
-3.5227866393384776e-06   7.58247263831272e-07   -1.3651551263190229e-05
-3.5227866393384776e-06   7.58247263831272e-07   -1.3651551263190229e-05
-3.5227866393384776e-06   7.58247263831272e-07   -1.3651551263190229e-05
-3.5227866393384776e-06   7.58247263831272e-07   -1.3651551263190229e-05
-4.001818876579529e-06   8.386273103905576e-07   -1.2901392229057492e-05
-4.001818876579529e-06   8.386273103905576e-07   -1.2901392229057492e-05
-4.001818876579529e-06   8.386273103905576e-07   -1.2901392229057492e-05
-4.001818876579529e-06   8.386273103905576e-07   -1.2901392229057492e-05
-3.5227866393384776e-06   1.3476007001180781e-06   -1.2344064080173963e-05
-3.5227866393384776e-06   1.3476007001180781e-06   -1.2344064080173963e-05
-3.5227866393384776e-06   1.3476007001180781e-06   -1.2344064080173963e-05
-3.5227866393384776e-06   1.3476007001180781e-06   -1.2344064080173963e-05
-4.3072789491482765e-06   7.582472638311636e-07   -1.4005163324962318e-05
-4.3072789491482765e-06   7.582472638311636e-07   -1.4005163324962318e-05
-4.3072789491482765e-06   7.582472638311636e-07   -1.4005163324962318e-05
-4.3072789491482765e-06   7.582472638311636e-07   -1.4005163324962318e-05
-4.155741788857156e-06   1.8416443125991353e-06   -1.2908436669738785e-05
-4.155741788857156e-06   1.8416443125991353e-06   -1.2908436669738785e-05
-4.155741788857156e-06   1.8416443125991353e-06   -1.2908436669738785e-05
-4.155741788857156e-06   1.8416443125991353e-06   -1.2908436669738785e-05
-3.3332018389152816e-06   1.224514553482478e-06   -1.3909058730838516e-05
-3.3332018389152816e-06   1.224514553482478e-06   -1.3909058730838516e-05
-3.3332018389152816e-06   1.224514553482478e-06   -1.3909058730838516e-05
-3.3332018389152816e-06   1.224514553482478e-06   -1.3909058730838516e-05
-3.865852827455819e-06   1.1981692743823777e-06   -1.3005499915810925e-05
-3.865852827455819e-06   1.1981692743823777e-06   -1.3005499915810925e-05
-3.865852827455819e-06   1.1981692743823777e-06   -1.3005499915810925e-05
-3.865852827455819e-06   1.1981692743823777e-06   -1.3005499915810925e-05
-4.623960202988592e-06   2.5018458938027253e-07   -1.491980583568053e-05
-4.623960202988592e-06   2.5018458938027253e-07   -1.491980583568053e-05
-4.623960202988592e-06   2.5018458938027253e-07   -1.491980583568053e-05
-4.623960202988592e-06   2.5018458938027253e-07   -1.491980583568053e-05
-5.312378662411494e-06   3.570846815984137e-07   -1.6003029879387812e-05
-5.312378662411494e-06   3.570846815984137e-07   -1.6003029879387812e-05
-5.312378662411494e-06   3.570846815984137e-07   -1.6003029879387812e-05
-5.312378662411494e-06   3.570846815984137e-07   -1.6003029879387812e-05
-5.160290284849047e-06   7.361384828686603e-07   -1.4687038017920453e-05
-5.160290284849047e-06   7.361384828686603e-07   -1.4687038017920453e-05
-5.160290284849047e-06   7.361384828686603e-07   -1.4687038017920453e-05
-5.160290284849047e-06   7.361384828686603e-07   -1.4687038017920453e-05
-4.4688003762367686e-06   7.946751029782196e-07   -1.5874643171006624e-05
-4.4688003762367686e-06   7.946751029782196e-07   -1.5874643171006624e-05
-4.4688003762367686e-06   7.946751029782196e-07   -1.5874643171006624e-05
-4.4688003762367686e-06   7.946751029782196e-07   -1.5874643171006624e-05
-4.861862060598198e-06   6.030703194780584e-07   -1.5104577493637718e-05
-4.861862060598198e-06   6.030703194780584e-07   -1.5104577493637718e-05
-4.861862060598198e-06   6.030703194780584e-07   -1.5104577493637718e-05
-4.861862060598198e-06   6.030703194780584e-07   -1.5104577493637718e-05
-4.468800376236755e-06   7.361384828686603e-07   -1.4722159989986156e-05
-4.468800376236755e-06   7.361384828686603e-07   -1.4722159989986156e-05
-4.468800376236755e-06   7.361384828686603e-07   -1.4722159989986156e-05
-4.468800376236755e-06   7.361384828686603e-07   -1.4722159989986156e-05
-5.160290284849056e-06   7.946751029782196e-07   -1.5839521198940962e-05
-5.160290284849056e-06   7.946751029782196e-07   -1.5839521198940962e-05
-5.160290284849056e-06   7.946751029782196e-07   -1.5839521198940962e-05
-5.160290284849056e-06   7.946751029782196e-07   -1.5839521198940962e-05
-4.999728106869763e-06   1.2262913748409808e-06   -1.4728500758118713e-05
-4.999728106869763e-06   1.2262913748409808e-06   -1.4728500758118713e-05
-4.999728106869763e-06   1.2262913748409808e-06   -1.4728500758118713e-05
-4.999728106869763e-06   1.2262913748409808e-06   -1.4728500758118713e-05
-4.30727894914829e-06   1.2416753993868329e-06   -1.5891813102381934e-05
-4.30727894914829e-06   1.2416753993868329e-06   -1.5891813102381934e-05
-4.30727894914829e-06   1.2416753993868329e-06   -1.5891813102381934e-05
-4.30727894914829e-06   1.2416753993868329e-06   -1.5891813102381934e-05
-4.735121878591974e-06   9.783132805182837e-07   -1.5020724281988255e-05
-4.735121878591974e-06   9.783132805182837e-07   -1.5020724281988255e-05
-4.735121878591974e-06   9.783132805182837e-07   -1.5020724281988255e-05
-4.735121878591974e-06   9.783132805182837e-07   -1.5020724281988255e-05
-4.3072789491482765e-06   1.2262913748409808e-06   -1.4737731172846137e-05
-4.3072789491482765e-06   1.2262913748409808e-06   -1.4737731172846137e-05
-4.3072789491482765e-06   1.2262913748409808e-06   -1.4737731172846137e-05
-4.3072789491482765e-06   1.2262913748409808e-06   -1.4737731172846137e-05
-4.999728106869763e-06   1.2416753993868329e-06   -1.5882582687654415e-05
-4.999728106869763e-06   1.2416753993868329e-06   -1.5882582687654415e-05
-4.999728106869763e-06   1.2416753993868329e-06   -1.5882582687654415e-05
-4.999728106869763e-06   1.2416753993868329e-06   -1.5882582687654415e-05
-4.848452679502929e-06   1.7239089348715115e-06   -1.5014437219896127e-05
-4.848452679502929e-06   1.7239089348715115e-06   -1.5014437219896127e-05
-4.848452679502929e-06   1.7239089348715115e-06   -1.5014437219896127e-05
-4.848452679502929e-06   1.7239089348715115e-06   -1.5014437219896127e-05
-4.155741788857163e-06   1.6949637080683174e-06   -1.6151588234890446e-05
-4.155741788857163e-06   1.6949637080683174e-06   -1.6151588234890446e-05
-4.155741788857163e-06   1.6949637080683174e-06   -1.6151588234890446e-05
-4.155741788857163e-06   1.6949637080683174e-06   -1.6151588234890446e-05
-4.619027942636203e-06   1.358851027621769e-06   -1.5177777036990884e-05
-4.619027942636203e-06   1.358851027621769e-06   -1.5177777036990884e-05
-4.619027942636203e-06   1.358851027621769e-06   -1.5177777036990884e-05
-4.619027942636203e-06   1.358851027621769e-06   -1.5177777036990884e-05
-5.312378662411475e-06   1.1561617296418185e-07   -1.2865029430926588e-05
-5.312378662411475e-06   1.1561617296418185e-07   -1.2865029430926588e-05
-5.312378662411475e-06   1.1561617296418185e-07   -1.2865029430926588e-05
-5.312378662411475e-06   1.1561617296418185e-07   -1.2865029430926588e-05
-6.044905377965936e-06   7.908362842261926e-07   -1.3680775223426866e-05
-6.044905377965936e-06   7.908362842261926e-07   -1.3680775223426866e-05
-6.044905377965936e-06   7.908362842261926e-07   -1.3680775223426866e-05
-6.044905377965936e-06   7.908362842261926e-07   -1.3680775223426866e-05
-5.859706736272551e-06   5.873248790582526e-07   -1.2294167642846641e-05
-5.859706736272551e-06   5.873248790582526e-07   -1.2294167642846641e-05
-5.859706736272551e-06   5.873248790582526e-07   -1.2294167642846641e-05
-5.859706736272551e-06   5.873248790582526e-07   -1.2294167642846641e-05
-5.160290284849047e-06   1.2306036233913561e-06   -1.3845828975152227e-05
-5.160290284849047e-06   1.2306036233913561e-06   -1.3845828975152227e-05
-5.160290284849047e-06   1.2306036233913561e-06   -1.3845828975152227e-05
-5.160290284849047e-06   1.2306036233913561e-06   -1.3845828975152227e-05
-5.550899482306097e-06   7.295686354222633e-07   -1.2894192653275937e-05
-5.550899482306097e-06   7.295686354222633e-07   -1.2894192653275937e-05
-5.550899482306097e-06   7.295686354222633e-07   -1.2894192653275937e-05
-5.550899482306097e-06   7.295686354222633e-07   -1.2894192653275937e-05
-5.160290284849038e-06   5.873248790582526e-07   -1.2680134889446449e-05
-5.160290284849038e-06   5.873248790582526e-07   -1.2680134889446449e-05
-5.160290284849038e-06   5.873248790582526e-07   -1.2680134889446449e-05
-5.160290284849038e-06   5.873248790582526e-07   -1.2680134889446449e-05
-5.859706736272551e-06   1.2306036233912477e-06   -1.3459861728552455e-05
-5.859706736272551e-06   1.2306036233912477e-06   -1.3459861728552455e-05
-5.859706736272551e-06   1.2306036233912477e-06   -1.3459861728552455e-05
-5.859706736272551e-06   1.2306036233912477e-06   -1.3459861728552455e-05
-5.617674349669296e-06   1.0308659773616597e-06   -1.2343417559028966e-05
-5.617674349669296e-06   1.0308659773616597e-06   -1.2343417559028966e-05
-5.617674349669296e-06   1.0308659773616597e-06   -1.2343417559028966e-05
-5.617674349669296e-06   1.0308659773616597e-06   -1.2343417559028966e-05
-4.999728106869754e-06   1.6354485716877634e-06   -1.373607752029047e-05
-4.999728106869754e-06   1.6354485716877634e-06   -1.373607752029047e-05
-4.999728106869754e-06   1.6354485716877634e-06   -1.373607752029047e-05
-4.999728106869754e-06   1.6354485716877634e-06   -1.373607752029047e-05
-5.385210800091863e-06   1.0792167669817186e-06   -1.2759867282096899e-05
-5.385210800091863e-06   1.0792167669817186e-06   -1.2759867282096899e-05
-5.385210800091863e-06   1.0792167669817186e-06   -1.2759867282096899e-05
-5.385210800091863e-06   1.0792167669817186e-06   -1.2759867282096899e-05
-4.999728106869741e-06   1.0308659773617139e-06   -1.2706167115624477e-05
-4.999728106869741e-06   1.0308659773617139e-06   -1.2706167115624477e-05
-4.999728106869741e-06   1.0308659773617139e-06   -1.2706167115624477e-05
-4.999728106869741e-06   1.0308659773617139e-06   -1.2706167115624477e-05
-5.617674349669303e-06   1.635448571687655e-06   -1.3373327963694893e-05
-5.617674349669303e-06   1.635448571687655e-06   -1.3373327963694893e-05
-5.617674349669303e-06   1.635448571687655e-06   -1.3373327963694893e-05
-5.617674349669303e-06   1.635448571687655e-06   -1.3373327963694893e-05
-5.428219327142585e-06   1.531152601527263e-06   -1.2685581052556078e-05
-5.428219327142585e-06   1.531152601527263e-06   -1.2685581052556078e-05
-5.428219327142585e-06   1.531152601527263e-06   -1.2685581052556078e-05
-5.428219327142585e-06   1.531152601527263e-06   -1.2685581052556078e-05
-4.848452679502929e-06   2.087822931426896e-06   -1.398586099656184e-05
-4.848452679502929e-06   2.087822931426896e-06   -1.398586099656184e-05
-4.848452679502929e-06   2.087822931426896e-06   -1.398586099656184e-05
-4.848452679502929e-06   2.087822931426896e-06   -1.398586099656184e-05
-5.263379747244878e-06   1.435403314886956e-06   -1.2902864113734444e-05
-5.263379747244878e-06   1.435403314886956e-06   -1.2902864113734444e-05
-5.263379747244878e-06   1.435403314886956e-06   -1.2902864113734444e-05
-5.263379747244878e-06   1.435403314886956e-06   -1.2902864113734444e-05
-6.044905377965909e-06   1.7001734062369479e-07   -6.843933962105383e-06
-6.044905377965909e-06   1.7001734062369479e-07   -6.843933962105383e-06
-6.044905377965909e-06   1.7001734062369479e-07   -6.843933962105383e-06
-6.044905377965909e-06   1.7001734062369479e-07   -6.843933962105383e-06
-7.371342621955758e-06   1.3341726538710968e-06   -8.356169514139975e-06
-7.371342621955758e-06   1.3341726538710968e-06   -8.356169514139975e-06
-7.371342621955758e-06   1.3341726538710968e-06   -8.356169514139975e-06
-7.371342621955758e-06   1.3341726538710968e-06   -8.356169514139975e-06
-6.69622389365167e-06   5.440751179196972e-07   -5.613950140188548e-06
-6.69622389365167e-06   5.440751179196972e-07   -5.613950140188548e-06
-6.69622389365167e-06   5.440751179196972e-07   -5.613950140188548e-06
-6.69622389365167e-06   5.440751179196972e-07   -5.613950140188548e-06
-5.859706736272538e-06   1.7340364152299698e-06   -7.722122180873171e-06
-5.859706736272538e-06   1.7340364152299698e-06   -7.722122180873171e-06
-5.859706736272538e-06   1.7340364152299698e-06   -7.722122180873171e-06
-5.859706736272538e-06   1.7340364152299698e-06   -7.722122180873171e-06
-6.230338222110495e-06   9.92514931706873e-07   -6.659490147696239e-06
-6.230338222110495e-06   9.92514931706873e-07   -6.659490147696239e-06
-6.230338222110495e-06   9.92514931706873e-07   -6.659490147696239e-06
-6.230338222110495e-06   9.92514931706873e-07   -6.659490147696239e-06
-5.859706736272524e-06   5.440751179196972e-07   -6.327926918574538e-06
-5.859706736272524e-06   5.440751179196972e-07   -6.327926918574538e-06
-5.859706736272524e-06   5.440751179196972e-07   -6.327926918574538e-06
-5.859706736272524e-06   5.440751179196972e-07   -6.327926918574538e-06
-6.69622389365167e-06   1.7340364152298613e-06   -7.008145402487059e-06
-6.69622389365167e-06   1.7340364152298613e-06   -7.008145402487059e-06
-6.69622389365167e-06   1.7340364152298613e-06   -7.008145402487059e-06
-6.69622389365167e-06   1.7340364152298613e-06   -7.008145402487059e-06
-6.147111144029412e-06   7.538120195548794e-07   -5.507129143896992e-06
-6.147111144029412e-06   7.538120195548794e-07   -5.507129143896992e-06
-6.147111144029412e-06   7.538120195548794e-07   -5.507129143896992e-06
-6.147111144029412e-06   7.538120195548794e-07   -5.507129143896992e-06
-5.617674349669296e-06   1.9170154757954926e-06   -7.087445874908225e-06
-5.617674349669296e-06   1.9170154757954926e-06   -7.087445874908225e-06
-5.617674349669296e-06   1.9170154757954926e-06   -7.087445874908225e-06
-5.617674349669296e-06   1.9170154757954926e-06   -7.087445874908225e-06
-5.947999737849023e-06   1.179027263462887e-06   -6.094110633875812e-06
-5.947999737849023e-06   1.179027263462887e-06   -6.094110633875812e-06
-5.947999737849023e-06   1.179027263462887e-06   -6.094110633875812e-06
-5.947999737849023e-06   1.179027263462887e-06   -6.094110633875812e-06
-5.6176743496692895e-06   7.538120195548794e-07   -6.2050512176414145e-06
-5.6176743496692895e-06   7.538120195548794e-07   -6.2050512176414145e-06
-5.6176743496692895e-06   7.538120195548794e-07   -6.2050512176414145e-06
-5.6176743496692895e-06   7.538120195548794e-07   -6.2050512176414145e-06
-6.147111144029412e-06   1.9170154757954926e-06   -6.3895238011638295e-06
-6.147111144029412e-06   1.9170154757954926e-06   -6.3895238011638295e-06
-6.147111144029412e-06   1.9170154757954926e-06   -6.3895238011638295e-06
-6.147111144029412e-06   1.9170154757954926e-06   -6.3895238011638295e-06
-5.472591079501836e-06   1.12280105224661e-06   -5.661660831542603e-06
-5.472591079501836e-06   1.12280105224661e-06   -5.661660831542603e-06
-5.472591079501836e-06   1.12280105224661e-06   -5.661660831542603e-06
-5.472591079501836e-06   1.12280105224661e-06   -5.661660831542603e-06
-5.428219327142571e-06   2.197290432048209e-06   -6.3803073800221955e-06
-5.428219327142571e-06   2.197290432048209e-06   -6.3803073800221955e-06
-5.428219327142571e-06   2.197290432048209e-06   -6.3803073800221955e-06
-5.428219327142571e-06   2.197290432048209e-06   -6.3803073800221955e-06
-5.5222806693008014e-06   1.3276539540809599e-06   -5.7017565896448895e-06
-5.5222806693008014e-06   1.3276539540809599e-06   -5.7017565896448895e-06
-5.5222806693008014e-06   1.3276539540809599e-06   -5.7017565896448895e-06
-5.5222806693008014e-06   1.3276539540809599e-06   -5.7017565896448895e-06
3.57749124214616e-06   -3.5234881966446363e-07   -3.4696691818053766e-06
3.57749124214616e-06   -3.5234881966446363e-07   -3.4696691818053766e-06
3.57749124214616e-06   -3.5234881966446363e-07   -3.4696691818053766e-06
3.57749124214616e-06   -3.5234881966446363e-07   -3.4696691818053766e-06
3.809083262600933e-07   -1.4501232764493324e-06   -9.45597204901971e-06
3.809083262600933e-07   -1.4501232764493324e-06   -9.45597204901971e-06
3.809083262600933e-07   -1.4501232764493324e-06   -9.45597204901971e-06
3.809083262600933e-07   -1.4501232764493324e-06   -9.45597204901971e-06
6.459904524623469e-07   -1.8620380017606367e-08   -3.849713833166835e-06
6.459904524623469e-07   -1.8620380017606367e-08   -3.849713833166835e-06
6.459904524623469e-07   -1.8620380017606367e-08   -3.849713833166835e-06
6.459904524623469e-07   -1.8620380017606367e-08   -3.849713833166835e-06
4.332318317220901e-06   -1.1935397182106892e-06   -9.288642004848545e-06
4.332318317220901e-06   -1.1935397182106892e-06   -9.288642004848545e-06
4.332318317220901e-06   -1.1935397182106892e-06   -9.288642004848545e-06
4.332318317220901e-06   -1.1935397182106892e-06   -9.288642004848545e-06
2.149949459668482e-06   -6.083235103206694e-07   -6.0024903003285095e-06
2.149949459668482e-06   -6.083235103206694e-07   -6.0024903003285095e-06
2.149949459668482e-06   -6.083235103206694e-07   -6.0024903003285095e-06
2.149949459668482e-06   -6.083235103206694e-07   -6.0024903003285095e-06
4.332318317220901e-06   -1.8620380017606367e-08   -3.1447622302510398e-06
4.332318317220901e-06   -1.8620380017606367e-08   -3.1447622302510398e-06
4.332318317220901e-06   -1.8620380017606367e-08   -3.1447622302510398e-06
4.332318317220901e-06   -1.8620380017606367e-08   -3.1447622302510398e-06
6.459904524623605e-07   -1.1935397182106892e-06   -9.993593607764449e-06
6.459904524623605e-07   -1.1935397182106892e-06   -9.993593607764449e-06
6.459904524623605e-07   -1.1935397182106892e-06   -9.993593607764449e-06
6.459904524623605e-07   -1.1935397182106892e-06   -9.993593607764449e-06
9.592821219735307e-07   1.717197774214578e-07   -3.884699515216048e-06
9.592821219735307e-07   1.717197774214578e-07   -3.884699515216048e-06
9.592821219735307e-07   1.717197774214578e-07   -3.884699515216048e-06
9.592821219735307e-07   1.717197774214578e-07   -3.884699515216048e-06
4.967662537535449e-06   -1.0206775708162e-06   -9.849895132209925e-06
4.967662537535449e-06   -1.0206775708162e-06   -9.849895132209925e-06
4.967662537535449e-06   -1.0206775708162e-06   -9.849895132209925e-06
4.967662537535449e-06   -1.0206775708162e-06   -9.849895132209925e-06
2.6268086899495778e-06   -4.873104564147778e-07   -6.268492321541365e-06
2.6268086899495778e-06   -4.873104564147778e-07   -6.268492321541365e-06
2.6268086899495778e-06   -4.873104564147778e-07   -6.268492321541365e-06
2.6268086899495778e-06   -4.873104564147778e-07   -6.268492321541365e-06
4.967662537535449e-06   1.717197774214578e-07   -3.169261106273399e-06
4.967662537535449e-06   1.717197774214578e-07   -3.169261106273399e-06
4.967662537535449e-06   1.717197774214578e-07   -3.169261106273399e-06
4.967662537535449e-06   1.717197774214578e-07   -3.169261106273399e-06
9.592821219735307e-07   -1.0206775708162e-06   -1.0565333541152601e-05
9.592821219735307e-07   -1.0206775708162e-06   -1.0565333541152601e-05
9.592821219735307e-07   -1.0206775708162e-06   -1.0565333541152601e-05
9.592821219735307e-07   -1.0206775708162e-06   -1.0565333541152601e-05
1.215116392310755e-06   5.50801673032523e-07   -4.271184024145667e-06
1.215116392310755e-06   5.50801673032523e-07   -4.271184024145667e-06
1.215116392310755e-06   5.50801673032523e-07   -4.271184024145667e-06
1.215116392310755e-06   5.50801673032523e-07   -4.271184024145667e-06
5.731102407015271e-06   -5.868674175917585e-07   -1.1115225927611842e-05
5.731102407015271e-06   -5.868674175917585e-07   -1.1115225927611842e-05
5.731102407015271e-06   -5.868674175917585e-07   -1.1115225927611842e-05
5.731102407015271e-06   -5.868674175917585e-07   -1.1115225927611842e-05
3.0017559225857375e-06   -3.080263109517603e-07   -6.733619784213567e-06
3.0017559225857375e-06   -3.080263109517603e-07   -6.733619784213567e-06
3.0017559225857375e-06   -3.080263109517603e-07   -6.733619784213567e-06
3.0017559225857375e-06   -3.080263109517603e-07   -6.733619784213567e-06
3.809083262600933e-07   -7.125131295724046e-08   -1.0175157232603473e-05
3.809083262600933e-07   -7.125131295724046e-08   -1.0175157232603473e-05
3.809083262600933e-07   -7.125131295724046e-08   -1.0175157232603473e-05
3.809083262600933e-07   -7.125131295724046e-08   -1.0175157232603473e-05
-3.3161187004323366e-06   -5.661840277434776e-07   -1.6633828572629292e-05
-3.3161187004323366e-06   -5.661840277434776e-07   -1.6633828572629292e-05
-3.3161187004323366e-06   -5.661840277434776e-07   -1.6633828572629292e-05
-3.3161187004323366e-06   -5.661840277434776e-07   -1.6633828572629292e-05
-3.0851488743870766e-06   3.5084124188180035e-07   -1.0231490008847603e-05
-3.0851488743870766e-06   3.5084124188180035e-07   -1.0231490008847603e-05
-3.0851488743870766e-06   3.5084124188180035e-07   -1.0231490008847603e-05
-3.0851488743870766e-06   3.5084124188180035e-07   -1.0231490008847603e-05
6.459904524623605e-07   -2.124349438893669e-07   -1.6112089842133988e-05
6.459904524623605e-07   -2.124349438893669e-07   -1.6112089842133988e-05
6.459904524623605e-07   -2.124349438893669e-07   -1.6112089842133988e-05
6.459904524623605e-07   -2.124349438893669e-07   -1.6112089842133988e-05
-1.3130077879465326e-06   -1.579481051039531e-08   -1.2965076854813131e-05
-1.3130077879465326e-06   -1.579481051039531e-08   -1.2965076854813131e-05
-1.3130077879465326e-06   -1.579481051039531e-08   -1.2965076854813131e-05
-1.3130077879465326e-06   -1.579481051039531e-08   -1.2965076854813131e-05
6.459904524623605e-07   3.5084124188169193e-07   -9.89352429738488e-06
6.459904524623605e-07   3.5084124188169193e-07   -9.89352429738488e-06
6.459904524623605e-07   3.5084124188169193e-07   -9.89352429738488e-06
6.459904524623605e-07   3.5084124188169193e-07   -9.89352429738488e-06
-3.0851488743870766e-06   -2.124349438893669e-07   -1.645005555359671e-05
-3.0851488743870766e-06   -2.124349438893669e-07   -1.645005555359671e-05
-3.0851488743870766e-06   -2.124349438893669e-07   -1.645005555359671e-05
-3.0851488743870766e-06   -2.124349438893669e-07   -1.645005555359671e-05
-2.8527964007305927e-06   7.582472638311636e-07   -1.0247848073127578e-05
-2.8527964007305927e-06   7.582472638311636e-07   -1.0247848073127578e-05
-2.8527964007305927e-06   7.582472638311636e-07   -1.0247848073127578e-05
-2.8527964007305927e-06   7.582472638311636e-07   -1.0247848073127578e-05
9.592821219735307e-07   1.5398288069927088e-07   -1.6238753647755303e-05
9.592821219735307e-07   1.5398288069927088e-07   -1.6238753647755303e-05
9.592821219735307e-07   1.5398288069927088e-07   -1.6238753647755303e-05
9.592821219735307e-07   1.5398288069927088e-07   -1.6238753647755303e-05
-1.1094283429260218e-06   2.760115752703735e-07   -1.2864120089665416e-05
-1.1094283429260218e-06   2.760115752703735e-07   -1.2864120089665416e-05
-1.1094283429260218e-06   2.760115752703735e-07   -1.2864120089665416e-05
-1.1094283429260218e-06   2.760115752703735e-07   -1.2864120089665416e-05
9.592821219735307e-07   7.58247263831272e-07   -9.885289443248399e-06
9.592821219735307e-07   7.58247263831272e-07   -9.885289443248399e-06
9.592821219735307e-07   7.58247263831272e-07   -9.885289443248399e-06
9.592821219735307e-07   7.58247263831272e-07   -9.885289443248399e-06
-2.8527964007305927e-06   1.5398288069927088e-07   -1.660131227763451e-05
-2.8527964007305927e-06   1.5398288069927088e-07   -1.660131227763451e-05
-2.8527964007305927e-06   1.5398288069927088e-07   -1.660131227763451e-05
-2.8527964007305927e-06   1.5398288069927088e-07   -1.660131227763451e-05
-2.6313357477810744e-06   1.224514553482478e-06   -1.0506412501775112e-05
-2.6313357477810744e-06   1.224514553482478e-06   -1.0506412501775112e-05
-2.6313357477810744e-06   1.224514553482478e-06   -1.0506412501775112e-05
-2.6313357477810744e-06   1.224514553482478e-06   -1.0506412501775112e-05
1.215116392310755e-06   5.888885879686565e-07   -1.6535790489286527e-05
1.215116392310755e-06   5.888885879686565e-07   -1.6535790489286527e-05
1.215116392310755e-06   5.888885879686565e-07   -1.6535790489286527e-05
1.215116392310755e-06   5.888885879686565e-07   -1.6535790489286527e-05
-8.816392463277946e-07   6.004795638399341e-07   -1.30481523437453e-05
-8.816392463277946e-07   6.004795638399341e-07   -1.30481523437453e-05
-8.816392463277946e-07   6.004795638399341e-07   -1.30481523437453e-05
-8.816392463277946e-07   6.004795638399341e-07   -1.30481523437453e-05
-3.3161187004323434e-06   3.570846815984137e-07   -1.2339776904920108e-05
-3.3161187004323434e-06   3.570846815984137e-07   -1.2339776904920108e-05
-3.3161187004323434e-06   3.570846815984137e-07   -1.2339776904920108e-05
-3.3161187004323434e-06   3.570846815984137e-07   -1.2339776904920108e-05
-6.978178843980861e-06   4.4967738942419764e-07   -1.838765485280547e-05
-6.978178843980861e-06   4.4967738942419764e-07   -1.838765485280547e-05
-6.978178843980861e-06   4.4967738942419764e-07   -1.838765485280547e-05
-6.978178843980861e-06   4.4967738942419764e-07   -1.838765485280547e-05
-6.745917028015853e-06   7.946751029781112e-07   -1.2115440986460498e-05
-6.745917028015853e-06   7.946751029781112e-07   -1.2115440986460498e-05
-6.745917028015853e-06   7.946751029781112e-07   -1.2115440986460498e-05
-6.745917028015853e-06   7.946751029781112e-07   -1.2115440986460498e-05
-3.0851488743870834e-06   8.252181426482387e-07   -1.823504706631053e-05
-3.0851488743870834e-06   8.252181426482387e-07   -1.823504706631053e-05
-3.0851488743870834e-06   8.252181426482387e-07   -1.823504706631053e-05
-3.0851488743870834e-06   8.252181426482387e-07   -1.823504706631053e-05
-5.002290405498178e-06   6.830279945437695e-07   -1.495449709226267e-05
-5.002290405498178e-06   6.830279945437695e-07   -1.495449709226267e-05
-5.002290405498178e-06   6.830279945437695e-07   -1.495449709226267e-05
-5.002290405498178e-06   6.830279945437695e-07   -1.495449709226267e-05
-3.0851488743870834e-06   7.946751029782196e-07   -1.2133766810262531e-05
-3.0851488743870834e-06   7.946751029782196e-07   -1.2133766810262531e-05
-3.0851488743870834e-06   7.946751029782196e-07   -1.2133766810262531e-05
-3.0851488743870834e-06   7.946751029782196e-07   -1.2133766810262531e-05
-6.745917028015853e-06   8.252181426482387e-07   -1.821672124250847e-05
-6.745917028015853e-06   8.252181426482387e-07   -1.821672124250847e-05
-6.745917028015853e-06   8.252181426482387e-07   -1.821672124250847e-05
-6.745917028015853e-06   8.252181426482387e-07   -1.821672124250847e-05
-6.5094268603008885e-06   1.2416753993868329e-06   -1.2146162199726457e-05
-6.5094268603008885e-06   1.2416753993868329e-06   -1.2146162199726457e-05
-6.5094268603008885e-06   1.2416753993868329e-06   -1.2146162199726457e-05
-6.5094268603008885e-06   1.2416753993868329e-06   -1.2146162199726457e-05
-2.8527964007305995e-06   1.2222348174213086e-06   -1.822888194983093e-05
-2.8527964007305995e-06   1.2222348174213086e-06   -1.822888194983093e-05
-2.8527964007305995e-06   1.2222348174213086e-06   -1.822888194983093e-05
-2.8527964007305995e-06   1.2222348174213086e-06   -1.822888194983093e-05
-4.798625128937287e-06   1.0115603754992392e-06   -1.4859429404333422e-05
-4.798625128937287e-06   1.0115603754992392e-06   -1.4859429404333422e-05
-4.798625128937287e-06   1.0115603754992392e-06   -1.4859429404333422e-05
-4.798625128937287e-06   1.0115603754992392e-06   -1.4859429404333422e-05
-2.8527964007305995e-06   1.2416753993868329e-06   -1.21344978505471e-05
-2.8527964007305995e-06   1.2416753993868329e-06   -1.21344978505471e-05
-2.8527964007305995e-06   1.2416753993868329e-06   -1.21344978505471e-05
-2.8527964007305995e-06   1.2416753993868329e-06   -1.21344978505471e-05
-6.509426860300878e-06   1.2222348174213086e-06   -1.8240546299010303e-05
-6.509426860300878e-06   1.2222348174213086e-06   -1.8240546299010303e-05
-6.509426860300878e-06   1.2222348174213086e-06   -1.8240546299010303e-05
-6.509426860300878e-06   1.2222348174213086e-06   -1.8240546299010303e-05
-6.2840140180801345e-06   1.6949637080683174e-06   -1.241993528288104e-05
-6.2840140180801345e-06   1.6949637080683174e-06   -1.241993528288104e-05
-6.2840140180801345e-06   1.6949637080683174e-06   -1.241993528288104e-05
-6.2840140180801345e-06   1.6949637080683174e-06   -1.241993528288104e-05
-2.631335747781081e-06   1.6261784871948737e-06   -1.8466461267522126e-05
-2.631335747781081e-06   1.6261784871948737e-06   -1.8466461267522126e-05
-2.631335747781081e-06   1.6261784871948737e-06   -1.8466461267522126e-05
-2.631335747781081e-06   1.6261784871948737e-06   -1.8466461267522126e-05
-4.609698204178107e-06   1.3451577900398587e-06   -1.5000578088567676e-05
-4.609698204178107e-06   1.3451577900398587e-06   -1.5000578088567676e-05
-4.609698204178107e-06   1.3451577900398587e-06   -1.5000578088567676e-05
-4.609698204178107e-06   1.3451577900398587e-06   -1.5000578088567676e-05
-6.978178843980873e-06   7.908362842261926e-07   -1.0367098691020909e-05
-6.978178843980873e-06   7.908362842261926e-07   -1.0367098691020909e-05
-6.978178843980873e-06   7.908362842261926e-07   -1.0367098691020909e-05
-6.978178843980873e-06   7.908362842261926e-07   -1.0367098691020909e-05
-1.0607758233204747e-05   1.4388787726070731e-06   -1.6027572180032197e-05
-1.0607758233204747e-05   1.4388787726070731e-06   -1.6027572180032197e-05
-1.0607758233204747e-05   1.4388787726070731e-06   -1.6027572180032197e-05
-1.0607758233204747e-05   1.4388787726070731e-06   -1.6027572180032197e-05
-1.0341503158741998e-05   1.2306036233913561e-06   -9.756210995618905e-06
-1.0341503158741998e-05   1.2306036233913561e-06   -9.756210995618905e-06
-1.0341503158741998e-05   1.2306036233913561e-06   -9.756210995618905e-06
-1.0341503158741998e-05   1.2306036233913561e-06   -9.756210995618905e-06
-6.745917028015853e-06   1.8398332351460354e-06   -1.611439231388203e-05
-6.745917028015853e-06   1.8398332351460354e-06   -1.611439231388203e-05
-6.745917028015853e-06   1.8398332351460354e-06   -1.611439231388203e-05
-6.745917028015853e-06   1.8398332351460354e-06   -1.611439231388203e-05
-8.60814265226003e-06   1.3761865080286206e-06   -1.2732494903871261e-05
-8.60814265226003e-06   1.3761865080286206e-06   -1.2732494903871261e-05
-8.60814265226003e-06   1.3761865080286206e-06   -1.2732494903871261e-05
-8.60814265226003e-06   1.3761865080286206e-06   -1.2732494903871261e-05
-6.7459170280158645e-06   1.2306036233912477e-06   -1.0121748762671853e-05
-6.7459170280158645e-06   1.2306036233912477e-06   -1.0121748762671853e-05
-6.7459170280158645e-06   1.2306036233912477e-06   -1.0121748762671853e-05
-6.7459170280158645e-06   1.2306036233912477e-06   -1.0121748762671853e-05
-1.0341503158742015e-05   1.8398332351460354e-06   -1.5748854546829294e-05
-1.0341503158742015e-05   1.8398332351460354e-06   -1.5748854546829294e-05
-1.0341503158742015e-05   1.8398332351460354e-06   -1.5748854546829294e-05
-1.0341503158742015e-05   1.8398332351460354e-06   -1.5748854546829294e-05
-1.0020268672770903e-05   1.635448571687655e-06   -9.660738081786809e-06
-1.0020268672770903e-05   1.635448571687655e-06   -9.660738081786809e-06
-1.0020268672770903e-05   1.635448571687655e-06   -9.660738081786809e-06
-1.0020268672770903e-05   1.635448571687655e-06   -9.660738081786809e-06
-6.5094268603008885e-06   2.20031348931388e-06   -1.585106005314589e-05
-6.5094268603008885e-06   2.20031348931388e-06   -1.585106005314589e-05
-6.5094268603008885e-06   2.20031348931388e-06   -1.585106005314589e-05
-6.5094268603008885e-06   2.20031348931388e-06   -1.585106005314589e-05
-8.338586228914102e-06   1.693572160834213e-06   -1.2498416308369594e-05
-8.338586228914102e-06   1.693572160834213e-06   -1.2498416308369594e-05
-8.338586228914102e-06   1.693572160834213e-06   -1.2498416308369594e-05
-8.338586228914102e-06   1.693572160834213e-06   -1.2498416308369594e-05
-6.509426860300882e-06   1.635448571687655e-06   -9.9996570323625e-06
-6.509426860300882e-06   1.635448571687655e-06   -9.9996570323625e-06
-6.509426860300882e-06   1.635448571687655e-06   -9.9996570323625e-06
-6.509426860300882e-06   1.635448571687655e-06   -9.9996570323625e-06
-1.0020268672770903e-05   2.20031348931388e-06   -1.5512141102570244e-05
-1.0020268672770903e-05   2.20031348931388e-06   -1.5512141102570244e-05
-1.0020268672770903e-05   2.20031348931388e-06   -1.5512141102570244e-05
-1.0020268672770903e-05   2.20031348931388e-06   -1.5512141102570244e-05
-9.753269091868115e-06   2.087822931426896e-06   -9.928244541497705e-06
-9.753269091868115e-06   2.087822931426896e-06   -9.928244541497705e-06
-9.753269091868115e-06   2.087822931426896e-06   -9.928244541497705e-06
-9.753269091868115e-06   2.087822931426896e-06   -9.928244541497705e-06
-6.2840140180801345e-06   2.602150209714987e-06   -1.6018932698117163e-05
-6.2840140180801345e-06   2.602150209714987e-06   -1.6018932698117163e-05
-6.2840140180801345e-06   2.602150209714987e-06   -1.6018932698117163e-05
-6.2840140180801345e-06   2.602150209714987e-06   -1.6018932698117163e-05
-8.161664208743252e-06   2.005357917996475e-06   -1.2531440338647509e-05
-8.161664208743252e-06   2.005357917996475e-06   -1.2531440338647509e-05
-8.161664208743252e-06   2.005357917996475e-06   -1.2531440338647509e-05
-8.161664208743252e-06   2.005357917996475e-06   -1.2531440338647509e-05
-1.0607758233204747e-05   1.3341726538710968e-06   -5.352160676653974e-06
-1.0607758233204747e-05   1.3341726538710968e-06   -5.352160676653974e-06
-1.0607758233204747e-05   1.3341726538710968e-06   -5.352160676653974e-06
-1.0607758233204747e-05   1.3341726538710968e-06   -5.352160676653974e-06
-1.4756486925834823e-05   2.4759015906382397e-06   -1.158167113564395e-05
-1.4756486925834823e-05   2.4759015906382397e-06   -1.158167113564395e-05
-1.4756486925834823e-05   2.4759015906382397e-06   -1.158167113564395e-05
-1.4756486925834823e-05   2.4759015906382397e-06   -1.158167113564395e-05
-1.4009506054939335e-05   1.7340364152299698e-06   -3.3228599615486333e-06
-1.4009506054939335e-05   1.7340364152299698e-06   -3.3228599615486333e-06
-1.4009506054939335e-05   1.7340364152299698e-06   -3.3228599615486333e-06
-1.4009506054939335e-05   1.7340364152299698e-06   -3.3228599615486333e-06
-1.0341503158741998e-05   2.8933888925484954e-06   -1.013180960826851e-05
-1.0341503158741998e-05   2.8933888925484954e-06   -1.013180960826851e-05
-1.0341503158741998e-05   2.8933888925484954e-06   -1.013180960826851e-05
-1.0341503158741998e-05   2.8933888925484954e-06   -1.013180960826851e-05
-1.1923445687068388e-05   2.1552260832392563e-06   -7.0523410421391495e-06
-1.1923445687068388e-05   2.1552260832392563e-06   -7.0523410421391495e-06
-1.1923445687068388e-05   2.1552260832392563e-06   -7.0523410421391495e-06
-1.1923445687068388e-05   2.1552260832392563e-06   -7.0523410421391495e-06
-1.0341503158742008e-05   1.7340364152299698e-06   -4.018471447939662e-06
-1.0341503158742008e-05   1.7340364152299698e-06   -4.018471447939662e-06
-1.0341503158742008e-05   1.7340364152299698e-06   -4.018471447939662e-06
-1.0341503158742008e-05   1.7340364152299698e-06   -4.018471447939662e-06
-1.400950605493928e-05   2.893388892548387e-06   -9.436198121877556e-06
-1.400950605493928e-05   2.893388892548387e-06   -9.436198121877556e-06
-1.400950605493928e-05   2.893388892548387e-06   -9.436198121877556e-06
-1.400950605493928e-05   2.893388892548387e-06   -9.436198121877556e-06
-1.3392220997741439e-05   1.9170154757954926e-06   -2.699038743065067e-06
-1.3392220997741439e-05   1.9170154757954926e-06   -2.699038743065067e-06
-1.3392220997741439e-05   1.9170154757954926e-06   -2.699038743065067e-06
-1.3392220997741439e-05   1.9170154757954926e-06   -2.699038743065067e-06
-1.0020268672770886e-05   3.043377559020714e-06   -8.994776534617759e-06
-1.0020268672770886e-05   3.043377559020714e-06   -8.994776534617759e-06
-1.0020268672770886e-05   3.043377559020714e-06   -8.994776534617759e-06
-1.0020268672770886e-05   3.043377559020714e-06   -8.994776534617759e-06
-1.1657912694430252e-05   2.344638244542764e-06   -5.8461262431653606e-06
-1.1657912694430252e-05   2.344638244542764e-06   -5.8461262431653606e-06
-1.1657912694430252e-05   2.344638244542764e-06   -5.8461262431653606e-06
-1.1657912694430252e-05   2.344638244542764e-06   -5.8461262431653606e-06
-1.0020268672770903e-05   1.917015475795601e-06   -3.3748559930002215e-06
-1.0020268672770903e-05   1.917015475795601e-06   -3.3748559930002215e-06
-1.0020268672770903e-05   1.917015475795601e-06   -3.3748559930002215e-06
-1.0020268672770903e-05   1.917015475795601e-06   -3.3748559930002215e-06
-1.3392220997741411e-05   3.043377559020714e-06   -8.318959284682719e-06
-1.3392220997741411e-05   3.043377559020714e-06   -8.318959284682719e-06
-1.3392220997741411e-05   3.043377559020714e-06   -8.318959284682719e-06
-1.3392220997741411e-05   3.043377559020714e-06   -8.318959284682719e-06
-1.2659045406884933e-05   2.197290432048209e-06   -2.037025485009862e-06
-1.2659045406884933e-05   2.197290432048209e-06   -2.037025485009862e-06
-1.2659045406884933e-05   2.197290432048209e-06   -2.037025485009862e-06
-1.2659045406884933e-05   2.197290432048209e-06   -2.037025485009862e-06
-9.753269091868115e-06   3.230069828528059e-06   -7.499653647925883e-06
-9.753269091868115e-06   3.230069828528059e-06   -7.499653647925883e-06
-9.753269091868115e-06   3.230069828528059e-06   -7.499653647925883e-06
-9.753269091868115e-06   3.230069828528059e-06   -7.499653647925883e-06
-1.1074272473542699e-05   2.434832359787917e-06   -4.8208388638908785e-06
-1.1074272473542699e-05   2.434832359787917e-06   -4.8208388638908785e-06
-1.1074272473542699e-05   2.434832359787917e-06   -4.8208388638908785e-06
-1.1074272473542699e-05   2.434832359787917e-06   -4.8208388638908785e-06
1.109273299079269e-05   -1.4501232764493324e-06   3.6028774651848325e-08
1.109273299079269e-05   -1.4501232764493324e-06   3.6028774651848325e-08
1.109273299079269e-05   -1.4501232764493324e-06   3.6028774651848325e-08
1.109273299079269e-05   -1.4501232764493324e-06   3.6028774651848325e-08
4.706639849706536e-06   -2.599933220960083e-06   -1.1297345760531545e-05
4.706639849706536e-06   -2.599933220960083e-06   -1.1297345760531545e-05
4.706639849706536e-06   -2.599933220960083e-06   -1.1297345760531545e-05
4.706639849706536e-06   -2.599933220960083e-06   -1.1297345760531545e-05
5.029190515221189e-06   -1.1935397182105808e-06   -1.1289297695078922e-06
5.029190515221189e-06   -1.1935397182105808e-06   -1.1289297695078922e-06
5.029190515221189e-06   -1.1935397182105808e-06   -1.1289297695078922e-06
5.029190515221189e-06   -1.1935397182105808e-06   -1.1289297695078922e-06
1.1913070654278576e-05   -2.419775215696464e-06   -1.1866322036112022e-05
1.1913070654278576e-05   -2.419775215696464e-06   -1.1866322036112022e-05
1.1913070654278576e-05   -2.419775215696464e-06   -1.1866322036112022e-05
1.1913070654278576e-05   -2.419775215696464e-06   -1.1866322036112022e-05
7.854297890934897e-06   -1.718564000596388e-06   -5.522427492932701e-06
7.854297890934897e-06   -1.718564000596388e-06   -5.522427492932701e-06
7.854297890934897e-06   -1.718564000596388e-06   -5.522427492932701e-06
7.854297890934897e-06   -1.718564000596388e-06   -5.522427492932701e-06
1.191307065427859e-05   -1.1935397182105808e-06   -3.9318847101641645e-07
1.191307065427859e-05   -1.1935397182105808e-06   -3.9318847101641645e-07
1.191307065427859e-05   -1.1935397182105808e-06   -3.9318847101641645e-07
1.191307065427859e-05   -1.1935397182105808e-06   -3.9318847101641645e-07
5.029190515221162e-06   -2.4197752156963556e-06   -1.2602063334603525e-05
5.029190515221162e-06   -2.4197752156963556e-06   -1.2602063334603525e-05
5.029190515221162e-06   -2.4197752156963556e-06   -1.2602063334603525e-05
5.029190515221162e-06   -2.4197752156963556e-06   -1.2602063334603525e-05
5.387098464640827e-06   -1.0206775708162e-06   -1.6428991633255516e-06
5.387098464640827e-06   -1.0206775708162e-06   -1.6428991633255516e-06
5.387098464640827e-06   -1.0206775708162e-06   -1.6428991633255516e-06
5.387098464640827e-06   -1.0206775708162e-06   -1.6428991633255516e-06
1.2599810677729121e-05   -2.2626713857928265e-06   -1.2918889896153376e-05
1.2599810677729121e-05   -2.2626713857928265e-06   -1.2918889896153376e-05
1.2599810677729121e-05   -2.2626713857928265e-06   -1.2918889896153376e-05
1.2599810677729121e-05   -2.2626713857928265e-06   -1.2918889896153376e-05
8.470066754410368e-06   -1.6484847629673251e-06   -6.404495330984049e-06
8.470066754410368e-06   -1.6484847629673251e-06   -6.404495330984049e-06
8.470066754410368e-06   -1.6484847629673251e-06   -6.404495330984049e-06
8.470066754410368e-06   -1.6484847629673251e-06   -6.404495330984049e-06
1.2599810677729135e-05   -1.0206775708162e-06   -8.977028743395433e-07
1.2599810677729135e-05   -1.0206775708162e-06   -8.977028743395433e-07
1.2599810677729135e-05   -1.0206775708162e-06   -8.977028743395433e-07
1.2599810677729135e-05   -1.0206775708162e-06   -8.977028743395433e-07
5.3870984646408134e-06   -2.2626713857928265e-06   -1.3664086185139412e-05
5.3870984646408134e-06   -2.2626713857928265e-06   -1.3664086185139412e-05
5.3870984646408134e-06   -2.2626713857928265e-06   -1.3664086185139412e-05
5.3870984646408134e-06   -2.2626713857928265e-06   -1.3664086185139412e-05
5.681068304003487e-06   -5.868674175917585e-07   -2.8216722603952114e-06
5.681068304003487e-06   -5.868674175917585e-07   -2.8216722603952114e-06
5.681068304003487e-06   -5.868674175917585e-07   -2.8216722603952114e-06
5.681068304003487e-06   -5.868674175917585e-07   -2.8216722603952114e-06
1.3397532356301817e-05   -1.7684002770460743e-06   -1.4973525965219912e-05
1.3397532356301817e-05   -1.7684002770460743e-06   -1.4973525965219912e-05
1.3397532356301817e-05   -1.7684002770460743e-06   -1.4973525965219912e-05
1.3397532356301817e-05   -1.7684002770460743e-06   -1.4973525965219912e-05
8.797003148957634e-06   -1.4530904772823514e-06   -7.495163166171541e-06
8.797003148957634e-06   -1.4530904772823514e-06   -7.495163166171541e-06
8.797003148957634e-06   -1.4530904772823514e-06   -7.495163166171541e-06
8.797003148957634e-06   -1.4530904772823514e-06   -7.495163166171541e-06
4.706639849706536e-06   -5.661840277434776e-07   -7.534754086792534e-06
4.706639849706536e-06   -5.661840277434776e-07   -7.534754086792534e-06
4.706639849706536e-06   -5.661840277434776e-07   -7.534754086792534e-06
4.706639849706536e-06   -5.661840277434776e-07   -7.534754086792534e-06
-2.0310309990019236e-06   -1.205750798851041e-06   -1.91479455639711e-05
-2.0310309990019236e-06   -1.205750798851041e-06   -1.91479455639711e-05
-2.0310309990019236e-06   -1.205750798851041e-06   -1.91479455639711e-05
-2.0310309990019236e-06   -1.205750798851041e-06   -1.91479455639711e-05
-1.732262185987686e-06   -2.124349438893669e-07   -7.69108257351876e-06
-1.732262185987686e-06   -2.124349438893669e-07   -7.69108257351876e-06
-1.732262185987686e-06   -2.124349438893669e-07   -7.69108257351876e-06
-1.732262185987686e-06   -2.124349438893669e-07   -7.69108257351876e-06
5.029190515221162e-06   -9.518625599581497e-07   -1.851651383922556e-05
5.029190515221162e-06   -9.518625599581497e-07   -1.851651383922556e-05
5.029190515221162e-06   -9.518625599581497e-07   -1.851651383922556e-05
5.029190515221162e-06   -9.518625599581497e-07   -1.851651383922556e-05
1.5092451678978803e-06   -5.808508248617613e-07   -1.2872545301411212e-05
1.5092451678978803e-06   -5.808508248617613e-07   -1.2872545301411212e-05
1.5092451678978803e-06   -5.808508248617613e-07   -1.2872545301411212e-05
1.5092451678978803e-06   -5.808508248617613e-07   -1.2872545301411212e-05
5.029190515221175e-06   -2.124349438893669e-07   -7.247426003877404e-06
5.029190515221175e-06   -2.124349438893669e-07   -7.247426003877404e-06
5.029190515221175e-06   -2.124349438893669e-07   -7.247426003877404e-06
5.029190515221175e-06   -2.124349438893669e-07   -7.247426003877404e-06
-1.732262185987686e-06   -9.518625599581497e-07   -1.8960170408866808e-05
-1.732262185987686e-06   -9.518625599581497e-07   -1.8960170408866808e-05
-1.732262185987686e-06   -9.518625599581497e-07   -1.8960170408866808e-05
-1.732262185987686e-06   -9.518625599581497e-07   -1.8960170408866808e-05
-1.4470481871915365e-06   1.5398288069927088e-07   -7.793824850917683e-06
-1.4470481871915365e-06   1.5398288069927088e-07   -7.793824850917683e-06
-1.4470481871915365e-06   1.5398288069927088e-07   -7.793824850917683e-06
-1.4470481871915365e-06   1.5398288069927088e-07   -7.793824850917683e-06
5.3870984646408134e-06   -6.418597542829675e-07   -1.8706563689648893e-05
5.3870984646408134e-06   -6.418597542829675e-07   -1.8706563689648893e-05
5.3870984646408134e-06   -6.418597542829675e-07   -1.8706563689648893e-05
5.3870984646408134e-06   -6.418597542829675e-07   -1.8706563689648893e-05
1.7445761972955638e-06   -3.554057187971603e-07   -1.2807565665364634e-05
1.7445761972955638e-06   -3.554057187971603e-07   -1.2807565665364634e-05
1.7445761972955638e-06   -3.554057187971603e-07   -1.2807565665364634e-05
1.7445761972955638e-06   -3.554057187971603e-07   -1.2807565665364634e-05
5.387098464640827e-06   1.5398288069927088e-07   -7.316319269928253e-06
5.387098464640827e-06   1.5398288069927088e-07   -7.316319269928253e-06
5.387098464640827e-06   1.5398288069927088e-07   -7.316319269928253e-06
5.387098464640827e-06   1.5398288069927088e-07   -7.316319269928253e-06
-1.4470481871915365e-06   -6.418597542829675e-07   -1.9184069270638323e-05
-1.4470481871915365e-06   -6.418597542829675e-07   -1.9184069270638323e-05
-1.4470481871915365e-06   -6.418597542829675e-07   -1.9184069270638323e-05
-1.4470481871915365e-06   -6.418597542829675e-07   -1.9184069270638323e-05
-1.1796316770493686e-06   5.888885879686565e-07   -8.063580165917255e-06
-1.1796316770493686e-06   5.888885879686565e-07   -8.063580165917255e-06
-1.1796316770493686e-06   5.888885879686565e-07   -8.063580165917255e-06
-1.1796316770493686e-06   5.888885879686565e-07   -8.063580165917255e-06
5.681068304003474e-06   -2.510194090679348e-07   -1.8994135336116704e-05
5.681068304003474e-06   -2.510194090679348e-07   -1.8994135336116704e-05
5.681068304003474e-06   -2.510194090679348e-07   -1.8994135336116704e-05
5.681068304003474e-06   -2.510194090679348e-07   -1.8994135336116704e-05
2.04093415167784e-06   -7.683933977422827e-08   -1.3031753123817207e-05
2.04093415167784e-06   -7.683933977422827e-08   -1.3031753123817207e-05
2.04093415167784e-06   -7.683933977422827e-08   -1.3031753123817207e-05
2.04093415167784e-06   -7.683933977422827e-08   -1.3031753123817207e-05
-2.0310309990019236e-06   4.4967738942419764e-07   -9.727876054328646e-06
-2.0310309990019236e-06   4.4967738942419764e-07   -9.727876054328646e-06
-2.0310309990019236e-06   4.4967738942419764e-07   -9.727876054328646e-06
-2.0310309990019236e-06   4.4967738942419764e-07   -9.727876054328646e-06
-8.649934806142868e-06   2.428044545054126e-07   -2.0883506160515e-05
-8.649934806142868e-06   2.428044545054126e-07   -2.0883506160515e-05
-8.649934806142868e-06   2.428044545054126e-07   -2.0883506160515e-05
-8.649934806142868e-06   2.428044545054126e-07   -2.0883506160515e-05
-8.328529692888807e-06   8.252181426482387e-07   -9.653895791096991e-06
-8.328529692888807e-06   8.252181426482387e-07   -9.653895791096991e-06
-8.328529692888807e-06   8.252181426482387e-07   -9.653895791096991e-06
-8.328529692888807e-06   8.252181426482387e-07   -9.653895791096991e-06
-1.732262185987686e-06   5.288486345408601e-07   -2.0469853264401108e-05
-1.732262185987686e-06   5.288486345408601e-07   -2.0469853264401108e-05
-1.732262185987686e-06   5.288486345408601e-07   -2.0469853264401108e-05
-1.732262185987686e-06   5.288486345408601e-07   -2.0469853264401108e-05
-5.1504068922595655e-06   6.175050584909716e-07   -1.4826139274984717e-05
-5.1504068922595655e-06   6.175050584909716e-07   -1.4826139274984717e-05
-5.1504068922595655e-06   6.175050584909716e-07   -1.4826139274984717e-05
-5.1504068922595655e-06   6.175050584909716e-07   -1.4826139274984717e-05
-1.732262185987686e-06   8.252181426482387e-07   -9.476074086232553e-06
-1.732262185987686e-06   8.252181426482387e-07   -9.476074086232553e-06
-1.732262185987686e-06   8.252181426482387e-07   -9.476074086232553e-06
-1.732262185987686e-06   8.252181426482387e-07   -9.476074086232553e-06
-8.328529692888807e-06   5.288486345408601e-07   -2.0647674969265532e-05
-8.328529692888807e-06   5.288486345408601e-07   -2.0647674969265532e-05
-8.328529692888807e-06   5.288486345408601e-07   -2.0647674969265532e-05
-8.328529692888807e-06   5.288486345408601e-07   -2.0647674969265532e-05
-8.018218644173176e-06   1.2222348174213086e-06   -9.639459038648219e-06
-8.018218644173176e-06   1.2222348174213086e-06   -9.639459038648219e-06
-8.018218644173176e-06   1.2222348174213086e-06   -9.639459038648219e-06
-8.018218644173176e-06   1.2222348174213086e-06   -9.639459038648219e-06
-1.4470481871915365e-06   8.587939581976463e-07   -2.0373345284750217e-05
-1.4470481871915365e-06   8.587939581976463e-07   -2.0373345284750217e-05
-1.4470481871915365e-06   8.587939581976463e-07   -2.0373345284750217e-05
-1.4470481871915365e-06   8.587939581976463e-07   -2.0373345284750217e-05
-4.8745088296444864e-06   8.855401712552216e-07   -1.467695860849638e-05
-4.8745088296444864e-06   8.855401712552216e-07   -1.467695860849638e-05
-4.8745088296444864e-06   8.855401712552216e-07   -1.467695860849638e-05
-4.8745088296444864e-06   8.855401712552216e-07   -1.467695860849638e-05
-1.4470481871915365e-06   1.2222348174213086e-06   -9.421394523114173e-06
-1.4470481871915365e-06   1.2222348174213086e-06   -9.421394523114173e-06
-1.4470481871915365e-06   1.2222348174213086e-06   -9.421394523114173e-06
-1.4470481871915365e-06   1.2222348174213086e-06   -9.421394523114173e-06
-8.018218644173176e-06   8.587939581976463e-07   -2.0591409800284344e-05
-8.018218644173176e-06   8.587939581976463e-07   -2.0591409800284344e-05
-8.018218644173176e-06   8.587939581976463e-07   -2.0591409800284344e-05
-8.018218644173176e-06   8.587939581976463e-07   -2.0591409800284344e-05
-7.731527693680618e-06   1.6261784871948737e-06   -9.868861196096865e-06
-7.731527693680618e-06   1.6261784871948737e-06   -9.868861196096865e-06
-7.731527693680618e-06   1.6261784871948737e-06   -9.868861196096865e-06
-7.731527693680618e-06   1.6261784871948737e-06   -9.868861196096865e-06
-1.1796316770493686e-06   1.19953543510794e-06   -2.0532702059229978e-05
-1.1796316770493686e-06   1.19953543510794e-06   -2.0532702059229978e-05
-1.1796316770493686e-06   1.19953543510794e-06   -2.0532702059229978e-05
-1.1796316770493686e-06   1.19953543510794e-06   -2.0532702059229978e-05
-4.6286048405732e-06   1.160531369647443e-06   -1.4761011014080994e-05
-4.6286048405732e-06   1.160531369647443e-06   -1.4761011014080994e-05
-4.6286048405732e-06   1.160531369647443e-06   -1.4761011014080994e-05
-4.6286048405732e-06   1.160531369647443e-06   -1.4761011014080994e-05
-8.649934806142885e-06   1.4388787726070731e-06   -7.880742635535246e-06
-8.649934806142885e-06   1.4388787726070731e-06   -7.880742635535246e-06
-8.649934806142885e-06   1.4388787726070731e-06   -7.880742635535246e-06
-8.649934806142885e-06   1.4388787726070731e-06   -7.880742635535246e-06
-1.5159706895402668e-05   1.7436589620252593e-06   -1.8547494670650576e-05
-1.5159706895402668e-05   1.7436589620252593e-06   -1.8547494670650576e-05
-1.5159706895402668e-05   1.7436589620252593e-06   -1.8547494670650576e-05
-1.5159706895402668e-05   1.7436589620252593e-06   -1.8547494670650576e-05
-1.4771461431372307e-05   1.8398332351460354e-06   -7.392301902812699e-06
-1.4771461431372307e-05   1.8398332351460354e-06   -7.392301902812699e-06
-1.4771461431372307e-05   1.8398332351460354e-06   -7.392301902812699e-06
-1.4771461431372307e-05   1.8398332351460354e-06   -7.392301902812699e-06
-8.32852969288882e-06   2.1052748345760713e-06   -1.828978642660982e-05
-8.32852969288882e-06   2.1052748345760713e-06   -1.828978642660982e-05
-8.32852969288882e-06   2.1052748345760713e-06   -1.828978642660982e-05
-8.32852969288882e-06   2.1052748345760713e-06   -1.828978642660982e-05
-1.1642003140407349e-05   1.8555705635057724e-06   -1.2617508118103448e-05
-1.1642003140407349e-05   1.8555705635057724e-06   -1.2617508118103448e-05
-1.1642003140407349e-05   1.8555705635057724e-06   -1.2617508118103448e-05
-1.1642003140407349e-05   1.8555705635057724e-06   -1.2617508118103448e-05
-8.32852969288882e-06   1.8398332351460354e-06   -7.5515668624706015e-06
-8.32852969288882e-06   1.8398332351460354e-06   -7.5515668624706015e-06
-8.32852969288882e-06   1.8398332351460354e-06   -7.5515668624706015e-06
-8.32852969288882e-06   1.8398332351460354e-06   -7.5515668624706015e-06
-1.4771461431372334e-05   2.1052748345760713e-06   -1.8130521466951913e-05
-1.4771461431372334e-05   2.1052748345760713e-06   -1.8130521466951913e-05
-1.4771461431372334e-05   2.1052748345760713e-06   -1.8130521466951913e-05
-1.4771461431372334e-05   2.1052748345760713e-06   -1.8130521466951913e-05
-1.4339970978682402e-05   2.20031348931388e-06   -7.120290358870844e-06
-1.4339970978682402e-05   2.20031348931388e-06   -7.120290358870844e-06
-1.4339970978682402e-05   2.20031348931388e-06   -7.120290358870844e-06
-1.4339970978682402e-05   2.20031348931388e-06   -7.120290358870844e-06
-8.018218644173191e-06   2.416450879169055e-06   -1.7786226683632513e-05
-8.018218644173191e-06   2.416450879169055e-06   -1.7786226683632513e-05
-8.018218644173191e-06   2.416450879169055e-06   -1.7786226683632513e-05
-8.018218644173191e-06   2.416450879169055e-06   -1.7786226683632513e-05
-1.1247371555178261e-05   2.138140502431574e-06   -1.2237318939248352e-05
-1.1247371555178261e-05   2.138140502431574e-06   -1.2237318939248352e-05
-1.1247371555178261e-05   2.138140502431574e-06   -1.2237318939248352e-05
-1.1247371555178261e-05   2.138140502431574e-06   -1.2237318939248352e-05
-8.018218644173184e-06   2.20031348931388e-06   -7.249972792783797e-06
-8.018218644173184e-06   2.20031348931388e-06   -7.249972792783797e-06
-8.018218644173184e-06   2.20031348931388e-06   -7.249972792783797e-06
-8.018218644173184e-06   2.20031348931388e-06   -7.249972792783797e-06
-1.4339970978682402e-05   2.416450879169055e-06   -1.7656544249719573e-05
-1.4339970978682402e-05   2.416450879169055e-06   -1.7656544249719573e-05
-1.4339970978682402e-05   2.416450879169055e-06   -1.7656544249719573e-05
-1.4339970978682402e-05   2.416450879169055e-06   -1.7656544249719573e-05
-1.3975856258787226e-05   2.602150209714987e-06   -7.285704498332876e-06
-1.3975856258787226e-05   2.602150209714987e-06   -7.285704498332876e-06
-1.3975856258787226e-05   2.602150209714987e-06   -7.285704498332876e-06
-1.3975856258787226e-05   2.602150209714987e-06   -7.285704498332876e-06
-7.731527693680633e-06   2.759411869439777e-06   -1.778727576934546e-05
-7.731527693680633e-06   2.759411869439777e-06   -1.778727576934546e-05
-7.731527693680633e-06   2.759411869439777e-06   -1.778727576934546e-05
-7.731527693680633e-06   2.759411869439777e-06   -1.778727576934546e-05
-1.1006560314797951e-05   2.3979078263280116e-06   -1.211198564161621e-05
-1.1006560314797951e-05   2.3979078263280116e-06   -1.211198564161621e-05
-1.1006560314797951e-05   2.3979078263280116e-06   -1.211198564161621e-05
-1.1006560314797951e-05   2.3979078263280116e-06   -1.211198564161621e-05
-1.5159706895402668e-05   2.4759015906381313e-06   -3.93701083955633e-06
-1.5159706895402668e-05   2.4759015906381313e-06   -3.93701083955633e-06
-1.5159706895402668e-05   2.4759015906381313e-06   -3.93701083955633e-06
-1.5159706895402668e-05   2.4759015906381313e-06   -3.93701083955633e-06
-2.203501089361928e-05   3.4080953152238044e-06   -1.4836534601832697e-05
-2.203501089361928e-05   3.4080953152238044e-06   -1.4836534601832697e-05
-2.203501089361928e-05   3.4080953152238044e-06   -1.4836534601832697e-05
-2.203501089361928e-05   3.4080953152238044e-06   -1.4836534601832697e-05
-2.1130128332785963e-05   2.8933888925484954e-06   -1.178004838587655e-06
-2.1130128332785963e-05   2.8933888925484954e-06   -1.178004838587655e-06
-2.1130128332785963e-05   2.8933888925484954e-06   -1.178004838587655e-06
-2.1130128332785963e-05   2.8933888925484954e-06   -1.178004838587655e-06
-1.4771461431372307e-05   3.888809101989035e-06   -1.2373035133274843e-05
-1.4771461431372307e-05   3.888809101989035e-06   -1.2373035133274843e-05
-1.4771461431372307e-05   3.888809101989035e-06   -1.2373035133274843e-05
-1.4771461431372307e-05   3.888809101989035e-06   -1.2373035133274843e-05
-1.751936825887424e-05   3.246179811233654e-06   -7.407612846318322e-06
-1.751936825887424e-05   3.246179811233654e-06   -7.407612846318322e-06
-1.751936825887424e-05   3.246179811233654e-06   -7.407612846318322e-06
-1.751936825887424e-05   3.246179811233654e-06   -7.407612846318322e-06
-1.4771461431372317e-05   2.8933888925484954e-06   -1.7752569642519897e-06
-1.4771461431372317e-05   2.8933888925484954e-06   -1.7752569642519897e-06
-1.4771461431372317e-05   2.8933888925484954e-06   -1.7752569642519897e-06
-1.4771461431372317e-05   2.8933888925484954e-06   -1.7752569642519897e-06
-2.113012833278593e-05   3.888809101989035e-06   -1.1775783007610466e-05
-2.113012833278593e-05   3.888809101989035e-06   -1.1775783007610466e-05
-2.113012833278593e-05   3.888809101989035e-06   -1.1775783007610466e-05
-2.113012833278593e-05   3.888809101989035e-06   -1.1775783007610466e-05
-2.038577198482594e-05   3.043377559020714e-06   -1.9357564664916616e-08
-2.038577198482594e-05   3.043377559020714e-06   -1.9357564664916616e-08
-2.038577198482594e-05   3.043377559020714e-06   -1.9357564664916616e-08
-2.038577198482594e-05   3.043377559020714e-06   -1.9357564664916616e-08
-1.4339970978682402e-05   4.015991269443165e-06   -1.06792608011577e-05
-1.4339970978682402e-05   4.015991269443165e-06   -1.06792608011577e-05
-1.4339970978682402e-05   4.015991269443165e-06   -1.06792608011577e-05
-1.4339970978682402e-05   4.015991269443165e-06   -1.06792608011577e-05
-1.7221642038674277e-05   3.4400364214824284e-06   -5.53090279239465e-06
-1.7221642038674277e-05   3.4400364214824284e-06   -5.53090279239465e-06
-1.7221642038674277e-05   3.4400364214824284e-06   -5.53090279239465e-06
-1.7221642038674277e-05   3.4400364214824284e-06   -5.53090279239465e-06
-1.4339970978682402e-05   3.043377559020714e-06   -6.029257909184195e-07
-1.4339970978682402e-05   3.043377559020714e-06   -6.029257909184195e-07
-1.4339970978682402e-05   3.043377559020714e-06   -6.029257909184195e-07
-1.4339970978682402e-05   3.043377559020714e-06   -6.029257909184195e-07
-2.0385771984825866e-05   4.015991269443056e-06   -1.0095692574904223e-05
-2.0385771984825866e-05   4.015991269443056e-06   -1.0095692574904223e-05
-2.0385771984825866e-05   4.015991269443056e-06   -1.0095692574904223e-05
-2.0385771984825866e-05   4.015991269443056e-06   -1.0095692574904223e-05
-1.957941380735774e-05   3.230069828528059e-06   1.4598864093017948e-06
-1.957941380735774e-05   3.230069828528059e-06   1.4598864093017948e-06
-1.957941380735774e-05   3.230069828528059e-06   1.4598864093017948e-06
-1.957941380735774e-05   3.230069828528059e-06   1.4598864093017948e-06
-1.3975856258787226e-05   4.1215835358884975e-06   -8.414284396065338e-06
-1.3975856258787226e-05   4.1215835358884975e-06   -8.414284396065338e-06
-1.3975856258787226e-05   4.1215835358884975e-06   -8.414284396065338e-06
-1.3975856258787226e-05   4.1215835358884975e-06   -8.414284396065338e-06
-1.646121982175797e-05   3.471087829340705e-06   -3.881714367185529e-06
-1.646121982175797e-05   3.471087829340705e-06   -3.881714367185529e-06
-1.646121982175797e-05   3.471087829340705e-06   -3.881714367185529e-06
-1.646121982175797e-05   3.471087829340705e-06   -3.881714367185529e-06
1.8694689850842406e-05   -2.599933220960083e-06   3.824488905910584e-06
1.8694689850842406e-05   -2.599933220960083e-06   3.824488905910584e-06
1.8694689850842406e-05   -2.599933220960083e-06   3.824488905910584e-06
1.8694689850842406e-05   -2.599933220960083e-06   3.824488905910584e-06
8.982803147202366e-06   -3.831867923228876e-06   -1.3101149754850619e-05
8.982803147202366e-06   -3.831867923228876e-06   -1.3101149754850619e-05
8.982803147202366e-06   -3.831867923228876e-06   -1.3101149754850619e-05
8.982803147202366e-06   -3.831867923228876e-06   -1.3101149754850619e-05
9.339540018073715e-06   -2.4197752156963556e-06   1.9065136607628822e-06
9.339540018073715e-06   -2.4197752156963556e-06   1.9065136607628822e-06
9.339540018073715e-06   -2.4197752156963556e-06   1.9065136607628822e-06
9.339540018073715e-06   -2.4197752156963556e-06   1.9065136607628822e-06
1.9533345783025982e-05   -3.74448580817957e-06   -1.428833625866777e-05
1.9533345783025982e-05   -3.74448580817957e-06   -1.428833625866777e-05
1.9533345783025982e-05   -3.74448580817957e-06   -1.428833625866777e-05
1.9533345783025982e-05   -3.74448580817957e-06   -1.428833625866777e-05
1.3561557573400388e-05   -2.8427298085691253e-06   -4.876409509058051e-06
1.3561557573400388e-05   -2.8427298085691253e-06   -4.876409509058051e-06
1.3561557573400388e-05   -2.8427298085691253e-06   -4.876409509058051e-06
1.3561557573400388e-05   -2.8427298085691253e-06   -4.876409509058051e-06
1.9533345783026023e-05   -2.4197752156963556e-06   2.7013400162527023e-06
1.9533345783026023e-05   -2.4197752156963556e-06   2.7013400162527023e-06
1.9533345783026023e-05   -2.4197752156963556e-06   2.7013400162527023e-06
1.9533345783026023e-05   -2.4197752156963556e-06   2.7013400162527023e-06
9.339540018073701e-06   -3.74448580817957e-06   -1.508316261415759e-05
9.339540018073701e-06   -3.74448580817957e-06   -1.508316261415759e-05
9.339540018073701e-06   -3.74448580817957e-06   -1.508316261415759e-05
9.339540018073701e-06   -3.74448580817957e-06   -1.508316261415759e-05
9.69470046725117e-06   -2.262671385792718e-06   9.632345830164072e-07
9.69470046725117e-06   -2.262671385792718e-06   9.632345830164072e-07
9.69470046725117e-06   -2.262671385792718e-06   9.632345830164072e-07
9.69470046725117e-06   -2.262671385792718e-06   9.632345830164072e-07
2.0175474761164317e-05   -3.6137789711606543e-06   -1.5694058022284774e-05
2.0175474761164317e-05   -3.6137789711606543e-06   -1.5694058022284774e-05
2.0175474761164317e-05   -3.6137789711606543e-06   -1.5694058022284774e-05
2.0175474761164317e-05   -3.6137789711606543e-06   -1.5694058022284774e-05
1.4269589283073823e-05   -2.832883822705915e-06   -6.319452647873385e-06
1.4269589283073823e-05   -2.832883822705915e-06   -6.319452647873385e-06
1.4269589283073823e-05   -2.832883822705915e-06   -6.319452647873385e-06
1.4269589283073823e-05   -2.832883822705915e-06   -6.319452647873385e-06
2.0175474761164317e-05   -2.262671385792718e-06   1.773899134237169e-06
2.0175474761164317e-05   -2.262671385792718e-06   1.773899134237169e-06
2.0175474761164317e-05   -2.262671385792718e-06   1.773899134237169e-06
2.0175474761164317e-05   -2.262671385792718e-06   1.773899134237169e-06
9.69470046725117e-06   -3.6137789711607627e-06   -1.6504722573505563e-05
9.69470046725117e-06   -3.6137789711607627e-06   -1.6504722573505563e-05
9.69470046725117e-06   -3.6137789711607627e-06   -1.6504722573505563e-05
9.69470046725117e-06   -3.6137789711607627e-06   -1.6504722573505563e-05
9.934126386490483e-06   -1.7684002770460743e-06   -9.283927677205574e-07
9.934126386490483e-06   -1.7684002770460743e-06   -9.283927677205574e-07
9.934126386490483e-06   -1.7684002770460743e-06   -9.283927677205574e-07
9.934126386490483e-06   -1.7684002770460743e-06   -9.283927677205574e-07
2.0855076987738805e-05   -3.1065327601583707e-06   -1.832709761326689e-05
2.0855076987738805e-05   -3.1065327601583707e-06   -1.832709761326689e-05
2.0855076987738805e-05   -3.1065327601583707e-06   -1.832709761326689e-05
2.0855076987738805e-05   -3.1065327601583707e-06   -1.832709761326689e-05
1.4459488312313746e-05   -2.6138005788465396e-06   -7.963422463012535e-06
1.4459488312313746e-05   -2.6138005788465396e-06   -7.963422463012535e-06
1.4459488312313746e-05   -2.6138005788465396e-06   -7.963422463012535e-06
1.4459488312313746e-05   -2.6138005788465396e-06   -7.963422463012535e-06
8.982803147202366e-06   -1.205750798851041e-06   -4.381531656225579e-06
8.982803147202366e-06   -1.205750798851041e-06   -4.381531656225579e-06
8.982803147202366e-06   -1.205750798851041e-06   -4.381531656225579e-06
8.982803147202366e-06   -1.205750798851041e-06   -4.381531656225579e-06
-5.91044850190993e-07   -2.4547500494308087e-06   -2.1087344535562443e-05
-5.91044850190993e-07   -2.4547500494308087e-06   -2.1087344535562443e-05
-5.91044850190993e-07   -2.4547500494308087e-06   -2.1087344535562443e-05
-5.91044850190993e-07   -2.4547500494308087e-06   -2.1087344535562443e-05
-2.2589022982902064e-07   -9.518625599581497e-07   -4.836780045346708e-06
-2.2589022982902064e-07   -9.518625599581497e-07   -4.836780045346708e-06
-2.2589022982902064e-07   -9.518625599581497e-07   -4.836780045346708e-06
-2.2589022982902064e-07   -9.518625599581497e-07   -4.836780045346708e-06
9.339540018073715e-06   -2.3332678957706503e-06   -1.99503205903637e-05
9.339540018073715e-06   -2.3332678957706503e-06   -1.99503205903637e-05
9.339540018073715e-06   -2.3332678957706503e-06   -1.99503205903637e-05
9.339540018073715e-06   -2.3332678957706503e-06   -1.99503205903637e-05
4.388621868474934e-06   -1.486417586417355e-06   -1.220690052664445e-05
4.388621868474934e-06   -1.486417586417355e-06   -1.220690052664445e-05
4.388621868474934e-06   -1.486417586417355e-06   -1.220690052664445e-05
4.388621868474934e-06   -1.486417586417355e-06   -1.220690052664445e-05
9.339540018073701e-06   -9.518625599581497e-07   -4.007936843859099e-06
9.339540018073701e-06   -9.518625599581497e-07   -4.007936843859099e-06
9.339540018073701e-06   -9.518625599581497e-07   -4.007936843859099e-06
9.339540018073701e-06   -9.518625599581497e-07   -4.007936843859099e-06
-2.2589022982902064e-07   -2.3332678957706503e-06   -2.0779163791851188e-05
-2.2589022982902064e-07   -2.3332678957706503e-06   -2.0779163791851188e-05
-2.2589022982902064e-07   -2.3332678957706503e-06   -2.0779163791851188e-05
-2.2589022982902064e-07   -2.3332678957706503e-06   -2.0779163791851188e-05
9.557473416700146e-08   -6.418597542829675e-07   -4.960129053313642e-06
9.557473416700146e-08   -6.418597542829675e-07   -4.960129053313642e-06
9.557473416700146e-08   -6.418597542829675e-07   -4.960129053313642e-06
9.557473416700146e-08   -6.418597542829675e-07   -4.960129053313642e-06
9.69470046725117e-06   -2.110003307317248e-06   -2.0077785809966703e-05
9.69470046725117e-06   -2.110003307317248e-06   -2.0077785809966703e-05
9.69470046725117e-06   -2.110003307317248e-06   -2.0077785809966703e-05
9.69470046725117e-06   -2.110003307317248e-06   -2.0077785809966703e-05
4.634715434089358e-06   -1.3602381593575243e-06   -1.2094336510139181e-05
4.634715434089358e-06   -1.3602381593575243e-06   -1.2094336510139181e-05
4.634715434089358e-06   -1.3602381593575243e-06   -1.2094336510139181e-05
4.634715434089358e-06   -1.3602381593575243e-06   -1.2094336510139181e-05
9.69470046725117e-06   -6.418597542830759e-07   -4.079242921493074e-06
9.69470046725117e-06   -6.418597542830759e-07   -4.079242921493074e-06
9.69470046725117e-06   -6.418597542830759e-07   -4.079242921493074e-06
9.69470046725117e-06   -6.418597542830759e-07   -4.079242921493074e-06
9.557473416700146e-08   -2.110003307317248e-06   -2.0958671941787162e-05
9.557473416700146e-08   -2.110003307317248e-06   -2.0958671941787162e-05
9.557473416700146e-08   -2.110003307317248e-06   -2.0958671941787162e-05
9.557473416700146e-08   -2.110003307317248e-06   -2.0958671941787162e-05
3.2355409009148027e-07   -2.510194090679348e-07   -5.164744161802919e-06
3.2355409009148027e-07   -2.510194090679348e-07   -5.164744161802919e-06
3.2355409009148027e-07   -2.510194090679348e-07   -5.164744161802919e-06
3.2355409009148027e-07   -2.510194090679348e-07   -5.164744161802919e-06
9.934126386490524e-06   -1.7921223071646394e-06   -2.0257702916943313e-05
9.934126386490524e-06   -1.7921223071646394e-06   -2.0257702916943313e-05
9.934126386490524e-06   -1.7921223071646394e-06   -2.0257702916943313e-05
9.934126386490524e-06   -1.7921223071646394e-06   -2.0257702916943313e-05
4.93305137194319e-06   -1.1397019854669788e-06   -1.2314030085716637e-05
4.93305137194319e-06   -1.1397019854669788e-06   -1.2314030085716637e-05
4.93305137194319e-06   -1.1397019854669788e-06   -1.2314030085716637e-05
4.93305137194319e-06   -1.1397019854669788e-06   -1.2314030085716637e-05
-5.91044850190993e-07   2.4280445450530416e-07   -6.742368042165982e-06
-5.91044850190993e-07   2.4280445450530416e-07   -6.742368042165982e-06
-5.91044850190993e-07   2.4280445450530416e-07   -6.742368042165982e-06
-5.91044850190993e-07   2.4280445450530416e-07   -6.742368042165982e-06
-1.0023602929679774e-05   -1.24483908401534e-06   -2.335588429775966e-05
-1.0023602929679774e-05   -1.24483908401534e-06   -2.335588429775966e-05
-1.0023602929679774e-05   -1.24483908401534e-06   -2.335588429775966e-05
-1.0023602929679774e-05   -1.24483908401534e-06   -2.335588429775966e-05
-9.585101870588195e-06   5.288486345408601e-07   -7.3240488870603745e-06
-9.585101870588195e-06   5.288486345408601e-07   -7.3240488870603745e-06
-9.585101870588195e-06   5.288486345408601e-07   -7.3240488870603745e-06
-9.585101870588195e-06   5.288486345408601e-07   -7.3240488870603745e-06
-2.2589022982902064e-07   -1.10046134242463e-06   -2.1945148968812906e-05
-2.2589022982902064e-07   -1.10046134242463e-06   -2.1945148968812906e-05
-2.2589022982902064e-07   -1.10046134242463e-06   -2.1945148968812906e-05
-2.2589022982902064e-07   -1.10046134242463e-06   -2.1945148968812906e-05
-5.047381756583872e-06   -2.1193972568253876e-07   -1.4442442727600167e-05
-5.047381756583872e-06   -2.1193972568253876e-07   -1.4442442727600167e-05
-5.047381756583872e-06   -2.1193972568253876e-07   -1.4442442727600167e-05
-5.047381756583872e-06   -2.1193972568253876e-07   -1.4442442727600167e-05
-2.2589022982902064e-07   5.288486345408601e-07   -6.346462900880994e-06
-2.2589022982902064e-07   5.288486345408601e-07   -6.346462900880994e-06
-2.2589022982902064e-07   5.288486345408601e-07   -6.346462900880994e-06
-2.2589022982902064e-07   5.288486345408601e-07   -6.346462900880994e-06
-9.585101870588195e-06   -1.1004613424245215e-06   -2.29227349549923e-05
-9.585101870588195e-06   -1.1004613424245215e-06   -2.29227349549923e-05
-9.585101870588195e-06   -1.1004613424245215e-06   -2.29227349549923e-05
-9.585101870588195e-06   -1.1004613424245215e-06   -2.29227349549923e-05
-9.182846095979962e-06   8.587939581977547e-07   -7.192613772670758e-06
-9.182846095979962e-06   8.587939581977547e-07   -7.192613772670758e-06
-9.182846095979962e-06   8.587939581977547e-07   -7.192613772670758e-06
-9.182846095979962e-06   8.587939581977547e-07   -7.192613772670758e-06
9.557473416700146e-08   -8.798872172110107e-07   -2.161343978433708e-05
9.557473416700146e-08   -8.798872172110107e-07   -2.161343978433708e-05
9.557473416700146e-08   -8.798872172110107e-07   -2.161343978433708e-05
9.557473416700146e-08   -8.798872172110107e-07   -2.161343978433708e-05
-4.691088052508806e-06   -4.819362566573643e-08   -1.413468462813791e-05
-4.691088052508806e-06   -4.819362566573643e-08   -1.413468462813791e-05
-4.691088052508806e-06   -4.819362566573643e-08   -1.413468462813791e-05
-4.691088052508806e-06   -4.819362566573643e-08   -1.413468462813791e-05
9.557473416700146e-08   8.587939581977547e-07   -6.149405067425455e-06
9.557473416700146e-08   8.587939581977547e-07   -6.149405067425455e-06
9.557473416700146e-08   8.587939581977547e-07   -6.149405067425455e-06
9.557473416700146e-08   8.587939581977547e-07   -6.149405067425455e-06
-9.182846095979975e-06   -8.798872172110107e-07   -2.2656648489582476e-05
-9.182846095979975e-06   -8.798872172110107e-07   -2.2656648489582476e-05
-9.182846095979975e-06   -8.798872172110107e-07   -2.2656648489582476e-05
-9.182846095979975e-06   -8.798872172110107e-07   -2.2656648489582476e-05
-8.91197768673007e-06   1.19953543510794e-06   -7.321163844965068e-06
-8.91197768673007e-06   1.19953543510794e-06   -7.321163844965068e-06
-8.91197768673007e-06   1.19953543510794e-06   -7.321163844965068e-06
-8.91197768673007e-06   1.19953543510794e-06   -7.321163844965068e-06
3.2355409009148027e-07   -6.701274953435253e-07   -2.159191904806346e-05
3.2355409009148027e-07   -6.701274953435253e-07   -2.159191904806346e-05
3.2355409009148027e-07   -6.701274953435253e-07   -2.159191904806346e-05
3.2355409009148027e-07   -6.701274953435253e-07   -2.159191904806346e-05
-4.437881156243462e-06   1.351426041527274e-07   -1.4139355697203159e-05
-4.437881156243462e-06   1.351426041527274e-07   -1.4139355697203159e-05
-4.437881156243462e-06   1.351426041527274e-07   -1.4139355697203159e-05
-4.437881156243462e-06   1.351426041527274e-07   -1.4139355697203159e-05
-1.0023602929679757e-05   1.7436589620252593e-06   -5.48181078906479e-06
-1.0023602929679757e-05   1.7436589620252593e-06   -5.48181078906479e-06
-1.0023602929679757e-05   1.7436589620252593e-06   -5.48181078906479e-06
-1.0023602929679757e-05   1.7436589620252593e-06   -5.48181078906479e-06
-1.9593520392761808e-05   4.1064793196855364e-07   -2.223147984556893e-05
-1.9593520392761808e-05   4.1064793196855364e-07   -2.223147984556893e-05
-1.9593520392761808e-05   4.1064793196855364e-07   -2.223147984556893e-05
-1.9593520392761808e-05   4.1064793196855364e-07   -2.223147984556893e-05
-1.896879590282436e-05   2.105274834575963e-06   -5.826277773898292e-06
-1.896879590282436e-05   2.105274834575963e-06   -5.826277773898292e-06
-1.896879590282436e-05   2.105274834575963e-06   -5.826277773898292e-06
-1.896879590282436e-05   2.105274834575963e-06   -5.826277773898292e-06
-9.585101870588175e-06   6.717457854196881e-07   -2.060565039813157e-05
-9.585101870588175e-06   6.717457854196881e-07   -2.060565039813157e-05
-9.585101870588175e-06   6.717457854196881e-07   -2.060565039813157e-05
-9.585101870588175e-06   6.717457854196881e-07   -2.060565039813157e-05
-1.4394084262513663e-05   1.3537578727772833e-06   -1.2999886997336883e-05
-1.4394084262513663e-05   1.3537578727772833e-06   -1.2999886997336883e-05
-1.4394084262513663e-05   1.3537578727772833e-06   -1.2999886997336883e-05
-1.4394084262513663e-05   1.3537578727772833e-06   -1.2999886997336883e-05
-9.585101870588175e-06   2.105274834575963e-06   -4.966160344404549e-06
-9.585101870588175e-06   2.105274834575963e-06   -4.966160344404549e-06
-9.585101870588175e-06   2.105274834575963e-06   -4.966160344404549e-06
-9.585101870588175e-06   2.105274834575963e-06   -4.966160344404549e-06
-1.8968795902824395e-05   6.717457854195797e-07   -2.14657678276254e-05
-1.8968795902824395e-05   6.717457854195797e-07   -2.14657678276254e-05
-1.8968795902824395e-05   6.717457854195797e-07   -2.14657678276254e-05
-1.8968795902824395e-05   6.717457854195797e-07   -2.14657678276254e-05
-1.836290282031901e-05   2.416450879169055e-06   -5.290407116719485e-06
-1.836290282031901e-05   2.416450879169055e-06   -5.290407116719485e-06
-1.836290282031901e-05   2.416450879169055e-06   -5.290407116719485e-06
-1.836290282031901e-05   2.416450879169055e-06   -5.290407116719485e-06
-9.182846095979975e-06   9.114901113346872e-07   -1.968752519658415e-05
-9.182846095979975e-06   9.114901113346872e-07   -1.968752519658415e-05
-9.182846095979975e-06   9.114901113346872e-07   -1.968752519658415e-05
-9.182846095979975e-06   9.114901113346872e-07   -1.968752519658415e-05
-1.3826533862859093e-05   1.5810225394031346e-06   -1.2349765041959809e-05
-1.3826533862859093e-05   1.5810225394031346e-06   -1.2349765041959809e-05
-1.3826533862859093e-05   1.5810225394031346e-06   -1.2349765041959809e-05
-1.3826533862859093e-05   1.5810225394031346e-06   -1.2349765041959809e-05
-9.182846095979955e-06   2.416450879169055e-06   -4.387430656018886e-06
-9.182846095979955e-06   2.416450879169055e-06   -4.387430656018886e-06
-9.182846095979955e-06   2.416450879169055e-06   -4.387430656018886e-06
-9.182846095979955e-06   2.416450879169055e-06   -4.387430656018886e-06
-1.8362902820319045e-05   9.114901113346872e-07   -2.0590501657284687e-05
-1.8362902820319045e-05   9.114901113346872e-07   -2.0590501657284687e-05
-1.8362902820319045e-05   9.114901113346872e-07   -2.0590501657284687e-05
-1.8362902820319045e-05   9.114901113346872e-07   -2.0590501657284687e-05
-1.7906162440528508e-05   2.759411869439777e-06   -5.307613422884179e-06
-1.7906162440528508e-05   2.759411869439777e-06   -5.307613422884179e-06
-1.7906162440528508e-05   2.759411869439777e-06   -5.307613422884179e-06
-1.7906162440528508e-05   2.759411869439777e-06   -5.307613422884179e-06
-8.911977686730084e-06   1.112975704346689e-06   -1.9310059646825697e-05
-8.911977686730084e-06   1.112975704346689e-06   -1.9310059646825697e-05
-8.911977686730084e-06   1.112975704346689e-06   -1.9310059646825697e-05
-8.911977686730084e-06   1.112975704346689e-06   -1.9310059646825697e-05
-1.3515315246870661e-05   1.7400317869621347e-06   -1.201406402949388e-05
-1.3515315246870661e-05   1.7400317869621347e-06   -1.201406402949388e-05
-1.3515315246870661e-05   1.7400317869621347e-06   -1.201406402949388e-05
-1.3515315246870661e-05   1.7400317869621347e-06   -1.201406402949388e-05
-1.9593520392761808e-05   3.4080953152238044e-06   -3.1299735730324577e-06
-1.9593520392761808e-05   3.4080953152238044e-06   -3.1299735730324577e-06
-1.9593520392761808e-05   3.4080953152238044e-06   -3.1299735730324577e-06
-1.9593520392761808e-05   3.4080953152238044e-06   -3.1299735730324577e-06
-2.9609077612428637e-05   3.2358846129153414e-06   -1.9925895360528947e-05
-2.9609077612428637e-05   3.2358846129153414e-06   -1.9925895360528947e-05
-2.9609077612428637e-05   3.2358846129153414e-06   -1.9925895360528947e-05
-2.9609077612428637e-05   3.2358846129153414e-06   -1.9925895360528947e-05
-2.8360866710333114e-05   3.888809101989035e-06   4.067387219825608e-08
-2.8360866710333114e-05   3.888809101989035e-06   4.067387219825608e-08
-2.8360866710333114e-05   3.888809101989035e-06   4.067387219825608e-08
-2.8360866710333114e-05   3.888809101989035e-06   4.067387219825608e-08
-1.896879590282433e-05   4.071251289354907e-06   -1.5722242786069233e-05
-1.896879590282433e-05   4.071251289354907e-06   -1.5722242786069233e-05
-1.896879590282433e-05   4.071251289354907e-06   -1.5722242786069233e-05
-1.896879590282433e-05   4.071251289354907e-06   -1.5722242786069233e-05
-2.3093325647925896e-05   3.835469791794218e-06   -8.706557645696964e-06
-2.3093325647925896e-05   3.835469791794218e-06   -8.706557645696964e-06
-2.3093325647925896e-05   3.835469791794218e-06   -8.706557645696964e-06
-2.3093325647925896e-05   3.835469791794218e-06   -8.706557645696964e-06
-1.896879590282438e-05   3.888809101989035e-06   -6.879144022118016e-08
-1.896879590282438e-05   3.888809101989035e-06   -6.879144022118016e-08
-1.896879590282438e-05   3.888809101989035e-06   -6.879144022118016e-08
-1.896879590282438e-05   3.888809101989035e-06   -6.879144022118016e-08
-2.8360866710333114e-05   4.071251289354907e-06   -1.5612777473649722e-05
-2.8360866710333114e-05   4.071251289354907e-06   -1.5612777473649722e-05
-2.8360866710333114e-05   4.071251289354907e-06   -1.5612777473649722e-05
-2.8360866710333114e-05   4.071251289354907e-06   -1.5612777473649722e-05
-2.732799444708695e-05   4.015991269443056e-06   1.8333602914164058e-06
-2.732799444708695e-05   4.015991269443056e-06   1.8333602914164058e-06
-2.732799444708695e-05   4.015991269443056e-06   1.8333602914164058e-06
-2.732799444708695e-05   4.015991269443056e-06   1.8333602914164058e-06
-1.836290282031901e-05   4.260131202066535e-06   -1.3254943046104171e-05
-1.836290282031901e-05   4.260131202066535e-06   -1.3254943046104171e-05
-1.836290282031901e-05   4.260131202066535e-06   -1.3254943046104171e-05
-1.836290282031901e-05   4.260131202066535e-06   -1.3254943046104171e-05
-2.263498755789572e-05   4.111394359136494e-06   -6.04555971105148e-06
-2.263498755789572e-05   4.111394359136494e-06   -6.04555971105148e-06
-2.263498755789572e-05   4.111394359136494e-06   -6.04555971105148e-06
-2.263498755789572e-05   4.111394359136494e-06   -6.04555971105148e-06
-1.8362902820319045e-05   4.015991269443056e-06   1.686876331842362e-06
-1.8362902820319045e-05   4.015991269443056e-06   1.686876331842362e-06
-1.8362902820319045e-05   4.015991269443056e-06   1.686876331842362e-06
-1.8362902820319045e-05   4.015991269443056e-06   1.686876331842362e-06
-2.7327994447086904e-05   4.260131202066535e-06   -1.3108459086530141e-05
-2.7327994447086904e-05   4.260131202066535e-06   -1.3108459086530141e-05
-2.7327994447086904e-05   4.260131202066535e-06   -1.3108459086530141e-05
-2.7327994447086904e-05   4.260131202066535e-06   -1.3108459086530141e-05
-2.6245225992596954e-05   4.1215835358884975e-06   4.2442626426628625e-06
-2.6245225992596954e-05   4.1215835358884975e-06   4.2442626426628625e-06
-2.6245225992596954e-05   4.1215835358884975e-06   4.2442626426628625e-06
-2.6245225992596954e-05   4.1215835358884975e-06   4.2442626426628625e-06
-1.7906162440528508e-05   4.576986349391328e-06   -9.927418298886487e-06
-1.7906162440528508e-05   4.576986349391328e-06   -9.927418298886487e-06
-1.7906162440528508e-05   4.576986349391328e-06   -9.927418298886487e-06
-1.7906162440528508e-05   4.576986349391328e-06   -9.927418298886487e-06
-2.158447010640943e-05   4.201069605992095e-06   -3.571355476378805e-06
-2.158447010640943e-05   4.201069605992095e-06   -3.571355476378805e-06
-2.158447010640943e-05   4.201069605992095e-06   -3.571355476378805e-06
-2.158447010640943e-05   4.201069605992095e-06   -3.571355476378805e-06
2.559932906408449e-05   -3.831867923228876e-06   8.826503075480769e-06
2.559932906408449e-05   -3.831867923228876e-06   8.826503075480769e-06
2.559932906408449e-05   -3.831867923228876e-06   8.826503075480769e-06
2.559932906408449e-05   -3.831867923228876e-06   8.826503075480769e-06
1.2839433832173124e-05   -4.832056690723483e-06   -1.3040102238201599e-05
1.2839433832173124e-05   -4.832056690723483e-06   -1.3040102238201599e-05
1.2839433832173124e-05   -4.832056690723483e-06   -1.3040102238201599e-05
1.2839433832173124e-05   -4.832056690723483e-06   -1.3040102238201599e-05
1.3143722821313986e-05   -3.74448580817957e-06   6.354181722684508e-06
1.3143722821313986e-05   -3.74448580817957e-06   6.354181722684508e-06
1.3143722821313986e-05   -3.74448580817957e-06   6.354181722684508e-06
1.3143722821313986e-05   -3.74448580817957e-06   6.354181722684508e-06
2.6225024472584455e-05   -4.953032011014314e-06   -1.4722859974398929e-05
2.6225024472584455e-05   -4.953032011014314e-06   -1.4722859974398929e-05
2.6225024472584455e-05   -4.953032011014314e-06   -1.4722859974398929e-05
2.6225024472584455e-05   -4.953032011014314e-06   -1.4722859974398929e-05
1.8675009050985445e-05   -3.91367551605187e-06   -2.7631148353780236e-06
1.8675009050985445e-05   -3.91367551605187e-06   -2.7631148353780236e-06
1.8675009050985445e-05   -3.91367551605187e-06   -2.7631148353780236e-06
1.8675009050985445e-05   -3.91367551605187e-06   -2.7631148353780236e-06
2.6225024472584455e-05   -3.74448580817957e-06   7.079309444385268e-06
2.6225024472584455e-05   -3.74448580817957e-06   7.079309444385268e-06
2.6225024472584455e-05   -3.74448580817957e-06   7.079309444385268e-06
2.6225024472584455e-05   -3.74448580817957e-06   7.079309444385268e-06
1.3143722821313986e-05   -4.953032011014314e-06   -1.544798769609969e-05
1.3143722821313986e-05   -4.953032011014314e-06   -1.544798769609969e-05
1.3143722821313986e-05   -4.953032011014314e-06   -1.544798769609969e-05
1.3143722821313986e-05   -4.953032011014314e-06   -1.544798769609969e-05
1.34007009881059e-05   -3.6137789711607627e-06   5.025834486119935e-06
1.34007009881059e-05   -3.6137789711607627e-06   5.025834486119935e-06
1.34007009881059e-05   -3.6137789711607627e-06   5.025834486119935e-06
1.34007009881059e-05   -3.6137789711607627e-06   5.025834486119935e-06
2.6614005683053555e-05   -4.9063229707363605e-06   -1.6220813605714014e-05
2.6614005683053555e-05   -4.9063229707363605e-06   -1.6220813605714014e-05
2.6614005683053555e-05   -4.9063229707363605e-06   -1.6220813605714014e-05
2.6614005683053555e-05   -4.9063229707363605e-06   -1.6220813605714014e-05
1.9324944623799985e-05   -4.035033447821225e-06   -4.595152220707264e-06
1.9324944623799985e-05   -4.035033447821225e-06   -4.595152220707264e-06
1.9324944623799985e-05   -4.035033447821225e-06   -4.595152220707264e-06
1.9324944623799985e-05   -4.035033447821225e-06   -4.595152220707264e-06
2.6614005683053555e-05   -3.6137789711607627e-06   5.801360885865402e-06
2.6614005683053555e-05   -3.6137789711607627e-06   5.801360885865402e-06
2.6614005683053555e-05   -3.6137789711607627e-06   5.801360885865402e-06
2.6614005683053555e-05   -3.6137789711607627e-06   5.801360885865402e-06
1.34007009881059e-05   -4.9063229707363605e-06   -1.6996340005459467e-05
1.34007009881059e-05   -4.9063229707363605e-06   -1.6996340005459467e-05
1.34007009881059e-05   -4.9063229707363605e-06   -1.6996340005459467e-05
1.34007009881059e-05   -4.9063229707363605e-06   -1.6996340005459467e-05
1.3667799935451629e-05   -3.1065327601583707e-06   2.4591457230243707e-06
1.3667799935451629e-05   -3.1065327601583707e-06   2.4591457230243707e-06
1.3667799935451629e-05   -3.1065327601583707e-06   2.4591457230243707e-06
1.3667799935451629e-05   -3.1065327601583707e-06   2.4591457230243707e-06
2.69971311875217e-05   -4.628039931675381e-06   -1.8843502060848918e-05
2.69971311875217e-05   -4.628039931675381e-06   -1.8843502060848918e-05
2.69971311875217e-05   -4.628039931675381e-06   -1.8843502060848918e-05
2.69971311875217e-05   -4.628039931675381e-06   -1.8843502060848918e-05
1.9325502394071317e-05   -3.8803340147458175e-06   -6.5060776219227055e-06
1.9325502394071317e-05   -3.8803340147458175e-06   -6.5060776219227055e-06
1.9325502394071317e-05   -3.8803340147458175e-06   -6.5060776219227055e-06
1.9325502394071317e-05   -3.8803340147458175e-06   -6.5060776219227055e-06
1.2839433832173124e-05   -2.4547500494308087e-06   9.895945846201057e-07
1.2839433832173124e-05   -2.4547500494308087e-06   9.895945846201057e-07
1.2839433832173124e-05   -2.4547500494308087e-06   9.895945846201057e-07
1.2839433832173124e-05   -2.4547500494308087e-06   9.895945846201057e-07
1.4476030630887327e-06   -4.779495327600228e-06   -1.9391637197422218e-05
1.4476030630887327e-06   -4.779495327600228e-06   -1.9391637197422218e-05
1.4476030630887327e-06   -4.779495327600228e-06   -1.9391637197422218e-05
1.4476030630887327e-06   -4.779495327600228e-06   -1.9391637197422218e-05
1.8013519770517986e-06   -2.3332678957706503e-06   3.620727142617571e-08
1.8013519770517986e-06   -2.3332678957706503e-06   3.620727142617571e-08
1.8013519770517986e-06   -2.3332678957706503e-06   3.620727142617571e-08
1.8013519770517986e-06   -2.3332678957706503e-06   3.620727142617571e-08
1.3143722821314006e-05   -4.751295354190645e-06   -1.741692766062533e-05
1.3143722821314006e-05   -4.751295354190645e-06   -1.741692766062533e-05
1.3143722821314006e-05   -4.751295354190645e-06   -1.741692766062533e-05
1.3143722821314006e-05   -4.751295354190645e-06   -1.741692766062533e-05
7.334767189146034e-06   -3.228426968411016e-06   -8.649055971813208e-06
7.334767189146034e-06   -3.228426968411016e-06   -8.649055971813208e-06
7.334767189146034e-06   -3.228426968411016e-06   -8.649055971813208e-06
7.334767189146034e-06   -3.228426968411016e-06   -8.649055971813208e-06
1.3143722821313965e-05   -2.3332678957706503e-06   1.4870237464783024e-06
1.3143722821313965e-05   -2.3332678957706503e-06   1.4870237464783024e-06
1.3143722821313965e-05   -2.3332678957706503e-06   1.4870237464783024e-06
1.3143722821313965e-05   -2.3332678957706503e-06   1.4870237464783024e-06
1.8013519770517986e-06   -4.7512953541908615e-06   -1.8867744135677334e-05
1.8013519770517986e-06   -4.7512953541908615e-06   -1.8867744135677334e-05
1.8013519770517986e-06   -4.7512953541908615e-06   -1.8867744135677334e-05
1.8013519770517986e-06   -4.7512953541908615e-06   -1.8867744135677334e-05
2.1205556775390574e-06   -2.110003307317248e-06   -9.076197290123263e-08
2.1205556775390574e-06   -2.110003307317248e-06   -9.076197290123263e-08
2.1205556775390574e-06   -2.110003307317248e-06   -9.076197290123263e-08
2.1205556775390574e-06   -2.110003307317248e-06   -9.076197290123263e-08
1.34007009881059e-05   -4.682558678250574e-06   -1.7347470934619313e-05
1.34007009881059e-05   -4.682558678250574e-06   -1.7347470934619313e-05
1.34007009881059e-05   -4.682558678250574e-06   -1.7347470934619313e-05
1.34007009881059e-05   -4.682558678250574e-06   -1.7347470934619313e-05
7.532449564804822e-06   -3.25954124374419e-06   -8.42086235648756e-06
7.532449564804822e-06   -3.25954124374419e-06   -8.42086235648756e-06
7.532449564804822e-06   -3.25954124374419e-06   -8.42086235648756e-06
7.532449564804822e-06   -3.25954124374419e-06   -8.42086235648756e-06
1.34007009881059e-05   -2.110003307317248e-06   1.452771249658741e-06
1.34007009881059e-05   -2.110003307317248e-06   1.452771249658741e-06
1.34007009881059e-05   -2.110003307317248e-06   1.452771249658741e-06
1.34007009881059e-05   -2.110003307317248e-06   1.452771249658741e-06
2.1205556775390574e-06   -4.682558678250574e-06   -1.889100415717926e-05
2.1205556775390574e-06   -4.682558678250574e-06   -1.889100415717926e-05
2.1205556775390574e-06   -4.682558678250574e-06   -1.889100415717926e-05
2.1205556775390574e-06   -4.682558678250574e-06   -1.889100415717926e-05
2.597718304020548e-06   -1.7921223071646394e-06   -3.2237570340347497e-07
2.597718304020548e-06   -1.7921223071646394e-06   -3.2237570340347497e-07
2.597718304020548e-06   -1.7921223071646394e-06   -3.2237570340347497e-07
2.597718304020548e-06   -1.7921223071646394e-06   -3.2237570340347497e-07
1.3667799935451608e-05   -4.548448328196017e-06   -1.7118716143169798e-05
1.3667799935451608e-05   -4.548448328196017e-06   -1.7118716143169798e-05
1.3667799935451608e-05   -4.548448328196017e-06   -1.7118716143169798e-05
1.3667799935451608e-05   -4.548448328196017e-06   -1.7118716143169798e-05
7.917410457677665e-06   -3.203131967054922e-06   -8.341923496897748e-06
7.917410457677665e-06   -3.203131967054922e-06   -8.341923496897748e-06
7.917410457677665e-06   -3.203131967054922e-06   -8.341923496897748e-06
7.917410457677665e-06   -3.203131967054922e-06   -8.341923496897748e-06
1.4476030630887327e-06   -1.24483908401534e-06   -1.7812062213664421e-06
1.4476030630887327e-06   -1.24483908401534e-06   -1.7812062213664421e-06
1.4476030630887327e-06   -1.24483908401534e-06   -1.7812062213664421e-06
1.4476030630887327e-06   -1.24483908401534e-06   -1.7812062213664421e-06
-9.823276946687457e-06   -5.693569540071762e-06   -2.3235244511294055e-05
-9.823276946687457e-06   -5.693569540071762e-06   -2.3235244511294055e-05
-9.823276946687457e-06   -5.693569540071762e-06   -2.3235244511294055e-05
-9.823276946687457e-06   -5.693569540071762e-06   -2.3235244511294055e-05
-9.271420315574968e-06   -1.10046134242463e-06   -3.957819565664428e-06
-9.271420315574968e-06   -1.10046134242463e-06   -3.957819565664428e-06
-9.271420315574968e-06   -1.10046134242463e-06   -3.957819565664428e-06
-9.271420315574968e-06   -1.10046134242463e-06   -3.957819565664428e-06
1.8013519770517986e-06   -5.813864109306373e-06   -1.9584398393246663e-05
1.8013519770517986e-06   -5.813864109306373e-06   -1.9584398393246663e-05
1.8013519770517986e-06   -5.813864109306373e-06   -1.9584398393246663e-05
1.8013519770517986e-06   -5.813864109306373e-06   -1.9584398393246663e-05
-3.834543803072601e-06   -3.2013969533864874e-06   -1.1758719053258049e-05
-3.834543803072601e-06   -3.2013969533864874e-06   -1.1758719053258049e-05
-3.834543803072601e-06   -3.2013969533864874e-06   -1.1758719053258049e-05
-3.834543803072601e-06   -3.2013969533864874e-06   -1.1758719053258049e-05
1.8013519770517986e-06   -1.10046134242463e-06   -1.1297779055354472e-06
1.8013519770517986e-06   -1.10046134242463e-06   -1.1297779055354472e-06
1.8013519770517986e-06   -1.10046134242463e-06   -1.1297779055354472e-06
1.8013519770517986e-06   -1.10046134242463e-06   -1.1297779055354472e-06
-9.271420315574981e-06   -5.81386410930659e-06   -2.2412440053375766e-05
-9.271420315574981e-06   -5.81386410930659e-06   -2.2412440053375766e-05
-9.271420315574981e-06   -5.81386410930659e-06   -2.2412440053375766e-05
-9.271420315574981e-06   -5.81386410930659e-06   -2.2412440053375766e-05
-8.794926775565529e-06   -8.798872172109022e-07   -3.6855285983017566e-06
-8.794926775565529e-06   -8.798872172109022e-07   -3.6855285983017566e-06
-8.794926775565529e-06   -8.798872172109022e-07   -3.6855285983017566e-06
-8.794926775565529e-06   -8.798872172109022e-07   -3.6855285983017566e-06
2.1205556775390574e-06   -5.779885188628587e-06   -1.8938000570625457e-05
2.1205556775390574e-06   -5.779885188628587e-06   -1.8938000570625457e-05
2.1205556775390574e-06   -5.779885188628587e-06   -1.8938000570625457e-05
2.1205556775390574e-06   -5.779885188628587e-06   -1.8938000570625457e-05
-3.4431118835550947e-06   -3.269065178516852e-06   -1.117171330820225e-05
-3.4431118835550947e-06   -3.269065178516852e-06   -1.117171330820225e-05
-3.4431118835550947e-06   -3.269065178516852e-06   -1.117171330820225e-05
-3.4431118835550947e-06   -3.269065178516852e-06   -1.117171330820225e-05
2.1205556775390574e-06   -8.798872172109022e-07   -7.455298154510808e-07
2.1205556775390574e-06   -8.798872172109022e-07   -7.455298154510808e-07
2.1205556775390574e-06   -8.798872172109022e-07   -7.455298154510808e-07
2.1205556775390574e-06   -8.798872172109022e-07   -7.455298154510808e-07
-8.794926775565563e-06   -5.779885188628804e-06   -2.1877999353476065e-05
-8.794926775565563e-06   -5.779885188628804e-06   -2.1877999353476065e-05
-8.794926775565563e-06   -5.779885188628804e-06   -2.1877999353476065e-05
-8.794926775565563e-06   -5.779885188628804e-06   -2.1877999353476065e-05
-7.972208008748251e-06   -6.701274953435253e-07   -3.671415397615732e-06
-7.972208008748251e-06   -6.701274953435253e-07   -3.671415397615732e-06
-7.972208008748251e-06   -6.701274953435253e-07   -3.671415397615732e-06
-7.972208008748251e-06   -6.701274953435253e-07   -3.671415397615732e-06
2.5977183040205414e-06   -5.569269665260581e-06   -1.8348473950280343e-05
2.5977183040205414e-06   -5.569269665260581e-06   -1.8348473950280343e-05
2.5977183040205414e-06   -5.569269665260581e-06   -1.8348473950280343e-05
2.5977183040205414e-06   -5.569269665260581e-06   -1.8348473950280343e-05
-2.934061318903825e-06   -3.1903699155832197e-06   -1.0556181095212541e-05
-2.934061318903825e-06   -3.1903699155832197e-06   -1.0556181095212541e-05
-2.934061318903825e-06   -3.1903699155832197e-06   -1.0556181095212541e-05
-2.934061318903825e-06   -3.1903699155832197e-06   -1.0556181095212541e-05
-9.823276946687436e-06   4.1064793196866206e-07   -2.526233424775693e-06
-9.823276946687436e-06   4.1064793196866206e-07   -2.526233424775693e-06
-9.823276946687436e-06   4.1064793196866206e-07   -2.526233424775693e-06
-9.823276946687436e-06   4.1064793196866206e-07   -2.526233424775693e-06
-2.2368866871376094e-05   -7.028542187410489e-06   -2.7899064037550827e-05
-2.2368866871376094e-05   -7.028542187410489e-06   -2.7899064037550827e-05
-2.2368866871376094e-05   -7.028542187410489e-06   -2.7899064037550827e-05
-2.2368866871376094e-05   -7.028542187410489e-06   -2.7899064037550827e-05
-2.1704244967460407e-05   6.717457854195797e-07   -6.769888650291051e-06
-2.1704244967460407e-05   6.717457854195797e-07   -6.769888650291051e-06
-2.1704244967460407e-05   6.717457854195797e-07   -6.769888650291051e-06
-2.1704244967460407e-05   6.717457854195797e-07   -6.769888650291051e-06
-9.271420315574968e-06   -7.876843617059216e-06   -2.236210942861282e-05
-9.271420315574968e-06   -7.876843617059216e-06   -2.236210942861282e-05
-9.271420315574968e-06   -7.876843617059216e-06   -2.236210942861282e-05
-9.271420315574968e-06   -7.876843617059216e-06   -2.236210942861282e-05
-1.5568534087912592e-05   -3.5374793546834055e-06   -1.4470538365475418e-05
-1.5568534087912592e-05   -3.5374793546834055e-06   -1.4470538365475418e-05
-1.5568534087912592e-05   -3.5374793546834055e-06   -1.4470538365475418e-05
-1.5568534087912592e-05   -3.5374793546834055e-06   -1.4470538365475418e-05
-9.271420315574968e-06   6.717457854196881e-07   -1.6407350088037303e-06
-9.271420315574968e-06   6.717457854196881e-07   -1.6407350088037303e-06
-9.271420315574968e-06   6.717457854196881e-07   -1.6407350088037303e-06
-9.271420315574968e-06   6.717457854196881e-07   -1.6407350088037303e-06
-2.1704244967460407e-05   -7.876843617058999e-06   -2.749126307010014e-05
-2.1704244967460407e-05   -7.876843617058999e-06   -2.749126307010014e-05
-2.1704244967460407e-05   -7.876843617058999e-06   -2.749126307010014e-05
-2.1704244967460407e-05   -7.876843617058999e-06   -2.749126307010014e-05
-2.1067764545082293e-05   9.114901113346872e-07   -6.011657320570472e-06
-2.1067764545082293e-05   9.114901113346872e-07   -6.011657320570472e-06
-2.1067764545082293e-05   9.114901113346872e-07   -6.011657320570472e-06
-2.1067764545082293e-05   9.114901113346872e-07   -6.011657320570472e-06
-8.79492677556555e-06   -7.913929914110359e-06   -2.1171134921164767e-05
-8.79492677556555e-06   -7.913929914110359e-06   -2.1171134921164767e-05
-8.79492677556555e-06   -7.913929914110359e-06   -2.1171134921164767e-05
-8.79492677556555e-06   -7.913929914110359e-06   -2.1171134921164767e-05
-1.492030529378556e-05   -3.5432815796035497e-06   -1.358455972483538e-05
-1.492030529378556e-05   -3.5432815796035497e-06   -1.358455972483538e-05
-1.492030529378556e-05   -3.5432815796035497e-06   -1.358455972483538e-05
-1.492030529378556e-05   -3.5432815796035497e-06   -1.358455972483538e-05
-8.794926775565536e-06   9.114901113346872e-07   -7.164053053035314e-07
-8.794926775565536e-06   9.114901113346872e-07   -7.164053053035314e-07
-8.794926775565536e-06   9.114901113346872e-07   -7.164053053035314e-07
-8.794926775565536e-06   9.114901113346872e-07   -7.164053053035314e-07
-2.1067764545082327e-05   -7.913929914110142e-06   -2.6466386936431843e-05
-2.1067764545082327e-05   -7.913929914110142e-06   -2.6466386936431843e-05
-2.1067764545082327e-05   -7.913929914110142e-06   -2.6466386936431843e-05
-2.1067764545082327e-05   -7.913929914110142e-06   -2.6466386936431843e-05
-2.0020210305043428e-05   1.112975704346689e-06   -5.244403295871585e-06
-2.0020210305043428e-05   1.112975704346689e-06   -5.244403295871585e-06
-2.0020210305043428e-05   1.112975704346689e-06   -5.244403295871585e-06
-2.0020210305043428e-05   1.112975704346689e-06   -5.244403295871585e-06
-7.972208008748278e-06   -7.181432725260773e-06   -2.0347762065265696e-05
-7.972208008748278e-06   -7.181432725260773e-06   -2.0347762065265696e-05
-7.972208008748278e-06   -7.181432725260773e-06   -2.0347762065265696e-05
-7.972208008748278e-06   -7.181432725260773e-06   -2.0347762065265696e-05
-1.4285443533650599e-05   -3.100334880560369e-06   -1.2274361563915307e-05
-1.4285443533650599e-05   -3.100334880560369e-06   -1.2274361563915307e-05
-1.4285443533650599e-05   -3.100334880560369e-06   -1.2274361563915307e-05
-1.4285443533650599e-05   -3.100334880560369e-06   -1.2274361563915307e-05
-2.2368866871376094e-05   3.23588461291545e-06   -4.580836589978187e-06
-2.2368866871376094e-05   3.23588461291545e-06   -4.580836589978187e-06
-2.2368866871376094e-05   3.23588461291545e-06   -4.580836589978187e-06
-2.2368866871376094e-05   3.23588461291545e-06   -4.580836589978187e-06
-3.835580155146308e-05   0.0   -3.316725849120583e-05
-3.835580155146308e-05   0.0   -3.316725849120583e-05
-3.835580155146308e-05   0.0   -3.316725849120583e-05
-3.835580155146308e-05   0.0   -3.316725849120583e-05
-3.738845445955235e-05   4.071251289355015e-06   -3.469114382348079e-06
-3.738845445955235e-05   4.071251289355015e-06   -3.469114382348079e-06
-3.738845445955235e-05   4.071251289355015e-06   -3.469114382348079e-06
-3.738845445955235e-05   4.071251289355015e-06   -3.469114382348079e-06
-2.170424496746037e-05   0.0   -2.7166712762221684e-05
-2.170424496746037e-05   0.0   -2.7166712762221684e-05
-2.170424496746037e-05   0.0   -2.7166712762221684e-05
-2.170424496746037e-05   0.0   -2.7166712762221684e-05
-2.8683049555763576e-05   1.2588611527696112e-06   -1.6290688473378047e-05
-2.8683049555763576e-05   1.2588611527696112e-06   -1.6290688473378047e-05
-2.8683049555763576e-05   1.2588611527696112e-06   -1.6290688473378047e-05
-2.8683049555763576e-05   1.2588611527696112e-06   -1.6290688473378047e-05
-2.1704244967460394e-05   4.071251289355015e-06   -1.0263636087350266e-06
-2.1704244967460394e-05   4.071251289355015e-06   -1.0263636087350266e-06
-2.1704244967460394e-05   4.071251289355015e-06   -1.0263636087350266e-06
-2.1704244967460394e-05   4.071251289355015e-06   -1.0263636087350266e-06
-3.738845445955228e-05   0.0   -2.960946353583471e-05
-3.738845445955228e-05   0.0   -2.960946353583471e-05
-3.738845445955228e-05   0.0   -2.960946353583471e-05
-3.738845445955228e-05   0.0   -2.960946353583471e-05
-3.6566839384166965e-05   4.260131202066535e-06   -1.232177430630075e-06
-3.6566839384166965e-05   4.260131202066535e-06   -1.232177430630075e-06
-3.6566839384166965e-05   4.260131202066535e-06   -1.232177430630075e-06
-3.6566839384166965e-05   4.260131202066535e-06   -1.232177430630075e-06
-2.1067764545082327e-05   0.0   -2.4507890107864634e-05
-2.1067764545082327e-05   0.0   -2.4507890107864634e-05
-2.1067764545082327e-05   0.0   -2.4507890107864634e-05
-2.1067764545082327e-05   0.0   -2.4507890107864634e-05
-2.8408644968383286e-05   1.9750208179362223e-06   -1.3458101893124315e-05
-2.8408644968383286e-05   1.9750208179362223e-06   -1.3458101893124315e-05
-2.8408644968383286e-05   1.9750208179362223e-06   -1.3458101893124315e-05
-2.8408644968383286e-05   1.9750208179362223e-06   -1.3458101893124315e-05
-2.1067764545082327e-05   4.260131202066643e-06   1.3239012906098675e-06
-2.1067764545082327e-05   4.260131202066643e-06   1.3239012906098675e-06
-2.1067764545082327e-05   4.260131202066643e-06   1.3239012906098675e-06
-2.1067764545082327e-05   4.260131202066643e-06   1.3239012906098675e-06
-3.65668393841669e-05   0.0   -2.706396882910453e-05
-3.65668393841669e-05   0.0   -2.706396882910453e-05
-3.65668393841669e-05   0.0   -2.706396882910453e-05
-3.65668393841669e-05   0.0   -2.706396882910453e-05
-3.4924193949199115e-05   4.576986349391437e-06   2.379907941488647e-06
-3.4924193949199115e-05   4.576986349391437e-06   2.379907941488647e-06
-3.4924193949199115e-05   4.576986349391437e-06   2.379907941488647e-06
-3.4924193949199115e-05   4.576986349391437e-06   2.379907941488647e-06
-2.0020210305043462e-05   0.0   -1.9713872989136017e-05
-2.0020210305043462e-05   0.0   -1.9713872989136017e-05
-2.0020210305043462e-05   0.0   -1.9713872989136017e-05
-2.0020210305043462e-05   0.0   -1.9713872989136017e-05
-2.6963370909742406e-05   2.4302078253547873e-06   -9.600063343183939e-06
-2.6963370909742406e-05   2.4302078253547873e-06   -9.600063343183939e-06
-2.6963370909742406e-05   2.4302078253547873e-06   -9.600063343183939e-06
-2.6963370909742406e-05   2.4302078253547873e-06   -9.600063343183939e-06
2.8319158122198506e-05   -4.832056690723483e-06   1.684788096707431e-05
2.8319158122198506e-05   -4.832056690723483e-06   1.684788096707431e-05
2.8319158122198506e-05   -4.832056690723483e-06   1.684788096707431e-05
2.8319158122198506e-05   -4.832056690723483e-06   1.684788096707431e-05
1.4656525639744686e-05   -3.751622982339298e-06   -5.274912945318292e-06
1.4656525639744686e-05   -3.751622982339298e-06   -5.274912945318292e-06
1.4656525639744686e-05   -3.751622982339298e-06   -5.274912945318292e-06
1.4656525639744686e-05   -3.751622982339298e-06   -5.274912945318292e-06
1.4295233057893952e-05   -4.953032011014314e-06   1.4846975034236726e-05
1.4295233057893952e-05   -4.953032011014314e-06   1.4846975034236726e-05
1.4295233057893952e-05   -4.953032011014314e-06   1.4846975034236726e-05
1.4295233057893952e-05   -4.953032011014314e-06   1.4846975034236726e-05
2.802656971084912e-05   -4.119509939192563e-06   -8.53869929711497e-06
2.802656971084912e-05   -4.119509939192563e-06   -8.53869929711497e-06
2.802656971084912e-05   -4.119509939192563e-06   -8.53869929711497e-06
2.802656971084912e-05   -4.119509939192563e-06   -8.53869929711497e-06
2.0449975488652884e-05   -4.178799013252127e-06   4.124531184314487e-06
2.0449975488652884e-05   -4.178799013252127e-06   4.124531184314487e-06
2.0449975488652884e-05   -4.178799013252127e-06   4.124531184314487e-06
2.0449975488652884e-05   -4.178799013252127e-06   4.124531184314487e-06
2.802656971084912e-05   -4.953032011014314e-06   1.4346861791143697e-05
2.802656971084912e-05   -4.953032011014314e-06   1.4346861791143697e-05
2.802656971084912e-05   -4.953032011014314e-06   1.4346861791143697e-05
2.802656971084912e-05   -4.953032011014314e-06   1.4346861791143697e-05
1.4295233057893952e-05   -4.119509939192563e-06   -8.038586054021969e-06
1.4295233057893952e-05   -4.119509939192563e-06   -8.038586054021969e-06
1.4295233057893952e-05   -4.119509939192563e-06   -8.038586054021969e-06
1.4295233057893952e-05   -4.119509939192563e-06   -8.038586054021969e-06
1.3967702177268157e-05   -4.9063229707363605e-06   1.3313482409411828e-05
1.3967702177268157e-05   -4.9063229707363605e-06   1.3313482409411828e-05
1.3967702177268157e-05   -4.9063229707363605e-06   1.3313482409411828e-05
1.3967702177268157e-05   -4.9063229707363605e-06   1.3313482409411828e-05
2.7685504243696883e-05   -4.15122478737988e-06   -1.0002579944650181e-05
2.7685504243696883e-05   -4.15122478737988e-06   -1.0002579944650181e-05
2.7685504243696883e-05   -4.15122478737988e-06   -1.0002579944650181e-05
2.7685504243696883e-05   -4.15122478737988e-06   -1.0002579944650181e-05
2.0443216315674853e-05   -4.252161341252586e-06   2.1284618677102057e-06
2.0443216315674853e-05   -4.252161341252586e-06   2.1284618677102057e-06
2.0443216315674853e-05   -4.252161341252586e-06   2.1284618677102057e-06
2.0443216315674853e-05   -4.252161341252586e-06   2.1284618677102057e-06
2.7685504243696938e-05   -4.906322970736577e-06   1.2860423499397831e-05
2.7685504243696938e-05   -4.906322970736577e-06   1.2860423499397831e-05
2.7685504243696938e-05   -4.906322970736577e-06   1.2860423499397831e-05
2.7685504243696938e-05   -4.906322970736577e-06   1.2860423499397831e-05
1.3967702177268157e-05   -4.15122478737988e-06   -9.54952103463609e-06
1.3967702177268157e-05   -4.15122478737988e-06   -9.54952103463609e-06
1.3967702177268157e-05   -4.15122478737988e-06   -9.54952103463609e-06
1.3967702177268157e-05   -4.15122478737988e-06   -9.54952103463609e-06
1.3567729258312037e-05   -4.628039931675381e-06   1.0818540406831376e-05
1.3567729258312037e-05   -4.628039931675381e-06   1.0818540406831376e-05
1.3567729258312037e-05   -4.628039931675381e-06   1.0818540406831376e-05
1.3567729258312037e-05   -4.628039931675381e-06   1.0818540406831376e-05
2.7150868806994347e-05   -4.05733856213039e-06   -1.2162446329366102e-05
2.7150868806994347e-05   -4.05733856213039e-06   -1.2162446329366102e-05
2.7150868806994347e-05   -4.05733856213039e-06   -1.2162446329366102e-05
2.7150868806994347e-05   -4.05733856213039e-06   -1.2162446329366102e-05
1.9753203057261993e-05   -4.04260154572675e-06   1.581543770121037e-07
1.9753203057261993e-05   -4.04260154572675e-06   1.581543770121037e-07
1.9753203057261993e-05   -4.04260154572675e-06   1.581543770121037e-07
1.9753203057261993e-05   -4.04260154572675e-06   1.581543770121037e-07
1.4656525639744686e-05   -4.779495327600228e-06   1.253945339978592e-05
1.4656525639744686e-05   -4.779495327600228e-06   1.253945339978592e-05
1.4656525639744686e-05   -4.779495327600228e-06   1.253945339978592e-05
1.4656525639744686e-05   -4.779495327600228e-06   1.253945339978592e-05
3.018887059560616e-06   -2.2874400747384914e-06   -5.361377748803759e-06
3.018887059560616e-06   -2.2874400747384914e-06   -5.361377748803759e-06
3.018887059560616e-06   -2.2874400747384914e-06   -5.361377748803759e-06
3.018887059560616e-06   -2.2874400747384914e-06   -5.361377748803759e-06
2.4472579050636168e-06   -4.7512953541908615e-06   1.427447191622831e-05
2.4472579050636168e-06   -4.7512953541908615e-06   1.427447191622831e-05
2.4472579050636168e-06   -4.7512953541908615e-06   1.427447191622831e-05
2.4472579050636168e-06   -4.7512953541908615e-06   1.427447191622831e-05
1.4295233057893952e-05   -2.4239006099955294e-06   -6.86859018500608e-06
1.4295233057893952e-05   -2.4239006099955294e-06   -6.86859018500608e-06
1.4295233057893952e-05   -2.4239006099955294e-06   -6.86859018500608e-06
1.4295233057893952e-05   -2.4239006099955294e-06   -6.86859018500608e-06
8.590996019348826e-06   -3.4281694853732e-06   3.241032871129055e-06
8.590996019348826e-06   -3.4281694853732e-06   3.241032871129055e-06
8.590996019348826e-06   -3.4281694853732e-06   3.241032871129055e-06
8.590996019348826e-06   -3.4281694853732e-06   3.241032871129055e-06
1.4295233057893965e-05   -4.751295354190645e-06   1.2878035069711154e-05
1.4295233057893965e-05   -4.751295354190645e-06   1.2878035069711154e-05
1.4295233057893965e-05   -4.751295354190645e-06   1.2878035069711154e-05
1.4295233057893965e-05   -4.751295354190645e-06   1.2878035069711154e-05
2.4472579050636168e-06   -2.4239006099955294e-06   -5.472153338488897e-06
2.4472579050636168e-06   -2.4239006099955294e-06   -5.472153338488897e-06
2.4472579050636168e-06   -2.4239006099955294e-06   -5.472153338488897e-06
2.4472579050636168e-06   -2.4239006099955294e-06   -5.472153338488897e-06
2.038487282407136e-06   -4.682558678250574e-06   1.4282851510846327e-05
2.038487282407136e-06   -4.682558678250574e-06   1.4282851510846327e-05
2.038487282407136e-06   -4.682558678250574e-06   1.4282851510846327e-05
2.038487282407136e-06   -4.682558678250574e-06   1.4282851510846327e-05
1.3967702177268157e-05   -2.4817252939266215e-06   -6.91967334451634e-06
1.3967702177268157e-05   -2.4817252939266215e-06   -6.91967334451634e-06
1.3967702177268157e-05   -2.4817252939266215e-06   -6.91967334451634e-06
1.3967702177268157e-05   -2.4817252939266215e-06   -6.91967334451634e-06
8.0982832523765e-06   -3.3557552103469744e-06   3.3871094801554507e-06
8.0982832523765e-06   -3.3557552103469744e-06   3.3871094801554507e-06
8.0982832523765e-06   -3.3557552103469744e-06   3.3871094801554507e-06
8.0982832523765e-06   -3.3557552103469744e-06   3.3871094801554507e-06
1.3967702177268177e-05   -4.682558678250357e-06   1.2962351480251956e-05
1.3967702177268177e-05   -4.682558678250357e-06   1.2962351480251956e-05
1.3967702177268177e-05   -4.682558678250357e-06   1.2962351480251956e-05
1.3967702177268177e-05   -4.682558678250357e-06   1.2962351480251956e-05
2.038487282407136e-06   -2.4817252939266215e-06   -5.599173313922037e-06
2.038487282407136e-06   -2.4817252939266215e-06   -5.599173313922037e-06
2.038487282407136e-06   -2.4817252939266215e-06   -5.599173313922037e-06
2.038487282407136e-06   -2.4817252939266215e-06   -5.599173313922037e-06
1.584237262043268e-06   -4.548448328196017e-06   1.4732889536565874e-05
1.584237262043268e-06   -4.548448328196017e-06   1.4732889536565874e-05
1.584237262043268e-06   -4.548448328196017e-06   1.4732889536565874e-05
1.584237262043268e-06   -4.548448328196017e-06   1.4732889536565874e-05
1.3567729258312023e-05   -2.420683479620713e-06   -6.516256033027031e-06
1.3567729258312023e-05   -2.420683479620713e-06   -6.516256033027031e-06
1.3567729258312023e-05   -2.420683479620713e-06   -6.516256033027031e-06
1.3567729258312023e-05   -2.420683479620713e-06   -6.516256033027031e-06
7.799202370838045e-06   -3.204590265134871e-06   3.568299517404575e-06
7.799202370838045e-06   -3.204590265134871e-06   3.568299517404575e-06
7.799202370838045e-06   -3.204590265134871e-06   3.568299517404575e-06
7.799202370838045e-06   -3.204590265134871e-06   3.568299517404575e-06
3.0188870595606297e-06   -5.693569540071762e-06   1.2860317511265173e-05
3.0188870595606297e-06   -5.693569540071762e-06   1.2860317511265173e-05
3.0188870595606297e-06   -5.693569540071762e-06   1.2860317511265173e-05
3.0188870595606297e-06   -5.693569540071762e-06   1.2860317511265173e-05
-8.167910976323454e-06   -9.120558172269738e-07   -2.915437648168067e-06
-8.167910976323454e-06   -9.120558172269738e-07   -2.915437648168067e-06
-8.167910976323454e-06   -9.120558172269738e-07   -2.915437648168067e-06
-8.167910976323454e-06   -9.120558172269738e-07   -2.915437648168067e-06
-9.05629385788772e-06   -5.81386410930659e-06   1.646923707516383e-05
-9.05629385788772e-06   -5.81386410930659e-06   1.646923707516383e-05
-9.05629385788772e-06   -5.81386410930659e-06   1.646923707516383e-05
-9.05629385788772e-06   -5.81386410930659e-06   1.646923707516383e-05
2.4472579050636168e-06   -9.614984151314933e-07   -5.614768612926537e-06
2.4472579050636168e-06   -9.614984151314933e-07   -5.614768612926537e-06
2.4472579050636168e-06   -9.614984151314933e-07   -5.614768612926537e-06
2.4472579050636168e-06   -9.614984151314933e-07   -5.614768612926537e-06
-2.842284717418327e-06   -3.236335748510368e-06   4.566038157903835e-06
-2.842284717418327e-06   -3.236335748510368e-06   4.566038157903835e-06
-2.842284717418327e-06   -3.236335748510368e-06   4.566038157903835e-06
-2.842284717418327e-06   -3.236335748510368e-06   4.566038157903835e-06
2.4472579050636168e-06   -5.813864109306373e-06   1.3557817658658967e-05
2.4472579050636168e-06   -5.813864109306373e-06   1.3557817658658967e-05
2.4472579050636168e-06   -5.813864109306373e-06   1.3557817658658967e-05
2.4472579050636168e-06   -5.813864109306373e-06   1.3557817658658967e-05
-9.056293857887706e-06   -9.614984151317101e-07   -2.7033491964217286e-06
-9.056293857887706e-06   -9.614984151317101e-07   -2.7033491964217286e-06
-9.056293857887706e-06   -9.614984151317101e-07   -2.7033491964217286e-06
-9.056293857887706e-06   -9.614984151317101e-07   -2.7033491964217286e-06
-9.601164482834164e-06   -5.779885188628804e-06   1.709008999393796e-05
-9.601164482834164e-06   -5.779885188628804e-06   1.709008999393796e-05
-9.601164482834164e-06   -5.779885188628804e-06   1.709008999393796e-05
-9.601164482834164e-06   -5.779885188628804e-06   1.709008999393796e-05
2.038487282407136e-06   -1.0228270277323672e-06   -5.163564511335414e-06
2.038487282407136e-06   -1.0228270277323672e-06   -5.163564511335414e-06
2.038487282407136e-06   -1.0228270277323672e-06   -5.163564511335414e-06
2.038487282407136e-06   -1.0228270277323672e-06   -5.163564511335414e-06
-3.444632853422403e-06   -3.220871134743293e-06   5.293795512586975e-06
-3.444632853422403e-06   -3.220871134743293e-06   5.293795512586975e-06
-3.444632853422403e-06   -3.220871134743293e-06   5.293795512586975e-06
-3.444632853422403e-06   -3.220871134743293e-06   5.293795512586975e-06
2.038487282407136e-06   -5.779885188628804e-06   1.4235855097400143e-05
2.038487282407136e-06   -5.779885188628804e-06   1.4235855097400143e-05
2.038487282407136e-06   -5.779885188628804e-06   1.4235855097400143e-05
2.038487282407136e-06   -5.779885188628804e-06   1.4235855097400143e-05
-9.601164482834144e-06   -1.0228270277323672e-06   -2.309329614797514e-06
-9.601164482834144e-06   -1.0228270277323672e-06   -2.309329614797514e-06
-9.601164482834144e-06   -1.0228270277323672e-06   -2.309329614797514e-06
-9.601164482834144e-06   -1.0228270277323672e-06   -2.309329614797514e-06
-1.0239767596573341e-05   -5.569269665260581e-06   1.789086807351e-05
-1.0239767596573341e-05   -5.569269665260581e-06   1.789086807351e-05
-1.0239767596573341e-05   -5.569269665260581e-06   1.789086807351e-05
-1.0239767596573341e-05   -5.569269665260581e-06   1.789086807351e-05
1.5842372620432748e-06   -1.012701779534329e-06   -4.5497474222867275e-06
1.5842372620432748e-06   -1.012701779534329e-06   -4.5497474222867275e-06
1.5842372620432748e-06   -1.012701779534329e-06   -4.5497474222867275e-06
1.5842372620432748e-06   -1.012701779534329e-06   -4.5497474222867275e-06
-3.936097240214417e-06   -3.085796938154684e-06   5.894667176648436e-06
-3.936097240214417e-06   -3.085796938154684e-06   5.894667176648436e-06
-3.936097240214417e-06   -3.085796938154684e-06   5.894667176648436e-06
-3.936097240214417e-06   -3.085796938154684e-06   5.894667176648436e-06
-8.167910976323468e-06   -7.028542187410489e-06   1.5528920290342634e-05
-8.167910976323468e-06   -7.028542187410489e-06   1.5528920290342634e-05
-8.167910976323468e-06   -7.028542187410489e-06   1.5528920290342634e-05
-8.167910976323468e-06   -7.028542187410489e-06   1.5528920290342634e-05
-2.0850739501070085e-05   1.1231546963497065e-06   -7.181091206457085e-07
-2.0850739501070085e-05   1.1231546963497065e-06   -7.181091206457085e-07
-2.0850739501070085e-05   1.1231546963497065e-06   -7.181091206457085e-07
-2.0850739501070085e-05   1.1231546963497065e-06   -7.181091206457085e-07
-2.1925319499028665e-05   -7.876843617058999e-06   2.1887091747008376e-05
-2.1925319499028665e-05   -7.876843617058999e-06   2.1887091747008376e-05
-2.1925319499028665e-05   -7.876843617058999e-06   2.1887091747008376e-05
-2.1925319499028665e-05   -7.876843617058999e-06   2.1887091747008376e-05
-9.056293857887706e-06   1.0690297947435218e-06   -4.9288083686414386e-06
-9.056293857887706e-06   1.0690297947435218e-06   -4.9288083686414386e-06
-9.056293857887706e-06   1.0690297947435218e-06   -4.9288083686414386e-06
-9.056293857887706e-06   1.0690297947435218e-06   -4.9288083686414386e-06
-1.4795005732113148e-05   -2.853131981576853e-06   6.9890084875265965e-06
-1.4795005732113148e-05   -2.853131981576853e-06   6.9890084875265965e-06
-1.4795005732113148e-05   -2.853131981576853e-06   6.9890084875265965e-06
-1.4795005732113148e-05   -2.853131981576853e-06   6.9890084875265965e-06
-9.05629385788772e-06   -7.876843617058999e-06   1.6519567699926777e-05
-9.05629385788772e-06   -7.876843617058999e-06   1.6519567699926777e-05
-9.05629385788772e-06   -7.876843617058999e-06   1.6519567699926777e-05
-9.05629385788772e-06   -7.876843617058999e-06   1.6519567699926777e-05
-2.1925319499028665e-05   1.0690297947435218e-06   4.387156784401878e-07
-2.1925319499028665e-05   1.0690297947435218e-06   4.387156784401878e-07
-2.1925319499028665e-05   1.0690297947435218e-06   4.387156784401878e-07
-2.1925319499028665e-05   1.0690297947435218e-06   4.387156784401878e-07
-2.2578889896422312e-05   -7.913929914110142e-06   2.3121483156135513e-05
-2.2578889896422312e-05   -7.913929914110142e-06   2.3121483156135513e-05
-2.2578889896422312e-05   -7.913929914110142e-06   2.3121483156135513e-05
-2.2578889896422312e-05   -7.913929914110142e-06   2.3121483156135513e-05
-9.601164482834144e-06   9.602846357001458e-07   -3.832587929730765e-06
-9.601164482834144e-06   9.602846357001458e-07   -3.832587929730765e-06
-9.601164482834144e-06   9.602846357001458e-07   -3.832587929730765e-06
-9.601164482834144e-06   9.602846357001458e-07   -3.832587929730765e-06
-1.548831129942759e-05   -3.3084588235423543e-06   8.540569506803732e-06
-1.548831129942759e-05   -3.3084588235423543e-06   8.540569506803732e-06
-1.548831129942759e-05   -3.3084588235423543e-06   8.540569506803732e-06
-1.548831129942759e-05   -3.3084588235423543e-06   8.540569506803732e-06
-9.601164482834144e-06   -7.913929914110359e-06   1.7796954426249232e-05
-9.601164482834144e-06   -7.913929914110359e-06   1.7796954426249232e-05
-9.601164482834144e-06   -7.913929914110359e-06   1.7796954426249232e-05
-9.601164482834144e-06   -7.913929914110359e-06   1.7796954426249232e-05
-2.257888989642227e-05   9.602846357001458e-07   1.491940800155394e-06
-2.257888989642227e-05   9.602846357001458e-07   1.491940800155394e-06
-2.257888989642227e-05   9.602846357001458e-07   1.491940800155394e-06
-2.257888989642227e-05   9.602846357001458e-07   1.491940800155394e-06
-2.3284695779232124e-05   -7.181432725260773e-06   2.3641522192088642e-05
-2.3284695779232124e-05   -7.181432725260773e-06   2.3641522192088642e-05
-2.3284695779232124e-05   -7.181432725260773e-06   2.3641522192088642e-05
-2.3284695779232124e-05   -7.181432725260773e-06   2.3641522192088642e-05
-1.0239767596573307e-05   8.359954940956055e-07   -2.910481710623292e-06
-1.0239767596573307e-05   8.359954940956055e-07   -2.910481710623292e-06
-1.0239767596573307e-05   8.359954940956055e-07   -2.910481710623292e-06
-1.0239767596573307e-05   8.359954940956055e-07   -2.910481710623292e-06
-1.6208387387768424e-05   -3.328715801665695e-06   9.5360447188257e-06
-1.6208387387768424e-05   -3.328715801665695e-06   9.5360447188257e-06
-1.6208387387768424e-05   -3.328715801665695e-06   9.5360447188257e-06
-1.6208387387768424e-05   -3.328715801665695e-06   9.5360447188257e-06
-2.085073950107001e-05   0.0   1.709327473469282e-05
-2.085073950107001e-05   0.0   1.709327473469282e-05
-2.085073950107001e-05   0.0   1.709327473469282e-05
-2.085073950107001e-05   0.0   1.709327473469282e-05
-3.655633511916234e-05   4.812390911791741e-06   -6.195283415052566e-06
-3.655633511916234e-05   4.812390911791741e-06   -6.195283415052566e-06
-3.655633511916234e-05   4.812390911791741e-06   -6.195283415052566e-06
-3.655633511916234e-05   4.812390911791741e-06   -6.195283415052566e-06
-3.802504130722449e-05   0.0   2.5007985408055026e-05
-3.802504130722449e-05   0.0   2.5007985408055026e-05
-3.802504130722449e-05   0.0   2.5007985408055026e-05
-3.802504130722449e-05   0.0   2.5007985408055026e-05
-2.1925319499028624e-05   4.660572255280569e-06   -4.621227625439909e-06
-2.1925319499028624e-05   4.660572255280569e-06   -4.621227625439909e-06
-2.1925319499028624e-05   4.660572255280569e-06   -4.621227625439909e-06
-2.1925319499028624e-05   4.660572255280569e-06   -4.621227625439909e-06
-2.8090916700449115e-05   2.8539986064179696e-06   6.738711899578515e-06
-2.8090916700449115e-05   2.8539986064179696e-06   6.738711899578515e-06
-2.8090916700449115e-05   2.8539986064179696e-06   6.738711899578515e-06
-2.8090916700449115e-05   2.8539986064179696e-06   6.738711899578515e-06
-2.1925319499028604e-05   0.0   2.2211642054886858e-05
-2.1925319499028604e-05   0.0   2.2211642054886858e-05
-2.1925319499028604e-05   0.0   2.2211642054886858e-05
-2.1925319499028604e-05   0.0   2.2211642054886858e-05
-3.8025041307224544e-05   4.660572255280569e-06   -1.8248842722714967e-06
-3.8025041307224544e-05   4.660572255280569e-06   -1.8248842722714967e-06
-3.8025041307224544e-05   4.660572255280569e-06   -1.8248842722714967e-06
-3.8025041307224544e-05   4.660572255280569e-06   -1.8248842722714967e-06
-3.876309978439418e-05   0.0   2.7808141650417567e-05
-3.876309978439418e-05   0.0   2.7808141650417567e-05
-3.876309978439418e-05   0.0   2.7808141650417567e-05
-3.876309978439418e-05   0.0   2.7808141650417567e-05
-2.257888989642227e-05   4.546936109524986e-06   -1.8937031619172055e-06
-2.257888989642227e-05   4.546936109524986e-06   -1.8937031619172055e-06
-2.257888989642227e-05   4.546936109524986e-06   -1.8937031619172055e-06
-2.257888989642227e-05   4.546936109524986e-06   -1.8937031619172055e-06
-2.9524745107777382e-05   2.3874592909034487e-06   1.0978408281514448e-05
-2.9524745107777382e-05   2.3874592909034487e-06   1.0978408281514448e-05
-2.9524745107777382e-05   2.3874592909034487e-06   1.0978408281514448e-05
-2.9524745107777382e-05   2.3874592909034487e-06   1.0978408281514448e-05
-2.257888989642227e-05   0.0   2.507997998470277e-05
-2.257888989642227e-05   0.0   2.507997998470277e-05
-2.257888989642227e-05   0.0   2.507997998470277e-05
-2.257888989642227e-05   0.0   2.507997998470277e-05
-3.8763099784394324e-05   4.546936109524986e-06   8.344585037977671e-07
-3.8763099784394324e-05   4.546936109524986e-06   8.344585037977671e-07
-3.8763099784394324e-05   4.546936109524986e-06   8.344585037977671e-07
-3.8763099784394324e-05   4.546936109524986e-06   8.344585037977671e-07
-3.9578735603947336e-05   0.0   3.1538836452073954e-05
-3.9578735603947336e-05   0.0   3.1538836452073954e-05
-3.9578735603947336e-05   0.0   3.1538836452073954e-05
-3.9578735603947336e-05   0.0   3.1538836452073954e-05
-2.3284695779232124e-05   3.8113002101519255e-06   2.0953232847906064e-06
-2.3284695779232124e-05   3.8113002101519255e-06   2.0953232847906064e-06
-2.3284695779232124e-05   3.8113002101519255e-06   2.0953232847906064e-06
-2.3284695779232124e-05   3.8113002101519255e-06   2.0953232847906064e-06
-2.974865881532204e-05   1.6875083481905813e-06   1.4142870128784049e-05
-2.974865881532204e-05   1.6875083481905813e-06   1.4142870128784049e-05
-2.974865881532204e-05   1.6875083481905813e-06   1.4142870128784049e-05
-2.974865881532204e-05   1.6875083481905813e-06   1.4142870128784049e-05
2.5030917399937754e-05   -3.751622982339298e-06   1.766330101425986e-05
2.5030917399937754e-05   -3.751622982339298e-06   1.766330101425986e-05
2.5030917399937754e-05   -3.751622982339298e-06   1.766330101425986e-05
2.5030917399937754e-05   -3.751622982339298e-06   1.766330101425986e-05
1.2634021196356717e-05   -2.8525897460190746e-06   -2.458772716583098e-06
1.2634021196356717e-05   -2.8525897460190746e-06   -2.458772716583098e-06
1.2634021196356717e-05   -2.8525897460190746e-06   -2.458772716583098e-06
1.2634021196356717e-05   -2.8525897460190746e-06   -2.458772716583098e-06
1.2307773687308694e-05   -4.119509939192563e-06   1.5393969627878687e-05
1.2307773687308694e-05   -4.119509939192563e-06   1.5393969627878687e-05
1.2307773687308694e-05   -4.119509939192563e-06   1.5393969627878687e-05
1.2307773687308694e-05   -4.119509939192563e-06   1.5393969627878687e-05
2.4451583072700565e-05   -3.226896294903801e-06   -5.381280867680955e-06
2.4451583072700565e-05   -3.226896294903801e-06   -5.381280867680955e-06
2.4451583072700565e-05   -3.226896294903801e-06   -5.381280867680955e-06
2.4451583072700565e-05   -3.226896294903801e-06   -5.381280867680955e-06
1.7777773356979214e-05   -3.3500865420722824e-06   5.8156494734890794e-06
1.7777773356979214e-05   -3.3500865420722824e-06   5.8156494734890794e-06
1.7777773356979214e-05   -3.3500865420722824e-06   5.8156494734890794e-06
1.7777773356979214e-05   -3.3500865420722824e-06   5.8156494734890794e-06
2.445158307270052e-05   -4.119509939192563e-06   1.4858401441305408e-05
2.445158307270052e-05   -4.119509939192563e-06   1.4858401441305408e-05
2.445158307270052e-05   -4.119509939192563e-06   1.4858401441305408e-05
2.445158307270052e-05   -4.119509939192563e-06   1.4858401441305408e-05
1.2307773687308714e-05   -3.226896294903801e-06   -4.845712681107771e-06
1.2307773687308714e-05   -3.226896294903801e-06   -4.845712681107771e-06
1.2307773687308714e-05   -3.226896294903801e-06   -4.845712681107771e-06
1.2307773687308714e-05   -3.226896294903801e-06   -4.845712681107771e-06
1.1887523760238268e-05   -4.1512247873796634e-06   1.380309581142504e-05
1.1887523760238268e-05   -4.1512247873796634e-06   1.380309581142504e-05
1.1887523760238268e-05   -4.1512247873796634e-06   1.380309581142504e-05
1.1887523760238268e-05   -4.1512247873796634e-06   1.380309581142504e-05
2.3864197532095787e-05   -3.2810465614609022e-06   -6.680134077222073e-06
2.3864197532095787e-05   -3.2810465614609022e-06   -6.680134077222073e-06
2.3864197532095787e-05   -3.2810465614609022e-06   -6.680134077222073e-06
2.3864197532095787e-05   -3.2810465614609022e-06   -6.680134077222073e-06
1.762240108134882e-05   -3.4949211239626316e-06   3.851184744857054e-06
1.762240108134882e-05   -3.4949211239626316e-06   3.851184744857054e-06
1.762240108134882e-05   -3.4949211239626316e-06   3.851184744857054e-06
1.762240108134882e-05   -3.4949211239626316e-06   3.851184744857054e-06
2.3864197532095787e-05   -4.15122478737988e-06   1.3280988875873719e-05
2.3864197532095787e-05   -4.15122478737988e-06   1.3280988875873719e-05
2.3864197532095787e-05   -4.15122478737988e-06   1.3280988875873719e-05
2.3864197532095787e-05   -4.15122478737988e-06   1.3280988875873719e-05
1.1887523760238268e-05   -3.2810465614609022e-06   -6.158027141670887e-06
1.1887523760238268e-05   -3.2810465614609022e-06   -6.158027141670887e-06
1.1887523760238268e-05   -3.2810465614609022e-06   -6.158027141670887e-06
1.1887523760238268e-05   -3.2810465614609022e-06   -6.158027141670887e-06
1.1446064339414891e-05   -4.0573385621306066e-06   1.143771566586261e-05
1.1446064339414891e-05   -4.0573385621306066e-06   1.143771566586261e-05
1.1446064339414891e-05   -4.0573385621306066e-06   1.143771566586261e-05
1.1446064339414891e-05   -4.0573385621306066e-06   1.143771566586261e-05
2.3128465696732617e-05   -3.2536873627240755e-06   -8.515143982644067e-06
2.3128465696732617e-05   -3.2536873627240755e-06   -8.515143982644067e-06
2.3128465696732617e-05   -3.2536873627240755e-06   -8.515143982644067e-06
2.3128465696732617e-05   -3.2536873627240755e-06   -8.515143982644067e-06
1.6849048500886115e-05   -3.4012248084604657e-06   2.039073811208934e-06
1.6849048500886115e-05   -3.4012248084604657e-06   2.039073811208934e-06
1.6849048500886115e-05   -3.4012248084604657e-06   2.039073811208934e-06
1.6849048500886115e-05   -3.4012248084604657e-06   2.039073811208934e-06
1.2634021196356737e-05   -2.2874400747384914e-06   1.6621023000849356e-05
1.2634021196356737e-05   -2.2874400747384914e-06   1.6621023000849356e-05
1.2634021196356737e-05   -2.2874400747384914e-06   1.6621023000849356e-05
1.2634021196356737e-05   -2.2874400747384914e-06   1.6621023000849356e-05
1.3231990766776424e-06   -9.98455001030552e-07   -1.456956154391063e-06
1.3231990766776424e-06   -9.98455001030552e-07   -1.456956154391063e-06
1.3231990766776424e-06   -9.98455001030552e-07   -1.456956154391063e-06
1.3231990766776424e-06   -9.98455001030552e-07   -1.456956154391063e-06
9.983824716982737e-07   -2.4239006099957463e-06   1.7299418828579808e-05
9.983824716982737e-07   -2.4239006099957463e-06   1.7299418828579808e-05
9.983824716982737e-07   -2.4239006099957463e-06   1.7299418828579808e-05
9.983824716982737e-07   -2.4239006099957463e-06   1.7299418828579808e-05
1.2307773687308714e-05   -1.1981450571866377e-06   -2.2850198624562598e-06
1.2307773687308714e-05   -1.1981450571866377e-06   -2.2850198624562598e-06
1.2307773687308714e-05   -1.1981450571866377e-06   -2.2850198624562598e-06
1.2307773687308714e-05   -1.1981450571866377e-06   -2.2850198624562598e-06
6.750137794649021e-06   -1.6068292654292451e-06   7.2229171502554606e-06
6.750137794649021e-06   -1.6068292654292451e-06   7.2229171502554606e-06
6.750137794649021e-06   -1.6068292654292451e-06   7.2229171502554606e-06
6.750137794649021e-06   -1.6068292654292451e-06   7.2229171502554606e-06
1.2307773687308707e-05   -2.4239006099957463e-06   1.6563965496894277e-05
1.2307773687308707e-05   -2.4239006099957463e-06   1.6563965496894277e-05
1.2307773687308707e-05   -2.4239006099957463e-06   1.6563965496894277e-05
1.2307773687308707e-05   -2.4239006099957463e-06   1.6563965496894277e-05
9.983824716982737e-07   -1.1981450571866377e-06   -1.5495665307708583e-06
9.983824716982737e-07   -1.1981450571866377e-06   -1.5495665307708583e-06
9.983824716982737e-07   -1.1981450571866377e-06   -1.5495665307708583e-06
9.983824716982737e-07   -1.1981450571866377e-06   -1.5495665307708583e-06
5.845261509764522e-07   -2.4817252939266215e-06   1.7125724043222617e-05
5.845261509764522e-07   -2.4817252939266215e-06   1.7125724043222617e-05
5.845261509764522e-07   -2.4817252939266215e-06   1.7125724043222617e-05
5.845261509764522e-07   -2.4817252939266215e-06   1.7125724043222617e-05
1.1887523760238268e-05   -1.3270910577967967e-06   -2.4053858472250286e-06
1.1887523760238268e-05   -1.3270910577967967e-06   -2.4053858472250286e-06
1.1887523760238268e-05   -1.3270910577967967e-06   -2.4053858472250286e-06
1.1887523760238268e-05   -1.3270910577967967e-06   -2.4053858472250286e-06
6.3369531303531955e-06   -1.6813564167171167e-06   7.05812441793586e-06
6.3369531303531955e-06   -1.6813564167171167e-06   7.05812441793586e-06
6.3369531303531955e-06   -1.6813564167171167e-06   7.05812441793586e-06
6.3369531303531955e-06   -1.6813564167171167e-06   7.05812441793586e-06
1.1887523760238247e-05   -2.4817252939266215e-06   1.6432943501544506e-05
1.1887523760238247e-05   -2.4817252939266215e-06   1.6432943501544506e-05
1.1887523760238247e-05   -2.4817252939266215e-06   1.6432943501544506e-05
1.1887523760238247e-05   -2.4817252939266215e-06   1.6432943501544506e-05
5.845261509764522e-07   -1.3270910577967967e-06   -1.7126053055470727e-06
5.845261509764522e-07   -1.3270910577967967e-06   -1.7126053055470727e-06
5.845261509764522e-07   -1.3270910577967967e-06   -1.7126053055470727e-06
5.845261509764522e-07   -1.3270910577967967e-06   -1.7126053055470727e-06
1.2743334610888215e-07   -2.420683479620713e-06   1.736624254326867e-05
1.2743334610888215e-07   -2.420683479620713e-06   1.736624254326867e-05
1.2743334610888215e-07   -2.420683479620713e-06   1.736624254326867e-05
1.2743334610888215e-07   -2.420683479620713e-06   1.736624254326867e-05
1.1446064339414884e-05   -1.3794211416308204e-06   -2.1228998483688302e-06
1.1446064339414884e-05   -1.3794211416308204e-06   -2.1228998483688302e-06
1.1446064339414884e-05   -1.3794211416308204e-06   -2.1228998483688302e-06
1.1446064339414884e-05   -1.3794211416308204e-06   -2.1228998483688302e-06
6.003572653652023e-06   -1.6626054644434864e-06   7.1178302215906734e-06
6.003572653652023e-06   -1.6626054644434864e-06   7.1178302215906734e-06
6.003572653652023e-06   -1.6626054644434864e-06   7.1178302215906734e-06
6.003572653652023e-06   -1.6626054644434864e-06   7.1178302215906734e-06
1.3231990766776424e-06   -9.120558172271906e-07   1.6971445912003025e-05
1.3231990766776424e-06   -9.120558172271906e-07   1.6971445912003025e-05
1.3231990766776424e-06   -9.120558172271906e-07   1.6971445912003025e-05
1.3231990766776424e-06   -9.120558172271906e-07   1.6971445912003025e-05
-9.64049191782981e-06   9.048829537377156e-07   -2.1120914959734186e-07
-9.64049191782981e-06   9.048829537377156e-07   -2.1120914959734186e-07
-9.64049191782981e-06   9.048829537377156e-07   -2.1120914959734186e-07
-9.64049191782981e-06   9.048829537377156e-07   -2.1120914959734186e-07
-1.0006765082954861e-05   -9.614984151317101e-07   1.8186519443758736e-05
-1.0006765082954861e-05   -9.614984151317101e-07   1.8186519443758736e-05
-1.0006765082954861e-05   -9.614984151317101e-07   1.8186519443758736e-05
-1.0006765082954861e-05   -9.614984151317101e-07   1.8186519443758736e-05
9.983824716982737e-07   7.546947342290753e-07   -1.1851090369463247e-06
9.983824716982737e-07   7.546947342290753e-07   -1.1851090369463247e-06
9.983824716982737e-07   7.546947342290753e-07   -1.1851090369463247e-06
9.983824716982737e-07   7.546947342290753e-07   -1.1851090369463247e-06
-4.323741184927007e-06   2.5667998584900584e-08   8.122513098815688e-06
-4.323741184927007e-06   2.5667998584900584e-08   8.122513098815688e-06
-4.323741184927007e-06   2.5667998584900584e-08   8.122513098815688e-06
-4.323741184927007e-06   2.5667998584900584e-08   8.122513098815688e-06
9.983824716982805e-07   -9.614984151317101e-07   1.715680355414222e-05
9.983824716982805e-07   -9.614984151317101e-07   1.715680355414222e-05
9.983824716982805e-07   -9.614984151317101e-07   1.715680355414222e-05
9.983824716982805e-07   -9.614984151317101e-07   1.715680355414222e-05
-1.0006765082954861e-05   7.546947342290753e-07   -1.5539314732974235e-07
-1.0006765082954861e-05   7.546947342290753e-07   -1.5539314732974235e-07
-1.0006765082954861e-05   7.546947342290753e-07   -1.5539314732974235e-07
-1.0006765082954861e-05   7.546947342290753e-07   -1.5539314732974235e-07
-1.0496037727611063e-05   -1.0228270277323672e-06   1.8543974040406046e-05
-1.0496037727611063e-05   -1.0228270277323672e-06   1.8543974040406046e-05
-1.0496037727611063e-05   -1.0228270277323672e-06   1.8543974040406046e-05
-1.0496037727611063e-05   -1.0228270277323672e-06   1.8543974040406046e-05
5.845261509764522e-07   6.149082965955068e-07   -9.062736185032154e-07
5.845261509764522e-07   6.149082965955068e-07   -9.062736185032154e-07
5.845261509764522e-07   6.149082965955068e-07   -9.062736185032154e-07
5.845261509764522e-07   6.149082965955068e-07   -9.062736185032154e-07
-4.684557193638506e-06   -1.4716300428480392e-08   8.25330671406951e-06
-4.684557193638506e-06   -1.4716300428480392e-08   8.25330671406951e-06
-4.684557193638506e-06   -1.4716300428480392e-08   8.25330671406951e-06
-4.684557193638506e-06   -1.4716300428480392e-08   8.25330671406951e-06
5.845261509764522e-07   -1.0228270277323672e-06   1.7561332845809322e-05
5.845261509764522e-07   -1.0228270277323672e-06   1.7561332845809322e-05
5.845261509764522e-07   -1.0228270277323672e-06   1.7561332845809322e-05
5.845261509764522e-07   -1.0228270277323672e-06   1.7561332845809322e-05
-1.049603772761105e-05   6.149082965955068e-07   7.636757609337345e-08
-1.049603772761105e-05   6.149082965955068e-07   7.636757609337345e-08
-1.049603772761105e-05   6.149082965955068e-07   7.636757609337345e-08
-1.049603772761105e-05   6.149082965955068e-07   7.636757609337345e-08
-1.1017277508023485e-05   -1.012701779534329e-06   1.8972640925413457e-05
-1.1017277508023485e-05   -1.012701779534329e-06   1.8972640925413457e-05
-1.1017277508023485e-05   -1.012701779534329e-06   1.8972640925413457e-05
-1.1017277508023485e-05   -1.012701779534329e-06   1.8972640925413457e-05
1.2743334610888215e-07   5.148793547150908e-07   -5.18425845356642e-07
1.2743334610888215e-07   5.148793547150908e-07   -5.18425845356642e-07
1.2743334610888215e-07   5.148793547150908e-07   -5.18425845356642e-07
1.2743334610888215e-07   5.148793547150908e-07   -5.18425845356642e-07
-5.144009308342485e-06   -4.269203224336986e-08   8.601854744237595e-06
-5.144009308342485e-06   -4.269203224336986e-08   8.601854744237595e-06
-5.144009308342485e-06   -4.269203224336986e-08   8.601854744237595e-06
-5.144009308342485e-06   -4.269203224336986e-08   8.601854744237595e-06
-9.640491917829776e-06   1.1231546963494897e-06   1.536791957184832e-05
-9.640491917829776e-06   1.1231546963494897e-06   1.536791957184832e-05
-9.640491917829776e-06   1.1231546963494897e-06   1.536791957184832e-05
-9.640491917829776e-06   1.1231546963494897e-06   1.536791957184832e-05
-2.0401758162941916e-05   2.9249698259994168e-06   -1.4864350922154357e-06
-2.0401758162941916e-05   2.9249698259994168e-06   -1.4864350922154357e-06
-2.0401758162941916e-05   2.9249698259994168e-06   -1.4864350922154357e-06
-2.0401758162941916e-05   2.9249698259994168e-06   -1.4864350922154357e-06
-2.0931440864156887e-05   1.0690297947435218e-06   1.698516935274663e-05
-2.0931440864156887e-05   1.0690297947435218e-06   1.698516935274663e-05
-2.0931440864156887e-05   1.0690297947435218e-06   1.698516935274663e-05
-2.0931440864156887e-05   1.0690297947435218e-06   1.698516935274663e-05
-1.000676508295482e-05   2.7758782634228164e-06   -2.246732697131027e-06
-1.000676508295482e-05   2.7758782634228164e-06   -2.246732697131027e-06
-1.000676508295482e-05   2.7758782634228164e-06   -2.246732697131027e-06
-1.000676508295482e-05   2.7758782634228164e-06   -2.246732697131027e-06
-1.5127455443627567e-05   2.0034922091681593e-06   6.7511828698763634e-06
-1.5127455443627567e-05   2.0034922091681593e-06   6.7511828698763634e-06
-1.5127455443627567e-05   2.0034922091681593e-06   6.7511828698763634e-06
-1.5127455443627567e-05   2.0034922091681593e-06   6.7511828698763634e-06
-1.000676508295484e-05   1.069029794743305e-06   1.5961060271539053e-05
-1.000676508295484e-05   1.069029794743305e-06   1.5961060271539053e-05
-1.000676508295484e-05   1.069029794743305e-06   1.5961060271539053e-05
-1.000676508295484e-05   1.069029794743305e-06   1.5961060271539053e-05
-2.0931440864156854e-05   2.775878263422925e-06   -1.2226236159234368e-06
-2.0931440864156854e-05   2.775878263422925e-06   -1.2226236159234368e-06
-2.0931440864156854e-05   2.775878263422925e-06   -1.2226236159234368e-06
-2.0931440864156854e-05   2.775878263422925e-06   -1.2226236159234368e-06
-2.1581863680270913e-05   9.602846357001458e-07   1.802652683483702e-05
-2.1581863680270913e-05   9.602846357001458e-07   1.802652683483702e-05
-2.1581863680270913e-05   9.602846357001458e-07   1.802652683483702e-05
-2.1581863680270913e-05   9.602846357001458e-07   1.802652683483702e-05
-1.049603772761105e-05   2.6366364846404713e-06   -1.4556608622937815e-06
-1.049603772761105e-05   2.6366364846404713e-06   -1.4556608622937815e-06
-1.049603772761105e-05   2.6366364846404713e-06   -1.4556608622937815e-06
-1.049603772761105e-05   2.6366364846404713e-06   -1.4556608622937815e-06
-1.551938369010909e-05   1.9721829860150537e-06   7.315254507711598e-06
-1.551938369010909e-05   1.9721829860150537e-06   7.315254507711598e-06
-1.551938369010909e-05   1.9721829860150537e-06   7.315254507711598e-06
-1.551938369010909e-05   1.9721829860150537e-06   7.315254507711598e-06
-1.0496037727611036e-05   9.602846357001458e-07   1.702071572547278e-05
-1.0496037727611036e-05   9.602846357001458e-07   1.702071572547278e-05
-1.0496037727611036e-05   9.602846357001458e-07   1.702071572547278e-05
-1.0496037727611036e-05   9.602846357001458e-07   1.702071572547278e-05
-2.1581863680270913e-05   2.6366364846405798e-06   -4.4984975292950216e-07
-2.1581863680270913e-05   2.6366364846405798e-06   -4.4984975292950216e-07
-2.1581863680270913e-05   2.6366364846405798e-06   -4.4984975292950216e-07
-2.1581863680270913e-05   2.6366364846405798e-06   -4.4984975292950216e-07
-2.226860999999401e-05   8.359954940958224e-07   1.8845112760242306e-05
-2.226860999999401e-05   8.359954940958224e-07   1.8845112760242306e-05
-2.226860999999401e-05   8.359954940958224e-07   1.8845112760242306e-05
-2.226860999999401e-05   8.359954940958224e-07   1.8845112760242306e-05
-1.1017277508023444e-05   2.447906918430693e-06   -8.742549143095829e-07
-1.1017277508023444e-05   2.447906918430693e-06   -8.742549143095829e-07
-1.1017277508023444e-05   2.447906918430693e-06   -8.742549143095829e-07
-1.1017277508023444e-05   2.447906918430693e-06   -8.742549143095829e-07
-1.6181382505073154e-05   1.8603004862914607e-06   8.085150606723966e-06
-1.6181382505073154e-05   1.8603004862914607e-06   8.085150606723966e-06
-1.6181382505073154e-05   1.8603004862914607e-06   8.085150606723966e-06
-1.6181382505073154e-05   1.8603004862914607e-06   8.085150606723966e-06
-2.0401758162941916e-05   4.812390911791958e-06   8.08439980815609e-06
-2.0401758162941916e-05   4.812390911791958e-06   8.08439980815609e-06
-2.0401758162941916e-05   4.812390911791958e-06   8.08439980815609e-06
-2.0401758162941916e-05   4.812390911791958e-06   8.08439980815609e-06
-3.073319613065728e-05   4.757012480602037e-06   -9.167890530083515e-06
-3.073319613065728e-05   4.757012480602037e-06   -9.167890530083515e-06
-3.073319613065728e-05   4.757012480602037e-06   -9.167890530083515e-06
-3.073319613065728e-05   4.757012480602037e-06   -9.167890530083515e-06
-3.168620382253613e-05   4.660572255280569e-06   1.204195011075273e-05
-3.168620382253613e-05   4.660572255280569e-06   1.204195011075273e-05
-3.168620382253613e-05   4.660572255280569e-06   1.204195011075273e-05
-3.168620382253613e-05   4.660572255280569e-06   1.204195011075273e-05
-2.0931440864156854e-05   4.8551123584238956e-06   -5.9993788817655285e-06
-2.0931440864156854e-05   4.8551123584238956e-06   -5.9993788817655285e-06
-2.0931440864156854e-05   4.8551123584238956e-06   -5.9993788817655285e-06
-2.0931440864156854e-05   4.8551123584238956e-06   -5.9993788817655285e-06
-2.489407038409267e-05   4.840244033904508e-06   6.139246461724568e-07
-2.489407038409267e-05   4.840244033904508e-06   6.139246461724568e-07
-2.489407038409267e-05   4.840244033904508e-06   6.139246461724568e-07
-2.489407038409267e-05   4.840244033904508e-06   6.139246461724568e-07
-2.0931440864156833e-05   4.660572255280569e-06   1.1925226048866669e-05
-2.0931440864156833e-05   4.660572255280569e-06   1.1925226048866669e-05
-2.0931440864156833e-05   4.660572255280569e-06   1.1925226048866669e-05
-2.0931440864156833e-05   4.660572255280569e-06   1.1925226048866669e-05
-3.168620382253613e-05   4.8551123584238956e-06   -5.882654819879549e-06
-3.168620382253613e-05   4.8551123584238956e-06   -5.882654819879549e-06
-3.168620382253613e-05   4.8551123584238956e-06   -5.882654819879549e-06
-3.168620382253613e-05   4.8551123584238956e-06   -5.882654819879549e-06
-3.262061731146675e-05   4.546936109524986e-06   1.480615006341419e-05
-3.262061731146675e-05   4.546936109524986e-06   1.480615006341419e-05
-3.262061731146675e-05   4.546936109524986e-06   1.480615006341419e-05
-3.262061731146675e-05   4.546936109524986e-06   1.480615006341419e-05
-2.1581863680270872e-05   4.822381427274777e-06   -3.7570398458956647e-06
-2.1581863680270872e-05   4.822381427274777e-06   -3.7570398458956647e-06
-2.1581863680270872e-05   4.822381427274777e-06   -3.7570398458956647e-06
-2.1581863680270872e-05   4.822381427274777e-06   -3.7570398458956647e-06
-2.599880859376579e-05   4.845578377731083e-06   3.5906168396556456e-06
-2.599880859376579e-05   4.845578377731083e-06   3.5906168396556456e-06
-2.599880859376579e-05   4.845578377731083e-06   3.5906168396556456e-06
-2.599880859376579e-05   4.845578377731083e-06   3.5906168396556456e-06
-2.1581863680270872e-05   4.546936109524986e-06   1.4640882872764271e-05
-2.1581863680270872e-05   4.546936109524986e-06   1.4640882872764271e-05
-2.1581863680270872e-05   4.546936109524986e-06   1.4640882872764271e-05
-2.1581863680270872e-05   4.546936109524986e-06   1.4640882872764271e-05
-3.262061731146675e-05   4.822381427274777e-06   -3.5917726552456655e-06
-3.262061731146675e-05   4.822381427274777e-06   -3.5917726552456655e-06
-3.262061731146675e-05   4.822381427274777e-06   -3.5917726552456655e-06
-3.262061731146675e-05   4.822381427274777e-06   -3.5917726552456655e-06
-3.372377119066079e-05   3.8113002101517086e-06   1.942138246850743e-05
-3.372377119066079e-05   3.8113002101517086e-06   1.942138246850743e-05
-3.372377119066079e-05   3.8113002101517086e-06   1.942138246850743e-05
-3.372377119066079e-05   3.8113002101517086e-06   1.942138246850743e-05
-2.226860999999394e-05   4.446169617594023e-06   -5.1474493735931834e-08
-2.226860999999394e-05   4.446169617594023e-06   -5.1474493735931834e-08
-2.226860999999394e-05   4.446169617594023e-06   -5.1474493735931834e-08
-2.226860999999394e-05   4.446169617594023e-06   -5.1474493735931834e-08
-2.6377578468974743e-05   4.620537360482818e-06   6.692185642165726e-06
-2.6377578468974743e-05   4.620537360482818e-06   6.692185642165726e-06
-2.6377578468974743e-05   4.620537360482818e-06   6.692185642165726e-06
-2.6377578468974743e-05   4.620537360482818e-06   6.692185642165726e-06
2.043556760012035e-05   -2.8525897460189662e-06   1.565835877332224e-05
2.043556760012035e-05   -2.8525897460189662e-06   1.565835877332224e-05
2.043556760012035e-05   -2.8525897460189662e-06   1.565835877332224e-05
2.043556760012035e-05   -2.8525897460189662e-06   1.565835877332224e-05
1.0096679264169417e-05   -2.1093314767385574e-06   -1.1271668250277143e-06
1.0096679264169417e-05   -2.1093314767385574e-06   -1.1271668250277143e-06
1.0096679264169417e-05   -2.1093314767385574e-06   -1.1271668250277143e-06
1.0096679264169417e-05   -2.1093314767385574e-06   -1.1271668250277143e-06
9.720480901530063e-06   -3.2268962949039094e-06   1.3599870357635345e-05
9.720480901530063e-06   -3.2268962949039094e-06   1.3599870357635345e-05
9.720480901530063e-06   -3.2268962949039094e-06   1.3599870357635345e-05
9.720480901530063e-06   -3.2268962949039094e-06   1.3599870357635345e-05
1.9744692019576265e-05   -2.4418602240907977e-06   -3.57816981492935e-06
1.9744692019576265e-05   -2.4418602240907977e-06   -3.57816981492935e-06
1.9744692019576265e-05   -2.4418602240907977e-06   -3.57816981492935e-06
1.9744692019576265e-05   -2.4418602240907977e-06   -3.57816981492935e-06
1.4312995473275774e-05   -2.6300700958965285e-06   5.587583685321561e-06
1.4312995473275774e-05   -2.6300700958965285e-06   5.587583685321561e-06
1.4312995473275774e-05   -2.6300700958965285e-06   5.587583685321561e-06
1.4312995473275774e-05   -2.6300700958965285e-06   5.587583685321561e-06
1.9744692019576235e-05   -3.226896294903801e-06   1.3128848715147586e-05
1.9744692019576235e-05   -3.226896294903801e-06   1.3128848715147586e-05
1.9744692019576235e-05   -3.226896294903801e-06   1.3128848715147586e-05
1.9744692019576235e-05   -3.226896294903801e-06   1.3128848715147586e-05
9.7204809015301e-06   -2.4418602240907977e-06   -3.107148172441462e-06
9.7204809015301e-06   -2.4418602240907977e-06   -3.107148172441462e-06
9.7204809015301e-06   -2.4418602240907977e-06   -3.107148172441462e-06
9.7204809015301e-06   -2.4418602240907977e-06   -3.107148172441462e-06
9.3018489336952e-06   -3.2810465614609022e-06   1.2177050062416386e-05
9.3018489336952e-06   -3.2810465614609022e-06   1.2177050062416386e-05
9.3018489336952e-06   -3.2810465614609022e-06   1.2177050062416386e-05
9.3018489336952e-06   -3.2810465614609022e-06   1.2177050062416386e-05
1.9117822118096995e-05   -2.507655243434064e-06   -4.646940035735863e-06
1.9117822118096995e-05   -2.507655243434064e-06   -4.646940035735863e-06
1.9117822118096995e-05   -2.507655243434064e-06   -4.646940035735863e-06
1.9117822118096995e-05   -2.507655243434064e-06   -4.646940035735863e-06
1.4059685948282318e-05   -2.7594021711433575e-06   3.934335070580646e-06
1.4059685948282318e-05   -2.7594021711433575e-06   3.934335070580646e-06
1.4059685948282318e-05   -2.7594021711433575e-06   3.934335070580646e-06
1.4059685948282318e-05   -2.7594021711433575e-06   3.934335070580646e-06
1.9117822118096927e-05   -3.2810465614610106e-06   1.1713015271600175e-05
1.9117822118096927e-05   -3.2810465614610106e-06   1.1713015271600175e-05
1.9117822118096927e-05   -3.2810465614610106e-06   1.1713015271600175e-05
1.9117822118096927e-05   -3.2810465614610106e-06   1.1713015271600175e-05
9.301848933695217e-06   -2.507655243434064e-06   -4.1829052449198585e-06
9.301848933695217e-06   -2.507655243434064e-06   -4.1829052449198585e-06
9.301848933695217e-06   -2.507655243434064e-06   -4.1829052449198585e-06
9.301848933695217e-06   -2.507655243434064e-06   -4.1829052449198585e-06
8.898644815454167e-06   -3.2536873627240755e-06   1.0184560717543898e-05
8.898644815454167e-06   -3.2536873627240755e-06   1.0184560717543898e-05
8.898644815454167e-06   -3.2536873627240755e-06   1.0184560717543898e-05
8.898644815454167e-06   -3.2536873627240755e-06   1.0184560717543898e-05
1.840665155777876e-05   -2.529111221102453e-06   -6.09686287130333e-06
1.840665155777876e-05   -2.529111221102453e-06   -6.09686287130333e-06
1.840665155777876e-05   -2.529111221102453e-06   -6.09686287130333e-06
1.840665155777876e-05   -2.529111221102453e-06   -6.09686287130333e-06
1.3349287239176223e-05   -2.7106729026964062e-06   2.4410146686576146e-06
1.3349287239176223e-05   -2.7106729026964062e-06   2.4410146686576146e-06
1.3349287239176223e-05   -2.7106729026964062e-06   2.4410146686576146e-06
1.3349287239176223e-05   -2.7106729026964062e-06   2.4410146686576146e-06
1.0096679264169417e-05   -9.98455001030552e-07   1.6332739252857692e-05
1.0096679264169417e-05   -9.98455001030552e-07   1.6332739252857692e-05
1.0096679264169417e-05   -9.98455001030552e-07   1.6332739252857692e-05
1.0096679264169417e-05   -9.98455001030552e-07   1.6332739252857692e-05
3.91034383420939e-07   -4.0547868821046943e-07   5.124502393023681e-07
3.91034383420939e-07   -4.0547868821046943e-07   5.124502393023681e-07
3.91034383420939e-07   -4.0547868821046943e-07   5.124502393023681e-07
3.91034383420939e-07   -4.0547868821046943e-07   5.124502393023681e-07
2.9257014066817353e-08   -1.1981450571865292e-06   1.6495461521956012e-05
2.9257014066817353e-08   -1.1981450571865292e-06   1.6495461521956012e-05
2.9257014066817353e-08   -1.1981450571865292e-06   1.6495461521956012e-05
2.9257014066817353e-08   -1.1981450571865292e-06   1.6495461521956012e-05
9.7204809015301e-06   -6.399811477380115e-07   8.52336384822149e-09
9.7204809015301e-06   -6.399811477380115e-07   8.52336384822149e-09
9.7204809015301e-06   -6.399811477380115e-07   8.52336384822149e-09
9.7204809015301e-06   -6.399811477380115e-07   8.52336384822149e-09
4.997619551773967e-06   -7.811742844595227e-07   7.964674828807967e-06
4.997619551773967e-06   -7.811742844595227e-07   7.964674828807967e-06
4.997619551773967e-06   -7.811742844595227e-07   7.964674828807967e-06
4.997619551773967e-06   -7.811742844595227e-07   7.964674828807967e-06
9.72048090153009e-06   -1.1981450571865292e-06   1.6160563176286944e-05
9.72048090153009e-06   -1.1981450571865292e-06   1.6160563176286944e-05
9.72048090153009e-06   -1.1981450571865292e-06   1.6160563176286944e-05
9.72048090153009e-06   -1.1981450571865292e-06   1.6160563176286944e-05
2.9257014066817353e-08   -6.399811477380115e-07   3.4342170951743786e-07
2.9257014066817353e-08   -6.399811477380115e-07   3.4342170951743786e-07
2.9257014066817353e-08   -6.399811477380115e-07   3.4342170951743786e-07
2.9257014066817353e-08   -6.399811477380115e-07   3.4342170951743786e-07
-3.468348113709572e-07   -1.3270910577967967e-06   1.6238415271433468e-05
-3.468348113709572e-07   -1.3270910577967967e-06   1.6238415271433468e-05
-3.468348113709572e-07   -1.3270910577967967e-06   1.6238415271433468e-05
-3.468348113709572e-07   -1.3270910577967967e-06   1.6238415271433468e-05
9.301848933695217e-06   -8.125512001779401e-07   -1.5144821824801817e-07
9.301848933695217e-06   -8.125512001779401e-07   -1.5144821824801817e-07
9.301848933695217e-06   -8.125512001779401e-07   -1.5144821824801817e-07
9.301848933695217e-06   -8.125512001779401e-07   -1.5144821824801817e-07
4.580823059464488e-06   -9.032969070497422e-07   7.771375662926558e-06
4.580823059464488e-06   -9.032969070497422e-07   7.771375662926558e-06
4.580823059464488e-06   -9.032969070497422e-07   7.771375662926558e-06
4.580823059464488e-06   -9.032969070497422e-07   7.771375662926558e-06
9.3018489336952e-06   -1.3270910577967967e-06   1.5929691356862305e-05
9.3018489336952e-06   -1.3270910577967967e-06   1.5929691356862305e-05
9.3018489336952e-06   -1.3270910577967967e-06   1.5929691356862305e-05
9.3018489336952e-06   -1.3270910577967967e-06   1.5929691356862305e-05
-3.468348113709572e-07   -8.125512001779401e-07   1.5727569632327954e-07
-3.468348113709572e-07   -8.125512001779401e-07   1.5727569632327954e-07
-3.468348113709572e-07   -8.125512001779401e-07   1.5727569632327954e-07
-3.468348113709572e-07   -8.125512001779401e-07   1.5727569632327954e-07
-7.383907136952083e-07   -1.379421141630712e-06   1.6354232632736425e-05
-7.383907136952083e-07   -1.379421141630712e-06   1.6354232632736425e-05
-7.383907136952083e-07   -1.379421141630712e-06   1.6354232632736425e-05
-7.383907136952083e-07   -1.379421141630712e-06   1.6354232632736425e-05
8.89864481545419e-06   -9.467236406956927e-07   3.288825025966354e-08
8.89864481545419e-06   -9.467236406956927e-07   3.288825025966354e-08
8.89864481545419e-06   -9.467236406956927e-07   3.288825025966354e-08
8.89864481545419e-06   -9.467236406956927e-07   3.288825025966354e-08
4.270006518456334e-06   -9.669089488634729e-07   7.759396596823841e-06
4.270006518456334e-06   -9.669089488634729e-07   7.759396596823841e-06
4.270006518456334e-06   -9.669089488634729e-07   7.759396596823841e-06
4.270006518456334e-06   -9.669089488634729e-07   7.759396596823841e-06
3.91034383420939e-07   9.048829537377156e-07   1.6844108782764823e-05
3.91034383420939e-07   9.048829537377156e-07   1.6844108782764823e-05
3.91034383420939e-07   9.048829537377156e-07   1.6844108782764823e-05
3.91034383420939e-07   9.048829537377156e-07   1.6844108782764823e-05
-9.035549911177735e-06   1.3003306104591257e-06   1.3704035524664498e-06
-9.035549911177735e-06   1.3003306104591257e-06   1.3704035524664498e-06
-9.035549911177735e-06   1.3003306104591257e-06   1.3704035524664498e-06
-9.035549911177735e-06   1.3003306104591257e-06   1.3704035524664498e-06
-9.413925310272197e-06   7.546947342290753e-07   1.707134793076169e-05
-9.413925310272197e-06   7.546947342290753e-07   1.707134793076169e-05
-9.413925310272197e-06   7.546947342290753e-07   1.707134793076169e-05
-9.413925310272197e-06   7.546947342290753e-07   1.707134793076169e-05
2.9257014066817353e-08   1.1070762591973904e-06   1.1212818085490356e-06
2.9257014066817353e-08   1.1070762591973904e-06   1.1212818085490356e-06
2.9257014066817353e-08   1.1070762591973904e-06   1.1212818085490356e-06
2.9257014066817353e-08   1.1070762591973904e-06   1.1212818085490356e-06
-4.514131925286875e-06   1.0266171947064754e-06   8.741872146166311e-06
-4.514131925286875e-06   1.0266171947064754e-06   8.741872146166311e-06
-4.514131925286875e-06   1.0266171947064754e-06   8.741872146166311e-06
-4.514131925286875e-06   1.0266171947064754e-06   8.741872146166311e-06
2.9257014066817353e-08   7.546947342290753e-07   1.6859919015780613e-05
2.9257014066817353e-08   7.546947342290753e-07   1.6859919015780613e-05
2.9257014066817353e-08   7.546947342290753e-07   1.6859919015780613e-05
2.9257014066817353e-08   7.546947342290753e-07   1.6859919015780613e-05
-9.413925310272197e-06   1.1070762591973904e-06   1.3327107235299894e-06
-9.413925310272197e-06   1.1070762591973904e-06   1.3327107235299894e-06
-9.413925310272197e-06   1.1070762591973904e-06   1.3327107235299894e-06
-9.413925310272197e-06   1.1070762591973904e-06   1.3327107235299894e-06
-9.81298080244134e-06   6.149082965955068e-07   1.7227508894584976e-05
-9.81298080244134e-06   6.149082965955068e-07   1.7227508894584976e-05
-9.81298080244134e-06   6.149082965955068e-07   1.7227508894584976e-05
-9.81298080244134e-06   6.149082965955068e-07   1.7227508894584976e-05
-3.468348113709572e-07   9.195115234413844e-07   1.267836973360261e-06
-3.468348113709572e-07   9.195115234413844e-07   1.267836973360261e-06
-3.468348113709572e-07   9.195115234413844e-07   1.267836973360261e-06
-3.468348113709572e-07   9.195115234413844e-07   1.267836973360261e-06
-4.865299621836573e-06   9.173423245528375e-07   8.799913176802575e-06
-4.865299621836573e-06   9.173423245528375e-07   8.799913176802575e-06
-4.865299621836573e-06   9.173423245528375e-07   8.799913176802575e-06
-4.865299621836573e-06   9.173423245528375e-07   8.799913176802575e-06
-3.468348113709572e-07   6.149082965955068e-07   1.7044746958477406e-05
-3.468348113709572e-07   6.149082965955068e-07   1.7044746958477406e-05
-3.468348113709572e-07   6.149082965955068e-07   1.7044746958477406e-05
-3.468348113709572e-07   6.149082965955068e-07   1.7044746958477406e-05
-9.81298080244136e-06   9.195115234413844e-07   1.450598909467709e-06
-9.81298080244136e-06   9.195115234413844e-07   1.450598909467709e-06
-9.81298080244136e-06   9.195115234413844e-07   1.450598909467709e-06
-9.81298080244136e-06   9.195115234413844e-07   1.450598909467709e-06
-1.0224487981749846e-05   5.148793547149824e-07   1.7476626468944964e-05
-1.0224487981749846e-05   5.148793547149824e-07   1.7476626468944964e-05
-1.0224487981749846e-05   5.148793547149824e-07   1.7476626468944964e-05
-1.0224487981749846e-05   5.148793547149824e-07   1.7476626468944964e-05
-7.383907136952151e-07   7.526747480326437e-07   1.5237871195300962e-06
-7.383907136952151e-07   7.526747480326437e-07   1.5237871195300962e-06
-7.383907136952151e-07   7.526747480326437e-07   1.5237871195300962e-06
-7.383907136952151e-07   7.526747480326437e-07   1.5237871195300962e-06
-5.245368514151809e-06   8.128687443548742e-07   8.999300389164768e-06
-5.245368514151809e-06   8.128687443548742e-07   8.999300389164768e-06
-5.245368514151809e-06   8.128687443548742e-07   8.999300389164768e-06
-5.245368514151809e-06   8.128687443548742e-07   8.999300389164768e-06
-9.035549911177762e-06   2.924969825999525e-06   1.472506235638963e-05
-9.035549911177762e-06   2.924969825999525e-06   1.472506235638963e-05
-9.035549911177762e-06   2.924969825999525e-06   1.472506235638963e-05
-9.035549911177762e-06   2.924969825999525e-06   1.472506235638963e-05
-1.818444523562986e-05   2.9624401637349043e-06   -5.006143150559765e-07
-1.818444523562986e-05   2.9624401637349043e-06   -5.006143150559765e-07
-1.818444523562986e-05   2.9624401637349043e-06   -5.006143150559765e-07
-1.818444523562986e-05   2.9624401637349043e-06   -5.006143150559765e-07
-1.8623468231305522e-05   2.775878263422925e-06   1.4982223341975637e-05
-1.8623468231305522e-05   2.775878263422925e-06   1.4982223341975637e-05
-1.8623468231305522e-05   2.775878263422925e-06   1.4982223341975637e-05
-1.8623468231305522e-05   2.775878263422925e-06   1.4982223341975637e-05
-9.413925310272224e-06   2.7795698651146864e-06   -3.6922982076174177e-07
-9.413925310272224e-06   2.7795698651146864e-06   -3.6922982076174177e-07
-9.413925310272224e-06   2.7795698651146864e-06   -3.6922982076174177e-07
-9.413925310272224e-06   2.7795698651146864e-06   -3.6922982076174177e-07
-1.3752702891920794e-05   2.8513743679193723e-06   6.81898344696979e-06
-1.3752702891920794e-05   2.8513743679193723e-06   6.81898344696979e-06
-1.3752702891920794e-05   2.8513743679193723e-06   6.81898344696979e-06
-1.3752702891920794e-05   2.8513743679193723e-06   6.81898344696979e-06
-9.413925310272224e-06   2.775878263422925e-06   1.4980008380960472e-05
-9.413925310272224e-06   2.775878263422925e-06   1.4980008380960472e-05
-9.413925310272224e-06   2.775878263422925e-06   1.4980008380960472e-05
-9.413925310272224e-06   2.775878263422925e-06   1.4980008380960472e-05
-1.8623468231305495e-05   2.7795698651146864e-06   -3.670148597466035e-07
-1.8623468231305495e-05   2.7795698651146864e-06   -3.670148597466035e-07
-1.8623468231305495e-05   2.7795698651146864e-06   -3.670148597466035e-07
-1.8623468231305495e-05   2.7795698651146864e-06   -3.670148597466035e-07
-1.9109115413856135e-05   2.6366364846404713e-06   1.567922550021008e-05
-1.9109115413856135e-05   2.6366364846404713e-06   1.567922550021008e-05
-1.9109115413856135e-05   2.6366364846404713e-06   1.567922550021008e-05
-1.9109115413856135e-05   2.6366364846404713e-06   1.567922550021008e-05
-9.81298080244136e-06   2.609544891327793e-06   2.0192277050653834e-07
-9.81298080244136e-06   2.609544891327793e-06   2.0192277050653834e-07
-9.81298080244136e-06   2.609544891327793e-06   2.0192277050653834e-07
-9.81298080244136e-06   2.609544891327793e-06   2.0192277050653834e-07
-1.4067164756289292e-05   2.7490616240318563e-06   7.208519320630691e-06
-1.4067164756289292e-05   2.7490616240318563e-06   7.208519320630691e-06
-1.4067164756289292e-05   2.7490616240318563e-06   7.208519320630691e-06
-1.4067164756289292e-05   2.7490616240318563e-06   7.208519320630691e-06
-9.81298080244136e-06   2.6366364846404713e-06   1.5695480456197862e-05
-9.81298080244136e-06   2.6366364846404713e-06   1.5695480456197862e-05
-9.81298080244136e-06   2.6366364846404713e-06   1.5695480456197862e-05
-9.81298080244136e-06   2.6366364846404713e-06   1.5695480456197862e-05
-1.9109115413856094e-05   2.6095448913279013e-06   1.8566781451878492e-07
-1.9109115413856094e-05   2.6095448913279013e-06   1.8566781451878492e-07
-1.9109115413856094e-05   2.6095448913279013e-06   1.8566781451878492e-07
-1.9109115413856094e-05   2.6095448913279013e-06   1.8566781451878492e-07
-1.957140326324595e-05   2.4479069184308016e-06   1.6175863917681317e-05
-1.957140326324595e-05   2.4479069184308016e-06   1.6175863917681317e-05
-1.957140326324595e-05   2.4479069184308016e-06   1.6175863917681317e-05
-1.957140326324595e-05   2.4479069184308016e-06   1.6175863917681317e-05
-1.022448798174988e-05   2.4005989154951644e-06   6.260565836158891e-07
-1.022448798174988e-05   2.4005989154951644e-06   6.260565836158891e-07
-1.022448798174988e-05   2.4005989154951644e-06   6.260565836158891e-07
-1.022448798174988e-05   2.4005989154951644e-06   6.260565836158891e-07
-1.4574003943769603e-05   2.6142910053444544e-06   7.747034599739746e-06
-1.4574003943769603e-05   2.6142910053444544e-06   7.747034599739746e-06
-1.4574003943769603e-05   2.6142910053444544e-06   7.747034599739746e-06
-1.4574003943769603e-05   2.6142910053444544e-06   7.747034599739746e-06
-1.8184445235629832e-05   4.757012480602037e-06   7.099316179876654e-06
-1.8184445235629832e-05   4.757012480602037e-06   7.099316179876654e-06
-1.8184445235629832e-05   4.757012480602037e-06   7.099316179876654e-06
-1.8184445235629832e-05   4.757012480602037e-06   7.099316179876654e-06
-2.6911696006125875e-05   4.281575570489675e-06   -7.731363917017422e-06
-2.6911696006125875e-05   4.281575570489675e-06   -7.731363917017422e-06
-2.6911696006125875e-05   4.281575570489675e-06   -7.731363917017422e-06
-2.6911696006125875e-05   4.281575570489675e-06   -7.731363917017422e-06
-2.76034584953984e-05   4.8551123584238956e-06   9.891753842956419e-06
-2.76034584953984e-05   4.8551123584238956e-06   9.891753842956419e-06
-2.76034584953984e-05   4.8551123584238956e-06   9.891753842956419e-06
-2.76034584953984e-05   4.8551123584238956e-06   9.891753842956419e-06
-1.8623468231305522e-05   4.332255303128693e-06   -4.761182364021498e-06
-1.8623468231305522e-05   4.332255303128693e-06   -4.761182364021498e-06
-1.8623468231305522e-05   4.332255303128693e-06   -4.761182364021498e-06
-1.8623468231305522e-05   4.332255303128693e-06   -4.761182364021498e-06
-2.1955703752199713e-05   4.526849046205877e-06   6.75787258289242e-07
-2.1955703752199713e-05   4.526849046205877e-06   6.75787258289242e-07
-2.1955703752199713e-05   4.526849046205877e-06   6.75787258289242e-07
-2.1955703752199713e-05   4.526849046205877e-06   6.75787258289242e-07
-1.8623468231305482e-05   4.8551123584238956e-06   1.020546807613341e-05
-1.8623468231305482e-05   4.8551123584238956e-06   1.020546807613341e-05
-1.8623468231305482e-05   4.8551123584238956e-06   1.020546807613341e-05
-1.8623468231305482e-05   4.8551123584238956e-06   1.020546807613341e-05
-2.7603458495398494e-05   4.332255303128693e-06   -5.074896597198598e-06
-2.7603458495398494e-05   4.332255303128693e-06   -5.074896597198598e-06
-2.7603458495398494e-05   4.332255303128693e-06   -5.074896597198598e-06
-2.7603458495398494e-05   4.332255303128693e-06   -5.074896597198598e-06
-2.8277546111132702e-05   4.822381427274777e-06   1.2050236634254937e-05
-2.8277546111132702e-05   4.822381427274777e-06   1.2050236634254937e-05
-2.8277546111132702e-05   4.822381427274777e-06   1.2050236634254937e-05
-2.8277546111132702e-05   4.822381427274777e-06   1.2050236634254937e-05
-1.9109115413856135e-05   4.286050138959546e-06   -2.9086824215504006e-06
-1.9109115413856135e-05   4.286050138959546e-06   -2.9086824215504006e-06
-1.9109115413856135e-05   4.286050138959546e-06   -2.9086824215504006e-06
-1.9109115413856135e-05   4.286050138959546e-06   -2.9086824215504006e-06
-2.2815282013581376e-05   4.611539697845835e-06   3.0729681759935463e-06
-2.2815282013581376e-05   4.611539697845835e-06   3.0729681759935463e-06
-2.2815282013581376e-05   4.611539697845835e-06   3.0729681759935463e-06
-2.2815282013581376e-05   4.611539697845835e-06   3.0729681759935463e-06
-1.9109115413856135e-05   4.822381427274777e-06   1.2372035407244054e-05
-1.9109115413856135e-05   4.822381427274777e-06   1.2372035407244054e-05
-1.9109115413856135e-05   4.822381427274777e-06   1.2372035407244054e-05
-1.9109115413856135e-05   4.822381427274777e-06   1.2372035407244054e-05
-2.827754611113281e-05   4.286050138959546e-06   -3.2304811945395176e-06
-2.827754611113281e-05   4.286050138959546e-06   -3.2304811945395176e-06
-2.827754611113281e-05   4.286050138959546e-06   -3.2304811945395176e-06
-2.827754611113281e-05   4.286050138959546e-06   -3.2304811945395176e-06
-2.906340764160873e-05   4.446169617594023e-06   1.5739383908211393e-05
-2.906340764160873e-05   4.446169617594023e-06   1.5739383908211393e-05
-2.906340764160873e-05   4.446169617594023e-06   1.5739383908211393e-05
-2.906340764160873e-05   4.446169617594023e-06   1.5739383908211393e-05
-1.957140326324595e-05   3.959313658523302e-06   2.114901863824398e-07
-1.957140326324595e-05   3.959313658523302e-06   2.114901863824398e-07
-1.957140326324595e-05   3.959313658523302e-06   2.114901863824398e-07
-1.957140326324595e-05   3.959313658523302e-06   2.114901863824398e-07
-2.3019226340976795e-05   4.476412643364142e-06   5.647602591696385e-06
-2.3019226340976795e-05   4.476412643364142e-06   5.647602591696385e-06
-2.3019226340976795e-05   4.476412643364142e-06   5.647602591696385e-06
-2.3019226340976795e-05   4.476412643364142e-06   5.647602591696385e-06
1.5640961476628463e-05   -2.1093314767385574e-06   1.316508361637683e-05
1.5640961476628463e-05   -2.1093314767385574e-06   1.316508361637683e-05
1.5640961476628463e-05   -2.1093314767385574e-06   1.316508361637683e-05
1.5640961476628463e-05   -2.1093314767385574e-06   1.316508361637683e-05
7.3519666884139056e-06   -1.4097253803187042e-06   -2.301440394621504e-07
7.3519666884139056e-06   -1.4097253803187042e-06   -2.301440394621504e-07
7.3519666884139056e-06   -1.4097253803187042e-06   -2.301440394621504e-07
7.3519666884139056e-06   -1.4097253803187042e-06   -2.301440394621504e-07
7.0148940315267186e-06   -2.4418602240907977e-06   1.1554113893632039e-05
7.0148940315267186e-06   -2.4418602240907977e-06   1.1554113893632039e-05
7.0148940315267186e-06   -2.4418602240907977e-06   1.1554113893632039e-05
7.0148940315267186e-06   -2.4418602240907977e-06   1.1554113893632039e-05
1.4987916412341535e-05   -1.7052874789162805e-06   -2.17620038816403e-06
1.4987916412341535e-05   -1.7052874789162805e-06   -2.17620038816403e-06
1.4987916412341535e-05   -1.7052874789162805e-06   -2.17620038816403e-06
1.4987916412341535e-05   -1.7052874789162805e-06   -2.17620038816403e-06
1.0720237585480555e-05   -1.9300423732658426e-06   5.0714505932140125e-06
1.0720237585480555e-05   -1.9300423732658426e-06   5.0714505932140125e-06
1.0720237585480555e-05   -1.9300423732658426e-06   5.0714505932140125e-06
1.0720237585480555e-05   -1.9300423732658426e-06   5.0714505932140125e-06
1.4987916412341535e-05   -2.4418602240907977e-06   1.111217024652735e-05
1.4987916412341535e-05   -2.4418602240907977e-06   1.111217024652735e-05
1.4987916412341535e-05   -2.4418602240907977e-06   1.111217024652735e-05
1.4987916412341535e-05   -2.4418602240907977e-06   1.111217024652735e-05
7.014894031526729e-06   -1.7052874789162805e-06   -1.7342567410593823e-06
7.014894031526729e-06   -1.7052874789162805e-06   -1.7342567410593823e-06
7.014894031526729e-06   -1.7052874789162805e-06   -1.7342567410593823e-06
7.014894031526729e-06   -1.7052874789162805e-06   -1.7342567410593823e-06
6.641995887402088e-06   -2.5076552434341723e-06   1.0423137246219128e-05
6.641995887402088e-06   -2.5076552434341723e-06   1.0423137246219128e-05
6.641995887402088e-06   -2.5076552434341723e-06   1.0423137246219128e-05
6.641995887402088e-06   -2.5076552434341723e-06   1.0423137246219128e-05
1.4414509730679105e-05   -1.7833920719357828e-06   -2.9656103954749243e-06
1.4414509730679105e-05   -1.7833920719357828e-06   -2.9656103954749243e-06
1.4414509730679105e-05   -1.7833920719357828e-06   -2.9656103954749243e-06
1.4414509730679105e-05   -1.7833920719357828e-06   -2.9656103954749243e-06
1.0455490588340596e-05   -2.050436451987692e-06   3.7929814697873226e-06
1.0455490588340596e-05   -2.050436451987692e-06   3.7929814697873226e-06
1.0455490588340596e-05   -2.050436451987692e-06   3.7929814697873226e-06
1.0455490588340596e-05   -2.050436451987692e-06   3.7929814697873226e-06
1.4414509730679081e-05   -2.507655243434064e-06   9.988579343320225e-06
1.4414509730679081e-05   -2.507655243434064e-06   9.988579343320225e-06
1.4414509730679081e-05   -2.507655243434064e-06   9.988579343320225e-06
1.4414509730679081e-05   -2.507655243434064e-06   9.988579343320225e-06
6.6419958874020985e-06   -1.7833920719357828e-06   -2.5310524925758852e-06
6.6419958874020985e-06   -1.7833920719357828e-06   -2.5310524925758852e-06
6.6419958874020985e-06   -1.7833920719357828e-06   -2.5310524925758852e-06
6.6419958874020985e-06   -1.7833920719357828e-06   -2.5310524925758852e-06
6.297194114716584e-06   -2.5291112211023445e-06   8.883403483930948e-06
6.297194114716584e-06   -2.5291112211023445e-06   8.883403483930948e-06
6.297194114716584e-06   -2.5291112211023445e-06   8.883403483930948e-06
6.297194114716584e-06   -2.5291112211023445e-06   8.883403483930948e-06
1.377226440233958e-05   -1.8524210734316513e-06   -3.98106108404318e-06
1.377226440233958e-05   -1.8524210734316513e-06   -3.98106108404318e-06
1.377226440233958e-05   -1.8524210734316513e-06   -3.98106108404318e-06
1.377226440233958e-05   -1.8524210734316513e-06   -3.98106108404318e-06
9.850888916137095e-06   -2.0366880968679694e-06   2.6651249403563116e-06
9.850888916137095e-06   -2.0366880968679694e-06   2.6651249403563116e-06
9.850888916137095e-06   -2.0366880968679694e-06   2.6651249403563116e-06
9.850888916137095e-06   -2.0366880968679694e-06   2.6651249403563116e-06
7.3519666884138785e-06   -4.0547868821046943e-07   1.4868678550866775e-05
7.3519666884138785e-06   -4.0547868821046943e-07   1.4868678550866775e-05
7.3519666884138785e-06   -4.0547868821046943e-07   1.4868678550866775e-05
7.3519666884138785e-06   -4.0547868821046943e-07   1.4868678550866775e-05
-4.872439463615824e-07   -1.5489763222293132e-08   2.037320847900529e-06
-4.872439463615824e-07   -1.5489763222293132e-08   2.037320847900529e-06
-4.872439463615824e-07   -1.5489763222293132e-08   2.037320847900529e-06
-4.872439463615824e-07   -1.5489763222293132e-08   2.037320847900529e-06
-8.046157216870907e-07   -6.399811477380115e-07   1.4891126047588007e-05
-8.046157216870907e-07   -6.399811477380115e-07   1.4891126047588007e-05
-8.046157216870907e-07   -6.399811477380115e-07   1.4891126047588007e-05
-8.046157216870907e-07   -6.399811477380115e-07   1.4891126047588007e-05
7.014894031526729e-06   -2.710801182940906e-07   1.6372691745652545e-06
7.014894031526729e-06   -2.710801182940906e-07   1.6372691745652545e-06
7.014894031526729e-06   -2.710801182940906e-07   1.6372691745652545e-06
7.014894031526729e-06   -2.710801182940906e-07   1.6372691745652545e-06
3.2155373926618564e-06   -3.425289743134259e-07   8.012399552951628e-06
3.2155373926618564e-06   -3.425289743134259e-07   8.012399552951628e-06
3.2155373926618564e-06   -3.425289743134259e-07   8.012399552951628e-06
3.2155373926618564e-06   -3.425289743134259e-07   8.012399552951628e-06
7.014894031526712e-06   -6.399811477380115e-07   1.4669785429921654e-05
7.014894031526712e-06   -6.399811477380115e-07   1.4669785429921654e-05
7.014894031526712e-06   -6.399811477380115e-07   1.4669785429921654e-05
7.014894031526712e-06   -6.399811477380115e-07   1.4669785429921654e-05
-8.046157216870907e-07   -2.710801182940906e-07   1.8586097922316646e-06
-8.046157216870907e-07   -2.710801182940906e-07   1.8586097922316646e-06
-8.046157216870907e-07   -2.710801182940906e-07   1.8586097922316646e-06
-8.046157216870907e-07   -2.710801182940906e-07   1.8586097922316646e-06
-1.1289347558687105e-06   -8.125512001779401e-07   1.465945187530788e-05
-1.1289347558687105e-06   -8.125512001779401e-07   1.465945187530788e-05
-1.1289347558687105e-06   -8.125512001779401e-07   1.465945187530788e-05
-1.1289347558687105e-06   -8.125512001779401e-07   1.465945187530788e-05
6.6419958874020985e-06   -4.7112186281643084e-07   1.503043200773019e-06
6.6419958874020985e-06   -4.7112186281643084e-07   1.503043200773019e-06
6.6419958874020985e-06   -4.7112186281643084e-07   1.503043200773019e-06
6.6419958874020985e-06   -4.7112186281643084e-07   1.503043200773019e-06
2.858249723412483e-06   -4.995165960897411e-07   7.826323647386922e-06
2.858249723412483e-06   -4.995165960897411e-07   7.826323647386922e-06
2.858249723412483e-06   -4.995165960897411e-07   7.826323647386922e-06
2.858249723412483e-06   -4.995165960897411e-07   7.826323647386922e-06
6.641995887402088e-06   -8.125512001779401e-07   1.4454594272891104e-05
6.641995887402088e-06   -8.125512001779401e-07   1.4454594272891104e-05
6.641995887402088e-06   -8.125512001779401e-07   1.4454594272891104e-05
6.641995887402088e-06   -8.125512001779401e-07   1.4454594272891104e-05
-1.1289347558687105e-06   -4.7112186281643084e-07   1.7079008031898961e-06
-1.1289347558687105e-06   -4.7112186281643084e-07   1.7079008031898961e-06
-1.1289347558687105e-06   -4.7112186281643084e-07   1.7079008031898961e-06
-1.1289347558687105e-06   -4.7112186281643084e-07   1.7079008031898961e-06
-1.4551325551729526e-06   -9.467236406956927e-07   1.475366997514562e-05
-1.4551325551729526e-06   -9.467236406956927e-07   1.475366997514562e-05
-1.4551325551729526e-06   -9.467236406956927e-07   1.475366997514562e-05
-1.4551325551729526e-06   -9.467236406956927e-07   1.475366997514562e-05
6.297194114716591e-06   -6.546218829881368e-07   1.6578644707051142e-06
6.297194114716591e-06   -6.546218829881368e-07   1.6578644707051142e-06
6.297194114716591e-06   -6.546218829881368e-07   1.6578644707051142e-06
6.297194114716591e-06   -6.546218829881368e-07   1.6578644707051142e-06
2.5875331825292902e-06   -6.140229919318358e-07   7.81627335638378e-06
2.5875331825292902e-06   -6.140229919318358e-07   7.81627335638378e-06
2.5875331825292902e-06   -6.140229919318358e-07   7.81627335638378e-06
2.5875331825292902e-06   -6.140229919318358e-07   7.81627335638378e-06
-4.872439463615756e-07   1.300330610459234e-06   1.572335662499097e-05
-4.872439463615756e-07   1.300330610459234e-06   1.572335662499097e-05
-4.872439463615756e-07   1.300330610459234e-06   1.572335662499097e-05
-4.872439463615756e-07   1.300330610459234e-06   1.572335662499097e-05
-8.161791974846874e-06   1.3416284708867411e-06   2.957221960438628e-06
-8.161791974846874e-06   1.3416284708867411e-06   2.957221960438628e-06
-8.161791974846874e-06   1.3416284708867411e-06   2.957221960438628e-06
-8.161791974846874e-06   1.3416284708867411e-06   2.957221960438628e-06
-8.481352667995016e-06   1.1070762591973904e-06   1.5675926202745726e-05
-8.481352667995016e-06   1.1070762591973904e-06   1.5675926202745726e-05
-8.481352667995016e-06   1.1070762591973904e-06   1.5675926202745726e-05
-8.481352667995016e-06   1.1070762591973904e-06   1.5675926202745726e-05
-8.046157216870975e-07   1.1186430194073992e-06   2.87442456943984e-06
-8.046157216870975e-07   1.1186430194073992e-06   2.87442456943984e-06
-8.046157216870975e-07   1.1186430194073992e-06   2.87442456943984e-06
-8.046157216870975e-07   1.1186430194073992e-06   2.87442456943984e-06
-4.495283783909705e-06   1.194693296100043e-06   8.979907840461928e-06
-4.495283783909705e-06   1.194693296100043e-06   8.979907840461928e-06
-4.495283783909705e-06   1.194693296100043e-06   8.979907840461928e-06
-4.495283783909705e-06   1.194693296100043e-06   8.979907840461928e-06
-8.046157216870975e-07   1.1070762591973904e-06   1.56689861466197e-05
-8.046157216870975e-07   1.1070762591973904e-06   1.56689861466197e-05
-8.046157216870975e-07   1.1070762591973904e-06   1.56689861466197e-05
-8.046157216870975e-07   1.1070762591973904e-06   1.56689861466197e-05
-8.481352667995016e-06   1.1186430194073992e-06   2.88136462556584e-06
-8.481352667995016e-06   1.1186430194073992e-06   2.88136462556584e-06
-8.481352667995016e-06   1.1186430194073992e-06   2.88136462556584e-06
-8.481352667995016e-06   1.1186430194073992e-06   2.88136462556584e-06
-8.808632125863617e-06   9.195115234413844e-07   1.575786897641679e-05
-8.808632125863617e-06   9.195115234413844e-07   1.575786897641679e-05
-8.808632125863617e-06   9.195115234413844e-07   1.575786897641679e-05
-8.808632125863617e-06   9.195115234413844e-07   1.575786897641679e-05
-1.1289347558687105e-06   8.992712302282246e-07   2.970517535686568e-06
-1.1289347558687105e-06   8.992712302282246e-07   2.970517535686568e-06
-1.1289347558687105e-06   8.992712302282246e-07   2.970517535686568e-06
-1.1289347558687105e-06   8.992712302282246e-07   2.970517535686568e-06
-4.79154348479035e-06   1.045472807859136e-06   8.987144470644392e-06
-4.79154348479035e-06   1.045472807859136e-06   8.987144470644392e-06
-4.79154348479035e-06   1.045472807859136e-06   8.987144470644392e-06
-4.79154348479035e-06   1.045472807859136e-06   8.987144470644392e-06
-1.1289347558687105e-06   9.195115234413844e-07   1.5770013152344793e-05
-1.1289347558687105e-06   9.195115234413844e-07   1.5770013152344793e-05
-1.1289347558687105e-06   9.195115234413844e-07   1.5770013152344793e-05
-1.1289347558687105e-06   9.195115234413844e-07   1.5770013152344793e-05
-8.808632125863617e-06   8.992712302282246e-07   2.9583733597586992e-06
-8.808632125863617e-06   8.992712302282246e-07   2.9583733597586992e-06
-8.808632125863617e-06   8.992712302282246e-07   2.9583733597586992e-06
-8.808632125863617e-06   8.992712302282246e-07   2.9583733597586992e-06
-9.135542458290011e-06   7.526747480325353e-07   1.5948082955541745e-05
-9.135542458290011e-06   7.526747480325353e-07   1.5948082955541745e-05
-9.135542458290011e-06   7.526747480325353e-07   1.5948082955541745e-05
-9.135542458290011e-06   7.526747480325353e-07   1.5948082955541745e-05
-1.4551325551729526e-06   6.912291008442364e-07   3.1842671719930815e-06
-1.4551325551729526e-06   6.912291008442364e-07   3.1842671719930815e-06
-1.4551325551729526e-06   6.912291008442364e-07   3.1842671719930815e-06
-1.4551325551729526e-06   6.912291008442364e-07   3.1842671719930815e-06
-5.101921363162903e-06   9.00270071966928e-07   9.136823935969652e-06
-5.101921363162903e-06   9.00270071966928e-07   9.136823935969652e-06
-5.101921363162903e-06   9.00270071966928e-07   9.136823935969652e-06
-5.101921363162903e-06   9.00270071966928e-07   9.136823935969652e-06
-8.161791974846847e-06   2.9624401637350127e-06   1.385463527108356e-05
-8.161791974846847e-06   2.9624401637350127e-06   1.385463527108356e-05
-8.161791974846847e-06   2.9624401637350127e-06   1.385463527108356e-05
-8.161791974846847e-06   2.9624401637350127e-06   1.385463527108356e-05
-1.5680431578516982e-05   2.649897890122355e-06   1.1360439007991174e-06
-1.5680431578516982e-05   2.649897890122355e-06   1.1360439007991174e-06
-1.5680431578516982e-05   2.649897890122355e-06   1.1360439007991174e-06
-1.5680431578516982e-05   2.649897890122355e-06   1.1360439007991174e-06
-1.6024692308633226e-05   2.7795698651146864e-06   1.3768879160092323e-05
-1.6024692308633226e-05   2.7795698651146864e-06   1.3768879160092323e-05
-1.6024692308633226e-05   2.7795698651146864e-06   1.3768879160092323e-05
-1.6024692308633226e-05   2.7795698651146864e-06   1.3768879160092323e-05
-8.481352667995016e-06   2.437725701178394e-06   1.4017529240571084e-06
-8.481352667995016e-06   2.437725701178394e-06   1.4017529240571084e-06
-8.481352667995016e-06   2.437725701178394e-06   1.4017529240571084e-06
-8.481352667995016e-06   2.437725701178394e-06   1.4017529240571084e-06
-1.2046759760709803e-05   2.6704238635146807e-06   7.204479181179837e-06
-1.2046759760709803e-05   2.6704238635146807e-06   7.204479181179837e-06
-1.2046759760709803e-05   2.6704238635146807e-06   7.204479181179837e-06
-1.2046759760709803e-05   2.6704238635146807e-06   7.204479181179837e-06
-8.481352667995016e-06   2.7795698651146864e-06   1.3973985658454076e-05
-8.481352667995016e-06   2.7795698651146864e-06   1.3973985658454076e-05
-8.481352667995016e-06   2.7795698651146864e-06   1.3973985658454076e-05
-8.481352667995016e-06   2.7795698651146864e-06   1.3973985658454076e-05
-1.6024692308633226e-05   2.437725701178394e-06   1.196646425695219e-06
-1.6024692308633226e-05   2.437725701178394e-06   1.196646425695219e-06
-1.6024692308633226e-05   2.437725701178394e-06   1.196646425695219e-06
-1.6024692308633226e-05   2.437725701178394e-06   1.196646425695219e-06
-1.6403019208334276e-05   2.609544891327793e-06   1.4286712854812795e-05
-1.6403019208334276e-05   2.609544891327793e-06   1.4286712854812795e-05
-1.6403019208334276e-05   2.609544891327793e-06   1.4286712854812795e-05
-1.6403019208334276e-05   2.609544891327793e-06   1.4286712854812795e-05
-8.80863212586363e-06   2.23874492025634e-06   1.8518810333379256e-06
-8.80863212586363e-06   2.23874492025634e-06   1.8518810333379256e-06
-8.80863212586363e-06   2.23874492025634e-06   1.8518810333379256e-06
-8.80863212586363e-06   2.23874492025634e-06   1.8518810333379256e-06
-1.229112617758047e-05   2.535552929120149e-06   7.4779529808814465e-06
-1.229112617758047e-05   2.535552929120149e-06   7.4779529808814465e-06
-1.229112617758047e-05   2.535552929120149e-06   7.4779529808814465e-06
-1.229112617758047e-05   2.535552929120149e-06   7.4779529808814465e-06
-8.808632125863617e-06   2.609544891327793e-06   1.4509192837455645e-05
-8.808632125863617e-06   2.609544891327793e-06   1.4509192837455645e-05
-8.808632125863617e-06   2.609544891327793e-06   1.4509192837455645e-05
-8.808632125863617e-06   2.609544891327793e-06   1.4509192837455645e-05
-1.6403019208334276e-05   2.23874492025634e-06   1.6294010506950484e-06
-1.6403019208334276e-05   2.23874492025634e-06   1.6294010506950484e-06
-1.6403019208334276e-05   2.23874492025634e-06   1.6294010506950484e-06
-1.6403019208334276e-05   2.23874492025634e-06   1.6294010506950484e-06
-1.6748173934057325e-05   2.4005989154951644e-06   1.4670823435180549e-05
-1.6748173934057325e-05   2.4005989154951644e-06   1.4670823435180549e-05
-1.6748173934057325e-05   2.4005989154951644e-06   1.4670823435180549e-05
-1.6748173934057325e-05   2.4005989154951644e-06   1.4670823435180549e-05
-9.135542458290025e-06   2.005846001401114e-06   2.2199560573580917e-06
-9.135542458290025e-06   2.005846001401114e-06   2.2199560573580917e-06
-9.135542458290025e-06   2.005846001401114e-06   2.2199560573580917e-06
-9.135542458290025e-06   2.005846001401114e-06   2.2199560573580917e-06
-1.2685605275927047e-05   2.381992529201164e-06   7.911039503407204e-06
-1.2685605275927047e-05   2.381992529201164e-06   7.911039503407204e-06
-1.2685605275927047e-05   2.381992529201164e-06   7.911039503407204e-06
-1.2685605275927047e-05   2.381992529201164e-06   7.911039503407204e-06
-1.5680431578516982e-05   4.281575570489675e-06   6.721622451021938e-06
-1.5680431578516982e-05   4.281575570489675e-06   6.721622451021938e-06
-1.5680431578516982e-05   4.281575570489675e-06   6.721622451021938e-06
-1.5680431578516982e-05   4.281575570489675e-06   6.721622451021938e-06
-2.2851404665735954e-05   3.668880627497647e-06   -5.597616326804785e-06
-2.2851404665735954e-05   3.668880627497647e-06   -5.597616326804785e-06
-2.2851404665735954e-05   3.668880627497647e-06   -5.597616326804785e-06
-2.2851404665735954e-05   3.668880627497647e-06   -5.597616326804785e-06
-2.3471639443570366e-05   4.332255303128693e-06   8.968659282614544e-06
-2.3471639443570366e-05   4.332255303128693e-06   8.968659282614544e-06
-2.3471639443570366e-05   4.332255303128693e-06   8.968659282614544e-06
-2.3471639443570366e-05   4.332255303128693e-06   8.968659282614544e-06
-1.6024692308633226e-05   3.655501347790951e-06   -3.0368669024113904e-06
-1.6024692308633226e-05   3.655501347790951e-06   -3.0368669024113904e-06
-1.6024692308633226e-05   3.655501347790951e-06   -3.0368669024113904e-06
-1.6024692308633226e-05   3.655501347790951e-06   -3.0368669024113904e-06
-1.876415714452773e-05   3.924228445036418e-06   1.3676715657321716e-06
-1.876415714452773e-05   3.924228445036418e-06   1.3676715657321716e-06
-1.876415714452773e-05   3.924228445036418e-06   1.3676715657321716e-06
-1.876415714452773e-05   3.924228445036418e-06   1.3676715657321716e-06
-1.6024692308633213e-05   4.332255303128693e-06   9.37471165581732e-06
-1.6024692308633213e-05   4.332255303128693e-06   9.37471165581732e-06
-1.6024692308633213e-05   4.332255303128693e-06   9.37471165581732e-06
-1.6024692308633213e-05   4.332255303128693e-06   9.37471165581732e-06
-2.347163944357042e-05   3.655501347790951e-06   -3.4429192756140576e-06
-2.347163944357042e-05   3.655501347790951e-06   -3.4429192756140576e-06
-2.347163944357042e-05   3.655501347790951e-06   -3.4429192756140576e-06
-2.347163944357042e-05   3.655501347790951e-06   -3.4429192756140576e-06
-2.4025540135480587e-05   4.286050138959437e-06   1.0770328615641433e-05
-2.4025540135480587e-05   4.286050138959437e-06   1.0770328615641433e-05
-2.4025540135480587e-05   4.286050138959437e-06   1.0770328615641433e-05
-2.4025540135480587e-05   4.286050138959437e-06   1.0770328615641433e-05
-1.6403019208334276e-05   3.5826601337893412e-06   -1.5118389265005266e-06
-1.6403019208334276e-05   3.5826601337893412e-06   -1.5118389265005266e-06
-1.6403019208334276e-05   3.5826601337893412e-06   -1.5118389265005266e-06
-1.6403019208334276e-05   3.5826601337893412e-06   -1.5118389265005266e-06
-1.9484111281010995e-05   3.969375351326127e-06   3.3912853974394546e-06
-1.9484111281010995e-05   3.969375351326127e-06   3.3912853974394546e-06
-1.9484111281010995e-05   3.969375351326127e-06   3.3912853974394546e-06
-1.9484111281010995e-05   3.969375351326127e-06   3.3912853974394546e-06
-1.6403019208334276e-05   4.286050138959546e-06   1.1192362618743555e-05
-1.6403019208334276e-05   4.286050138959546e-06   1.1192362618743555e-05
-1.6403019208334276e-05   4.286050138959546e-06   1.1192362618743555e-05
-1.6403019208334276e-05   4.286050138959546e-06   1.1192362618743555e-05
-2.4025540135480614e-05   3.5826601337893412e-06   -1.9338729296024867e-06
-2.4025540135480614e-05   3.5826601337893412e-06   -1.9338729296024867e-06
-2.4025540135480614e-05   3.5826601337893412e-06   -1.9338729296024867e-06
-2.4025540135480614e-05   3.5826601337893412e-06   -1.9338729296024867e-06
-2.466063152298599e-05   3.959313658523193e-06   1.386348079903039e-05
-2.466063152298599e-05   3.959313658523193e-06   1.386348079903039e-05
-2.466063152298599e-05   3.959313658523193e-06   1.386348079903039e-05
-2.466063152298599e-05   3.959313658523193e-06   1.386348079903039e-05
-1.6748173934057325e-05   3.257378590726368e-06   1.097212524827306e-06
-1.6748173934057325e-05   3.257378590726368e-06   1.097212524827306e-06
-1.6748173934057325e-05   3.257378590726368e-06   1.097212524827306e-06
-1.6748173934057325e-05   3.257378590726368e-06   1.097212524827306e-06
-1.962657701944759e-05   3.834034976168098e-06   5.548557169213078e-06
-1.962657701944759e-05   3.834034976168098e-06   5.548557169213078e-06
-1.962657701944759e-05   3.834034976168098e-06   5.548557169213078e-06
-1.962657701944759e-05   3.834034976168098e-06   5.548557169213078e-06
1.089699485230251e-05   -1.4097253803187042e-06   1.0799861460328178e-05
1.089699485230251e-05   -1.4097253803187042e-06   1.0799861460328178e-05
1.089699485230251e-05   -1.4097253803187042e-06   1.0799861460328178e-05
1.089699485230251e-05   -1.4097253803187042e-06   1.0799861460328178e-05
4.52917303169116e-06   -7.103119655764304e-07   6.064731414878494e-07
4.52917303169116e-06   -7.103119655764304e-07   6.064731414878494e-07
4.52917303169116e-06   -7.103119655764304e-07   6.064731414878494e-07
4.52917303169116e-06   -7.103119655764304e-07   6.064731414878494e-07
4.256539559858091e-06   -1.7052874789162805e-06   9.696035673455194e-06
4.256539559858091e-06   -1.7052874789162805e-06   9.696035673455194e-06
4.256539559858091e-06   -1.7052874789162805e-06   9.696035673455194e-06
4.256539559858091e-06   -1.7052874789162805e-06   9.696035673455194e-06
1.0314695379385746e-05   -9.765732409503392e-07   -8.381192352037903e-07
1.0314695379385746e-05   -9.765732409503392e-07   -8.381192352037903e-07
1.0314695379385746e-05   -9.765732409503392e-07   -8.381192352037903e-07
1.0314695379385746e-05   -9.765732409503392e-07   -8.381192352037903e-07
7.12706324118314e-06   -1.2281835717412861e-06   4.625567193608689e-06
7.12706324118314e-06   -1.2281835717412861e-06   4.625567193608689e-06
7.12706324118314e-06   -1.2281835717412861e-06   4.625567193608689e-06
7.12706324118314e-06   -1.2281835717412861e-06   4.625567193608689e-06
1.0314695379385763e-05   -1.7052874789161721e-06   9.258807130675607e-06
1.0314695379385763e-05   -1.7052874789161721e-06   9.258807130675607e-06
1.0314695379385763e-05   -1.7052874789161721e-06   9.258807130675607e-06
1.0314695379385763e-05   -1.7052874789161721e-06   9.258807130675607e-06
4.256539559858077e-06   -9.765732409503392e-07   -4.008906924242309e-07
4.256539559858077e-06   -9.765732409503392e-07   -4.008906924242309e-07
4.256539559858077e-06   -9.765732409503392e-07   -4.008906924242309e-07
4.256539559858077e-06   -9.765732409503392e-07   -4.008906924242309e-07
3.9493652111182856e-06   -1.7833920719357828e-06   8.878199890764347e-06
3.9493652111182856e-06   -1.7833920719357828e-06   8.878199890764347e-06
3.9493652111182856e-06   -1.7833920719357828e-06   8.878199890764347e-06
3.9493652111182856e-06   -1.7833920719357828e-06   8.878199890764347e-06
9.813839048374371e-06   -1.0672231855635584e-06   -1.3256245031524432e-06
9.813839048374371e-06   -1.0672231855635584e-06   -1.3256245031524432e-06
9.813839048374371e-06   -1.0672231855635584e-06   -1.3256245031524432e-06
9.813839048374371e-06   -1.0672231855635584e-06   -1.3256245031524432e-06
6.87281900248972e-06   -1.3414811065675346e-06   3.7406303259245102e-06
6.87281900248972e-06   -1.3414811065675346e-06   3.7406303259245102e-06
6.87281900248972e-06   -1.3414811065675346e-06   3.7406303259245102e-06
6.87281900248972e-06   -1.3414811065675346e-06   3.7406303259245102e-06
9.813839048374388e-06   -1.7833920719357828e-06   8.448498558941023e-06
9.813839048374388e-06   -1.7833920719357828e-06   8.448498558941023e-06
9.813839048374388e-06   -1.7833920719357828e-06   8.448498558941023e-06
9.813839048374388e-06   -1.7833920719357828e-06   8.448498558941023e-06
3.949365211118279e-06   -1.0672231855635584e-06   -8.959231713291465e-07
3.949365211118279e-06   -1.0672231855635584e-06   -8.959231713291465e-07
3.949365211118279e-06   -1.0672231855635584e-06   -8.959231713291465e-07
3.949365211118279e-06   -1.0672231855635584e-06   -8.959231713291465e-07
3.6736061278679154e-06   -1.8524210734316513e-06   7.808762546393424e-06
3.6736061278679154e-06   -1.8524210734316513e-06   7.808762546393424e-06
3.6736061278679154e-06   -1.8524210734316513e-06   7.808762546393424e-06
3.6736061278679154e-06   -1.8524210734316513e-06   7.808762546393424e-06
9.244075892114064e-06   -1.183808890748957e-06   -1.8765210369596987e-06
9.244075892114064e-06   -1.183808890748957e-06   -1.8765210369596987e-06
9.244075892114064e-06   -1.183808890748957e-06   -1.8765210369596987e-06
9.244075892114064e-06   -1.183808890748957e-06   -1.8765210369596987e-06
6.38748135938742e-06   -1.3614609477685235e-06   2.9910610851297293e-06
6.38748135938742e-06   -1.3614609477685235e-06   2.9910610851297293e-06
6.38748135938742e-06   -1.3614609477685235e-06   2.9910610851297293e-06
6.38748135938742e-06   -1.3614609477685235e-06   2.9910610851297293e-06
4.529173031691175e-06   -1.5489763222293132e-08   1.325298104154325e-05
4.529173031691175e-06   -1.5489763222293132e-08   1.325298104154325e-05
4.529173031691175e-06   -1.5489763222293132e-08   1.325298104154325e-05
4.529173031691175e-06   -1.5489763222293132e-08   1.325298104154325e-05
-1.4373382444596424e-06   3.423627498151758e-07   3.5235070891143105e-06
-1.4373382444596424e-06   3.423627498151758e-07   3.5235070891143105e-06
-1.4373382444596424e-06   3.423627498151758e-07   3.5235070891143105e-06
-1.4373382444596424e-06   3.423627498151758e-07   3.5235070891143105e-06
-1.6882729762041966e-06   -2.710801182940906e-07   1.3274969250249636e-05
-1.6882729762041966e-06   -2.710801182940906e-07   1.3274969250249636e-05
-1.6882729762041966e-06   -2.710801182940906e-07   1.3274969250249636e-05
-1.6882729762041966e-06   -2.710801182940906e-07   1.3274969250249636e-05
4.256539559858077e-06   7.459931698902082e-08   3.1595406956426523e-06
4.256539559858077e-06   7.459931698902082e-08   3.1595406956426523e-06
4.256539559858077e-06   7.459931698902082e-08   3.1595406956426523e-06
4.256539559858077e-06   7.459931698902082e-08   3.1595406956426523e-06
1.37216237782277e-06   9.17092738837895e-09   8.006093032795454e-06
1.37216237782277e-06   9.17092738837895e-09   8.006093032795454e-06
1.37216237782277e-06   9.17092738837895e-09   8.006093032795454e-06
1.37216237782277e-06   9.17092738837895e-09   8.006093032795454e-06
4.2565395598580874e-06   -2.71080118294199e-07   1.306756158907978e-05
4.2565395598580874e-06   -2.71080118294199e-07   1.306756158907978e-05
4.2565395598580874e-06   -2.71080118294199e-07   1.306756158907978e-05
4.2565395598580874e-06   -2.71080118294199e-07   1.306756158907978e-05
-1.6882729762041966e-06   7.45993169889124e-08   3.366948356812549e-06
-1.6882729762041966e-06   7.45993169889124e-08   3.366948356812549e-06
-1.6882729762041966e-06   7.45993169889124e-08   3.366948356812549e-06
-1.6882729762041966e-06   7.45993169889124e-08   3.366948356812549e-06
-1.94505277856486e-06   -4.7112186281643084e-07   1.3109073772546638e-05
-1.94505277856486e-06   -4.7112186281643084e-07   1.3109073772546638e-05
-1.94505277856486e-06   -4.7112186281643084e-07   1.3109073772546638e-05
-1.94505277856486e-06   -4.7112186281643084e-07   1.3109073772546638e-05
3.949365211118279e-06   -1.4315821542738773e-07   3.0882656013079843e-06
3.949365211118279e-06   -1.4315821542738773e-07   3.0882656013079843e-06
3.949365211118279e-06   -1.4315821542738773e-07   3.0882656013079843e-06
3.949365211118279e-06   -1.4315821542738773e-07   3.0882656013079843e-06
1.0953030312015964e-06   -1.6861761698515852e-07   7.860311542104271e-06
1.0953030312015964e-06   -1.6861761698515852e-07   7.860311542104271e-06
1.0953030312015964e-06   -1.6861761698515852e-07   7.860311542104271e-06
1.0953030312015964e-06   -1.6861761698515852e-07   7.860311542104271e-06
3.949365211118292e-06   -4.7112186281643084e-07   1.291229558411319e-05
3.949365211118292e-06   -4.7112186281643084e-07   1.291229558411319e-05
3.949365211118292e-06   -4.7112186281643084e-07   1.291229558411319e-05
3.949365211118292e-06   -4.7112186281643084e-07   1.291229558411319e-05
-1.9450527785648734e-06   -1.4315821542727931e-07   3.285043789741425e-06
-1.9450527785648734e-06   -1.4315821542727931e-07   3.285043789741425e-06
-1.9450527785648734e-06   -1.4315821542727931e-07   3.285043789741425e-06
-1.9450527785648734e-06   -1.4315821542727931e-07   3.285043789741425e-06
-2.199840450734395e-06   -6.546218829881368e-07   1.3220821611929464e-05
-2.199840450734395e-06   -6.546218829881368e-07   1.3220821611929464e-05
-2.199840450734395e-06   -6.546218829881368e-07   1.3220821611929464e-05
-2.199840450734395e-06   -6.546218829881368e-07   1.3220821611929464e-05
3.6736061278679e-06   -3.5604255067107037e-07   3.2525963815354395e-06
3.6736061278679e-06   -3.5604255067107037e-07   3.2525963815354395e-06
3.6736061278679e-06   -3.5604255067107037e-07   3.2525963815354395e-06
3.6736061278679e-06   -3.5604255067107037e-07   3.2525963815354395e-06
8.781658832972954e-07   -3.1522102501466923e-07   7.887170540425858e-06
8.781658832972954e-07   -3.1522102501466923e-07   7.887170540425858e-06
8.781658832972954e-07   -3.1522102501466923e-07   7.887170540425858e-06
8.781658832972954e-07   -3.1522102501466923e-07   7.887170540425858e-06
-1.4373382444596357e-06   1.3416284708867411e-06   1.4362814945647229e-05
-1.4373382444596357e-06   1.3416284708867411e-06   1.4362814945647229e-05
-1.4373382444596357e-06   1.3416284708867411e-06   1.4362814945647229e-05
-1.4373382444596357e-06   1.3416284708867411e-06   1.4362814945647229e-05
-7.3021733636750245e-06   1.3248599548050955e-06   4.578028637305942e-06
-7.3021733636750245e-06   1.3248599548050955e-06   4.578028637305942e-06
-7.3021733636750245e-06   1.3248599548050955e-06   4.578028637305942e-06
-7.3021733636750245e-06   1.3248599548050955e-06   4.578028637305942e-06
-7.5502146571943435e-06   1.1186430194073992e-06   1.4269423636590348e-05
-7.5502146571943435e-06   1.1186430194073992e-06   1.4269423636590348e-05
-7.5502146571943435e-06   1.1186430194073992e-06   1.4269423636590348e-05
-7.5502146571943435e-06   1.1186430194073992e-06   1.4269423636590348e-05
-1.6882729762041898e-06   1.0830423679617082e-06   4.520881225807634e-06
-1.6882729762041898e-06   1.0830423679617082e-06   4.520881225807634e-06
-1.6882729762041898e-06   1.0830423679617082e-06   4.520881225807634e-06
-1.6882729762041898e-06   1.0830423679617082e-06   4.520881225807634e-06
-4.505856386469719e-06   1.1858650310520068e-06   9.155159978396202e-06
-4.505856386469719e-06   1.1858650310520068e-06   9.155159978396202e-06
-4.505856386469719e-06   1.1858650310520068e-06   9.155159978396202e-06
-4.505856386469719e-06   1.1858650310520068e-06   9.155159978396202e-06
-1.6882729762041966e-06   1.1186430194075076e-06   1.4290784027457893e-05
-1.6882729762041966e-06   1.1186430194075076e-06   1.4290784027457893e-05
-1.6882729762041966e-06   1.1186430194075076e-06   1.4290784027457893e-05
-1.6882729762041966e-06   1.1186430194075076e-06   1.4290784027457893e-05
-7.5502146571943435e-06   1.0830423679617082e-06   4.499520834940157e-06
-7.5502146571943435e-06   1.0830423679617082e-06   4.499520834940157e-06
-7.5502146571943435e-06   1.0830423679617082e-06   4.499520834940157e-06
-7.5502146571943435e-06   1.0830423679617082e-06   4.499520834940157e-06
-7.804030401987522e-06   8.992712302282246e-07   1.4338555384226155e-05
-7.804030401987522e-06   8.992712302282246e-07   1.4338555384226155e-05
-7.804030401987522e-06   8.992712302282246e-07   1.4338555384226155e-05
-7.804030401987522e-06   8.992712302282246e-07   1.4338555384226155e-05
-1.945052778564853e-06   8.440460288663271e-07   4.606727799338919e-06
-1.945052778564853e-06   8.440460288663271e-07   4.606727799338919e-06
-1.945052778564853e-06   8.440460288663271e-07   4.606727799338919e-06
-1.945052778564853e-06   8.440460288663271e-07   4.606727799338919e-06
-4.7325514619543395e-06   1.0109881800653012e-06   9.152393647602155e-06
-4.7325514619543395e-06   1.0109881800653012e-06   9.152393647602155e-06
-4.7325514619543395e-06   1.0109881800653012e-06   9.152393647602155e-06
-4.7325514619543395e-06   1.0109881800653012e-06   9.152393647602155e-06
-1.9450527785648666e-06   8.992712302282246e-07   1.4371690505043336e-05
-1.9450527785648666e-06   8.992712302282246e-07   1.4371690505043336e-05
-1.9450527785648666e-06   8.992712302282246e-07   1.4371690505043336e-05
-1.9450527785648666e-06   8.992712302282246e-07   1.4371690505043336e-05
-7.804030401987522e-06   8.440460288663271e-07   4.573592678521724e-06
-7.804030401987522e-06   8.440460288663271e-07   4.573592678521724e-06
-7.804030401987522e-06   8.440460288663271e-07   4.573592678521724e-06
-7.804030401987522e-06   8.440460288663271e-07   4.573592678521724e-06
-8.054700573789439e-06   6.912291008442364e-07   1.4525729276467598e-05
-8.054700573789439e-06   6.912291008442364e-07   1.4525729276467598e-05
-8.054700573789439e-06   6.912291008442364e-07   1.4525729276467598e-05
-8.054700573789439e-06   6.912291008442364e-07   1.4525729276467598e-05
-2.1998404507343882e-06   6.141724639686886e-07   4.81386305350122e-06
-2.1998404507343882e-06   6.141724639686886e-07   4.81386305350122e-06
-2.1998404507343882e-06   6.141724639686886e-07   4.81386305350122e-06
-2.1998404507343882e-06   6.141724639686886e-07   4.81386305350122e-06
-4.969915698821754e-06   8.403908712914954e-07   9.294924089253099e-06
-4.969915698821754e-06   8.403908712914954e-07   9.294924089253099e-06
-4.969915698821754e-06   8.403908712914954e-07   9.294924089253099e-06
-4.969915698821754e-06   8.403908712914954e-07   9.294924089253099e-06
-7.3021733636750245e-06   2.649897890122355e-06   1.2719101140526358e-05
-7.3021733636750245e-06   2.649897890122355e-06   1.2719101140526358e-05
-7.3021733636750245e-06   2.649897890122355e-06   1.2719101140526358e-05
-7.3021733636750245e-06   2.649897890122355e-06   1.2719101140526358e-05
-1.3078366577042564e-05   2.281819720897308e-06   2.871265550045488e-06
-1.3078366577042564e-05   2.281819720897308e-06   2.871265550045488e-06
-1.3078366577042564e-05   2.281819720897308e-06   2.871265550045488e-06
-1.3078366577042564e-05   2.281819720897308e-06   2.871265550045488e-06
-1.3344996238328052e-05   2.437725701178394e-06   1.255515676983792e-05
-1.3344996238328052e-05   2.437725701178394e-06   1.255515676983792e-05
-1.3344996238328052e-05   2.437725701178394e-06   1.255515676983792e-05
-1.3344996238328052e-05   2.437725701178394e-06   1.255515676983792e-05
-7.550214657194316e-06   2.0466337591056472e-06   3.1318426331920573e-06
-7.550214657194316e-06   2.0466337591056472e-06   3.1318426331920573e-06
-7.550214657194316e-06   2.0466337591056472e-06   3.1318426331920573e-06
-7.550214657194316e-06   2.0466337591056472e-06   3.1318426331920573e-06
-1.0289452438455328e-05   2.3123793685597607e-06   7.537791569621542e-06
-1.0289452438455328e-05   2.3123793685597607e-06   7.537791569621542e-06
-1.0289452438455328e-05   2.3123793685597607e-06   7.537791569621542e-06
-1.0289452438455328e-05   2.3123793685597607e-06   7.537791569621542e-06
-7.5502146571943435e-06   2.4377257011782855e-06   1.278981193508159e-05
-7.5502146571943435e-06   2.4377257011782855e-06   1.278981193508159e-05
-7.5502146571943435e-06   2.4377257011782855e-06   1.278981193508159e-05
-7.5502146571943435e-06   2.4377257011782855e-06   1.278981193508159e-05
-1.3344996238328025e-05   2.0466337591057556e-06   2.897187467948523e-06
-1.3344996238328025e-05   2.0466337591057556e-06   2.897187467948523e-06
-1.3344996238328025e-05   2.0466337591057556e-06   2.897187467948523e-06
-1.3344996238328025e-05   2.0466337591057556e-06   2.897187467948523e-06
-1.3644551777735624e-05   2.23874492025634e-06   1.2985562254416824e-05
-1.3644551777735624e-05   2.23874492025634e-06   1.2985562254416824e-05
-1.3644551777735624e-05   2.23874492025634e-06   1.2985562254416824e-05
-1.3644551777735624e-05   2.23874492025634e-06   1.2985562254416824e-05
-7.804030401987495e-06   1.8279102479420517e-06   3.4978607648918287e-06
-7.804030401987495e-06   1.8279102479420517e-06   3.4978607648918287e-06
-7.804030401987495e-06   1.8279102479420517e-06   3.4978607648918287e-06
-7.804030401987495e-06   1.8279102479420517e-06   3.4978607648918287e-06
-1.0471847177797032e-05   2.1526493555305577e-06   7.749378593354972e-06
-1.0471847177797032e-05   2.1526493555305577e-06   7.749378593354972e-06
-1.0471847177797032e-05   2.1526493555305577e-06   7.749378593354972e-06
-1.0471847177797032e-05   2.1526493555305577e-06   7.749378593354972e-06
-7.804030401987509e-06   2.23874492025634e-06   1.32320630578053e-05
-7.804030401987509e-06   2.23874492025634e-06   1.32320630578053e-05
-7.804030401987509e-06   2.23874492025634e-06   1.32320630578053e-05
-7.804030401987509e-06   2.23874492025634e-06   1.32320630578053e-05
-1.364455177773561e-05   1.8279102479420517e-06   3.2513599615034347e-06
-1.364455177773561e-05   1.8279102479420517e-06   3.2513599615034347e-06
-1.364455177773561e-05   1.8279102479420517e-06   3.2513599615034347e-06
-1.364455177773561e-05   1.8279102479420517e-06   3.2513599615034347e-06
-1.391005927465854e-05   2.005846001401114e-06   1.334416650368897e-05
-1.391005927465854e-05   2.005846001401114e-06   1.334416650368897e-05
-1.391005927465854e-05   2.005846001401114e-06   1.334416650368897e-05
-1.391005927465854e-05   2.005846001401114e-06   1.334416650368897e-05
-8.054700573789411e-06   1.582314257306673e-06   3.8393543820305855e-06
-8.054700573789411e-06   1.582314257306673e-06   3.8393543820305855e-06
-8.054700573789411e-06   1.582314257306673e-06   3.8393543820305855e-06
-8.054700573789411e-06   1.582314257306673e-06   3.8393543820305855e-06
-1.0773369280937928e-05   1.983282895217666e-06   8.129887711198362e-06
-1.0773369280937928e-05   1.983282895217666e-06   8.129887711198362e-06
-1.0773369280937928e-05   1.983282895217666e-06   8.129887711198362e-06
-1.0773369280937928e-05   1.983282895217666e-06   8.129887711198362e-06
-1.3078366577042564e-05   3.6688806274977554e-06   6.1322109771825574e-06
-1.3078366577042564e-05   3.6688806274977554e-06   6.1322109771825574e-06
-1.3078366577042564e-05   3.6688806274977554e-06   6.1322109771825574e-06
-1.3078366577042564e-05   3.6688806274977554e-06   6.1322109771825574e-06
-1.8523798692438303e-05   3.009223403528747e-06   -3.339303549525078e-06
-1.8523798692438303e-05   3.009223403528747e-06   -3.339303549525078e-06
-1.8523798692438303e-05   3.009223403528747e-06   -3.339303549525078e-06
-1.8523798692438303e-05   3.009223403528747e-06   -3.339303549525078e-06
-1.9083406167450808e-05   3.655501347790951e-06   7.890298204347914e-06
-1.9083406167450808e-05   3.655501347790951e-06   7.890298204347914e-06
-1.9083406167450808e-05   3.655501347790951e-06   7.890298204347914e-06
-1.9083406167450808e-05   3.655501347790951e-06   7.890298204347914e-06
-1.3344996238328011e-05   2.936592618818642e-06   -1.2423731068065852e-06
-1.3344996238328011e-05   2.936592618818642e-06   -1.2423731068065852e-06
-1.3344996238328011e-05   2.936592618818642e-06   -1.2423731068065852e-06
-1.3344996238328011e-05   2.936592618818642e-06   -1.2423731068065852e-06
-1.5406995029589852e-05   3.2553432806803253e-06   2.0030411481797945e-06
-1.5406995029589852e-05   3.2553432806803253e-06   2.0030411481797945e-06
-1.5406995029589852e-05   3.2553432806803253e-06   2.0030411481797945e-06
-1.5406995029589852e-05   3.2553432806803253e-06   2.0030411481797945e-06
-1.3344996238328038e-05   3.655501347790951e-06   8.321643441731364e-06
-1.3344996238328038e-05   3.655501347790951e-06   8.321643441731364e-06
-1.3344996238328038e-05   3.655501347790951e-06   8.321643441731364e-06
-1.3344996238328038e-05   3.655501347790951e-06   8.321643441731364e-06
-1.9083406167450835e-05   2.936592618818642e-06   -1.6737183441900083e-06
-1.9083406167450835e-05   2.936592618818642e-06   -1.6737183441900083e-06
-1.9083406167450835e-05   2.936592618818642e-06   -1.6737183441900083e-06
-1.9083406167450835e-05   2.936592618818642e-06   -1.6737183441900083e-06
-1.957024175781123e-05   3.5826601337894497e-06   9.400899503323942e-06
-1.957024175781123e-05   3.5826601337894497e-06   9.400899503323942e-06
-1.957024175781123e-05   3.5826601337894497e-06   9.400899503323942e-06
-1.957024175781123e-05   3.5826601337894497e-06   9.400899503323942e-06
-1.3644551777735583e-05   2.843622177293721e-06   -3.1827689571368e-08
-1.3644551777735583e-05   2.843622177293721e-06   -3.1827689571368e-08
-1.3644551777735583e-05   2.843622177293721e-06   -3.1827689571368e-08
-1.3644551777735583e-05   2.843622177293721e-06   -3.1827689571368e-08
-1.6004400953128302e-05   3.2595217783919e-06   3.6517145087581722e-06
-1.6004400953128302e-05   3.2595217783919e-06   3.6517145087581722e-06
-1.6004400953128302e-05   3.2595217783919e-06   3.6517145087581722e-06
-1.6004400953128302e-05   3.2595217783919e-06   3.6517145087581722e-06
-1.3644551777735624e-05   3.5826601337893412e-06   9.844322277221304e-06
-1.3644551777735624e-05   3.5826601337893412e-06   9.844322277221304e-06
-1.3644551777735624e-05   3.5826601337893412e-06   9.844322277221304e-06
-1.3644551777735624e-05   3.5826601337893412e-06   9.844322277221304e-06
-1.957024175781123e-05   2.843622177293721e-06   -4.752504634687835e-07
-1.957024175781123e-05   2.843622177293721e-06   -4.752504634687835e-07
-1.957024175781123e-05   2.843622177293721e-06   -4.752504634687835e-07
-1.957024175781123e-05   2.843622177293721e-06   -4.752504634687835e-07
-2.0133738283296292e-05   3.2573785907262596e-06   1.2020868595127203e-05
-2.0133738283296292e-05   3.2573785907262596e-06   1.2020868595127203e-05
-2.0133738283296292e-05   3.2573785907262596e-06   1.2020868595127203e-05
-2.0133738283296292e-05   3.2573785907262596e-06   1.2020868595127203e-05
-1.3910059274658499e-05   2.528368383247423e-06   2.085476371884923e-06
-1.3910059274658499e-05   2.528368383247423e-06   2.085476371884923e-06
-1.3910059274658499e-05   2.528368383247423e-06   2.085476371884923e-06
-1.3910059274658499e-05   2.528368383247423e-06   2.085476371884923e-06
-1.6128865015194597e-05   3.121919029064465e-06   5.4273555519547e-06
-1.6128865015194597e-05   3.121919029064465e-06   5.4273555519547e-06
-1.6128865015194597e-05   3.121919029064465e-06   5.4273555519547e-06
-1.6128865015194597e-05   3.121919029064465e-06   5.4273555519547e-06
6.180734356136246e-06   -7.103119655764304e-07   8.570806575992581e-06
6.180734356136246e-06   -7.103119655764304e-07   8.570806575992581e-06
6.180734356136246e-06   -7.103119655764304e-07   8.570806575992581e-06
6.180734356136246e-06   -7.103119655764304e-07   8.570806575992581e-06
1.6662918264943075e-06   -1.2415076545697727e-08   1.46547382667443e-06
1.6662918264943075e-06   -1.2415076545697727e-08   1.46547382667443e-06
1.6662918264943075e-06   -1.2415076545697727e-08   1.46547382667443e-06
1.6662918264943075e-06   -1.2415076545697727e-08   1.46547382667443e-06
1.4602993833127942e-06   -9.765732409503392e-07   7.97386597317602e-06
1.4602993833127942e-06   -9.765732409503392e-07   7.97386597317602e-06
1.4602993833127942e-06   -9.765732409503392e-07   7.97386597317602e-06
1.4602993833127942e-06   -9.765732409503392e-07   7.97386597317602e-06
5.670080759363628e-06   -2.522503281091092e-07   5.229699320533746e-07
5.670080759363628e-06   -2.522503281091092e-07   5.229699320533746e-07
5.670080759363628e-06   -2.522503281091092e-07   5.229699320533746e-07
5.670080759363628e-06   -2.522503281091092e-07   5.229699320533746e-07
3.5256459053691985e-06   -5.218070935118866e-07   4.258762081285947e-06
3.5256459053691985e-06   -5.218070935118866e-07   4.258762081285947e-06
3.5256459053691985e-06   -5.218070935118866e-07   4.258762081285947e-06
3.5256459053691985e-06   -5.218070935118866e-07   4.258762081285947e-06
5.670080759363638e-06   -9.765732409503392e-07   7.539272225471423e-06
5.670080759363638e-06   -9.765732409503392e-07   7.539272225471423e-06
5.670080759363638e-06   -9.765732409503392e-07   7.539272225471423e-06
5.670080759363638e-06   -9.765732409503392e-07   7.539272225471423e-06
1.4602993833127908e-06   -2.522503281091092e-07   9.575636797580869e-07
1.4602993833127908e-06   -2.522503281091092e-07   9.575636797580869e-07
1.4602993833127908e-06   -2.522503281091092e-07   9.575636797580869e-07
1.4602993833127908e-06   -2.522503281091092e-07   9.575636797580869e-07
1.2193314141391583e-06   -1.0672231855635584e-06   7.472351257864116e-06
1.2193314141391583e-06   -1.0672231855635584e-06   7.472351257864116e-06
1.2193314141391583e-06   -1.0672231855635584e-06   7.472351257864116e-06
1.2193314141391583e-06   -1.0672231855635584e-06   7.472351257864116e-06
5.236679386035082e-06   -3.5422579839445786e-07   3.489728724027593e-07
5.236679386035082e-06   -3.5422579839445786e-07   3.489728724027593e-07
5.236679386035082e-06   -3.5422579839445786e-07   3.489728724027593e-07
5.236679386035082e-06   -3.5422579839445786e-07   3.489728724027593e-07
3.282335785124881e-06   -6.266370706339754e-07   3.7696589705967217e-06
3.282335785124881e-06   -6.266370706339754e-07   3.7696589705967217e-06
3.282335785124881e-06   -6.266370706339754e-07   3.7696589705967217e-06
3.282335785124881e-06   -6.266370706339754e-07   3.7696589705967217e-06
5.2366793860350855e-06   -1.0672231855636668e-06   7.044552825562558e-06
5.2366793860350855e-06   -1.0672231855636668e-06   7.044552825562558e-06
5.2366793860350855e-06   -1.0672231855636668e-06   7.044552825562558e-06
5.2366793860350855e-06   -1.0672231855636668e-06   7.044552825562558e-06
1.2193314141391533e-06   -3.5422579839445786e-07   7.76771304704263e-07
1.2193314141391533e-06   -3.5422579839445786e-07   7.76771304704263e-07
1.2193314141391533e-06   -3.5422579839445786e-07   7.76771304704263e-07
1.2193314141391533e-06   -3.5422579839445786e-07   7.76771304704263e-07
1.0100841682937256e-06   -1.1838088907490654e-06   6.8839878461153005e-06
1.0100841682937256e-06   -1.1838088907490654e-06   6.8839878461153005e-06
1.0100841682937256e-06   -1.1838088907490654e-06   6.8839878461153005e-06
1.0100841682937256e-06   -1.1838088907490654e-06   6.8839878461153005e-06
4.727679189100076e-06   -5.21379688289453e-07   2.905386232957509e-07
4.727679189100076e-06   -5.21379688289453e-07   2.905386232957509e-07
4.727679189100076e-06   -5.21379688289453e-07   2.905386232957509e-07
4.727679189100076e-06   -5.21379688289453e-07   2.905386232957509e-07
2.914142584935643e-06   -6.781002092821117e-07   3.4071319428322124e-06
2.914142584935643e-06   -6.781002092821117e-07   3.4071319428322124e-06
2.914142584935643e-06   -6.781002092821117e-07   3.4071319428322124e-06
2.914142584935643e-06   -6.781002092821117e-07   3.4071319428322124e-06
1.6662918264943109e-06   3.423627498151758e-07   1.1691867149215098e-05
1.6662918264943109e-06   3.423627498151758e-07   1.1691867149215098e-05
1.6662918264943109e-06   3.423627498151758e-07   1.1691867149215098e-05
1.6662918264943109e-06   3.423627498151758e-07   1.1691867149215098e-05
-2.4381146346653867e-06   6.613034742677416e-07   5.042554148620407e-06
-2.4381146346653867e-06   6.613034742677416e-07   5.042554148620407e-06
-2.4381146346653867e-06   6.613034742677416e-07   5.042554148620407e-06
-2.4381146346653867e-06   6.613034742677416e-07   5.042554148620407e-06
-2.619565226975267e-06   7.459931698902082e-08   1.1724854103522294e-05
-2.619565226975267e-06   7.459931698902082e-08   1.1724854103522294e-05
-2.619565226975267e-06   7.459931698902082e-08   1.1724854103522294e-05
-2.619565226975267e-06   7.459931698902082e-08   1.1724854103522294e-05
1.4602993833127908e-06   3.9219388745458626e-07   4.73452301076301e-06
1.4602993833127908e-06   3.9219388745458626e-07   4.73452301076301e-06
1.4602993833127908e-06   3.9219388745458626e-07   4.73452301076301e-06
1.4602993833127908e-06   3.9219388745458626e-07   4.73452301076301e-06
-5.140749801169322e-07   3.399653838710671e-07   8.056484051962974e-06
-5.140749801169322e-07   3.399653838710671e-07   8.056484051962974e-06
-5.140749801169322e-07   3.399653838710671e-07   8.056484051962974e-06
-5.140749801169322e-07   3.399653838710671e-07   8.056484051962974e-06
1.4602993833127925e-06   7.459931698902082e-08   1.1534297361242944e-05
1.4602993833127925e-06   7.459931698902082e-08   1.1534297361242944e-05
1.4602993833127925e-06   7.459931698902082e-08   1.1534297361242944e-05
1.4602993833127925e-06   7.459931698902082e-08   1.1534297361242944e-05
-2.619565226975267e-06   3.9219388745458626e-07   4.925079753042303e-06
-2.619565226975267e-06   3.9219388745458626e-07   4.925079753042303e-06
-2.619565226975267e-06   3.9219388745458626e-07   4.925079753042303e-06
-2.619565226975267e-06   3.9219388745458626e-07   4.925079753042303e-06
-2.80652068548789e-06   -1.4315821542738773e-07   1.1641757063408009e-05
-2.80652068548789e-06   -1.4315821542738773e-07   1.1641757063408009e-05
-2.80652068548789e-06   -1.4315821542738773e-07   1.1641757063408009e-05
-2.80652068548789e-06   -1.4315821542738773e-07   1.1641757063408009e-05
1.2193314141391533e-06   1.655368394173169e-07   4.746786531122863e-06
1.2193314141391533e-06   1.655368394173169e-07   4.746786531122863e-06
1.2193314141391533e-06   1.655368394173169e-07   4.746786531122863e-06
1.2193314141391533e-06   1.655368394173169e-07   4.746786531122863e-06
-7.083537373429959e-07   1.5316776440579827e-07   7.967016561933567e-06
-7.083537373429959e-07   1.5316776440579827e-07   7.967016561933567e-06
-7.083537373429959e-07   1.5316776440579827e-07   7.967016561933567e-06
-7.083537373429959e-07   1.5316776440579827e-07   7.967016561933567e-06
1.2193314141391583e-06   -1.4315821542738773e-07   1.145654003050124e-05
1.2193314141391583e-06   -1.4315821542738773e-07   1.145654003050124e-05
1.2193314141391583e-06   -1.4315821542738773e-07   1.145654003050124e-05
1.2193314141391583e-06   -1.4315821542738773e-07   1.145654003050124e-05
-2.8065206854878966e-06   1.655368394174253e-07   4.932003564029686e-06
-2.8065206854878966e-06   1.655368394174253e-07   4.932003564029686e-06
-2.8065206854878966e-06   1.655368394174253e-07   4.932003564029686e-06
-2.8065206854878966e-06   1.655368394174253e-07   4.932003564029686e-06
-2.990922528274004e-06   -3.5604255067107037e-07   1.178694724856443e-05
-2.990922528274004e-06   -3.5604255067107037e-07   1.178694724856443e-05
-2.990922528274004e-06   -3.5604255067107037e-07   1.178694724856443e-05
-2.990922528274004e-06   -3.5604255067107037e-07   1.178694724856443e-05
1.0100841682937223e-06   -6.436039473166778e-08   4.943593460721388e-06
1.0100841682937223e-06   -6.436039473166778e-08   4.943593460721388e-06
1.0100841682937223e-06   -6.436039473166778e-08   4.943593460721388e-06
1.0100841682937223e-06   -6.436039473166778e-08   4.943593460721388e-06
-8.71906348421657e-07   -1.2842169790040422e-08   8.049333386948823e-06
-8.71906348421657e-07   -1.2842169790040422e-08   8.049333386948823e-06
-8.71906348421657e-07   -1.2842169790040422e-08   8.049333386948823e-06
-8.71906348421657e-07   -1.2842169790040422e-08   8.049333386948823e-06
-2.4381146346653867e-06   1.3248599548050955e-06   1.294781424172718e-05
-2.4381146346653867e-06   1.3248599548050955e-06   1.294781424172718e-05
-2.4381146346653867e-06   1.3248599548050955e-06   1.294781424172718e-05
-2.4381146346653867e-06   1.3248599548050955e-06   1.294781424172718e-05
-6.467438616951872e-06   1.2534060888449473e-06   6.1894019516736914e-06
-6.467438616951872e-06   1.2534060888449473e-06   6.1894019516736914e-06
-6.467438616951872e-06   1.2534060888449473e-06   6.1894019516736914e-06
-6.467438616951872e-06   1.2534060888449473e-06   6.1894019516736914e-06
-6.641976607656242e-06   1.0830423679615998e-06   1.2833010982887306e-05
-6.641976607656242e-06   1.0830423679615998e-06   1.2833010982887306e-05
-6.641976607656242e-06   1.0830423679615998e-06   1.2833010982887306e-05
-6.641976607656242e-06   1.0830423679615998e-06   1.2833010982887306e-05
-2.6195652269752603e-06   1.006749051911328e-06   6.174768004715839e-06
-2.6195652269752603e-06   1.006749051911328e-06   6.174768004715839e-06
-2.6195652269752603e-06   1.006749051911328e-06   6.174768004715839e-06
-2.6195652269752603e-06   1.006749051911328e-06   6.174768004715839e-06
-4.550678837690916e-06   1.137818491601006e-06   9.314649025428628e-06
-4.550678837690916e-06   1.137818491601006e-06   9.314649025428628e-06
-4.550678837690916e-06   1.137818491601006e-06   9.314649025428628e-06
-4.550678837690916e-06   1.137818491601006e-06   9.314649025428628e-06
-2.619565226975267e-06   1.0830423679617082e-06   1.2878786972517447e-05
-2.619565226975267e-06   1.0830423679617082e-06   1.2878786972517447e-05
-2.619565226975267e-06   1.0830423679617082e-06   1.2878786972517447e-05
-2.619565226975267e-06   1.0830423679617082e-06   1.2878786972517447e-05
-6.641976607656228e-06   1.0067490519114364e-06   6.128992015085738e-06
-6.641976607656228e-06   1.0067490519114364e-06   6.128992015085738e-06
-6.641976607656228e-06   1.0067490519114364e-06   6.128992015085738e-06
-6.641976607656228e-06   1.0067490519114364e-06   6.128992015085738e-06
-6.822067951291712e-06   8.440460288663271e-07   1.2913851954271484e-05
-6.822067951291712e-06   8.440460288663271e-07   1.2913851954271484e-05
-6.822067951291712e-06   8.440460288663271e-07   1.2913851954271484e-05
-6.822067951291712e-06   8.440460288663271e-07   1.2913851954271484e-05
-2.80652068548789e-06   7.613974976430384e-07   6.2708622966658534e-06
-2.80652068548789e-06   7.613974976430384e-07   6.2708622966658534e-06
-2.80652068548789e-06   7.613974976430384e-07   6.2708622966658534e-06
-2.80652068548789e-06   7.613974976430384e-07   6.2708622966658534e-06
-4.705734333208227e-06   9.508698611944639e-07   9.322534958068867e-06
-4.705734333208227e-06   9.508698611944639e-07   9.322534958068867e-06
-4.705734333208227e-06   9.508698611944639e-07   9.322534958068867e-06
-4.705734333208227e-06   9.508698611944639e-07   9.322534958068867e-06
-2.8065206854878966e-06   8.440460288663271e-07   1.2963441073005543e-05
-2.8065206854878966e-06   8.440460288663271e-07   1.2963441073005543e-05
-2.8065206854878966e-06   8.440460288663271e-07   1.2963441073005543e-05
-2.8065206854878966e-06   8.440460288663271e-07   1.2963441073005543e-05
-6.8220679512916984e-06   7.613974976429299e-07   6.221273177931875e-06
-6.8220679512916984e-06   7.613974976429299e-07   6.221273177931875e-06
-6.8220679512916984e-06   7.613974976429299e-07   6.221273177931875e-06
-6.8220679512916984e-06   7.613974976429299e-07   6.221273177931875e-06
-6.9992312038570225e-06   6.141724639686886e-07   1.3116668484400187e-05
-6.9992312038570225e-06   6.141724639686886e-07   1.3116668484400187e-05
-6.9992312038570225e-06   6.141724639686886e-07   1.3116668484400187e-05
-6.9992312038570225e-06   6.141724639686886e-07   1.3116668484400187e-05
-2.990922528274011e-06   5.268427360690135e-07   6.488551861835129e-06
-2.990922528274011e-06   5.268427360690135e-07   6.488551861835129e-06
-2.990922528274011e-06   5.268427360690135e-07   6.488551861835129e-06
-2.990922528274011e-06   5.268427360690135e-07   6.488551861835129e-06
-4.8708562171332545e-06   7.678550683045066e-07   9.477167277259431e-06
-4.8708562171332545e-06   7.678550683045066e-07   9.477167277259431e-06
-4.8708562171332545e-06   7.678550683045066e-07   9.477167277259431e-06
-4.8708562171332545e-06   7.678550683045066e-07   9.477167277259431e-06
-6.467438616951872e-06   2.281819720897308e-06   1.1419025736425666e-05
-6.467438616951872e-06   2.281819720897308e-06   1.1419025736425666e-05
-6.467438616951872e-06   2.281819720897308e-06   1.1419025736425666e-05
-6.467438616951872e-06   2.281819720897308e-06   1.1419025736425666e-05
-1.0431255948779378e-05   1.8717755462358161e-06   4.566637011916181e-06
-1.0431255948779378e-05   1.8717755462358161e-06   4.566637011916181e-06
-1.0431255948779378e-05   1.8717755462358161e-06   4.566637011916181e-06
-1.0431255948779378e-05   1.8717755462358161e-06   4.566637011916181e-06
-1.0621980716505583e-05   2.0466337591057556e-06   1.1211562612007883e-05
-1.0621980716505583e-05   2.0466337591057556e-06   1.1211562612007883e-05
-1.0621980716505583e-05   2.0466337591057556e-06   1.1211562612007883e-05
-1.0621980716505583e-05   2.0466337591057556e-06   1.1211562612007883e-05
-6.641976607656215e-06   1.6236834772202086e-06   4.831992599723723e-06
-6.641976607656215e-06   1.6236834772202086e-06   4.831992599723723e-06
-6.641976607656215e-06   1.6236834772202086e-06   4.831992599723723e-06
-6.641976607656215e-06   1.6236834772202086e-06   4.831992599723723e-06
-8.519871488065595e-06   1.922345862256491e-06   7.782619969384736e-06
-8.519871488065595e-06   1.922345862256491e-06   7.782619969384736e-06
-8.519871488065595e-06   1.922345862256491e-06   7.782619969384736e-06
-8.519871488065595e-06   1.922345862256491e-06   7.782619969384736e-06
-6.641976607656242e-06   2.0466337591056472e-06   1.1465332781139233e-05
-6.641976607656242e-06   2.0466337591056472e-06   1.1465332781139233e-05
-6.641976607656242e-06   2.0466337591056472e-06   1.1465332781139233e-05
-6.641976607656242e-06   2.0466337591056472e-06   1.1465332781139233e-05
-1.0621980716505556e-05   1.6236834772202086e-06   4.5782224305924546e-06
-1.0621980716505556e-05   1.6236834772202086e-06   4.5782224305924546e-06
-1.0621980716505556e-05   1.6236834772202086e-06   4.5782224305924546e-06
-1.0621980716505556e-05   1.6236834772202086e-06   4.5782224305924546e-06
-1.0847275133804628e-05   1.8279102479420517e-06   1.157969016093302e-05
-1.0847275133804628e-05   1.8279102479420517e-06   1.157969016093302e-05
-1.0847275133804628e-05   1.8279102479420517e-06   1.157969016093302e-05
-1.0847275133804628e-05   1.8279102479420517e-06   1.157969016093302e-05
-6.822067951291685e-06   1.3971937817606984e-06   5.1294414031202566e-06
-6.822067951291685e-06   1.3971937817606984e-06   5.1294414031202566e-06
-6.822067951291685e-06   1.3971937817606984e-06   5.1294414031202566e-06
-6.822067951291685e-06   1.3971937817606984e-06   5.1294414031202566e-06
-8.64195972836968e-06   1.7473860912387007e-06   7.952478979230012e-06
-8.64195972836968e-06   1.7473860912387007e-06   7.952478979230012e-06
-8.64195972836968e-06   1.7473860912387007e-06   7.952478979230012e-06
-8.64195972836968e-06   1.7473860912387007e-06   7.952478979230012e-06
-6.822067951291712e-06   1.8279102479420517e-06   1.183812004064167e-05
-6.822067951291712e-06   1.8279102479420517e-06   1.183812004064167e-05
-6.822067951291712e-06   1.8279102479420517e-06   1.183812004064167e-05
-6.822067951291712e-06   1.8279102479420517e-06   1.183812004064167e-05
-1.08472751338046e-05   1.3971937817606984e-06   4.871011523411499e-06
-1.08472751338046e-05   1.3971937817606984e-06   4.871011523411499e-06
-1.08472751338046e-05   1.3971937817606984e-06   4.871011523411499e-06
-1.08472751338046e-05   1.3971937817606984e-06   4.871011523411499e-06
-1.1039877078434498e-05   1.582314257306673e-06   1.1931505691937508e-05
-1.1039877078434498e-05   1.582314257306673e-06   1.1931505691937508e-05
-1.1039877078434498e-05   1.582314257306673e-06   1.1931505691937508e-05
-1.1039877078434498e-05   1.582314257306673e-06   1.1931505691937508e-05
-6.999231203856995e-06   1.154167418777473e-06   5.453984004092526e-06
-6.999231203856995e-06   1.154167418777473e-06   5.453984004092526e-06
-6.999231203856995e-06   1.154167418777473e-06   5.453984004092526e-06
-6.999231203856995e-06   1.154167418777473e-06   5.453984004092526e-06
-8.854715620038481e-06   1.5711089208583513e-06   8.296293129813584e-06
-8.854715620038481e-06   1.5711089208583513e-06   8.296293129813584e-06
-8.854715620038481e-06   1.5711089208583513e-06   8.296293129813584e-06
-8.854715620038481e-06   1.5711089208583513e-06   8.296293129813584e-06
-1.0431255948779405e-05   3.009223403528747e-06   5.358224466439588e-06
-1.0431255948779405e-05   3.009223403528747e-06   5.358224466439588e-06
-1.0431255948779405e-05   3.009223403528747e-06   5.358224466439588e-06
-1.0431255948779405e-05   3.009223403528747e-06   5.358224466439588e-06
-1.4035817996969446e-05   2.318157768828018e-06   -1.0640183280310436e-06
-1.4035817996969446e-05   2.318157768828018e-06   -1.0640183280310436e-06
-1.4035817996969446e-05   2.318157768828018e-06   -1.0640183280310436e-06
-1.4035817996969446e-05   2.318157768828018e-06   -1.0640183280310436e-06
-1.452605059668296e-05   2.936592618818642e-06   6.625557191667058e-06
-1.452605059668296e-05   2.936592618818642e-06   6.625557191667058e-06
-1.452605059668296e-05   2.936592618818642e-06   6.625557191667058e-06
-1.452605059668296e-05   2.936592618818642e-06   6.625557191667058e-06
-1.0621980716505556e-05   2.1925178761760065e-06   5.652189036238302e-07
-1.0621980716505556e-05   2.1925178761760065e-06   5.652189036238302e-07
-1.0621980716505556e-05   2.1925178761760065e-06   5.652189036238302e-07
-1.0621980716505556e-05   2.1925178761760065e-06   5.652189036238302e-07
-1.1951250836937844e-05   2.5640118494380275e-06   2.5577727203875502e-06
-1.1951250836937844e-05   2.5640118494380275e-06   2.5577727203875502e-06
-1.1951250836937844e-05   2.5640118494380275e-06   2.5577727203875502e-06
-1.1951250836937844e-05   2.5640118494380275e-06   2.5577727203875502e-06
-1.0621980716505556e-05   2.9365926188185338e-06   7.0720020372526935e-06
-1.0621980716505556e-05   2.9365926188185338e-06   7.0720020372526935e-06
-1.0621980716505556e-05   2.9365926188185338e-06   7.0720020372526935e-06
-1.0621980716505556e-05   2.9365926188185338e-06   7.0720020372526935e-06
-1.452605059668296e-05   2.1925178761760065e-06   1.1877405803824878e-07
-1.452605059668296e-05   2.1925178761760065e-06   1.1877405803824878e-07
-1.452605059668296e-05   2.1925178761760065e-06   1.1877405803824878e-07
-1.452605059668296e-05   2.1925178761760065e-06   1.1877405803824878e-07
-1.4946812044450348e-05   2.843622177293721e-06   7.841712583323587e-06
-1.4946812044450348e-05   2.843622177293721e-06   7.841712583323587e-06
-1.4946812044450348e-05   2.843622177293721e-06   7.841712583323587e-06
-1.4946812044450348e-05   2.843622177293721e-06   7.841712583323587e-06
-1.08472751338046e-05   2.0856389664027693e-06   1.4639409921152517e-06
-1.08472751338046e-05   2.0856389664027693e-06   1.4639409921152517e-06
-1.08472751338046e-05   2.0856389664027693e-06   1.4639409921152517e-06
-1.08472751338046e-05   2.0856389664027693e-06   1.4639409921152517e-06
-1.2424818361013044e-05   2.5327050212683305e-06   3.824940071210149e-06
-1.2424818361013044e-05   2.5327050212683305e-06   3.824940071210149e-06
-1.2424818361013044e-05   2.5327050212683305e-06   3.824940071210149e-06
-1.2424818361013044e-05   2.5327050212683305e-06   3.824940071210149e-06
-1.08472751338046e-05   2.8436221772938294e-06   8.296502509858082e-06
-1.08472751338046e-05   2.8436221772938294e-06   8.296502509858082e-06
-1.08472751338046e-05   2.8436221772938294e-06   8.296502509858082e-06
-1.08472751338046e-05   2.8436221772938294e-06   8.296502509858082e-06
-1.4946812044450348e-05   2.0856389664027693e-06   1.009151065580594e-06
-1.4946812044450348e-05   2.0856389664027693e-06   1.009151065580594e-06
-1.4946812044450348e-05   2.0856389664027693e-06   1.009151065580594e-06
-1.4946812044450348e-05   2.0856389664027693e-06   1.009151065580594e-06
-1.5448928120015838e-05   2.528368383247423e-06   9.989829283291738e-06
-1.5448928120015838e-05   2.528368383247423e-06   9.989829283291738e-06
-1.5448928120015838e-05   2.528368383247423e-06   9.989829283291738e-06
-1.5448928120015838e-05   2.528368383247423e-06   9.989829283291738e-06
-1.1039877078434444e-05   1.7918393083195781e-06   3.083328325612951e-06
-1.1039877078434444e-05   1.7918393083195781e-06   3.083328325612951e-06
-1.1039877078434444e-05   1.7918393083195781e-06   3.083328325612951e-06
-1.1039877078434444e-05   1.7918393083195781e-06   3.083328325612951e-06
-1.2536816125869945e-05   2.3990856441314778e-06   5.213878936518516e-06
-1.2536816125869945e-05   2.3990856441314778e-06   5.213878936518516e-06
-1.2536816125869945e-05   2.3990856441314778e-06   5.213878936518516e-06
-1.2536816125869945e-05   2.3990856441314778e-06   5.213878936518516e-06
1.4271790539456054e-06   -1.2415076545806147e-08   6.463007053774078e-06
1.4271790539456054e-06   -1.2415076545806147e-08   6.463007053774078e-06
1.4271790539456054e-06   -1.2415076545806147e-08   6.463007053774078e-06
1.4271790539456054e-06   -1.2415076545806147e-08   6.463007053774078e-06
-1.2125412229228437e-06   6.623410470085744e-07   2.4683269331259613e-06
-1.2125412229228437e-06   6.623410470085744e-07   2.4683269331259613e-06
-1.2125412229228437e-06   6.623410470085744e-07   2.4683269331259613e-06
-1.2125412229228437e-06   6.623410470085744e-07   2.4683269331259613e-06
-1.3613150481940937e-06   -2.522503281092176e-07   6.350651612404136e-06
-1.3613150481940937e-06   -2.522503281092176e-07   6.350651612404136e-06
-1.3613150481940937e-06   -2.522503281092176e-07   6.350651612404136e-06
-1.3613150481940937e-06   -2.522503281092176e-07   6.350651612404136e-06
9.767678444662446e-07   4.3840834058976033e-07   2.03945159008416e-06
9.767678444662446e-07   4.3840834058976033e-07   2.03945159008416e-06
9.767678444662446e-07   4.3840834058976033e-07   2.03945159008416e-06
9.767678444662446e-07   4.3840834058976033e-07   2.03945159008416e-06
-1.0960838468402029e-07   1.6998328419685384e-07   4.011133672503662e-06
-1.0960838468402029e-07   1.6998328419685384e-07   4.011133672503662e-06
-1.0960838468402029e-07   1.6998328419685384e-07   4.011133672503662e-06
-1.0960838468402029e-07   1.6998328419685384e-07   4.011133672503662e-06
9.767678444662446e-07   -2.522503281092176e-07   5.9362564111847165e-06
9.767678444662446e-07   -2.522503281092176e-07   5.9362564111847165e-06
9.767678444662446e-07   -2.522503281092176e-07   5.9362564111847165e-06
9.767678444662446e-07   -2.522503281092176e-07   5.9362564111847165e-06
-1.3613150481940937e-06   4.3840834058976033e-07   2.453846791303552e-06
-1.3613150481940937e-06   4.3840834058976033e-07   2.453846791303552e-06
-1.3613150481940937e-06   4.3840834058976033e-07   2.453846791303552e-06
-1.3613150481940937e-06   4.3840834058976033e-07   2.453846791303552e-06
-1.5455820517232334e-06   -3.5422579839445786e-07   6.169293398395465e-06
-1.5455820517232334e-06   -3.5422579839445786e-07   6.169293398395465e-06
-1.5455820517232334e-06   -3.5422579839445786e-07   6.169293398395465e-06
-1.5455820517232334e-06   -3.5422579839445786e-07   6.169293398395465e-06
5.846613821378177e-07   3.171713105092934e-07   2.2160494099514726e-06
5.846613821378177e-07   3.171713105092934e-07   2.2160494099514726e-06
5.846613821378177e-07   3.171713105092934e-07   2.2160494099514726e-06
5.846613821378177e-07   3.171713105092934e-07   2.2160494099514726e-06
-3.505607031775516e-07   7.47194248377635e-08   3.9202240168799495e-06
-3.505607031775516e-07   7.47194248377635e-08   3.9202240168799495e-06
-3.505607031775516e-07   7.47194248377635e-08   3.9202240168799495e-06
-3.505607031775516e-07   7.47194248377635e-08   3.9202240168799495e-06
5.846613821378177e-07   -3.5422579839434944e-07   5.766455133053084e-06
5.846613821378177e-07   -3.5422579839434944e-07   5.766455133053084e-06
5.846613821378177e-07   -3.5422579839434944e-07   5.766455133053084e-06
5.846613821378177e-07   -3.5422579839434944e-07   5.766455133053084e-06
-1.54558205172323e-06   3.171713105092934e-07   2.6188876752936976e-06
-1.54558205172323e-06   3.171713105092934e-07   2.6188876752936976e-06
-1.54558205172323e-06   3.171713105092934e-07   2.6188876752936976e-06
-1.54558205172323e-06   3.171713105092934e-07   2.6188876752936976e-06
-1.7004034806389387e-06   -5.21379688289453e-07   6.082388333091026e-06
-1.7004034806389387e-06   -5.21379688289453e-07   6.082388333091026e-06
-1.7004034806389387e-06   -5.21379688289453e-07   6.082388333091026e-06
-1.7004034806389387e-06   -5.21379688289453e-07   6.082388333091026e-06
9.174076129734356e-08   6.199772495006032e-08   2.745454815253535e-06
9.174076129734356e-08   6.199772495006032e-08   2.745454815253535e-06
9.174076129734356e-08   6.199772495006032e-08   2.745454815253535e-06
9.174076129734356e-08   6.199772495006032e-08   2.745454815253535e-06
-6.172337659345376e-07   -9.628641410444963e-09   3.970054847122958e-06
-6.172337659345376e-07   -9.628641410444963e-09   3.970054847122958e-06
-6.172337659345376e-07   -9.628641410444963e-09   3.970054847122958e-06
-6.172337659345376e-07   -9.628641410444963e-09   3.970054847122958e-06
-1.2125412229228437e-06   6.613034742676332e-07   1.0253576615181165e-05
-1.2125412229228437e-06   6.613034742676332e-07   1.0253576615181165e-05
-1.2125412229228437e-06   6.613034742676332e-07   1.0253576615181165e-05
-1.2125412229228437e-06   6.613034742676332e-07   1.0253576615181165e-05
-3.4180035804632643e-06   7.983017465910806e-07   6.660004982674586e-06
-3.4180035804632643e-06   7.983017465910806e-07   6.660004982674586e-06
-3.4180035804632643e-06   7.983017465910806e-07   6.660004982674586e-06
-3.4180035804632643e-06   7.983017465910806e-07   6.660004982674586e-06
-3.531217481344942e-06   3.9219388745447784e-07   1.0221887560688122e-05
-3.531217481344942e-06   3.9219388745447784e-07   1.0221887560688122e-05
-3.531217481344942e-06   3.9219388745447784e-07   1.0221887560688122e-05
-3.531217481344942e-06   3.9219388745447784e-07   1.0221887560688122e-05
-1.3613150481940937e-06   5.493215829196606e-07   6.51110688815767e-06
-1.3613150481940937e-06   5.493215829196606e-07   6.51110688815767e-06
-1.3613150481940937e-06   5.493215829196606e-07   6.51110688815767e-06
-1.3613150481940937e-06   5.493215829196606e-07   6.51110688815767e-06
-2.397046706574522e-06   5.702504533408224e-07   8.22476899653898e-06
-2.397046706574522e-06   5.702504533408224e-07   8.22476899653898e-06
-2.397046706574522e-06   5.702504533408224e-07   8.22476899653898e-06
-2.397046706574522e-06   5.702504533408224e-07   8.22476899653898e-06
-1.3613150481940954e-06   3.9219388745447784e-07   1.0127610943409002e-05
-1.3613150481940954e-06   3.9219388745447784e-07   1.0127610943409002e-05
-1.3613150481940954e-06   3.9219388745447784e-07   1.0127610943409002e-05
-1.3613150481940954e-06   3.9219388745447784e-07   1.0127610943409002e-05
-3.5312174813449283e-06   5.493215829196606e-07   6.605383505436685e-06
-3.5312174813449283e-06   5.493215829196606e-07   6.605383505436685e-06
-3.5312174813449283e-06   5.493215829196606e-07   6.605383505436685e-06
-3.5312174813449283e-06   5.493215829196606e-07   6.605383505436685e-06
-3.648136838369225e-06   1.655368394174253e-07   1.0232774022849226e-05
-3.648136838369225e-06   1.655368394174253e-07   1.0232774022849226e-05
-3.648136838369225e-06   1.655368394174253e-07   1.0232774022849226e-05
-3.648136838369225e-06   1.655368394174253e-07   1.0232774022849226e-05
-1.54558205172323e-06   3.213125028093413e-07   6.635050647070698e-06
-1.54558205172323e-06   3.213125028093413e-07   6.635050647070698e-06
-1.54558205172323e-06   3.213125028093413e-07   6.635050647070698e-06
-1.54558205172323e-06   3.213125028093413e-07   6.635050647070698e-06
-2.5129627742065958e-06   3.8938134887207604e-07   8.206510543572136e-06
-2.5129627742065958e-06   3.8938134887207604e-07   8.206510543572136e-06
-2.5129627742065958e-06   3.8938134887207604e-07   8.206510543572136e-06
-2.5129627742065958e-06   3.8938134887207604e-07   8.206510543572136e-06
-1.5455820517232334e-06   1.655368394173169e-07   1.0139308624813957e-05
-1.5455820517232334e-06   1.655368394173169e-07   1.0139308624813957e-05
-1.5455820517232334e-06   1.655368394173169e-07   1.0139308624813957e-05
-1.5455820517232334e-06   1.655368394173169e-07   1.0139308624813957e-05
-3.648136838369225e-06   3.213125028093413e-07   6.728516045105906e-06
-3.648136838369225e-06   3.213125028093413e-07   6.728516045105906e-06
-3.648136838369225e-06   3.213125028093413e-07   6.728516045105906e-06
-3.648136838369225e-06   3.213125028093413e-07   6.728516045105906e-06
-3.7632125262277406e-06   -6.43603947317762e-08   1.0422338120540738e-05
-3.7632125262277406e-06   -6.43603947317762e-08   1.0422338120540738e-05
-3.7632125262277406e-06   -6.43603947317762e-08   1.0422338120540738e-05
-3.7632125262277406e-06   -6.43603947317762e-08   1.0422338120540738e-05
-1.7004034806389354e-06   7.622705776804501e-08   6.899970573059618e-06
-1.7004034806389354e-06   7.622705776804501e-08   6.899970573059618e-06
-1.7004034806389354e-06   7.622705776804501e-08   6.899970573059618e-06
-1.7004034806389354e-06   7.622705776804501e-08   6.899970573059618e-06
-2.628085378800068e-06   2.1335749607228867e-07   8.363828807012266e-06
-2.628085378800068e-06   2.1335749607228867e-07   8.363828807012266e-06
-2.628085378800068e-06   2.1335749607228867e-07   8.363828807012266e-06
-2.628085378800068e-06   2.1335749607228867e-07   8.363828807012266e-06
-3.4180035804632576e-06   1.2534060888449473e-06   1.1525495701204607e-05
-3.4180035804632576e-06   1.2534060888449473e-06   1.1525495701204607e-05
-3.4180035804632576e-06   1.2534060888449473e-06   1.1525495701204607e-05
-3.4180035804632576e-06   1.2534060888449473e-06   1.1525495701204607e-05
-5.605725788091178e-06   9.693706611022587e-07   7.708870765178998e-06
-5.605725788091178e-06   9.693706611022587e-07   7.708870765178998e-06
-5.605725788091178e-06   9.693706611022587e-07   7.708870765178998e-06
-5.605725788091178e-06   9.693706611022587e-07   7.708870765178998e-06
-5.702214381948778e-06   1.0067490519114364e-06   1.1311578039380047e-05
-5.702214381948778e-06   1.0067490519114364e-06   1.1311578039380047e-05
-5.702214381948778e-06   1.0067490519114364e-06   1.1311578039380047e-05
-5.702214381948778e-06   1.0067490519114364e-06   1.1311578039380047e-05
-3.5312174813449283e-06   7.400860969420178e-07   7.853247644688563e-06
-3.5312174813449283e-06   7.400860969420178e-07   7.853247644688563e-06
-3.5312174813449283e-06   7.400860969420178e-07   7.853247644688563e-06
-3.5312174813449283e-06   7.400860969420178e-07   7.853247644688563e-06
-4.567285896933368e-06   9.717487292115528e-07   9.4410307579743e-06
-4.567285896933368e-06   9.717487292115528e-07   9.4410307579743e-06
-4.567285896933368e-06   9.717487292115528e-07   9.4410307579743e-06
-4.567285896933368e-06   9.717487292115528e-07   9.4410307579743e-06
-3.5312174813449283e-06   1.0067490519114364e-06   1.1471575812361699e-05
-3.5312174813449283e-06   1.0067490519114364e-06   1.1471575812361699e-05
-3.5312174813449283e-06   1.0067490519114364e-06   1.1471575812361699e-05
-3.5312174813449283e-06   1.0067490519114364e-06   1.1471575812361699e-05
-5.702214381948778e-06   7.400860969420178e-07   7.69324987170698e-06
-5.702214381948778e-06   7.400860969420178e-07   7.69324987170698e-06
-5.702214381948778e-06   7.400860969420178e-07   7.69324987170698e-06
-5.702214381948778e-06   7.400860969420178e-07   7.69324987170698e-06
-5.80534857455548e-06   7.613974976429299e-07   1.1419116682227228e-05
-5.80534857455548e-06   7.613974976429299e-07   1.1419116682227228e-05
-5.80534857455548e-06   7.613974976429299e-07   1.1419116682227228e-05
-5.80534857455548e-06   7.613974976429299e-07   1.1419116682227228e-05
-3.648136838369225e-06   5.072040422126646e-07   7.976279861841688e-06
-3.648136838369225e-06   5.072040422126646e-07   7.976279861841688e-06
-3.648136838369225e-06   5.072040422126646e-07   7.976279861841688e-06
-3.648136838369225e-06   5.072040422126646e-07   7.976279861841688e-06
-4.649768714586373e-06   7.889286847655836e-07   9.476631536671823e-06
-4.649768714586373e-06   7.889286847655836e-07   9.476631536671823e-06
-4.649768714586373e-06   7.889286847655836e-07   9.476631536671823e-06
-4.649768714586373e-06   7.889286847655836e-07   9.476631536671823e-06
-3.648136838369225e-06   7.613974976429299e-07   1.1571632755485366e-05
-3.648136838369225e-06   7.613974976429299e-07   1.1571632755485366e-05
-3.648136838369225e-06   7.613974976429299e-07   1.1571632755485366e-05
-3.648136838369225e-06   7.613974976429299e-07   1.1571632755485366e-05
-5.805348574555467e-06   5.072040422126104e-07   7.82376378858347e-06
-5.805348574555467e-06   5.072040422126104e-07   7.82376378858347e-06
-5.805348574555467e-06   5.072040422126104e-07   7.82376378858347e-06
-5.805348574555467e-06   5.072040422126104e-07   7.82376378858347e-06
-5.906369349759294e-06   5.268427360690135e-07   1.1648473174327744e-05
-5.906369349759294e-06   5.268427360690135e-07   1.1648473174327744e-05
-5.906369349759294e-06   5.268427360690135e-07   1.1648473174327744e-05
-5.906369349759294e-06   5.268427360690135e-07   1.1648473174327744e-05
-3.7632125262277406e-06   2.8715264646368525e-07   8.220359188871733e-06
-3.7632125262277406e-06   2.8715264646368525e-07   8.220359188871733e-06
-3.7632125262277406e-06   2.8715264646368525e-07   8.220359188871733e-06
-3.7632125262277406e-06   2.8715264646368525e-07   8.220359188871733e-06
-4.741614071414653e-06   6.091565140868408e-07   9.65782611027599e-06
-4.741614071414653e-06   6.091565140868408e-07   9.65782611027599e-06
-4.741614071414653e-06   6.091565140868408e-07   9.65782611027599e-06
-4.741614071414653e-06   6.091565140868408e-07   9.65782611027599e-06
-5.6057257880912055e-06   1.8717755462358161e-06   9.978336009598405e-06
-5.6057257880912055e-06   1.8717755462358161e-06   9.978336009598405e-06
-5.6057257880912055e-06   1.8717755462358161e-06   9.978336009598405e-06
-5.6057257880912055e-06   1.8717755462358161e-06   9.978336009598405e-06
-7.762246041764895e-06   1.3183077226214626e-06   6.052054892640227e-06
-7.762246041764895e-06   1.3183077226214626e-06   6.052054892640227e-06
-7.762246041764895e-06   1.3183077226214626e-06   6.052054892640227e-06
-7.762246041764895e-06   1.3183077226214626e-06   6.052054892640227e-06
-7.868494533953759e-06   1.6236834772202086e-06   9.686722635459896e-06
-7.868494533953759e-06   1.6236834772202086e-06   9.686722635459896e-06
-7.868494533953759e-06   1.6236834772202086e-06   9.686722635459896e-06
-7.868494533953759e-06   1.6236834772202086e-06   9.686722635459896e-06
-5.702214381948778e-06   1.0772568296232594e-06   6.404111704009759e-06
-5.702214381948778e-06   1.0772568296232594e-06   6.404111704009759e-06
-5.702214381948778e-06   1.0772568296232594e-06   6.404111704009759e-06
-5.702214381948778e-06   1.0772568296232594e-06   6.404111704009759e-06
-6.720365370870261e-06   1.458205060634243e-06   7.872461080272265e-06
-6.720365370870261e-06   1.458205060634243e-06   7.872461080272265e-06
-6.720365370870261e-06   1.458205060634243e-06   7.872461080272265e-06
-6.720365370870261e-06   1.458205060634243e-06   7.872461080272265e-06
-5.702214381948778e-06   1.6236834772201001e-06   1.0014578624018033e-05
-5.702214381948778e-06   1.6236834772201001e-06   1.0014578624018033e-05
-5.702214381948778e-06   1.6236834772201001e-06   1.0014578624018033e-05
-5.702214381948778e-06   1.6236834772201001e-06   1.0014578624018033e-05
-7.868494533953732e-06   1.0772568296232594e-06   6.076255715451595e-06
-7.868494533953732e-06   1.0772568296232594e-06   6.076255715451595e-06
-7.868494533953732e-06   1.0772568296232594e-06   6.076255715451595e-06
-7.868494533953732e-06   1.0772568296232594e-06   6.076255715451595e-06
-8.013947687228327e-06   1.3971937817606984e-06   1.0006221603169909e-05
-8.013947687228327e-06   1.3971937817606984e-06   1.0006221603169909e-05
-8.013947687228327e-06   1.3971937817606984e-06   1.0006221603169909e-05
-8.013947687228327e-06   1.3971937817606984e-06   1.0006221603169909e-05
-5.80534857455548e-06   8.620882746845655e-07   6.646286386294173e-06
-5.80534857455548e-06   8.620882746845655e-07   6.646286386294173e-06
-5.80534857455548e-06   8.620882746845655e-07   6.646286386294173e-06
-5.80534857455548e-06   8.620882746845655e-07   6.646286386294173e-06
-6.778016429059612e-06   1.2810727634254425e-06   8.016008783889888e-06
-6.778016429059612e-06   1.2810727634254425e-06   8.016008783889888e-06
-6.778016429059612e-06   1.2810727634254425e-06   8.016008783889888e-06
-6.778016429059612e-06   1.2810727634254425e-06   8.016008783889888e-06
-5.80534857455548e-06   1.3971937817606984e-06   1.0327284907415447e-05
-5.80534857455548e-06   1.3971937817606984e-06   1.0327284907415447e-05
-5.80534857455548e-06   1.3971937817606984e-06   1.0327284907415447e-05
-5.80534857455548e-06   1.3971937817606984e-06   1.0327284907415447e-05
-8.0139476872283e-06   8.620882746845655e-07   6.325223082048498e-06
-8.0139476872283e-06   8.620882746845655e-07   6.325223082048498e-06
-8.0139476872283e-06   8.620882746845655e-07   6.325223082048498e-06
-8.0139476872283e-06   8.620882746845655e-07   6.325223082048498e-06
-8.1302330901238e-06   1.1541674187775814e-06   1.035907715772979e-05
-8.1302330901238e-06   1.1541674187775814e-06   1.035907715772979e-05
-8.1302330901238e-06   1.1541674187775814e-06   1.035907715772979e-05
-8.1302330901238e-06   1.1541674187775814e-06   1.035907715772979e-05
-5.906369349759281e-06   6.421240927855518e-07   6.959863586050773e-06
-5.906369349759281e-06   6.421240927855518e-07   6.959863586050773e-06
-5.906369349759281e-06   6.421240927855518e-07   6.959863586050773e-06
-5.906369349759281e-06   6.421240927855518e-07   6.959863586050773e-06
-6.899253283547337e-06   1.1117920622191269e-06   8.332869360704249e-06
-6.899253283547337e-06   1.1117920622191269e-06   8.332869360704249e-06
-6.899253283547337e-06   1.1117920622191269e-06   8.332869360704249e-06
-6.899253283547337e-06   1.1117920622191269e-06   8.332869360704249e-06
-7.762246041764895e-06   2.3181577688279097e-06   4.43023935630299e-06
-7.762246041764895e-06   2.3181577688279097e-06   4.43023935630299e-06
-7.762246041764895e-06   2.3181577688279097e-06   4.43023935630299e-06
-7.762246041764895e-06   2.3181577688279097e-06   4.43023935630299e-06
-9.49093710126767e-06   1.571102280863157e-06   1.1008542976861946e-06
-9.49093710126767e-06   1.571102280863157e-06   1.1008542976861946e-06
-9.49093710126767e-06   1.571102280863157e-06   1.1008542976861946e-06
-9.49093710126767e-06   1.571102280863157e-06   1.1008542976861946e-06
-9.889516332368584e-06   2.1925178761760065e-06   5.204751053151501e-06
-9.889516332368584e-06   2.1925178761760065e-06   5.204751053151501e-06
-9.889516332368584e-06   2.1925178761760065e-06   5.204751053151501e-06
-9.889516332368584e-06   2.1925178761760065e-06   5.204751053151501e-06
-7.868494533953759e-06   1.4109044506098673e-06   2.3053494444665262e-06
-7.868494533953759e-06   1.4109044506098673e-06   2.3053494444665262e-06
-7.868494533953759e-06   1.4109044506098673e-06   2.3053494444665262e-06
-7.868494533953759e-06   1.4109044506098673e-06   2.3053494444665262e-06
-8.448232667267096e-06   1.851740570432323e-06   3.0070779947619823e-06
-8.448232667267096e-06   1.851740570432323e-06   3.0070779947619823e-06
-8.448232667267096e-06   1.851740570432323e-06   3.0070779947619823e-06
-8.448232667267096e-06   1.851740570432323e-06   3.0070779947619823e-06
-7.868494533953759e-06   2.192517876176115e-06   5.673719108491217e-06
-7.868494533953759e-06   2.192517876176115e-06   5.673719108491217e-06
-7.868494533953759e-06   2.192517876176115e-06   5.673719108491217e-06
-7.868494533953759e-06   2.192517876176115e-06   5.673719108491217e-06
-9.889516332368611e-06   1.4109044506099215e-06   1.8363813891268644e-06
-9.889516332368611e-06   1.4109044506099215e-06   1.8363813891268644e-06
-9.889516332368611e-06   1.4109044506099215e-06   1.8363813891268644e-06
-9.889516332368611e-06   1.4109044506099215e-06   1.8363813891268644e-06
-1.0230673014086046e-05   2.0856389664027693e-06   6.127906706164662e-06
-1.0230673014086046e-05   2.0856389664027693e-06   6.127906706164662e-06
-1.0230673014086046e-05   2.0856389664027693e-06   6.127906706164662e-06
-1.0230673014086046e-05   2.0856389664027693e-06   6.127906706164662e-06
-8.013947687228327e-06   1.300231690221131e-06   2.9046088604441566e-06
-8.013947687228327e-06   1.300231690221131e-06   2.9046088604441566e-06
-8.013947687228327e-06   1.300231690221131e-06   2.9046088604441566e-06
-8.013947687228327e-06   1.300231690221131e-06   2.9046088604441566e-06
-8.787739269789166e-06   1.7902222409320865e-06   3.900267167619232e-06
-8.787739269789166e-06   1.7902222409320865e-06   3.900267167619232e-06
-8.787739269789166e-06   1.7902222409320865e-06   3.900267167619232e-06
-8.787739269789166e-06   1.7902222409320865e-06   3.900267167619232e-06
-8.013947687228327e-06   2.0856389664027693e-06   6.5991510718736886e-06
-8.013947687228327e-06   2.0856389664027693e-06   6.5991510718736886e-06
-8.013947687228327e-06   2.0856389664027693e-06   6.5991510718736886e-06
-8.013947687228327e-06   2.0856389664027693e-06   6.5991510718736886e-06
-1.0230673014086073e-05   1.3002316902211851e-06   2.4333644947352115e-06
-1.0230673014086073e-05   1.3002316902211851e-06   2.4333644947352115e-06
-1.0230673014086073e-05   1.3002316902211851e-06   2.4333644947352115e-06
-1.0230673014086073e-05   1.3002316902211851e-06   2.4333644947352115e-06
-1.0662780940102936e-05   1.7918393083194697e-06   7.79593044300162e-06
-1.0662780940102936e-05   1.7918393083194697e-06   7.79593044300162e-06
-1.0662780940102936e-05   1.7918393083194697e-06   7.79593044300162e-06
-1.0662780940102936e-05   1.7918393083194697e-06   7.79593044300162e-06
-8.1302330901238e-06   1.0428740760430252e-06   4.024396499069052e-06
-8.1302330901238e-06   1.0428740760430252e-06   4.024396499069052e-06
-8.1302330901238e-06   1.0428740760430252e-06   4.024396499069052e-06
-8.1302330901238e-06   1.0428740760430252e-06   4.024396499069052e-06
-8.881835878093167e-06   1.667920736711005e-06   4.902039815950546e-06
-8.881835878093167e-06   1.667920736711005e-06   4.902039815950546e-06
-8.881835878093167e-06   1.667920736711005e-06   4.902039815950546e-06
-8.881835878093167e-06   1.667920736711005e-06   4.902039815950546e-06
-3.5660192708573634e-06   6.623410470085744e-07   4.6745650230073615e-06
-3.5660192708573634e-06   6.623410470085744e-07   4.6745650230073615e-06
-3.5660192708573634e-06   6.623410470085744e-07   4.6745650230073615e-06
-3.5660192708573634e-06   6.623410470085744e-07   4.6745650230073615e-06
-4.039152333609993e-06   1.2763883069683186e-06   4.2544382743954306e-06
-4.039152333609993e-06   1.2763883069683186e-06   4.2544382743954306e-06
-4.039152333609993e-06   1.2763883069683186e-06   4.2544382743954306e-06
-4.039152333609993e-06   1.2763883069683186e-06   4.2544382743954306e-06
-4.1500417355271615e-06   4.3840834058976033e-07   4.9833490414738e-06
-4.1500417355271615e-06   4.3840834058976033e-07   4.9833490414738e-06
-4.1500417355271615e-06   4.3840834058976033e-07   4.9833490414738e-06
-4.1500417355271615e-06   4.3840834058976033e-07   4.9833490414738e-06
-4.018896167286438e-06   9.92141103058335e-07   4.432533436924835e-06
-4.018896167286438e-06   9.92141103058335e-07   4.432533436924835e-06
-4.018896167286438e-06   9.92141103058335e-07   4.432533436924835e-06
-4.018896167286438e-06   9.92141103058335e-07   4.432533436924835e-06
-3.849752198647983e-06   7.846994187870856e-07   4.275091833090112e-06
-3.849752198647983e-06   7.846994187870856e-07   4.275091833090112e-06
-3.849752198647983e-06   7.846994187870856e-07   4.275091833090112e-06
-3.849752198647983e-06   7.846994187870856e-07   4.275091833090112e-06
-4.0188961672864445e-06   4.3840834058976033e-07   4.651109383992634e-06
-4.0188961672864445e-06   4.3840834058976033e-07   4.651109383992634e-06
-4.0188961672864445e-06   4.3840834058976033e-07   4.651109383992634e-06
-4.0188961672864445e-06   4.3840834058976033e-07   4.651109383992634e-06
-4.1500417355271615e-06   9.92141103058335e-07   4.76477309440594e-06
-4.1500417355271615e-06   9.92141103058335e-07   4.76477309440594e-06
-4.1500417355271615e-06   9.92141103058335e-07   4.76477309440594e-06
-4.1500417355271615e-06   9.92141103058335e-07   4.76477309440594e-06
-4.293695782050986e-06   3.171713105092934e-07   5.118881421864452e-06
-4.293695782050986e-06   3.171713105092934e-07   5.118881421864452e-06
-4.293695782050986e-06   3.171713105092934e-07   5.118881421864452e-06
-4.293695782050986e-06   3.171713105092934e-07   5.118881421864452e-06
-4.4609796580482375e-06   7.976399448090307e-07   5.109406701279948e-06
-4.4609796580482375e-06   7.976399448090307e-07   5.109406701279948e-06
-4.4609796580482375e-06   7.976399448090307e-07   5.109406701279948e-06
-4.4609796580482375e-06   7.976399448090307e-07   5.109406701279948e-06
-4.118529844818132e-06   6.626939408573744e-07   4.619624614933971e-06
-4.118529844818132e-06   6.626939408573744e-07   4.619624614933971e-06
-4.118529844818132e-06   6.626939408573744e-07   4.619624614933971e-06
-4.118529844818132e-06   6.626939408573744e-07   4.619624614933971e-06
-4.460979658048244e-06   3.171713105092934e-07   4.830600241284458e-06
-4.460979658048244e-06   3.171713105092934e-07   4.830600241284458e-06
-4.460979658048244e-06   3.171713105092934e-07   4.830600241284458e-06
-4.460979658048244e-06   3.171713105092934e-07   4.830600241284458e-06
-4.293695782050986e-06   7.976399448090307e-07   5.397687881859793e-06
-4.293695782050986e-06   7.976399448090307e-07   5.397687881859793e-06
-4.293695782050986e-06   7.976399448090307e-07   5.397687881859793e-06
-4.293695782050986e-06   7.976399448090307e-07   5.397687881859793e-06
-4.387669711626329e-06   6.199772495011453e-08   5.587290600154494e-06
-4.387669711626329e-06   6.199772495011453e-08   5.587290600154494e-06
-4.387669711626329e-06   6.199772495011453e-08   5.587290600154494e-06
-4.387669711626329e-06   6.199772495011453e-08   5.587290600154494e-06
-4.932700194764446e-06   3.203520887173905e-07   6.340662120457587e-06
-4.932700194764446e-06   3.203520887173905e-07   6.340662120457587e-06
-4.932700194764446e-06   3.203520887173905e-07   6.340662120457587e-06
-4.932700194764446e-06   3.203520887173905e-07   6.340662120457587e-06
-4.314637805558875e-06   5.154740410143188e-07   5.1934849670699875e-06
-4.314637805558875e-06   5.154740410143188e-07   5.1934849670699875e-06
-4.314637805558875e-06   5.154740410143188e-07   5.1934849670699875e-06
-4.314637805558875e-06   5.154740410143188e-07   5.1934849670699875e-06
-4.0391523336099865e-06   7.983017465910806e-07   9.152472465137661e-06
-4.0391523336099865e-06   7.983017465910806e-07   9.152472465137661e-06
-4.0391523336099865e-06   7.983017465910806e-07   9.152472465137661e-06
-4.0391523336099865e-06   7.983017465910806e-07   9.152472465137661e-06
-4.179516396394431e-06   3.3167218584930717e-07   8.638554624051866e-06
-4.179516396394431e-06   3.3167218584930717e-07   8.638554624051866e-06
-4.179516396394431e-06   3.3167218584930717e-07   8.638554624051866e-06
-4.179516396394431e-06   3.3167218584930717e-07   8.638554624051866e-06
-4.217560747389864e-06   5.493215829196606e-07   8.804082803050555e-06
-4.217560747389864e-06   5.493215829196606e-07   8.804082803050555e-06
-4.217560747389864e-06   5.493215829196606e-07   8.804082803050555e-06
-4.217560747389864e-06   5.493215829196606e-07   8.804082803050555e-06
-4.1500417355271615e-06   1.5511102412408585e-07   8.928077451890052e-06
-4.1500417355271615e-06   1.5511102412408585e-07   8.928077451890052e-06
-4.1500417355271615e-06   1.5511102412408585e-07   8.928077451890052e-06
-4.1500417355271615e-06   1.5511102412408585e-07   8.928077451890052e-06
-4.135743932745774e-06   4.040074803656835e-07   8.754909906842782e-06
-4.135743932745774e-06   4.040074803656835e-07   8.754909906842782e-06
-4.135743932745774e-06   4.040074803656835e-07   8.754909906842782e-06
-4.135743932745774e-06   4.040074803656835e-07   8.754909906842782e-06
-4.150041735527158e-06   5.493215829196606e-07   9.040609138327759e-06
-4.150041735527158e-06   5.493215829196606e-07   9.040609138327759e-06
-4.150041735527158e-06   5.493215829196606e-07   9.040609138327759e-06
-4.150041735527158e-06   5.493215829196606e-07   9.040609138327759e-06
-4.217560747389864e-06   1.5511102412408585e-07   8.691551116612702e-06
-4.217560747389864e-06   1.5511102412408585e-07   8.691551116612702e-06
-4.217560747389864e-06   1.5511102412408585e-07   8.691551116612702e-06
-4.217560747389864e-06   1.5511102412408585e-07   8.691551116612702e-06
-4.263964928638378e-06   3.213125028093413e-07   8.914615315611617e-06
-4.263964928638378e-06   3.213125028093413e-07   8.914615315611617e-06
-4.263964928638378e-06   3.213125028093413e-07   8.914615315611617e-06
-4.263964928638378e-06   3.213125028093413e-07   8.914615315611617e-06
-4.293695782050986e-06   -4.606929390705769e-08   9.184595815995739e-06
-4.293695782050986e-06   -4.606929390705769e-08   9.184595815995739e-06
-4.293695782050986e-06   -4.606929390705769e-08   9.184595815995739e-06
-4.293695782050986e-06   -4.606929390705769e-08   9.184595815995739e-06
-4.18156633975528e-06   2.59663878579943e-07   8.814273508677316e-06
-4.18156633975528e-06   2.59663878579943e-07   8.814273508677316e-06
-4.18156633975528e-06   2.59663878579943e-07   8.814273508677316e-06
-4.18156633975528e-06   2.59663878579943e-07   8.814273508677316e-06
-4.293695782050986e-06   3.213125028093413e-07   9.135044393641337e-06
-4.293695782050986e-06   3.213125028093413e-07   9.135044393641337e-06
-4.293695782050986e-06   3.213125028093413e-07   9.135044393641337e-06
-4.293695782050986e-06   3.213125028093413e-07   9.135044393641337e-06
-4.263964928638365e-06   -4.60692939071119e-08   8.964166737965914e-06
-4.263964928638365e-06   -4.60692939071119e-08   8.964166737965914e-06
-4.263964928638365e-06   -4.60692939071119e-08   8.964166737965914e-06
-4.263964928638365e-06   -4.60692939071119e-08   8.964166737965914e-06
-4.299860738707374e-06   7.622705776804501e-08   9.161093752245756e-06
-4.299860738707374e-06   7.622705776804501e-08   9.161093752245756e-06
-4.299860738707374e-06   7.622705776804501e-08   9.161093752245756e-06
-4.299860738707374e-06   7.622705776804501e-08   9.161093752245756e-06
-4.3876697116263235e-06   -3.082498718505575e-07   9.53812819821505e-06
-4.3876697116263235e-06   -3.082498718505575e-07   9.53812819821505e-06
-4.3876697116263235e-06   -3.082498718505575e-07   9.53812819821505e-06
-4.3876697116263235e-06   -3.082498718505575e-07   9.53812819821505e-06
-4.250593479675166e-06   9.218652161416523e-08   9.069405975550748e-06
-4.250593479675166e-06   9.218652161416523e-08   9.069405975550748e-06
-4.250593479675166e-06   9.218652161416523e-08   9.069405975550748e-06
-4.250593479675166e-06   9.218652161416523e-08   9.069405975550748e-06
-4.179516396394438e-06   9.693706611022587e-07   1.0091781767842731e-05
-4.179516396394438e-06   9.693706611022587e-07   1.0091781767842731e-05
-4.179516396394438e-06   9.693706611022587e-07   1.0091781767842731e-05
-4.179516396394438e-06   9.693706611022587e-07   1.0091781767842731e-05
-4.5697987642793185e-06   9.412003198995197e-08   8.9161607772339e-06
-4.5697987642793185e-06   9.412003198995197e-08   8.9161607772339e-06
-4.5697987642793185e-06   9.412003198995197e-08   8.9161607772339e-06
-4.5697987642793185e-06   9.412003198995197e-08   8.9161607772339e-06
-4.586296493579444e-06   7.400860969420178e-07   9.576202596526162e-06
-4.586296493579444e-06   7.400860969420178e-07   9.576202596526162e-06
-4.586296493579444e-06   7.400860969420178e-07   9.576202596526162e-06
-4.586296493579444e-06   7.400860969420178e-07   9.576202596526162e-06
-4.217560747389864e-06   -5.28211460184831e-08   9.437387365319818e-06
-4.217560747389864e-06   -5.28211460184831e-08   9.437387365319818e-06
-4.217560747389864e-06   -5.28211460184831e-08   9.437387365319818e-06
-4.217560747389864e-06   -5.28211460184831e-08   9.437387365319818e-06
-4.381720707202255e-06   4.2178535352311447e-07   9.426223398615566e-06
-4.381720707202255e-06   4.2178535352311447e-07   9.426223398615566e-06
-4.381720707202255e-06   4.2178535352311447e-07   9.426223398615566e-06
-4.381720707202255e-06   4.2178535352311447e-07   9.426223398615566e-06
-4.217560747389864e-06   7.40086096942072e-07   1.005194694230242e-05
-4.217560747389864e-06   7.40086096942072e-07   1.005194694230242e-05
-4.217560747389864e-06   7.40086096942072e-07   1.005194694230242e-05
-4.217560747389864e-06   7.40086096942072e-07   1.005194694230242e-05
-4.586296493579444e-06   -5.282114601842889e-08   8.961643019543534e-06
-4.586296493579444e-06   -5.282114601842889e-08   8.961643019543534e-06
-4.586296493579444e-06   -5.282114601842889e-08   8.961643019543534e-06
-4.586296493579444e-06   -5.282114601842889e-08   8.961643019543534e-06
-4.612001890613767e-06   5.072040422126104e-07   9.720889280432124e-06
-4.612001890613767e-06   5.072040422126104e-07   9.720889280432124e-06
-4.612001890613767e-06   5.072040422126104e-07   9.720889280432124e-06
-4.612001890613767e-06   5.072040422126104e-07   9.720889280432124e-06
-4.2639649286383715e-06   -2.286123776461084e-07   9.582317529054988e-06
-4.2639649286383715e-06   -2.286123776461084e-07   9.582317529054988e-06
-4.2639649286383715e-06   -2.286123776461084e-07   9.582317529054988e-06
-4.2639649286383715e-06   -2.286123776461084e-07   9.582317529054988e-06
-4.38937442342918e-06   2.7718897476115703e-07   9.487852542261748e-06
-4.38937442342918e-06   2.7718897476115703e-07   9.487852542261748e-06
-4.38937442342918e-06   2.7718897476115703e-07   9.487852542261748e-06
-4.38937442342918e-06   2.7718897476115703e-07   9.487852542261748e-06
-4.263964928638378e-06   5.072040422126646e-07   1.016237913234729e-05
-4.263964928638378e-06   5.072040422126646e-07   1.016237913234729e-05
-4.263964928638378e-06   5.072040422126646e-07   1.016237913234729e-05
-4.263964928638378e-06   5.072040422126646e-07   1.016237913234729e-05
-4.612001890613753e-06   -2.2861237764605418e-07   9.140827677139767e-06
-4.612001890613753e-06   -2.2861237764605418e-07   9.140827677139767e-06
-4.612001890613753e-06   -2.2861237764605418e-07   9.140827677139767e-06
-4.612001890613753e-06   -2.2861237764605418e-07   9.140827677139767e-06
-4.630592067948855e-06   2.8715264646368525e-07   9.982586279590048e-06
-4.630592067948855e-06   2.8715264646368525e-07   9.982586279590048e-06
-4.630592067948855e-06   2.8715264646368525e-07   9.982586279590048e-06
-4.630592067948855e-06   2.8715264646368525e-07   9.982586279590048e-06
-4.299860738707367e-06   -4.037533818162988e-07   9.845911014488726e-06
-4.299860738707367e-06   -4.037533818162988e-07   9.845911014488726e-06
-4.299860738707367e-06   -4.037533818162988e-07   9.845911014488726e-06
-4.299860738707367e-06   -4.037533818162988e-07   9.845911014488726e-06
-4.4046120193166554e-06   1.2883296988182736e-07   9.700944671151761e-06
-4.4046120193166554e-06   1.2883296988182736e-07   9.700944671151761e-06
-4.4046120193166554e-06   1.2883296988182736e-07   9.700944671151761e-06
-4.4046120193166554e-06   1.2883296988182736e-07   9.700944671151761e-06
-4.5697987642793185e-06   1.3183077226214626e-06   8.24189621200522e-06
-4.5697987642793185e-06   1.3183077226214626e-06   8.24189621200522e-06
-4.5697987642793185e-06   1.3183077226214626e-06   8.24189621200522e-06
-4.5697987642793185e-06   1.3183077226214626e-06   8.24189621200522e-06
-5.1035276941507e-06   4.366797366557769e-07   6.823371203973523e-06
-5.1035276941507e-06   4.366797366557769e-07   6.823371203973523e-06
-5.1035276941507e-06   4.366797366557769e-07   6.823371203973523e-06
-5.1035276941507e-06   4.366797366557769e-07   6.823371203973523e-06
-5.117484807415986e-06   1.0772568296232594e-06   7.78611238877523e-06
-5.117484807415986e-06   1.0772568296232594e-06   7.78611238877523e-06
-5.117484807415986e-06   1.0772568296232594e-06   7.78611238877523e-06
-5.117484807415986e-06   1.0772568296232594e-06   7.78611238877523e-06
-4.586296493579444e-06   2.423367628669572e-07   7.401750572434723e-06
-4.586296493579444e-06   2.423367628669572e-07   7.401750572434723e-06
-4.586296493579444e-06   2.423367628669572e-07   7.401750572434723e-06
-4.586296493579444e-06   2.423367628669572e-07   7.401750572434723e-06
-4.831776944861076e-06   7.850045318013124e-07   7.485283996543513e-06
-4.831776944861076e-06   7.850045318013124e-07   7.485283996543513e-06
-4.831776944861076e-06   7.850045318013124e-07   7.485283996543513e-06
-4.831776944861076e-06   7.850045318013124e-07   7.485283996543513e-06
-4.586296493579444e-06   1.0772568296232594e-06   8.287064428828887e-06
-4.586296493579444e-06   1.0772568296232594e-06   8.287064428828887e-06
-4.586296493579444e-06   1.0772568296232594e-06   8.287064428828887e-06
-4.586296493579444e-06   1.0772568296232594e-06   8.287064428828887e-06
-5.117484807415986e-06   2.423367628669572e-07   6.9007985323809304e-06
-5.117484807415986e-06   2.423367628669572e-07   6.9007985323809304e-06
-5.117484807415986e-06   2.423367628669572e-07   6.9007985323809304e-06
-5.117484807415986e-06   2.423367628669572e-07   6.9007985323809304e-06
-5.1774988479600455e-06   8.620882746845655e-07   8.071462286321539e-06
-5.1774988479600455e-06   8.620882746845655e-07   8.071462286321539e-06
-5.1774988479600455e-06   8.620882746845655e-07   8.071462286321539e-06
-5.1774988479600455e-06   8.620882746845655e-07   8.071462286321539e-06
-4.612001890613753e-06   7.550562164892159e-08   7.60091694923244e-06
-4.612001890613753e-06   7.550562164892159e-08   7.60091694923244e-06
-4.612001890613753e-06   7.550562164892159e-08   7.60091694923244e-06
-4.612001890613753e-06   7.550562164892159e-08   7.60091694923244e-06
-4.822992545574717e-06   6.263787523001297e-07   7.622044162442897e-06
-4.822992545574717e-06   6.263787523001297e-07   7.622044162442897e-06
-4.822992545574717e-06   6.263787523001297e-07   7.622044162442897e-06
-4.822992545574717e-06   6.263787523001297e-07   7.622044162442897e-06
-4.612001890613753e-06   8.620882746845655e-07   8.543411878142692e-06
-4.612001890613753e-06   8.620882746845655e-07   8.543411878142692e-06
-4.612001890613753e-06   8.620882746845655e-07   8.543411878142692e-06
-4.612001890613753e-06   8.620882746845655e-07   8.543411878142692e-06
-5.1774988479600455e-06   7.550562164892159e-08   7.128967357410989e-06
-5.1774988479600455e-06   7.550562164892159e-08   7.128967357410989e-06
-5.1774988479600455e-06   7.550562164892159e-08   7.128967357410989e-06
-5.1774988479600455e-06   7.550562164892159e-08   7.128967357410989e-06
-5.214801567695514e-06   6.42124092785606e-07   8.424863041461362e-06
-5.214801567695514e-06   6.42124092785606e-07   8.424863041461362e-06
-5.214801567695514e-06   6.42124092785606e-07   8.424863041461362e-06
-5.214801567695514e-06   6.42124092785606e-07   8.424863041461362e-06
-4.630592067948855e-06   -9.294538899932894e-08   7.892222230954435e-06
-4.630592067948855e-06   -9.294538899932894e-08   7.892222230954435e-06
-4.630592067948855e-06   -9.294538899932894e-08   7.892222230954435e-06
-4.630592067948855e-06   -9.294538899932894e-08   7.892222230954435e-06
-4.852496494208153e-06   4.841342783156572e-07   7.915815140997474e-06
-4.852496494208153e-06   4.841342783156572e-07   7.915815140997474e-06
-4.852496494208153e-06   4.841342783156572e-07   7.915815140997474e-06
-4.852496494208153e-06   4.841342783156572e-07   7.915815140997474e-06
-5.103527694150673e-06   1.571102280863157e-06   3.2099521182506717e-06
-5.103527694150673e-06   1.571102280863157e-06   3.2099521182506717e-06
-5.103527694150673e-06   1.571102280863157e-06   3.2099521182506717e-06
-5.103527694150673e-06   1.571102280863157e-06   3.2099521182506717e-06
-5.1192424398801455e-06   7.290827219835457e-07   2.678549140040478e-06
-5.1192424398801455e-06   7.290827219835457e-07   2.678549140040478e-06
-5.1192424398801455e-06   7.290827219835457e-07   2.678549140040478e-06
-5.1192424398801455e-06   7.290827219835457e-07   2.678549140040478e-06
-5.382874931942553e-06   1.4109044506099215e-06   3.522880550135192e-06
-5.382874931942553e-06   1.4109044506099215e-06   3.522880550135192e-06
-5.382874931942553e-06   1.4109044506099215e-06   3.522880550135192e-06
-5.382874931942553e-06   1.4109044506099215e-06   3.522880550135192e-06
-5.117484807415986e-06   5.903618378518016e-07   3.57288924357908e-06
-5.117484807415986e-06   5.903618378518016e-07   3.57288924357908e-06
-5.117484807415986e-06   5.903618378518016e-07   3.57288924357908e-06
-5.117484807415986e-06   5.903618378518016e-07   3.57288924357908e-06
-5.011718162703022e-06   1.1087683080192464e-06   3.085567620290399e-06
-5.011718162703022e-06   1.1087683080192464e-06   3.085567620290399e-06
-5.011718162703022e-06   1.1087683080192464e-06   3.085567620290399e-06
-5.011718162703022e-06   1.1087683080192464e-06   3.085567620290399e-06
-5.117484807415959e-06   1.4109044506098673e-06   4.015206117789972e-06
-5.117484807415959e-06   1.4109044506098673e-06   4.015206117789972e-06
-5.117484807415959e-06   1.4109044506098673e-06   4.015206117789972e-06
-5.117484807415959e-06   1.4109044506098673e-06   4.015206117789972e-06
-5.38287493194258e-06   5.903618378517474e-07   3.080563675924219e-06
-5.38287493194258e-06   5.903618378517474e-07   3.080563675924219e-06
-5.38287493194258e-06   5.903618378517474e-07   3.080563675924219e-06
-5.38287493194258e-06   5.903618378517474e-07   3.080563675924219e-06
-5.613767253304932e-06   1.300231690221131e-06   4.170681300049643e-06
-5.613767253304932e-06   1.300231690221131e-06   4.170681300049643e-06
-5.613767253304932e-06   1.300231690221131e-06   4.170681300049643e-06
-5.613767253304932e-06   1.300231690221131e-06   4.170681300049643e-06
-5.177498847960018e-06   4.999537491085491e-07   3.923734055808782e-06
-5.177498847960018e-06   4.999537491085491e-07   3.923734055808782e-06
-5.177498847960018e-06   4.999537491085491e-07   3.923734055808782e-06
-5.177498847960018e-06   4.999537491085491e-07   3.923734055808782e-06
-5.2016332903511694e-06   1.0295953333835494e-06   3.6461731758954973e-06
-5.2016332903511694e-06   1.0295953333835494e-06   3.6461731758954973e-06
-5.2016332903511694e-06   1.0295953333835494e-06   3.6461731758954973e-06
-5.2016332903511694e-06   1.0295953333835494e-06   3.6461731758954973e-06
-5.177498847959991e-06   1.300231690221131e-06   4.650848064716981e-06
-5.177498847959991e-06   1.300231690221131e-06   4.650848064716981e-06
-5.177498847959991e-06   1.300231690221131e-06   4.650848064716981e-06
-5.177498847959991e-06   1.300231690221131e-06   4.650848064716981e-06
-5.613767253304959e-06   4.999537491085491e-07   3.443567291141255e-06
-5.613767253304959e-06   4.999537491085491e-07   3.443567291141255e-06
-5.613767253304959e-06   4.999537491085491e-07   3.443567291141255e-06
-5.613767253304959e-06   4.999537491085491e-07   3.443567291141255e-06
-5.952347783511801e-06   1.0428740760430252e-06   5.359694213949049e-06
-5.952347783511801e-06   1.0428740760430252e-06   5.359694213949049e-06
-5.952347783511801e-06   1.0428740760430252e-06   5.359694213949049e-06
-5.952347783511801e-06   1.0428740760430252e-06   5.359694213949049e-06
-5.214801567695514e-06   3.1466118250009136e-07   4.567378257047509e-06
-5.214801567695514e-06   3.1466118250009136e-07   4.567378257047509e-06
-5.214801567695514e-06   3.1466118250009136e-07   4.567378257047509e-06
-5.214801567695514e-06   3.1466118250009136e-07   4.567378257047509e-06
-5.266306141724154e-06   9.327658574590316e-07   4.282356408786148e-06
-5.266306141724154e-06   9.327658574590316e-07   4.282356408786148e-06
-5.266306141724154e-06   9.327658574590316e-07   4.282356408786148e-06
-5.266306141724154e-06   9.327658574590316e-07   4.282356408786148e-06
-9.626531848660421e-06   1.2763883069682644e-06   3.960933182925745e-06
-9.626531848660421e-06   1.2763883069682644e-06   3.960933182925745e-06
-9.626531848660421e-06   1.2763883069682644e-06   3.960933182925745e-06
-9.626531848660421e-06   1.2763883069682644e-06   3.960933182925745e-06
-6.562699535702914e-06   1.7595793628205983e-06   9.357235004699632e-06
-6.562699535702914e-06   1.7595793628205983e-06   9.357235004699632e-06
-6.562699535702914e-06   1.7595793628205983e-06   9.357235004699632e-06
-6.562699535702914e-06   1.7595793628205983e-06   9.357235004699632e-06
-6.5639795636103455e-06   9.92141103058335e-07   4.439857465833867e-06
-6.5639795636103455e-06   9.92141103058335e-07   4.439857465833867e-06
-6.5639795636103455e-06   9.92141103058335e-07   4.439857465833867e-06
-6.5639795636103455e-06   9.92141103058335e-07   4.439857465833867e-06
-1.063917865798133e-05   6.813363294071303e-07   1.1418338820642954e-05
-1.063917865798133e-05   6.813363294071303e-07   1.1418338820642954e-05
-1.063917865798133e-05   6.813363294071303e-07   1.1418338820642954e-05
-1.063917865798133e-05   6.813363294071303e-07   1.1418338820642954e-05
-7.915983654335166e-06   1.0353903524362262e-06   6.667248067415233e-06
-7.915983654335166e-06   1.0353903524362262e-06   6.667248067415233e-06
-7.915983654335166e-06   1.0353903524362262e-06   6.667248067415233e-06
-7.915983654335166e-06   1.0353903524362262e-06   6.667248067415233e-06
-1.0639178657981347e-05   9.921411030582809e-07   4.626340330024585e-06
-1.0639178657981347e-05   9.921411030582809e-07   4.626340330024585e-06
-1.0639178657981347e-05   9.921411030582809e-07   4.626340330024585e-06
-1.0639178657981347e-05   9.921411030582809e-07   4.626340330024585e-06
-6.5639795636103455e-06   6.813363294071303e-07   1.1231855956452257e-05
-6.5639795636103455e-06   6.813363294071303e-07   1.1231855956452257e-05
-6.5639795636103455e-06   6.813363294071303e-07   1.1231855956452257e-05
-6.5639795636103455e-06   6.813363294071303e-07   1.1231855956452257e-05
-6.664731480702604e-06   7.976399448090307e-07   4.9380651374785264e-06
-6.664731480702604e-06   7.976399448090307e-07   4.9380651374785264e-06
-6.664731480702604e-06   7.976399448090307e-07   4.9380651374785264e-06
-6.664731480702604e-06   7.976399448090307e-07   4.9380651374785264e-06
-1.0686788314601363e-05   4.777376978115037e-07   1.1833434542174955e-05
-1.0686788314601363e-05   4.777376978115037e-07   1.1833434542174955e-05
-1.0686788314601363e-05   4.777376978115037e-07   1.1833434542174955e-05
-1.0686788314601363e-05   4.777376978115037e-07   1.1833434542174955e-05
-8.464974217372402e-06   6.352699413406798e-07   8.035891700675733e-06
-8.464974217372402e-06   6.352699413406798e-07   8.035891700675733e-06
-8.464974217372402e-06   6.352699413406798e-07   8.035891700675733e-06
-8.464974217372402e-06   6.352699413406798e-07   8.035891700675733e-06
-1.0686788314601384e-05   7.976399448090307e-07   5.130006485677094e-06
-1.0686788314601384e-05   7.976399448090307e-07   5.130006485677094e-06
-1.0686788314601384e-05   7.976399448090307e-07   5.130006485677094e-06
-1.0686788314601384e-05   7.976399448090307e-07   5.130006485677094e-06
-6.664731480702594e-06   4.777376978115037e-07   1.1641493193976428e-05
-6.664731480702594e-06   4.777376978115037e-07   1.1641493193976428e-05
-6.664731480702594e-06   4.777376978115037e-07   1.1641493193976428e-05
-6.664731480702594e-06   4.777376978115037e-07   1.1641493193976428e-05
-6.604632008033544e-06   3.203520887173905e-07   5.807302236602425e-06
-6.604632008033544e-06   3.203520887173905e-07   5.807302236602425e-06
-6.604632008033544e-06   3.203520887173905e-07   5.807302236602425e-06
-6.604632008033544e-06   3.203520887173905e-07   5.807302236602425e-06
-1.0819981567464108e-05   -3.9469489128003926e-07   1.3261913023651804e-05
-1.0819981567464108e-05   -3.9469489128003926e-07   1.3261913023651804e-05
-1.0819981567464108e-05   -3.9469489128003926e-07   1.3261913023651804e-05
-1.0819981567464108e-05   -3.9469489128003926e-07   1.3261913023651804e-05
-8.347149978468623e-06   2.9407530128757907e-07   8.727264926452078e-06
-8.347149978468623e-06   2.9407530128757907e-07   8.727264926452078e-06
-8.347149978468623e-06   2.9407530128757907e-07   8.727264926452078e-06
-8.347149978468623e-06   2.9407530128757907e-07   8.727264926452078e-06
-6.562699535702926e-06   3.3167218584930717e-07   8.914941902538634e-06
-6.562699535702926e-06   3.3167218584930717e-07   8.914941902538634e-06
-6.562699535702926e-06   3.3167218584930717e-07   8.914941902538634e-06
-6.562699535702926e-06   3.3167218584930717e-07   8.914941902538634e-06
-4.057416693040972e-06   -2.0881874145582625e-06   1.1638497546730676e-05
-4.057416693040972e-06   -2.0881874145582625e-06   1.1638497546730676e-05
-4.057416693040972e-06   -2.0881874145582625e-06   1.1638497546730676e-05
-4.057416693040972e-06   -2.0881874145582625e-06   1.1638497546730676e-05
-4.072829817758234e-06   1.5511102412408585e-07   7.478001007241327e-06
-4.072829817758234e-06   1.5511102412408585e-07   7.478001007241327e-06
-4.072829817758234e-06   1.5511102412408585e-07   7.478001007241327e-06
-4.072829817758234e-06   1.5511102412408585e-07   7.478001007241327e-06
-6.5639795636103455e-06   -1.720157002670417e-06   1.2755078066404946e-05
-6.5639795636103455e-06   -1.720157002670417e-06   1.2755078066404946e-05
-6.5639795636103455e-06   -1.720157002670417e-06   1.2755078066404946e-05
-6.5639795636103455e-06   -1.720157002670417e-06   1.2755078066404946e-05
-5.288729543515552e-06   -1.0347122889137683e-06   1.0218394537993004e-05
-5.288729543515552e-06   -1.0347122889137683e-06   1.0218394537993004e-05
-5.288729543515552e-06   -1.0347122889137683e-06   1.0218394537993004e-05
-5.288729543515552e-06   -1.0347122889137683e-06   1.0218394537993004e-05
-6.563979563610352e-06   1.5511102412408585e-07   8.603161823317942e-06
-6.563979563610352e-06   1.5511102412408585e-07   8.603161823317942e-06
-6.563979563610352e-06   1.5511102412408585e-07   8.603161823317942e-06
-6.563979563610352e-06   1.5511102412408585e-07   8.603161823317942e-06
-4.072829817758227e-06   -1.720157002670417e-06   1.1629917250328236e-05
-4.072829817758227e-06   -1.720157002670417e-06   1.1629917250328236e-05
-4.072829817758227e-06   -1.720157002670417e-06   1.1629917250328236e-05
-4.072829817758227e-06   -1.720157002670417e-06   1.1629917250328236e-05
-4.099082726712039e-06   -4.606929390705769e-08   7.699186840712886e-06
-4.099082726712039e-06   -4.606929390705769e-08   7.699186840712886e-06
-4.099082726712039e-06   -4.606929390705769e-08   7.699186840712886e-06
-4.099082726712039e-06   -4.606929390705769e-08   7.699186840712886e-06
-6.664731480702594e-06   -1.7557130120764229e-06   1.3001054328265336e-05
-6.664731480702594e-06   -1.7557130120764229e-06   1.3001054328265336e-05
-6.664731480702594e-06   -1.7557130120764229e-06   1.3001054328265336e-05
-6.664731480702594e-06   -1.7557130120764229e-06   1.3001054328265336e-05
-5.257469220196054e-06   -9.045191897435285e-07   1.0144900934021332e-05
-5.257469220196054e-06   -9.045191897435285e-07   1.0144900934021332e-05
-5.257469220196054e-06   -9.045191897435285e-07   1.0144900934021332e-05
-5.257469220196054e-06   -9.045191897435285e-07   1.0144900934021332e-05
-6.664731480702604e-06   -4.606929390705769e-08   8.724973071614489e-06
-6.664731480702604e-06   -4.606929390705769e-08   8.724973071614489e-06
-6.664731480702604e-06   -4.606929390705769e-08   8.724973071614489e-06
-6.664731480702604e-06   -4.606929390705769e-08   8.724973071614489e-06
-4.099082726712039e-06   -1.7557130120764229e-06   1.1975268097363733e-05
-4.099082726712039e-06   -1.7557130120764229e-06   1.1975268097363733e-05
-4.099082726712039e-06   -1.7557130120764229e-06   1.1975268097363733e-05
-4.099082726712039e-06   -1.7557130120764229e-06   1.1975268097363733e-05
-4.071373464271629e-06   -3.082498718505575e-07   7.977508318975855e-06
-4.071373464271629e-06   -3.082498718505575e-07   7.977508318975855e-06
-4.071373464271629e-06   -3.082498718505575e-07   7.977508318975855e-06
-4.071373464271629e-06   -3.082498718505575e-07   7.977508318975855e-06
-6.604632008033527e-06   -1.7619955003901015e-06   1.3071853269035971e-05
-6.604632008033527e-06   -1.7619955003901015e-06   1.3071853269035971e-05
-6.604632008033527e-06   -1.7619955003901015e-06   1.3071853269035971e-05
-6.604632008033527e-06   -1.7619955003901015e-06   1.3071853269035971e-05
-5.292828632029923e-06   -1.0090019891254476e-06   1.0433718202271228e-05
-5.292828632029923e-06   -1.0090019891254476e-06   1.0433718202271228e-05
-5.292828632029923e-06   -1.0090019891254476e-06   1.0433718202271228e-05
-5.292828632029923e-06   -1.0090019891254476e-06   1.0433718202271228e-05
-4.057416693040972e-06   9.412003199000618e-08   8.26578267294344e-06
-4.057416693040972e-06   9.412003199000618e-08   8.26578267294344e-06
-4.057416693040972e-06   9.412003199000618e-08   8.26578267294344e-06
-4.057416693040972e-06   9.412003199000618e-08   8.26578267294344e-06
-3.022349686706877e-06   -1.6324130826173748e-06   8.954974481402577e-06
-3.022349686706877e-06   -1.6324130826173748e-06   8.954974481402577e-06
-3.022349686706877e-06   -1.6324130826173748e-06   8.954974481402577e-06
-3.022349686706877e-06   -1.6324130826173748e-06   8.954974481402577e-06
-3.003623382680069e-06   -5.28211460184831e-08   7.293569177197845e-06
-3.003623382680069e-06   -5.28211460184831e-08   7.293569177197845e-06
-3.003623382680069e-06   -5.28211460184831e-08   7.293569177197845e-06
-3.003623382680069e-06   -5.28211460184831e-08   7.293569177197845e-06
-4.072829817758227e-06   -1.6032679439360051e-06   1.0005847981078717e-05
-4.072829817758227e-06   -1.6032679439360051e-06   1.0005847981078717e-05
-4.072829817758227e-06   -1.6032679439360051e-06   1.0005847981078717e-05
-4.072829817758227e-06   -1.6032679439360051e-06   1.0005847981078717e-05
-3.518560989228191e-06   -8.2274804966972e-07   8.613754663635626e-06
-3.518560989228191e-06   -8.2274804966972e-07   8.613754663635626e-06
-3.518560989228191e-06   -8.2274804966972e-07   8.613754663635626e-06
-3.518560989228191e-06   -8.2274804966972e-07   8.613754663635626e-06
-4.072829817758227e-06   -5.28211460184831e-08   8.223837255948375e-06
-4.072829817758227e-06   -5.28211460184831e-08   8.223837255948375e-06
-4.072829817758227e-06   -5.28211460184831e-08   8.223837255948375e-06
-4.072829817758227e-06   -5.28211460184831e-08   8.223837255948375e-06
-3.0036233826800826e-06   -1.6032679439360051e-06   9.075579902328214e-06
-3.0036233826800826e-06   -1.6032679439360051e-06   9.075579902328214e-06
-3.0036233826800826e-06   -1.6032679439360051e-06   9.075579902328214e-06
-3.0036233826800826e-06   -1.6032679439360051e-06   9.075579902328214e-06
-2.9903499843768577e-06   -2.286123776461084e-07   7.4643682736580375e-06
-2.9903499843768577e-06   -2.286123776461084e-07   7.4643682736580375e-06
-2.9903499843768577e-06   -2.286123776461084e-07   7.4643682736580375e-06
-2.9903499843768577e-06   -2.286123776461084e-07   7.4643682736580375e-06
-4.099082726712039e-06   -1.6502279745526601e-06   1.0165225535693903e-05
-4.099082726712039e-06   -1.6502279745526601e-06   1.0165225535693903e-05
-4.099082726712039e-06   -1.6502279745526601e-06   1.0165225535693903e-05
-4.099082726712039e-06   -1.6502279745526601e-06   1.0165225535693903e-05
-3.4958336133878178e-06   -8.729306017403763e-07   8.693431923132615e-06
-3.4958336133878178e-06   -8.729306017403763e-07   8.693431923132615e-06
-3.4958336133878178e-06   -8.729306017403763e-07   8.693431923132615e-06
-3.4958336133878178e-06   -8.729306017403763e-07   8.693431923132615e-06
-4.099082726712039e-06   -2.2861237764605418e-07   8.317337631801947e-06
-4.099082726712039e-06   -2.2861237764605418e-07   8.317337631801947e-06
-4.099082726712039e-06   -2.2861237764605418e-07   8.317337631801947e-06
-4.099082726712039e-06   -2.2861237764605418e-07   8.317337631801947e-06
-2.9903499843768577e-06   -1.6502279745526601e-06   9.312256177549993e-06
-2.9903499843768577e-06   -1.6502279745526601e-06   9.312256177549993e-06
-2.9903499843768577e-06   -1.6502279745526601e-06   9.312256177549993e-06
-2.9903499843768577e-06   -1.6502279745526601e-06   9.312256177549993e-06
-2.943337785050421e-06   -4.037533818162988e-07   7.730133538079204e-06
-2.943337785050421e-06   -4.037533818162988e-07   7.730133538079204e-06
-2.943337785050421e-06   -4.037533818162988e-07   7.730133538079204e-06
-2.943337785050421e-06   -4.037533818162988e-07   7.730133538079204e-06
-4.071373464271629e-06   -1.7134929733854224e-06   1.0396036758389301e-05
-4.071373464271629e-06   -1.7134929733854224e-06   1.0396036758389301e-05
-4.071373464271629e-06   -1.7134929733854224e-06   1.0396036758389301e-05
-4.071373464271629e-06   -1.7134929733854224e-06   1.0396036758389301e-05
-3.4698909605373253e-06   -9.480732226777228e-07   8.934314068407531e-06
-3.4698909605373253e-06   -9.480732226777228e-07   8.934314068407531e-06
-3.4698909605373253e-06   -9.480732226777228e-07   8.934314068407531e-06
-3.4698909605373253e-06   -9.480732226777228e-07   8.934314068407531e-06
-3.022349686706877e-06   4.366797366557769e-07   5.666050022498062e-06
-3.022349686706877e-06   4.366797366557769e-07   5.666050022498062e-06
-3.022349686706877e-06   4.366797366557769e-07   5.666050022498062e-06
-3.022349686706877e-06   4.366797366557769e-07   5.666050022498062e-06
-2.563763234168082e-06   -6.736009872209791e-07   5.764192342403338e-06
-2.563763234168082e-06   -6.736009872209791e-07   5.764192342403338e-06
-2.563763234168082e-06   -6.736009872209791e-07   5.764192342403338e-06
-2.563763234168082e-06   -6.736009872209791e-07   5.764192342403338e-06
-2.518225478964105e-06   2.423367628669572e-07   5.117281660990333e-06
-2.518225478964105e-06   2.423367628669572e-07   5.117281660990333e-06
-2.518225478964105e-06   2.423367628669572e-07   5.117281660990333e-06
-2.518225478964105e-06   2.423367628669572e-07   5.117281660990333e-06
-3.003623382680069e-06   -7.849883522975849e-07   6.5426732362824024e-06
-3.003623382680069e-06   -7.849883522975849e-07   6.5426732362824024e-06
-3.003623382680069e-06   -7.849883522975849e-07   6.5426732362824024e-06
-3.003623382680069e-06   -7.849883522975849e-07   6.5426732362824024e-06
-2.7571524338315087e-06   -1.5428524317270863e-07   5.753466456059973e-06
-2.7571524338315087e-06   -1.5428524317270863e-07   5.753466456059973e-06
-2.7571524338315087e-06   -1.5428524317270863e-07   5.753466456059973e-06
-2.7571524338315087e-06   -1.5428524317270863e-07   5.753466456059973e-06
-3.003623382680069e-06   2.423367628669572e-07   5.733676730089048e-06
-3.003623382680069e-06   2.423367628669572e-07   5.733676730089048e-06
-3.003623382680069e-06   2.423367628669572e-07   5.733676730089048e-06
-3.003623382680069e-06   2.423367628669572e-07   5.733676730089048e-06
-2.518225478964105e-06   -7.849883522975849e-07   5.926278167183661e-06
-2.518225478964105e-06   -7.849883522975849e-07   5.926278167183661e-06
-2.518225478964105e-06   -7.849883522975849e-07   5.926278167183661e-06
-2.518225478964105e-06   -7.849883522975849e-07   5.926278167183661e-06
-2.5032444894099453e-06   7.550562164892159e-08   5.356583083654094e-06
-2.5032444894099453e-06   7.550562164892159e-08   5.356583083654094e-06
-2.5032444894099453e-06   7.550562164892159e-08   5.356583083654094e-06
-2.5032444894099453e-06   7.550562164892159e-08   5.356583083654094e-06
-2.990349984376844e-06   -8.70951815178713e-07   6.7363000373620865e-06
-2.990349984376844e-06   -8.70951815178713e-07   6.7363000373620865e-06
-2.990349984376844e-06   -8.70951815178713e-07   6.7363000373620865e-06
-2.990349984376844e-06   -8.70951815178713e-07   6.7363000373620865e-06
-2.711683132604861e-06   -2.712979671051839e-07   5.912062975564413e-06
-2.711683132604861e-06   -2.712979671051839e-07   5.912062975564413e-06
-2.711683132604861e-06   -2.712979671051839e-07   5.912062975564413e-06
-2.711683132604861e-06   -2.712979671051839e-07   5.912062975564413e-06
-2.990349984376844e-06   7.550562164892159e-08   5.9244575457506154e-06
-2.990349984376844e-06   7.550562164892159e-08   5.9244575457506154e-06
-2.990349984376844e-06   7.550562164892159e-08   5.9244575457506154e-06
-2.990349984376844e-06   7.550562164892159e-08   5.9244575457506154e-06
-2.5032444894099453e-06   -8.70951815178713e-07   6.168425575265552e-06
-2.5032444894099453e-06   -8.70951815178713e-07   6.168425575265552e-06
-2.5032444894099453e-06   -8.70951815178713e-07   6.168425575265552e-06
-2.5032444894099453e-06   -8.70951815178713e-07   6.168425575265552e-06
-2.4724498722927108e-06   -9.294538899927473e-08   5.657069964605348e-06
-2.4724498722927108e-06   -9.294538899927473e-08   5.657069964605348e-06
-2.4724498722927108e-06   -9.294538899927473e-08   5.657069964605348e-06
-2.4724498722927108e-06   -9.294538899927473e-08   5.657069964605348e-06
-2.943337785050421e-06   -9.828094005118768e-07   6.975801559442349e-06
-2.943337785050421e-06   -9.828094005118768e-07   6.975801559442349e-06
-2.943337785050421e-06   -9.828094005118768e-07   6.975801559442349e-06
-2.943337785050421e-06   -9.828094005118768e-07   6.975801559442349e-06
-2.679850964588494e-06   -3.747344339247074e-07   6.171811878720332e-06
-2.679850964588494e-06   -3.747344339247074e-07   6.171811878720332e-06
-2.679850964588494e-06   -3.747344339247074e-07   6.171811878720332e-06
-2.679850964588494e-06   -3.747344339247074e-07   6.171811878720332e-06
-2.563763234168082e-06   7.290827219835457e-07   1.3602712595667027e-06
-2.563763234168082e-06   7.290827219835457e-07   1.3602712595667027e-06
-2.563763234168082e-06   7.290827219835457e-07   1.3602712595667027e-06
-2.563763234168082e-06   7.290827219835457e-07   1.3602712595667027e-06
-1.550654468091033e-06   -6.928266972939536e-08   2.5697666346673784e-06
-1.550654468091033e-06   -6.928266972939536e-08   2.5697666346673784e-06
-1.550654468091033e-06   -6.928266972939536e-08   2.5697666346673784e-06
-1.550654468091033e-06   -6.928266972939536e-08   2.5697666346673784e-06
-1.6462121706908785e-06   5.903618378517474e-07   1.37566588042764e-06
-1.6462121706908785e-06   5.903618378517474e-07   1.37566588042764e-06
-1.6462121706908785e-06   5.903618378517474e-07   1.37566588042764e-06
-1.6462121706908785e-06   5.903618378517474e-07   1.37566588042764e-06
-2.518225478964105e-06   -9.914898174958535e-08   3.2427278859772208e-06
-2.518225478964105e-06   -9.914898174958535e-08   3.2427278859772208e-06
-2.518225478964105e-06   -9.914898174958535e-08   3.2427278859772208e-06
-2.518225478964105e-06   -9.914898174958535e-08   3.2427278859772208e-06
-1.998342241484464e-06   3.763137391213096e-07   2.0909781909888236e-06
-1.998342241484464e-06   3.763137391213096e-07   2.0909781909888236e-06
-1.998342241484464e-06   3.763137391213096e-07   2.0909781909888236e-06
-1.998342241484464e-06   3.763137391213096e-07   2.0909781909888236e-06
-2.518225478964105e-06   5.903618378518016e-07   1.7893723721883745e-06
-2.518225478964105e-06   5.903618378518016e-07   1.7893723721883745e-06
-2.518225478964105e-06   5.903618378518016e-07   1.7893723721883745e-06
-2.518225478964105e-06   5.903618378518016e-07   1.7893723721883745e-06
-1.6462121706909056e-06   -9.914898174958535e-08   2.829021394216405e-06
-1.6462121706909056e-06   -9.914898174958535e-08   2.829021394216405e-06
-1.6462121706909056e-06   -9.914898174958535e-08   2.829021394216405e-06
-1.6462121706909056e-06   -9.914898174958535e-08   2.829021394216405e-06
-1.7258756059074156e-06   4.999537491085491e-07   1.7681380365791024e-06
-1.7258756059074156e-06   4.999537491085491e-07   1.7681380365791024e-06
-1.7258756059074156e-06   4.999537491085491e-07   1.7681380365791024e-06
-1.7258756059074156e-06   4.999537491085491e-07   1.7681380365791024e-06
-2.5032444894099453e-06   -1.387324933461206e-07   3.446964587889374e-06
-2.5032444894099453e-06   -1.387324933461206e-07   3.446964587889374e-06
-2.5032444894099453e-06   -1.387324933461206e-07   3.446964587889374e-06
-2.5032444894099453e-06   -1.387324933461206e-07   3.446964587889374e-06
-2.0434969428356303e-06   3.0925807047198824e-07   2.4119243386412333e-06
-2.0434969428356303e-06   3.0925807047198824e-07   2.4119243386412333e-06
-2.0434969428356303e-06   3.0925807047198824e-07   2.4119243386412333e-06
-2.0434969428356303e-06   3.0925807047198824e-07   2.4119243386412333e-06
-2.5032444894099453e-06   4.999537491085491e-07   2.151349782051861e-06
-2.5032444894099453e-06   4.999537491085491e-07   2.151349782051861e-06
-2.5032444894099453e-06   4.999537491085491e-07   2.151349782051861e-06
-2.5032444894099453e-06   4.999537491085491e-07   2.151349782051861e-06
-1.7258756059074427e-06   -1.387324933461206e-07   3.0637528424165886e-06
-1.7258756059074427e-06   -1.387324933461206e-07   3.0637528424165886e-06
-1.7258756059074427e-06   -1.387324933461206e-07   3.0637528424165886e-06
-1.7258756059074427e-06   -1.387324933461206e-07   3.0637528424165886e-06
-1.9055735686856188e-06   3.1466118250009136e-07   2.4706855902096258e-06
-1.9055735686856188e-06   3.1466118250009136e-07   2.4706855902096258e-06
-1.9055735686856188e-06   3.1466118250009136e-07   2.4706855902096258e-06
-1.9055735686856188e-06   3.1466118250009136e-07   2.4706855902096258e-06
-2.4724498722927108e-06   -1.8964230009944037e-07   3.718061519114341e-06
-2.4724498722927108e-06   -1.8964230009944037e-07   3.718061519114341e-06
-2.4724498722927108e-06   -1.8964230009944037e-07   3.718061519114341e-06
-2.4724498722927108e-06   -1.8964230009944037e-07   3.718061519114341e-06
-2.0564307602716995e-06   2.6236989266882724e-07   2.7534890167518213e-06
-2.0564307602716995e-06   2.6236989266882724e-07   2.7534890167518213e-06
-2.0564307602716995e-06   2.6236989266882724e-07   2.7534890167518213e-06
-2.0564307602716995e-06   2.6236989266882724e-07   2.7534890167518213e-06
-2.29040722628018e-05   1.7595793628206254e-06   1.0227972362696975e-05
-2.29040722628018e-05   1.7595793628206254e-06   1.0227972362696975e-05
-2.29040722628018e-05   1.7595793628206254e-06   1.0227972362696975e-05
-2.29040722628018e-05   1.7595793628206254e-06   1.0227972362696975e-05
-5.3369341389212835e-06   -1.1698367653934288e-05   3.1431767692444904e-05
-5.3369341389212835e-06   -1.1698367653934288e-05   3.1431767692444904e-05
-5.3369341389212835e-06   -1.1698367653934288e-05   3.1431767692444904e-05
-5.3369341389212835e-06   -1.1698367653934288e-05   3.1431767692444904e-05
-6.296742361732998e-06   6.813363294071303e-07   5.572936684422287e-06
-6.296742361732998e-06   6.813363294071303e-07   5.572936684422287e-06
-6.296742361732998e-06   6.813363294071303e-07   5.572936684422287e-06
-6.296742361732998e-06   6.813363294071303e-07   5.572936684422287e-06
-2.0889509875203466e-05   -9.169008707129495e-06   3.5804422895461655e-05
-2.0889509875203466e-05   -9.169008707129495e-06   3.5804422895461655e-05
-2.0889509875203466e-05   -9.169008707129495e-06   3.5804422895461655e-05
-2.0889509875203466e-05   -9.169008707129495e-06   3.5804422895461655e-05
-1.3915451869760408e-05   -4.5613925594122084e-06   2.1416423197759513e-05
-1.3915451869760408e-05   -4.5613925594122084e-06   2.1416423197759513e-05
-1.3915451869760408e-05   -4.5613925594122084e-06   2.1416423197759513e-05
-1.3915451869760408e-05   -4.5613925594122084e-06   2.1416423197759513e-05
-2.0889509875203432e-05   6.813363294071303e-07   1.148314370634424e-05
-2.0889509875203432e-05   6.813363294071303e-07   1.148314370634424e-05
-2.0889509875203432e-05   6.813363294071303e-07   1.148314370634424e-05
-2.0889509875203432e-05   6.813363294071303e-07   1.148314370634424e-05
-6.296742361733011e-06   -9.169008707129495e-06   2.989421587353969e-05
-6.296742361733011e-06   -9.169008707129495e-06   2.989421587353969e-05
-6.296742361733011e-06   -9.169008707129495e-06   2.989421587353969e-05
-6.296742361733011e-06   -9.169008707129495e-06   2.989421587353969e-05
-6.455391435632553e-06   4.777376978115037e-07   6.126929123997766e-06
-6.455391435632553e-06   4.777376978115037e-07   6.126929123997766e-06
-6.455391435632553e-06   4.777376978115037e-07   6.126929123997766e-06
-6.455391435632553e-06   4.777376978115037e-07   6.126929123997766e-06
-1.971341705953511e-05   -7.960423215142025e-06   3.3286535044940766e-05
-1.971341705953511e-05   -7.960423215142025e-06   3.3286535044940766e-05
-1.971341705953511e-05   -7.960423215142025e-06   3.3286535044940766e-05
-1.971341705953511e-05   -7.960423215142025e-06   3.3286535044940766e-05
-1.3512040933684523e-05   -4.329557698716844e-06   2.077238885866802e-05
-1.3512040933684523e-05   -4.329557698716844e-06   2.077238885866802e-05
-1.3512040933684523e-05   -4.329557698716844e-06   2.077238885866802e-05
-1.3512040933684523e-05   -4.329557698716844e-06   2.077238885866802e-05
-1.9713417059535073e-05   4.777376978115037e-07   1.1189825671769864e-05
-1.9713417059535073e-05   4.777376978115037e-07   1.1189825671769864e-05
-1.9713417059535073e-05   4.777376978115037e-07   1.1189825671769864e-05
-1.9713417059535073e-05   4.777376978115037e-07   1.1189825671769864e-05
-6.455391435632563e-06   -7.960423215142025e-06   2.822363849716866e-05
-6.455391435632563e-06   -7.960423215142025e-06   2.822363849716866e-05
-6.455391435632563e-06   -7.960423215142025e-06   2.822363849716866e-05
-6.455391435632563e-06   -7.960423215142025e-06   2.822363849716866e-05
-7.104358294116505e-06   -3.9469489128003926e-07   7.65713900863289e-06
-7.104358294116505e-06   -3.9469489128003926e-07   7.65713900863289e-06
-7.104358294116505e-06   -3.9469489128003926e-07   7.65713900863289e-06
-7.104358294116505e-06   -3.9469489128003926e-07   7.65713900863289e-06
-1.8200411157275166e-05   -6.348888398121239e-06   2.9723076551335325e-05
-1.8200411157275166e-05   -6.348888398121239e-06   2.9723076551335325e-05
-1.8200411157275166e-05   -6.348888398121239e-06   2.9723076551335325e-05
-1.8200411157275166e-05   -6.348888398121239e-06   2.9723076551335325e-05
-1.3013681131211047e-05   -4.000180109389387e-06   1.966930153465603e-05
-1.3013681131211047e-05   -4.000180109389387e-06   1.966930153465603e-05
-1.3013681131211047e-05   -4.000180109389387e-06   1.966930153465603e-05
-1.3013681131211047e-05   -4.000180109389387e-06   1.966930153465603e-05
-5.336934138921273e-06   -2.0881874145582625e-06   5.886382454919572e-06
-5.336934138921273e-06   -2.0881874145582625e-06   5.886382454919572e-06
-5.336934138921273e-06   -2.0881874145582625e-06   5.886382454919572e-06
-5.336934138921273e-06   -2.0881874145582625e-06   5.886382454919572e-06
-1.8451589079049893e-06   -3.766311484490208e-06   1.0699133397987576e-05
-1.8451589079049893e-06   -3.766311484490208e-06   1.0699133397987576e-05
-1.8451589079049893e-06   -3.766311484490208e-06   1.0699133397987576e-05
-1.8451589079049893e-06   -3.766311484490208e-06   1.0699133397987576e-05
-2.080364937305344e-06   -1.720157002670417e-06   5.167227387911099e-06
-2.080364937305344e-06   -1.720157002670417e-06   5.167227387911099e-06
-2.080364937305344e-06   -1.720157002670417e-06   5.167227387911099e-06
-2.080364937305344e-06   -1.720157002670417e-06   5.167227387911099e-06
-6.296742361733011e-06   -4.935042680110227e-06   1.4123454501754395e-05
-6.296742361733011e-06   -4.935042680110227e-06   1.4123454501754395e-05
-6.296742361733011e-06   -4.935042680110227e-06   1.4123454501754395e-05
-6.296742361733011e-06   -4.935042680110227e-06   1.4123454501754395e-05
-3.686680953303195e-06   -2.564491944482869e-06   8.351021712994902e-06
-3.686680953303195e-06   -2.564491944482869e-06   8.351021712994902e-06
-3.686680953303195e-06   -2.564491944482869e-06   8.351021712994902e-06
-3.686680953303195e-06   -2.564491944482869e-06   8.351021712994902e-06
-6.296742361732994e-06   -1.720157002670417e-06   7.096158794374908e-06
-6.296742361732994e-06   -1.720157002670417e-06   7.096158794374908e-06
-6.296742361732994e-06   -1.720157002670417e-06   7.096158794374908e-06
-6.296742361732994e-06   -1.720157002670417e-06   7.096158794374908e-06
-2.0803649373053306e-06   -4.935042680110227e-06   1.2194523095290491e-05
-2.0803649373053306e-06   -4.935042680110227e-06   1.2194523095290491e-05
-2.0803649373053306e-06   -4.935042680110227e-06   1.2194523095290491e-05
-2.0803649373053306e-06   -4.935042680110227e-06   1.2194523095290491e-05
-2.283347177005926e-06   -1.7557130120764229e-06   5.8124080331876325e-06
-2.283347177005926e-06   -1.7557130120764229e-06   5.8124080331876325e-06
-2.283347177005926e-06   -1.7557130120764229e-06   5.8124080331876325e-06
-2.283347177005926e-06   -1.7557130120764229e-06   5.8124080331876325e-06
-6.455391435632563e-06   -4.545850053908194e-06   1.4439897355997711e-05
-6.455391435632563e-06   -4.545850053908194e-06   1.4439897355997711e-05
-6.455391435632563e-06   -4.545850053908194e-06   1.4439897355997711e-05
-6.455391435632563e-06   -4.545850053908194e-06   1.4439897355997711e-05
-4.178733340335097e-06   -3.1169257223471146e-06   9.78811259823203e-06
-4.178733340335097e-06   -3.1169257223471146e-06   9.78811259823203e-06
-4.178733340335097e-06   -3.1169257223471146e-06   9.78811259823203e-06
-4.178733340335097e-06   -3.1169257223471146e-06   9.78811259823203e-06
-6.455391435632553e-06   -1.7557130120764229e-06   7.486490258286688e-06
-6.455391435632553e-06   -1.7557130120764229e-06   7.486490258286688e-06
-6.455391435632553e-06   -1.7557130120764229e-06   7.486490258286688e-06
-6.455391435632553e-06   -1.7557130120764229e-06   7.486490258286688e-06
-2.283347177005926e-06   -4.545850053908194e-06   1.2765815130898649e-05
-2.283347177005926e-06   -4.545850053908194e-06   1.2765815130898649e-05
-2.283347177005926e-06   -4.545850053908194e-06   1.2765815130898649e-05
-2.283347177005926e-06   -4.545850053908194e-06   1.2765815130898649e-05
-2.6167331771585013e-06   -1.7619955003900744e-06   6.3751435770124e-06
-2.6167331771585013e-06   -1.7619955003900744e-06   6.3751435770124e-06
-2.6167331771585013e-06   -1.7619955003900744e-06   6.3751435770124e-06
-2.6167331771585013e-06   -1.7619955003900744e-06   6.3751435770124e-06
-7.104358294116512e-06   -4.296935275395352e-06   1.537548263694556e-05
-7.104358294116512e-06   -4.296935275395352e-06   1.537548263694556e-05
-7.104358294116512e-06   -4.296935275395352e-06   1.537548263694556e-05
-7.104358294116512e-06   -4.296935275395352e-06   1.537548263694556e-05
-4.47703357105265e-06   -2.8489451999142383e-06   1.0127814053217135e-05
-4.47703357105265e-06   -2.8489451999142383e-06   1.0127814053217135e-05
-4.47703357105265e-06   -2.8489451999142383e-06   1.0127814053217135e-05
-4.47703357105265e-06   -2.8489451999142383e-06   1.0127814053217135e-05
-1.8451589079049893e-06   -1.6324130826173748e-06   3.2319048163966766e-06
-1.8451589079049893e-06   -1.6324130826173748e-06   3.2319048163966766e-06
-1.8451589079049893e-06   -1.6324130826173748e-06   3.2319048163966766e-06
-1.8451589079049893e-06   -1.6324130826173748e-06   3.2319048163966766e-06
-1.038070147395392e-06   -1.1313193729029135e-06   4.877708976408032e-06
-1.038070147395392e-06   -1.1313193729029135e-06   4.877708976408032e-06
-1.038070147395392e-06   -1.1313193729029135e-06   4.877708976408032e-06
-1.038070147395392e-06   -1.1313193729029135e-06   4.877708976408032e-06
-1.0077416181914037e-06   -1.6032679439360322e-06   3.6321910803119686e-06
-1.0077416181914037e-06   -1.6032679439360322e-06   3.6321910803119686e-06
-1.0077416181914037e-06   -1.6032679439360322e-06   3.6321910803119686e-06
-1.0077416181914037e-06   -1.6032679439360322e-06   3.6321910803119686e-06
-2.0803649373053306e-06   -1.4548796745187204e-06   5.330863650518077e-06
-2.0803649373053306e-06   -1.4548796745187204e-06   5.330863650518077e-06
-2.0803649373053306e-06   -1.4548796745187204e-06   5.330863650518077e-06
-2.0803649373053306e-06   -1.4548796745187204e-06   5.330863650518077e-06
-1.3974215000438255e-06   -1.3649040794706118e-06   4.138639231386621e-06
-1.3974215000438255e-06   -1.3649040794706118e-06   4.138639231386621e-06
-1.3974215000438255e-06   -1.3649040794706118e-06   4.138639231386621e-06
-1.3974215000438255e-06   -1.3649040794706118e-06   4.138639231386621e-06
-2.0803649373053306e-06   -1.6032679439360051e-06   3.5431581186615862e-06
-2.0803649373053306e-06   -1.6032679439360051e-06   3.5431581186615862e-06
-2.0803649373053306e-06   -1.6032679439360051e-06   3.5431581186615862e-06
-2.0803649373053306e-06   -1.6032679439360051e-06   3.5431581186615862e-06
-1.0077416181914037e-06   -1.4548796745187204e-06   5.419896612168459e-06
-1.0077416181914037e-06   -1.4548796745187204e-06   5.419896612168459e-06
-1.0077416181914037e-06   -1.4548796745187204e-06   5.419896612168459e-06
-1.0077416181914037e-06   -1.4548796745187204e-06   5.419896612168459e-06
-1.0197757386968826e-06   -1.6502279745526601e-06   3.8902606948849146e-06
-1.0197757386968826e-06   -1.6502279745526601e-06   3.8902606948849146e-06
-1.0197757386968826e-06   -1.6502279745526601e-06   3.8902606948849146e-06
-1.0197757386968826e-06   -1.6502279745526601e-06   3.8902606948849146e-06
-2.283347177005926e-06   -1.8370692689408195e-06   6.108317868699491e-06
-2.283347177005926e-06   -1.8370692689408195e-06   6.108317868699491e-06
-2.283347177005926e-06   -1.8370692689408195e-06   6.108317868699491e-06
-2.283347177005926e-06   -1.8370692689408195e-06   6.108317868699491e-06
-1.4945508966928702e-06   -1.4917164826922164e-06   4.5864457297619375e-06
-1.4945508966928702e-06   -1.4917164826922164e-06   4.5864457297619375e-06
-1.4945508966928702e-06   -1.4917164826922164e-06   4.5864457297619375e-06
-1.4945508966928702e-06   -1.4917164826922164e-06   4.5864457297619375e-06
-2.283347177005926e-06   -1.6502279745526872e-06   4.0023654715177885e-06
-2.283347177005926e-06   -1.6502279745526872e-06   4.0023654715177885e-06
-2.283347177005926e-06   -1.6502279745526872e-06   4.0023654715177885e-06
-2.283347177005926e-06   -1.6502279745526872e-06   4.0023654715177885e-06
-1.0197757386968826e-06   -1.8370692689408195e-06   5.996213092066604e-06
-1.0197757386968826e-06   -1.8370692689408195e-06   5.996213092066604e-06
-1.0197757386968826e-06   -1.8370692689408195e-06   5.996213092066604e-06
-1.0197757386968826e-06   -1.8370692689408195e-06   5.996213092066604e-06
-1.0539376148297895e-06   -1.7134929733854496e-06   4.2804308855735385e-06
-1.0539376148297895e-06   -1.7134929733854496e-06   4.2804308855735385e-06
-1.0539376148297895e-06   -1.7134929733854496e-06   4.2804308855735385e-06
-1.0539376148297895e-06   -1.7134929733854496e-06   4.2804308855735385e-06
-2.6167331771584877e-06   -2.198732236578588e-06   7.176233714037205e-06
-2.6167331771584877e-06   -2.198732236578588e-06   7.176233714037205e-06
-2.6167331771584877e-06   -2.198732236578588e-06   7.176233714037205e-06
-2.6167331771584877e-06   -2.198732236578588e-06   7.176233714037205e-06
-1.6076716321309397e-06   -1.6195025283307284e-06   5.146926647375919e-06
-1.6076716321309397e-06   -1.6195025283307284e-06   5.146926647375919e-06
-1.6076716321309397e-06   -1.6195025283307284e-06   5.146926647375919e-06
-1.6076716321309397e-06   -1.6195025283307284e-06   5.146926647375919e-06
-1.038070147395392e-06   -6.73600987220952e-07   1.007947337552153e-06
-1.038070147395392e-06   -6.73600987220952e-07   1.007947337552153e-06
-1.038070147395392e-06   -6.73600987220952e-07   1.007947337552153e-06
-1.038070147395392e-06   -6.73600987220952e-07   1.007947337552153e-06
-7.904872826176553e-07   1.0437353025621277e-07   1.8873701560013676e-06
-7.904872826176553e-07   1.0437353025621277e-07   1.8873701560013676e-06
-7.904872826176553e-07   1.0437353025621277e-07   1.8873701560013676e-06
-7.904872826176553e-07   1.0437353025621277e-07   1.8873701560013676e-06
-6.482811593935486e-07   -7.849883522975849e-07   1.5590895077450097e-06
-6.482811593935486e-07   -7.849883522975849e-07   1.5590895077450097e-06
-6.482811593935486e-07   -7.849883522975849e-07   1.5590895077450097e-06
-6.482811593935486e-07   -7.849883522975849e-07   1.5590895077450097e-06
-1.0077416181914037e-06   -1.8646529832927976e-08   1.6983851789292349e-06
-1.0077416181914037e-06   -1.8646529832927976e-08   1.6983851789292349e-06
-1.0077416181914037e-06   -1.8646529832927976e-08   1.6983851789292349e-06
-1.0077416181914037e-06   -1.8646529832927976e-08   1.6983851789292349e-06
-8.166347788018629e-07   -3.437341795781146e-07   1.574926369793709e-06
-8.166347788018629e-07   -3.437341795781146e-07   1.574926369793709e-06
-8.166347788018629e-07   -3.437341795781146e-07   1.574926369793709e-06
-8.166347788018629e-07   -3.437341795781146e-07   1.574926369793709e-06
-1.0077416181914037e-06   -7.849883522975849e-07   1.0992844142662108e-06
-1.0077416181914037e-06   -7.849883522975849e-07   1.0992844142662108e-06
-1.0077416181914037e-06   -7.849883522975849e-07   1.0992844142662108e-06
-1.0077416181914037e-06   -7.849883522975849e-07   1.0992844142662108e-06
-6.482811593935486e-07   -1.8646529832927976e-08   2.1581902724080338e-06
-6.482811593935486e-07   -1.8646529832927976e-08   2.1581902724080338e-06
-6.482811593935486e-07   -1.8646529832927976e-08   2.1581902724080338e-06
-6.482811593935486e-07   -1.8646529832927976e-08   2.1581902724080338e-06
-5.739722107948029e-07   -8.70951815178713e-07   1.7136557192377801e-06
-5.739722107948029e-07   -8.70951815178713e-07   1.7136557192377801e-06
-5.739722107948029e-07   -8.70951815178713e-07   1.7136557192377801e-06
-5.739722107948029e-07   -8.70951815178713e-07   1.7136557192377801e-06
-1.0197757386968826e-06   -2.0536654094419518e-07   2.057310434533762e-06
-1.0197757386968826e-06   -2.0536654094419518e-07   2.057310434533762e-06
-1.0197757386968826e-06   -2.0536654094419518e-07   2.057310434533762e-06
-1.0197757386968826e-06   -2.0536654094419518e-07   2.057310434533762e-06
-7.482523154274764e-07   -4.3434010477741956e-07   1.742155534051402e-06
-7.482523154274764e-07   -4.3434010477741956e-07   1.742155534051402e-06
-7.482523154274764e-07   -4.3434010477741956e-07   1.742155534051402e-06
-7.482523154274764e-07   -4.3434010477741956e-07   1.742155534051402e-06
-1.0197757386968826e-06   -8.70951815178713e-07   1.3143045546970078e-06
-1.0197757386968826e-06   -8.70951815178713e-07   1.3143045546970078e-06
-1.0197757386968826e-06   -8.70951815178713e-07   1.3143045546970078e-06
-1.0197757386968826e-06   -8.70951815178713e-07   1.3143045546970078e-06
-5.739722107948029e-07   -2.0536654094419518e-07   2.4566615990744803e-06
-5.739722107948029e-07   -2.0536654094419518e-07   2.4566615990744803e-06
-5.739722107948029e-07   -2.0536654094419518e-07   2.4566615990744803e-06
-5.739722107948029e-07   -2.0536654094419518e-07   2.4566615990744803e-06
-4.605282761537303e-07   -9.828094005118768e-07   1.8886399049016563e-06
-4.605282761537303e-07   -9.828094005118768e-07   1.8886399049016563e-06
-4.605282761537303e-07   -9.828094005118768e-07   1.8886399049016563e-06
-4.605282761537303e-07   -9.828094005118768e-07   1.8886399049016563e-06
-1.0539376148297895e-06   -5.784752949558589e-07   2.6350550060280436e-06
-1.0539376148297895e-06   -5.784752949558589e-07   2.6350550060280436e-06
-1.0539376148297895e-06   -5.784752949558589e-07   2.6350550060280436e-06
-1.0539376148297895e-06   -5.784752949558589e-07   2.6350550060280436e-06
-6.967118347836173e-07   -5.689349622348832e-07   2.033954506318683e-06
-6.967118347836173e-07   -5.689349622348832e-07   2.033954506318683e-06
-6.967118347836173e-07   -5.689349622348832e-07   2.033954506318683e-06
-6.967118347836173e-07   -5.689349622348832e-07   2.033954506318683e-06
-7.904872826176553e-07   -6.928266972942246e-08   -1.2406744246696704e-06
-7.904872826176553e-07   -6.928266972942246e-08   -1.2406744246696704e-06
-7.904872826176553e-07   -6.928266972942246e-08   -1.2406744246696704e-06
-7.904872826176553e-07   -6.928266972942246e-08   -1.2406744246696704e-06
-1.6777485415994772e-07   1.0484971734388529e-07   -9.83409449961648e-08
-1.6777485415994772e-07   1.0484971734388529e-07   -9.83409449961648e-08
-1.6777485415994772e-07   1.0484971734388529e-07   -9.83409449961648e-08
-1.6777485415994772e-07   1.0484971734388529e-07   -9.83409449961648e-08
-2.8895616848161228e-08   -9.914898174958535e-08   -9.58112180631009e-07
-2.8895616848161228e-08   -9.914898174958535e-08   -9.58112180631009e-07
-2.8895616848161228e-08   -9.914898174958535e-08   -9.58112180631009e-07
-2.8895616848161228e-08   -9.914898174958535e-08   -9.58112180631009e-07
-6.482811593935486e-07   1.7809867296779728e-07   -9.215153588592933e-08
-6.482811593935486e-07   1.7809867296779728e-07   -9.215153588592933e-08
-6.482811593935486e-07   1.7809867296779728e-07   -9.215153588592933e-08
-6.482811593935486e-07   1.7809867296779728e-07   -9.215153588592933e-08
-3.735937176898034e-07   5.098123306180463e-08   -4.736934747820139e-07
-3.735937176898034e-07   5.098123306180463e-08   -4.736934747820139e-07
-3.735937176898034e-07   5.098123306180463e-08   -4.736934747820139e-07
-3.735937176898034e-07   5.098123306180463e-08   -4.736934747820139e-07
-6.482811593935215e-07   -9.914898174958535e-08   -1.1244607734615795e-06
-6.482811593935215e-07   -9.914898174958535e-08   -1.1244607734615795e-06
-6.482811593935215e-07   -9.914898174958535e-08   -1.1244607734615795e-06
-6.482811593935215e-07   -9.914898174958535e-08   -1.1244607734615795e-06
-2.8895616848161228e-08   1.7809867296779728e-07   7.419705694446501e-08
-2.8895616848161228e-08   1.7809867296779728e-07   7.419705694446501e-08
-2.8895616848161228e-08   1.7809867296779728e-07   7.419705694446501e-08
-2.8895616848161228e-08   1.7809867296779728e-07   7.419705694446501e-08
3.995232338908331e-08   -1.387324933460935e-07   -8.385691021212441e-07
3.995232338908331e-08   -1.387324933460935e-07   -8.385691021212441e-07
3.995232338908331e-08   -1.387324933460935e-07   -8.385691021212441e-07
3.995232338908331e-08   -1.387324933460935e-07   -8.385691021212441e-07
-5.739722107948029e-07   1.433277833491051e-07   1.5402288834696475e-08
-5.739722107948029e-07   1.433277833491051e-07   1.5402288834696475e-08
-5.739722107948029e-07   1.433277833491051e-07   1.5402288834696475e-08
-5.739722107948029e-07   1.433277833491051e-07   1.5402288834696475e-08
-2.7293303078743754e-07   3.254846852815147e-08   -4.198620889515328e-07
-2.7293303078743754e-07   3.254846852815147e-08   -4.198620889515328e-07
-2.7293303078743754e-07   3.254846852815147e-08   -4.198620889515328e-07
-2.7293303078743754e-07   3.254846852815147e-08   -4.198620889515328e-07
-5.739722107948029e-07   -1.387324933461206e-07   -1.007805268138411e-06
-5.739722107948029e-07   -1.387324933461206e-07   -1.007805268138411e-06
-5.739722107948029e-07   -1.387324933461206e-07   -1.007805268138411e-06
-5.739722107948029e-07   -1.387324933461206e-07   -1.007805268138411e-06
3.995232338908331e-08   1.433277833491051e-07   1.846384548518363e-07
3.995232338908331e-08   1.433277833491051e-07   1.846384548518363e-07
3.995232338908331e-08   1.433277833491051e-07   1.846384548518363e-07
3.995232338908331e-08   1.433277833491051e-07   1.846384548518363e-07
1.230539200688073e-07   -1.8964230009944037e-07   -6.581686885082636e-07
1.230539200688073e-07   -1.8964230009944037e-07   -6.581686885082636e-07
1.230539200688073e-07   -1.8964230009944037e-07   -6.581686885082636e-07
1.230539200688073e-07   -1.8964230009944037e-07   -6.581686885082636e-07
-4.605282761537303e-07   1.053794332512555e-07   1.3745526518540259e-07
-4.605282761537303e-07   1.053794332512555e-07   1.3745526518540259e-07
-4.605282761537303e-07   1.053794332512555e-07   1.3745526518540259e-07
-4.605282761537303e-07   1.053794332512555e-07   1.3745526518540259e-07
-1.8272716653464766e-07   8.476478445705788e-09   -2.674048112964386e-07
-1.8272716653464766e-07   8.476478445705788e-09   -2.674048112964386e-07
-1.8272716653464766e-07   8.476478445705788e-09   -2.674048112964386e-07
-1.8272716653464766e-07   8.476478445705788e-09   -2.674048112964386e-07
              </DataArray>   
             <DataArray type="Float64" NumberOfComponents="3" Name="Stress" format="ascii">   
-1.1963337128571536   -0.2990834282142884   -0.2990834282142884
-1.1963337128571536   -0.2990834282142884   -0.2990834282142884
-1.1963337128571536   -0.2990834282142884   -0.2990834282142884
-1.1963337128571536   -0.2990834282142884   -0.2990834282142884
-0.6920172982610414   -0.02253634626853318   -0.014114484599877998
-0.6920172982610414   -0.02253634626853318   -0.014114484599877998
-0.6920172982610414   -0.02253634626853318   -0.014114484599877998
-0.6920172982610414   -0.02253634626853318   -0.014114484599877998
-0.7453834114909575   -0.1863458528727394   -0.1863458528727394
-0.7453834114909575   -0.1863458528727394   -0.1863458528727394
-0.7453834114909575   -0.1863458528727394   -0.1863458528727394
-0.7453834114909575   -0.1863458528727394   -0.1863458528727394
-1.1527833821248188   -0.0951501163883802   -0.03653959118646991
-1.1527833821248188   -0.0951501163883802   -0.03653959118646991
-1.1527833821248188   -0.0951501163883802   -0.03653959118646991
-1.1527833821248188   -0.0951501163883802   -0.03653959118646991
-0.9039760348708344   -0.14848710255689998   -0.0025295420140286403
-0.9039760348708344   -0.14848710255689998   -0.0025295420140286403
-0.9039760348708344   -0.14848710255689998   -0.0025295420140286403
-0.9039760348708344   -0.14848710255689998   -0.0025295420140286403
-1.2516060451220565   -0.31290151128051413   -0.31290151128051413
-1.2516060451220565   -0.31290151128051413   -0.31290151128051413
-1.2516060451220565   -0.31290151128051413   -0.31290151128051413
-1.2516060451220565   -0.31290151128051413   -0.31290151128051413
-0.6700462425055134   0.007920048007602876   -0.003925908825860955
-0.6700462425055134   0.007920048007602876   -0.003925908825860955
-0.6700462425055134   0.007920048007602876   -0.003925908825860955
-0.6700462425055134   0.007920048007602876   -0.003925908825860955
-0.7471236809365955   -0.18678092023414888   -0.18678092023414888
-0.7471236809365955   -0.18678092023414888   -0.18678092023414888
-0.7471236809365955   -0.18678092023414888   -0.18678092023414888
-0.7471236809365955   -0.18678092023414888   -0.18678092023414888
-1.1911198484296017   -0.09594912981840278   -0.05349294967308161
-1.1911198484296017   -0.09594912981840278   -0.05349294967308161
-1.1911198484296017   -0.09594912981840278   -0.05349294967308161
-1.1911198484296017   -0.09594912981840278   -0.05349294967308161
-0.9373040542630049   -0.13967231090063212   -0.04970607678243365
-0.9373040542630049   -0.13967231090063212   -0.04970607678243365
-0.9373040542630049   -0.13967231090063212   -0.04970607678243365
-0.9373040542630049   -0.13967231090063212   -0.04970607678243365
-1.290257147257008   -0.322564286814252   -0.322564286814252
-1.290257147257008   -0.322564286814252   -0.322564286814252
-1.290257147257008   -0.322564286814252   -0.322564286814252
-1.290257147257008   -0.322564286814252   -0.322564286814252
-0.667761307189469   0.02005931168142272   0.0031907165859120165
-0.667761307189469   0.02005931168142272   0.0031907165859120165
-0.667761307189469   0.02005931168142272   0.0031907165859120165
-0.667761307189469   0.02005931168142272   0.0031907165859120165
-0.7463230773457059   -0.18658076933642648   -0.18658076933642648
-0.7463230773457059   -0.18658076933642648   -0.18658076933642648
-0.7463230773457059   -0.18658076933642648   -0.18658076933642648
-0.7463230773457059   -0.18658076933642648   -0.18658076933642648
-1.2597296288267876   -0.0838964522340094   -0.03228557340107203
-1.2597296288267876   -0.0838964522340094   -0.03228557340107203
-1.2597296288267876   -0.0838964522340094   -0.03228557340107203
-1.2597296288267876   -0.0838964522340094   -0.03228557340107203
-0.9618910785040118   -0.1373883354741271   -0.0897615516898333
-0.9618910785040118   -0.1373883354741271   -0.0897615516898333
-0.9618910785040118   -0.1373883354741271   -0.0897615516898333
-0.9618910785040118   -0.1373883354741271   -0.0897615516898333
-0.760763480097067   -0.19019087002426674   -0.19019087002426674
-0.760763480097067   -0.19019087002426674   -0.19019087002426674
-0.760763480097067   -0.19019087002426674   -0.19019087002426674
-0.760763480097067   -0.19019087002426674   -0.19019087002426674
-0.3178913241291233   -0.021554447500755566   -0.006968054628637751
-0.3178913241291233   -0.021554447500755566   -0.006968054628637751
-0.3178913241291233   -0.021554447500755566   -0.006968054628637751
-0.3178913241291233   -0.021554447500755566   -0.006968054628637751
-0.33326607822872595   -0.08331651955718149   -0.08331651955718149
-0.33326607822872595   -0.08331651955718149   -0.08331651955718149
-0.33326607822872595   -0.08331651955718149   -0.08331651955718149
-0.33326607822872595   -0.08331651955718149   -0.08331651955718149
-0.6923826253482719   -0.0816729118903609   -0.026014863141689434
-0.6923826253482719   -0.0816729118903609   -0.026014863141689434
-0.6923826253482719   -0.0816729118903609   -0.026014863141689434
-0.6923826253482719   -0.0816729118903609   -0.026014863141689434
-0.5109117215594925   -0.09692372004393512   0.003931618479502103
-0.5109117215594925   -0.09692372004393512   0.003931618479502103
-0.5109117215594925   -0.09692372004393512   0.003931618479502103
-0.5109117215594925   -0.09692372004393512   0.003931618479502103
-0.7453834114909569   -0.18634585287273922   -0.18634585287273922
-0.7453834114909569   -0.18634585287273922   -0.18634585287273922
-0.7453834114909569   -0.18634585287273922   -0.18634585287273922
-0.7453834114909569   -0.18634585287273922   -0.18634585287273922
-0.29959190102623545   0.0020298124850018223   -0.0002919655869122566
-0.29959190102623545   0.0020298124850018223   -0.0002919655869122566
-0.29959190102623545   0.0020298124850018223   -0.0002919655869122566
-0.29959190102623545   0.0020298124850018223   -0.0002919655869122566
-0.3254753981868299   -0.08136884954670748   -0.08136884954670748
-0.3254753981868299   -0.08136884954670748   -0.08136884954670748
-0.3254753981868299   -0.08136884954670748   -0.08136884954670748
-0.3254753981868299   -0.08136884954670748   -0.08136884954670748
-0.690290636417055   -0.06653151721742141   -0.02286510065317415
-0.690290636417055   -0.06653151721742141   -0.02286510065317415
-0.690290636417055   -0.06653151721742141   -0.02286510065317415
-0.690290636417055   -0.06653151721742141   -0.02286510065317415
-0.5034479876228746   -0.08152402460218097   -0.026283591737174667
-0.5034479876228746   -0.08152402460218097   -0.026283591737174667
-0.5034479876228746   -0.08152402460218097   -0.026283591737174667
-0.5034479876228746   -0.08152402460218097   -0.026283591737174667
-0.7471236809365955   -0.18678092023414888   -0.18678092023414888
-0.7471236809365955   -0.18678092023414888   -0.18678092023414888
-0.7471236809365955   -0.18678092023414888   -0.18678092023414888
-0.7471236809365955   -0.18678092023414888   -0.18678092023414888
-0.2873619569247281   0.02016095021258134   0.007668557004512664
-0.2873619569247281   0.02016095021258134   0.007668557004512664
-0.2873619569247281   0.02016095021258134   0.007668557004512664
-0.2873619569247281   0.02016095021258134   0.007668557004512664
-0.3183215992386006   -0.07958039980965015   -0.07958039980965015
-0.3183215992386006   -0.07958039980965015   -0.07958039980965015
-0.3183215992386006   -0.07958039980965015   -0.07958039980965015
-0.3183215992386006   -0.07958039980965015   -0.07958039980965015
-0.6848344209475481   -0.05123540681673629   -0.014482849865335833
-0.6848344209475481   -0.05123540681673629   -0.014482849865335833
-0.6848344209475481   -0.05123540681673629   -0.014482849865335833
-0.6848344209475481   -0.05123540681673629   -0.014482849865335833
-0.5055601333706694   -0.0720435705245582   -0.05850521593459839
-0.5055601333706694   -0.0720435705245582   -0.05850521593459839
-0.5055601333706694   -0.0720435705245582   -0.05850521593459839
-0.5055601333706694   -0.0720435705245582   -0.05850521593459839
-0.3468742485591614   -0.08671856213979035   -0.08671856213979035
-0.3468742485591614   -0.08671856213979035   -0.08671856213979035
-0.3468742485591614   -0.08671856213979035   -0.08671856213979035
-0.3468742485591614   -0.08671856213979035   -0.08671856213979035
0.04003198544843604   0.0024274575093070497   0.00034410892038215274
0.04003198544843604   0.0024274575093070497   0.00034410892038215274
0.04003198544843604   0.0024274575093070497   0.00034410892038215274
0.04003198544843604   0.0024274575093070497   0.00034410892038215274
0.05271788764072019   0.013179471910180048   0.013179471910180048
0.05271788764072019   0.013179471910180048   0.013179471910180048
0.05271788764072019   0.013179471910180048   0.013179471910180048
0.05271788764072019   0.013179471910180048   0.013179471910180048
-0.3132795650648206   -0.05413804998267528   -0.012562423312160967
-0.3132795650648206   -0.05413804998267528   -0.012562423312160967
-0.3132795650648206   -0.05413804998267528   -0.012562423312160967
-0.3132795650648206   -0.05413804998267528   -0.012562423312160967
-0.13468330707427298   -0.03414237148567028   0.022577648180796307
-0.13468330707427298   -0.03414237148567028   0.022577648180796307
-0.13468330707427298   -0.03414237148567028   0.022577648180796307
-0.13468330707427298   -0.03414237148567028   0.022577648180796307
-0.33326607822872595   -0.08331651955718149   -0.08331651955718149
-0.33326607822872595   -0.08331651955718149   -0.08331651955718149
-0.33326607822872595   -0.08331651955718149   -0.08331651955718149
-0.33326607822872595   -0.08331651955718149   -0.08331651955718149
0.05371119254406831   0.023364733224128957   0.007960735112971306
0.05371119254406831   0.023364733224128957   0.007960735112971306
0.05371119254406831   0.023364733224128957   0.007960735112971306
0.05371119254406831   0.023364733224128957   0.007960735112971306
0.05975370016815578   0.014938425042038945   0.014938425042038945
0.05975370016815578   0.014938425042038945   0.014938425042038945
0.05975370016815578   0.014938425042038945   0.014938425042038945
0.05975370016815578   0.014938425042038945   0.014938425042038945
-0.3018777342116359   -0.03632857041371191   -0.00842080880373518
-0.3018777342116359   -0.03632857041371191   -0.00842080880373518
-0.3018777342116359   -0.03632857041371191   -0.00842080880373518
-0.3018777342116359   -0.03632857041371191   -0.00842080880373518
-0.12885630667348605   -0.021052025350193574   -0.007826657380953995
-0.12885630667348605   -0.021052025350193574   -0.007826657380953995
-0.12885630667348605   -0.021052025350193574   -0.007826657380953995
-0.12885630667348605   -0.021052025350193574   -0.007826657380953995
-0.3254753981868299   -0.08136884954670748   -0.08136884954670748
-0.3254753981868299   -0.08136884954670748   -0.08136884954670748
-0.3254753981868299   -0.08136884954670748   -0.08136884954670748
-0.3254753981868299   -0.08136884954670748   -0.08136884954670748
0.06474126779495337   0.04136860782663838   0.013446080391427006
0.06474126779495337   0.04136860782663838   0.013446080391427006
0.06474126779495337   0.04136860782663838   0.013446080391427006
0.06474126779495337   0.04136860782663838   0.013446080391427006
0.06910030332223677   0.01727507583055919   0.01727507583055919
0.06910030332223677   0.01727507583055919   0.01727507583055919
0.06910030332223677   0.01727507583055919   0.01727507583055919
0.06910030332223677   0.01727507583055919   0.01727507583055919
-0.2894749892252919   -0.015117925045534726   0.00019017549277660327
-0.2894749892252919   -0.015117925045534726   0.00019017549277660327
-0.2894749892252919   -0.015117925045534726   0.00019017549277660327
-0.2894749892252919   -0.015117925045534726   0.00019017549277660327
-0.12464698113081404   -0.008431984649369104   -0.03795895755936761
-0.12464698113081404   -0.008431984649369104   -0.03795895755936761
-0.12464698113081404   -0.008431984649369104   -0.03795895755936761
-0.12464698113081404   -0.008431984649369104   -0.03795895755936761
0.04386408018055363   0.010966020045138407   0.010966020045138407
0.04386408018055363   0.010966020045138407   0.010966020045138407
0.04386408018055363   0.010966020045138407   0.010966020045138407
0.04386408018055363   0.010966020045138407   0.010966020045138407
0.4321264272890796   0.03969444161693346   0.013531573136660001
0.4321264272890796   0.03969444161693346   0.013531573136660001
0.4321264272890796   0.03969444161693346   0.013531573136660001
0.4321264272890796   0.03969444161693346   0.013531573136660001
0.4695925975925299   0.11739814939813248   0.11739814939813248
0.4695925975925299   0.11739814939813248   0.11739814939813248
0.4695925975925299   0.11739814939813248   0.11739814939813248
0.4695925975925299   0.11739814939813248   0.11739814939813248
0.04012759288587376   -0.030391890716567622   -0.006200639237305237
0.04012759288587376   -0.030391890716567622   -0.006200639237305237
0.04012759288587376   -0.030391890716567622   -0.006200639237305237
0.04012759288587376   -0.030391890716567622   -0.006200639237305237
0.2461134404122084   0.03066218645739597   0.04462749061420801
0.2461134404122084   0.03066218645739597   0.04462749061420801
0.2461134404122084   0.03066218645739597   0.04462749061420801
0.2461134404122084   0.03066218645739597   0.04462749061420801
0.05271788764072037   0.013179471910180093   0.013179471910180093
0.05271788764072037   0.013179471910180093   0.013179471910180093
0.05271788764072037   0.013179471910180093   0.013179471910180093
0.05271788764072037   0.013179471910180093   0.013179471910180093
0.4376869946922065   0.05451147862590794   0.02075680566873983
0.4376869946922065   0.05451147862590794   0.02075680566873983
0.4376869946922065   0.05451147862590794   0.02075680566873983
0.4376869946922065   0.05451147862590794   0.02075680566873983
0.46796695085603346   0.11699173771400836   0.11699173771400836
0.46796695085603346   0.11699173771400836   0.11699173771400836
0.46796695085603346   0.11699173771400836   0.11699173771400836
0.46796695085603346   0.11699173771400836   0.11699173771400836
0.05122550045402552   -0.012962332113925704   0.00019818362735181394
0.05122550045402552   -0.012962332113925704   0.00019818362735181394
0.05122550045402552   -0.012962332113925704   0.00019818362735181394
0.05122550045402552   -0.012962332113925704   0.00019818362735181394
0.24468982750606078   0.040387895694139246   0.011520355218468793
0.24468982750606078   0.040387895694139246   0.011520355218468793
0.24468982750606078   0.040387895694139246   0.011520355218468793
0.24468982750606078   0.040387895694139246   0.011520355218468793
0.05975370016815583   0.014938425042038957   0.014938425042038957
0.05975370016815583   0.014938425042038957   0.014938425042038957
0.05975370016815583   0.014938425042038957   0.014938425042038957
0.05975370016815583   0.014938425042038957   0.014938425042038957
0.44031125688853745   0.06996348630467805   0.02574151928585866
0.44031125688853745   0.06996348630467805   0.02574151928585866
0.44031125688853745   0.06996348630467805   0.02574151928585866
0.44031125688853745   0.06996348630467805   0.02574151928585866
0.47740052516224996   0.11935013129056249   0.11935013129056249
0.47740052516224996   0.11935013129056249   0.11935013129056249
0.47740052516224996   0.11935013129056249   0.11935013129056249
0.47740052516224996   0.11935013129056249   0.11935013129056249
0.06567668839517114   0.010060528399705681   0.007371548626084021
0.06567668839517114   0.010060528399705681   0.007371548626084021
0.06567668839517114   0.010060528399705681   0.007371548626084021
0.06567668839517114   0.010060528399705681   0.007371548626084021
0.2488616669468927   0.05488639452441851   -0.019175066783367216
0.2488616669468927   0.05488639452441851   -0.019175066783367216
0.2488616669468927   0.05488639452441851   -0.019175066783367216
0.2488616669468927   0.05488639452441851   -0.019175066783367216
0.46831247148706767   0.11707811787176692   0.11707811787176692
0.46831247148706767   0.11707811787176692   0.11707811787176692
0.46831247148706767   0.11707811787176692   0.11707811787176692
0.46831247148706767   0.11707811787176692   0.11707811787176692
0.9737455867254854   0.07434820523238364   0.025964669048425496
0.9737455867254854   0.07434820523238364   0.025964669048425496
0.9737455867254854   0.07434820523238364   0.025964669048425496
0.9737455867254854   0.07434820523238364   0.025964669048425496
0.9957614043252767   0.24894035108131918   0.24894035108131918
0.9957614043252767   0.24894035108131918   0.24894035108131918
0.9957614043252767   0.24894035108131918   0.24894035108131918
0.9957614043252767   0.24894035108131918   0.24894035108131918
0.4175147338522518   -0.023552805025861212   -0.0020402148792646006
0.4175147338522518   -0.023552805025861212   -0.0020402148792646006
0.4175147338522518   -0.023552805025861212   -0.0020402148792646006
0.4175147338522518   -0.023552805025861212   -0.0020402148792646006
0.6941506940156247   0.09838026148265432   0.07820698801769396
0.6941506940156247   0.09838026148265432   0.07820698801769396
0.6941506940156247   0.09838026148265432   0.07820698801769396
0.6941506940156247   0.09838026148265432   0.07820698801769396
0.4695925975925295   0.11739814939813238   0.11739814939813238
0.4695925975925295   0.11739814939813238   0.11739814939813238
0.4695925975925295   0.11739814939813238   0.11739814939813238
0.4695925975925295   0.11739814939813238   0.11739814939813238
0.9229668090993175   0.08727266517164738   0.04663506086121069
0.9229668090993175   0.08727266517164738   0.04663506086121069
0.9229668090993175   0.08727266517164738   0.04663506086121069
0.9229668090993175   0.08727266517164738   0.04663506086121069
0.9664749861312624   0.2416187465328156   0.2416187465328156
0.9664749861312624   0.2416187465328156   0.2416187465328156
0.9664749861312624   0.2416187465328156   0.2416187465328156
0.9664749861312624   0.2416187465328156   0.2416187465328156
0.41933932834951354   -0.01278301148300183   0.003628374378419199
0.41933932834951354   -0.01278301148300183   0.003628374378419199
0.41933932834951354   -0.01278301148300183   0.003628374378419199
0.41933932834951354   -0.01278301148300183   0.003628374378419199
0.6739940430013117   0.10134055231995648   0.037477599308071714
0.6739940430013117   0.10134055231995648   0.037477599308071714
0.6739940430013117   0.10134055231995648   0.037477599308071714
0.6739940430013117   0.10134055231995648   0.037477599308071714
0.46796695085603346   0.11699173771400836   0.11699173771400836
0.46796695085603346   0.11699173771400836   0.11699173771400836
0.46796695085603346   0.11699173771400836   0.11699173771400836
0.46796695085603346   0.11699173771400836   0.11699173771400836
0.8936750832998176   0.0876717170108834   0.03156626189753843
0.8936750832998176   0.0876717170108834   0.03156626189753843
0.8936750832998176   0.0876717170108834   0.03156626189753843
0.8936750832998176   0.0876717170108834   0.03156626189753843
0.9226062692762931   0.23065156731907327   0.23065156731907327
0.9226062692762931   0.23065156731907327   0.23065156731907327
0.9226062692762931   0.23065156731907327   0.23065156731907327
0.9226062692762931   0.23065156731907327   0.23065156731907327
0.4352486191483882   0.01433703169576915   0.013603700816046924
0.4352486191483882   0.01433703169576915   0.013603700816046924
0.4352486191483882   0.01433703169576915   0.013603700816046924
0.4352486191483882   0.01433703169576915   0.013603700816046924
0.6457745179737234   0.11002280443097957   -0.009939959860100867
0.6457745179737234   0.11002280443097957   -0.009939959860100867
0.6457745179737234   0.11002280443097957   -0.009939959860100867
0.6457745179737234   0.11002280443097957   -0.009939959860100867
-0.9421968368676108   -0.06752896754306484   0.011101947634034208
-0.9421968368676108   -0.06752896754306484   0.011101947634034208
-0.9421968368676108   -0.06752896754306484   0.011101947634034208
-0.9421968368676108   -0.06752896754306484   0.011101947634034208
-0.6002102244006645   -0.014315733736555258   -0.004055228513498876
-0.6002102244006645   -0.014315733736555258   -0.004055228513498876
-0.6002102244006645   -0.014315733736555258   -0.004055228513498876
-0.6002102244006645   -0.014315733736555258   -0.004055228513498876
-0.6038818437016137   0.024523004840310086   0.012924476533776118
-0.6038818437016137   0.024523004840310086   0.012924476533776118
-0.6038818437016137   0.024523004840310086   0.012924476533776118
-0.6038818437016137   0.024523004840310086   0.012924476533776118
-0.9560251803163079   -0.0654631994261636   -0.011539312502848412
-0.9560251803163079   -0.0654631994261636   -0.011539312502848412
-0.9560251803163079   -0.0654631994261636   -0.011539312502848412
-0.9560251803163079   -0.0654631994261636   -0.011539312502848412
-0.7451083697568595   -0.025594837207985194   -0.0032079813804939683
-0.7451083697568595   -0.025594837207985194   -0.0032079813804939683
-0.7451083697568595   -0.025594837207985194   -0.0032079813804939683
-0.7451083697568595   -0.025594837207985194   -0.0032079813804939683
-0.9488509409643404   -0.04606831079402113   0.004936995624846806
-0.9488509409643404   -0.04606831079402113   0.004936995624846806
-0.9488509409643404   -0.04606831079402113   0.004936995624846806
-0.9488509409643404   -0.04606831079402113   0.004936995624846806
-0.6120354069510241   0.004148792310726651   -0.007469127183682776
-0.6120354069510241   0.004148792310726651   -0.007469127183682776
-0.6120354069510241   0.004148792310726651   -0.007469127183682776
-0.6120354069510241   0.004148792310726651   -0.007469127183682776
-0.6043638900654805   0.03502704395954431   0.014631960852533508
-0.6043638900654805   0.03502704395954431   0.014631960852533508
-0.6043638900654805   0.03502704395954431   0.014631960852533508
-0.6043638900654805   0.03502704395954431   0.014631960852533508
-0.9614868064605206   -0.05757340730613894   -0.01520921999967214
-0.9614868064605206   -0.05757340730613894   -0.01520921999967214
-0.9614868064605206   -0.05757340730613894   -0.01520921999967214
-0.9614868064605206   -0.05757340730613894   -0.01520921999967214
-0.7657348577341218   -0.01703803772984175   -0.007384702095711189
-0.7657348577341218   -0.01703803772984175   -0.007384702095711189
-0.7657348577341218   -0.01703803772984175   -0.007384702095711189
-0.7657348577341218   -0.01703803772984175   -0.007384702095711189
-0.9439744587178355   -0.027388033049926458   0.042167144457534576
-0.9439744587178355   -0.027388033049926458   0.042167144457534576
-0.9439744587178355   -0.027388033049926458   0.042167144457534576
-0.9439744587178355   -0.027388033049926458   0.042167144457534576
-0.614641506569063   0.012076400942434201   -0.013805478648264057
-0.614641506569063   0.012076400942434201   -0.013805478648264057
-0.614641506569063   0.012076400942434201   -0.013805478648264057
-0.614641506569063   0.012076400942434201   -0.013805478648264057
-0.5931035364743396   0.06115412770335943   0.026341233933324847
-0.5931035364743396   0.06115412770335943   0.026341233933324847
-0.5931035364743396   0.06115412770335943   0.026341233933324847
-0.5931035364743396   0.06115412770335943   0.026341233933324847
-0.9344157146080081   -0.046247397729259565   -0.024764807682058153
-0.9344157146080081   -0.046247397729259565   -0.024764807682058153
-0.9344157146080081   -0.046247397729259565   -0.024764807682058153
-0.9344157146080081   -0.046247397729259565   -0.024764807682058153
-0.7360789567174967   0.007087502525393835   0.016394102389045102
-0.7360789567174967   0.007087502525393835   0.016394102389045102
-0.7360789567174967   0.007087502525393835   0.016394102389045102
-0.7360789567174967   0.007087502525393835   0.016394102389045102
-0.6149806820127172   -0.08168613184484194   -0.010537118465474985
-0.6149806820127172   -0.08168613184484194   -0.010537118465474985
-0.6149806820127172   -0.08168613184484194   -0.010537118465474985
-0.6149806820127172   -0.08168613184484194   -0.010537118465474985
-0.28393453630609566   -0.006619128081196898   0.002940378631792792
-0.28393453630609566   -0.006619128081196898   0.002940378631792792
-0.28393453630609566   -0.006619128081196898   0.002940378631792792
-0.28393453630609566   -0.006619128081196898   0.002940378631792792
-0.28783099988847016   0.005324339347776999   0.004419767589199392
-0.28783099988847016   0.005324339347776999   0.004419767589199392
-0.28783099988847016   0.005324339347776999   0.004419767589199392
-0.28783099988847016   0.005324339347776999   0.004419767589199392
-0.6270216520069152   -0.05974766072081969   -0.01850389943160189
-0.6270216520069152   -0.05974766072081969   -0.01850389943160189
-0.6270216520069152   -0.05974766072081969   -0.01850389943160189
-0.6270216520069152   -0.05974766072081969   -0.01850389943160189
-0.45345228726792774   -0.036964591263293003   -0.010520440889777355
-0.45345228726792774   -0.036964591263293003   -0.010520440889777355
-0.45345228726792774   -0.036964591263293003   -0.010520440889777355
-0.45345228726792774   -0.036964591263293003   -0.010520440889777355
-0.6263831788956581   -0.06523490740894027   -0.009824287187198934
-0.6263831788956581   -0.06523490740894027   -0.009824287187198934
-0.6263831788956581   -0.06523490740894027   -0.009824287187198934
-0.6263831788956581   -0.06523490740894027   -0.009824287187198934
-0.28735720572683277   0.011923853308792531   0.00018922443637291522
-0.28735720572683277   0.011923853308792531   0.00018922443637291522
-0.28735720572683277   0.011923853308792531   0.00018922443637291522
-0.28735720572683277   0.011923853308792531   0.00018922443637291522
-0.2865338572090475   0.0199745780111662   0.005908596281758209
-0.2865338572090475   0.0199745780111662   0.005908596281758209
-0.2865338572090475   0.0199745780111662   0.005908596281758209
-0.2865338572090475   0.0199745780111662   0.005908596281758209
-0.6270345683623316   -0.04366305728673969   -0.020031329385437703
-0.6270345683623316   -0.04366305728673969   -0.020031329385437703
-0.6270345683623316   -0.04366305728673969   -0.020031329385437703
-0.6270345683623316   -0.04366305728673969   -0.020031329385437703
-0.45235840980595676   -0.02052119934421605   -0.005010905922358505
-0.45235840980595676   -0.02052119934421605   -0.005010905922358505
-0.45235840980595676   -0.02052119934421605   -0.005010905922358505
-0.45235840980595676   -0.02052119934421605   -0.005010905922358505
-0.6245422272853998   -0.049212792931633054   -0.0020198883558857003
-0.6245422272853998   -0.049212792931633054   -0.0020198883558857003
-0.6245422272853998   -0.049212792931633054   -0.0020198883558857003
-0.6245422272853998   -0.049212792931633054   -0.0020198883558857003
-0.286957894266323   0.0275926176757169   -0.0038296286691651554
-0.286957894266323   0.0275926176757169   -0.0038296286691651554
-0.286957894266323   0.0275926176757169   -0.0038296286691651554
-0.286957894266323   0.0275926176757169   -0.0038296286691651554
-0.2815328362116434   0.0346686649212859   0.011735924088870382
-0.2815328362116434   0.0346686649212859   0.011735924088870382
-0.2815328362116434   0.0346686649212859   0.011735924088870382
-0.2815328362116434   0.0346686649212859   0.011735924088870382
-0.6200823225959965   -0.025074705774554354   -0.022323863197048734
-0.6200823225959965   -0.025074705774554354   -0.022323863197048734
-0.6200823225959965   -0.025074705774554354   -0.022323863197048734
-0.6200823225959965   -0.025074705774554354   -0.022323863197048734
-0.4502371706150502   -0.00495621587115351   0.002249285845818249
-0.4502371706150502   -0.00495621587115351   0.002249285845818249
-0.4502371706150502   -0.00495621587115351   0.002249285845818249
-0.4502371706150502   -0.00495621587115351   0.002249285845818249
-0.29931161314777116   -0.06801909227130633   -0.012545041386477477
-0.29931161314777116   -0.06801909227130633   -0.012545041386477477
-0.29931161314777116   -0.06801909227130633   -0.012545041386477477
-0.29931161314777116   -0.06801909227130633   -0.012545041386477477
0.029840045024677467   0.0067705825297584435   0.011658571922235428
0.029840045024677467   0.0067705825297584435   0.011658571922235428
0.029840045024677467   0.0067705825297584435   0.011658571922235428
0.029840045024677467   0.0067705825297584435   0.011658571922235428
0.028643338438221536   0.016953326024646585   0.00097155322140716
0.028643338438221536   0.016953326024646585   0.00097155322140716
0.028643338438221536   0.016953326024646585   0.00097155322140716
0.028643338438221536   0.016953326024646585   0.00097155322140716
-0.3003791366150156   -0.04497655073499919   -0.008020025960751648
-0.3003791366150156   -0.04497655073499919   -0.008020025960751648
-0.3003791366150156   -0.04497655073499919   -0.008020025960751648
-0.3003791366150156   -0.04497655073499919   -0.008020025960751648
-0.13661422988145208   -0.022635692255892015   -0.0043870811252546766
-0.13661422988145208   -0.022635692255892015   -0.0043870811252546766
-0.13661422988145208   -0.022635692255892015   -0.0043870811252546766
-0.13661422988145208   -0.022635692255892015   -0.0043870811252546766
-0.3024634681359462   -0.05178832732879084   -0.011629906971613133
-0.3024634681359462   -0.05178832732879084   -0.011629906971613133
-0.3024634681359462   -0.05178832732879084   -0.011629906971613133
-0.3024634681359462   -0.05178832732879084   -0.011629906971613133
0.03186790335173576   0.024905336011021666   0.009142367802603187
0.03186790335173576   0.024905336011021666   0.009142367802603187
0.03186790335173576   0.024905336011021666   0.009142367802603187
0.03186790335173576   0.024905336011021666   0.009142367802603187
0.031208595687491333   0.03305240744398583   0.005397750585627284
0.031208595687491333   0.03305240744398583   0.005397750585627284
0.031208595687491333   0.03305240744398583   0.005397750585627284
0.031208595687491333   0.03305240744398583   0.005397750585627284
-0.29917829961138787   -0.02731606059706719   -0.010022977121710238
-0.29917829961138787   -0.02731606059706719   -0.010022977121710238
-0.29917829961138787   -0.02731606059706719   -0.010022977121710238
-0.29917829961138787   -0.02731606059706719   -0.010022977121710238
-0.1342679326013689   -0.005541504168464807   0.001553436054898067
-0.1342679326013689   -0.005541504168464807   0.001553436054898067
-0.1342679326013689   -0.005541504168464807   0.001553436054898067
-0.1342679326013689   -0.005541504168464807   0.001553436054898067
-0.3000005754817293   -0.03546588360090057   -0.005984533469584094
-0.3000005754817293   -0.03546588360090057   -0.005984533469584094
-0.3000005754817293   -0.03546588360090057   -0.005984533469584094
-0.3000005754817293   -0.03546588360090057   -0.005984533469584094
0.03325997153396397   0.04243133042395036   0.006275706838025674
0.03325997153396397   0.04243133042395036   0.006275706838025674
0.03325997153396397   0.04243133042395036   0.006275706838025674
0.03325997153396397   0.04243133042395036   0.006275706838025674
0.03216610931650736   0.050941380198282954   0.00884560317006672
0.03216610931650736   0.050941380198282954   0.00884560317006672
0.03216610931650736   0.050941380198282954   0.00884560317006672
0.03216610931650736   0.050941380198282954   0.00884560317006672
-0.29503539000461737   -0.00845377383562091   -0.01265440611909168
-0.29503539000461737   -0.00845377383562091   -0.01265440611909168
-0.29503539000461737   -0.00845377383562091   -0.01265440611909168
-0.29503539000461737   -0.00845377383562091   -0.01265440611909168
-0.1306857971793191   0.01233425772682327   0.008057395475401645
-0.1306857971793191   0.01233425772682327   0.008057395475401645
-0.1306857971793191   0.01233425772682327   0.008057395475401645
-0.1306857971793191   0.01233425772682327   0.008057395475401645
0.013064421777148347   -0.04992838872492912   -0.015520573060722617
0.013064421777148347   -0.04992838872492912   -0.015520573060722617
0.013064421777148347   -0.04992838872492912   -0.015520573060722617
0.013064421777148347   -0.04992838872492912   -0.015520573060722617
0.354093532212258   0.024302885199869784   0.021472962697299487
0.354093532212258   0.024302885199869784   0.021472962697299487
0.354093532212258   0.024302885199869784   0.021472962697299487
0.354093532212258   0.024302885199869784   0.021472962697299487
0.35386352232699947   0.03289942060759378   -0.00348001205762391
0.35386352232699947   0.03289942060759378   -0.00348001205762391
0.35386352232699947   0.03289942060759378   -0.00348001205762391
0.35386352232699947   0.03289942060759378   -0.00348001205762391
0.019545033197459864   -0.02984341667382903   0.0022767697160744112
0.019545033197459864   -0.02984341667382903   0.0022767697160744112
0.019545033197459864   -0.02984341667382903   0.0022767697160744112
0.019545033197459864   -0.02984341667382903   0.0022767697160744112
0.18284592981059264   -0.004376796938990658   0.00031259216182690126
0.18284592981059264   -0.004376796938990658   0.00031259216182690126
0.18284592981059264   -0.004376796938990658   0.00031259216182690126
0.18284592981059264   -0.004376796938990658   0.00031259216182690126
0.015444921908081524   -0.0364181147879952   -0.011649088616650885
0.015444921908081524   -0.0364181147879952   -0.011649088616650885
0.015444921908081524   -0.0364181147879952   -0.011649088616650885
0.015444921908081524   -0.0364181147879952   -0.011649088616650885
0.3600268466527555   0.04153733175813712   0.018698698420609595
0.3600268466527555   0.04153733175813712   0.018698698420609595
0.3600268466527555   0.04153733175813712   0.018698698420609595
0.3600268466527555   0.04153733175813712   0.018698698420609595
0.3569460856914266   0.048836889413296655   0.003473706026061601
0.3569460856914266   0.048836889413296655   0.003473706026061601
0.3569460856914266   0.048836889413296655   0.003473706026061601
0.3569460856914266   0.048836889413296655   0.003473706026061601
0.02052621418673002   -0.014045593534659305   -0.0009161559395341537
0.02052621418673002   -0.014045593534659305   -0.0009161559395341537
0.02052621418673002   -0.014045593534659305   -0.0009161559395341537
0.02052621418673002   -0.014045593534659305   -0.0009161559395341537
0.1855662007233115   0.01084806231778454   0.00761540166120434
0.1855662007233115   0.01084806231778454   0.00761540166120434
0.1855662007233115   0.01084806231778454   0.00761540166120434
0.1855662007233115   0.01084806231778454   0.00761540166120434
0.017514247961995136   -0.021457112881146264   -0.00856446771672157
0.017514247961995136   -0.021457112881146264   -0.00856446771672157
0.017514247961995136   -0.021457112881146264   -0.00856446771672157
0.017514247961995136   -0.021457112881146264   -0.00856446771672157
0.36145336440640735   0.05774372125002845   0.017103267764227298
0.36145336440640735   0.05774372125002845   0.017103267764227298
0.36145336440640735   0.05774372125002845   0.017103267764227298
0.36145336440640735   0.05774372125002845   0.017103267764227298
0.35144555731919636   0.06722409258490093   0.007420500628035021
0.35144555731919636   0.06722409258490093   0.007420500628035021
0.35144555731919636   0.06722409258490093   0.007420500628035021
0.35144555731919636   0.06722409258490093   0.007420500628035021
0.020573097871138597   0.005474883434029274   -0.003652957292523424
0.020573097871138597   0.005474883434029274   -0.003652957292523424
0.020573097871138597   0.005474883434029274   -0.003652957292523424
0.020573097871138597   0.005474883434029274   -0.003652957292523424
0.18858368893389582   0.028244919466269877   0.014389833215458489
0.18858368893389582   0.028244919466269877   0.014389833215458489
0.18858368893389582   0.028244919466269877   0.014389833215458489
0.18858368893389582   0.028244919466269877   0.014389833215458489
0.3259241677678765   -0.06618600602814236   -0.02888496829659569
0.3259241677678765   -0.06618600602814236   -0.02888496829659569
0.3259241677678765   -0.06618600602814236   -0.02888496829659569
0.3259241677678765   -0.06618600602814236   -0.02888496829659569
0.6722820613901015   0.04441929299175505   0.021146058605337453
0.6722820613901015   0.04441929299175505   0.021146058605337453
0.6722820613901015   0.04441929299175505   0.021146058605337453
0.6722820613901015   0.04441929299175505   0.021146058605337453
0.6801892558351709   0.02069468199099256   -0.04347730177791587
0.6801892558351709   0.02069468199099256   -0.04347730177791587
0.6801892558351709   0.02069468199099256   -0.04347730177791587
0.6801892558351709   0.02069468199099256   -0.04347730177791587
0.347879417179415   -0.0132255665322627   0.012724449344304205
0.347879417179415   -0.0132255665322627   0.012724449344304205
0.347879417179415   -0.0132255665322627   0.012724449344304205
0.347879417179415   -0.0132255665322627   0.012724449344304205
0.4813376166443514   -0.008663955918947489   -0.012233663244011858
0.4813376166443514   -0.008663955918947489   -0.012233663244011858
0.4813376166443514   -0.008663955918947489   -0.012233663244011858
0.4813376166443514   -0.008663955918947489   -0.012233663244011858
0.33544110129241167   -0.04341502323880837   -0.0192776733841622
0.33544110129241167   -0.04341502323880837   -0.0192776733841622
0.33544110129241167   -0.04341502323880837   -0.0192776733841622
0.33544110129241167   -0.04341502323880837   -0.0192776733841622
0.698854871021148   0.05711143799651293   0.013434018146449307
0.698854871021148   0.05711143799651293   0.013434018146449307
0.698854871021148   0.05711143799651293   0.013434018146449307
0.698854871021148   0.05711143799651293   0.013434018146449307
0.6881143248588882   0.038216999103071275   -0.010146569200590795
0.6881143248588882   0.038216999103071275   -0.010146569200590795
0.6881143248588882   0.038216999103071275   -0.010146569200590795
0.6881143248588882   0.038216999103071275   -0.010146569200590795
0.3467545773373887   -0.005319770447288638   0.006672824116451093
0.3467545773373887   -0.005319770447288638   0.006672824116451093
0.3467545773373887   -0.005319770447288638   0.006672824116451093
0.3467545773373887   -0.005319770447288638   0.006672824116451093
0.507006610797588   0.012690021266901691   0.008380069761959895
0.507006610797588   0.012690021266901691   0.008380069761959895
0.507006610797588   0.012690021266901691   0.008380069761959895
0.507006610797588   0.012690021266901691   0.008380069761959895
0.3367349680646805   -0.03314879746210579   -0.015596195232269402
0.3367349680646805   -0.03314879746210579   -0.015596195232269402
0.3367349680646805   -0.03314879746210579   -0.015596195232269402
0.3367349680646805   -0.03314879746210579   -0.015596195232269402
0.697337472422915   0.06524956440920776   0.008936603313406663
0.697337472422915   0.06524956440920776   0.008936603313406663
0.697337472422915   0.06524956440920776   0.008936603313406663
0.697337472422915   0.06524956440920776   0.008936603313406663
0.6874527293248125   0.05897354490408013   -0.015417843318823454
0.6874527293248125   0.05897354490408013   -0.015417843318823454
0.6874527293248125   0.05897354490408013   -0.015417843318823454
0.6874527293248125   0.05897354490408013   -0.015417843318823454
0.3398364358528517   0.012806540064747303   0.003792445816459952
0.3398364358528517   0.012806540064747303   0.003792445816459952
0.3398364358528517   0.012806540064747303   0.003792445816459952
0.3398364358528517   0.012806540064747303   0.003792445816459952
0.49438188399661365   0.022410164162233223   0.006365521905205951
0.49438188399661365   0.022410164162233223   0.006365521905205951
0.49438188399661365   0.022410164162233223   0.006365521905205951
0.49438188399661365   0.022410164162233223   0.006365521905205951
-0.7378155600587227   -0.03331948424863171   0.03853135458417516
-0.7378155600587227   -0.03331948424863171   0.03853135458417516
-0.7378155600587227   -0.03331948424863171   0.03853135458417516
-0.7378155600587227   -0.03331948424863171   0.03853135458417516
-0.49084607400543173   -0.01900314907899385   -0.01002570044837756
-0.49084607400543173   -0.01900314907899385   -0.01002570044837756
-0.49084607400543173   -0.01900314907899385   -0.01002570044837756
-0.49084607400543173   -0.01900314907899385   -0.01002570044837756
-0.47284209200418126   0.03993498924943038   0.0322685425629949
-0.47284209200418126   0.03993498924943038   0.0322685425629949
-0.47284209200418126   0.03993498924943038   0.0322685425629949
-0.47284209200418126   0.03993498924943038   0.0322685425629949
-0.7411048309131024   -0.053035400443273664   -0.015675541508504
-0.7411048309131024   -0.053035400443273664   -0.015675541508504
-0.7411048309131024   -0.053035400443273664   -0.015675541508504
-0.7411048309131024   -0.053035400443273664   -0.015675541508504
-0.58591387169077   -0.009052159497374784   -0.0013281122323114541
-0.58591387169077   -0.009052159497374784   -0.0013281122323114541
-0.58591387169077   -0.009052159497374784   -0.0013281122323114541
-0.58591387169077   -0.009052159497374784   -0.0013281122323114541
-0.7202216800554613   -0.007378062005115815   0.043082874341543995
-0.7202216800554613   -0.007378062005115815   0.043082874341543995
-0.7202216800554613   -0.007378062005115815   0.043082874341543995
-0.7202216800554613   -0.007378062005115815   0.043082874341543995
-0.49044163634810456   -0.0024387426750090146   -0.013355447232182384
-0.49044163634810456   -0.0024387426750090146   -0.013355447232182384
-0.49044163634810456   -0.0024387426750090146   -0.013355447232182384
-0.49044163634810456   -0.0024387426750090146   -0.013355447232182384
-0.4707908041508854   0.049580879311002496   0.02986621077639976
-0.4707908041508854   0.049580879311002496   0.02986621077639976
-0.4707908041508854   0.049580879311002496   0.02986621077639976
-0.4707908041508854   0.049580879311002496   0.02986621077639976
-0.7293555977853466   -0.04427820868359618   -0.021423215442805243
-0.7293555977853466   -0.04427820868359618   -0.021423215442805243
-0.7293555977853466   -0.04427820868359618   -0.021423215442805243
-0.7293555977853466   -0.04427820868359618   -0.021423215442805243
-0.5869367178087057   0.0022773557679709733   0.0066437133218622685
-0.5869367178087057   0.0022773557679709733   0.0066437133218622685
-0.5869367178087057   0.0022773557679709733   0.0066437133218622685
-0.5869367178087057   0.0022773557679709733   0.0066437133218622685
-0.709924344185825   0.0017265816024799041   0.02972826226872636
-0.709924344185825   0.0017265816024799041   0.02972826226872636
-0.709924344185825   0.0017265816024799041   0.02972826226872636
-0.709924344185825   0.0017265816024799041   0.02972826226872636
-0.4891414134555892   0.004656733319745435   -0.016962689755858438
-0.4891414134555892   0.004656733319745435   -0.016962689755858438
-0.4891414134555892   0.004656733319745435   -0.016962689755858438
-0.4891414134555892   0.004656733319745435   -0.016962689755858438
-0.4711353134573757   0.056101812494162295   0.02370084228441883
-0.4711353134573757   0.056101812494162295   0.02370084228441883
-0.4711353134573757   0.056101812494162295   0.02370084228441883
-0.4711353134573757   0.056101812494162295   0.02370084228441883
-0.7141782649857595   -0.03490404180796941   -0.02728464587837366
-0.7141782649857595   -0.03490404180796941   -0.02728464587837366
-0.7141782649857595   -0.03490404180796941   -0.02728464587837366
-0.7141782649857595   -0.03490404180796941   -0.02728464587837366
-0.5698779220490207   0.01245591604560986   0.014036344259999875
-0.5698779220490207   0.01245591604560986   0.014036344259999875
-0.5698779220490207   0.01245591604560986   0.014036344259999875
-0.5698779220490207   0.01245591604560986   0.014036344259999875
-0.49214765273117256   -0.04663097976982157   0.011094236613746256
-0.49214765273117256   -0.04663097976982157   0.011094236613746256
-0.49214765273117256   -0.04663097976982157   0.011094236613746256
-0.49214765273117256   -0.04663097976982157   0.011094236613746256
-0.24933128911379326   -0.009215363878482805   0.0004395687258048897
-0.24933128911379326   -0.009215363878482805   0.0004395687258048897
-0.24933128911379326   -0.009215363878482805   0.0004395687258048897
-0.24933128911379326   -0.009215363878482805   0.0004395687258048897
-0.24210789156114418   0.02443935197297853   0.01751740359161818
-0.24210789156114418   0.02443935197297853   0.01751740359161818
-0.24210789156114418   0.02443935197297853   0.01751740359161818
-0.24210789156114418   0.02443935197297853   0.01751740359161818
-0.4999274563179264   -0.04598495221768939   -0.017238337538615797
-0.4999274563179264   -0.04598495221768939   -0.017238337538615797
-0.4999274563179264   -0.04598495221768939   -0.017238337538615797
-0.4999274563179264   -0.04598495221768939   -0.017238337538615797
-0.3695892864256002   -0.018139510722128577   -0.007606966265867841
-0.3695892864256002   -0.018139510722128577   -0.007606966265867841
-0.3695892864256002   -0.018139510722128577   -0.007606966265867841
-0.3695892864256002   -0.018139510722128577   -0.007606966265867841
-0.4904626522653899   -0.026595778987431845   0.010696509493812005
-0.4904626522653899   -0.026595778987431845   0.010696509493812005
-0.4904626522653899   -0.026595778987431845   0.010696509493812005
-0.4904626522653899   -0.026595778987431845   0.010696509493812005
-0.24966398339354018   0.0069588909628623685   -0.002782594560243254
-0.24966398339354018   0.0069588909628623685   -0.002782594560243254
-0.24966398339354018   0.0069588909628623685   -0.002782594560243254
-0.24966398339354018   0.0069588909628623685   -0.002782594560243254
-0.24123265459339985   0.04053069181707749   0.015135502364716488
-0.24123265459339985   0.04053069181707749   0.015135502364716488
-0.24123265459339985   0.04053069181707749   0.015135502364716488
-0.24123265459339985   0.04053069181707749   0.015135502364716488
-0.49695080101687183   -0.030986135509663074   -0.020366758732866436
-0.49695080101687183   -0.030986135509663074   -0.020366758732866436
-0.49695080101687183   -0.030986135509663074   -0.020366758732866436
-0.49695080101687183   -0.030986135509663074   -0.020366758732866436
-0.36543602921680785   -0.001895435754788094   -9.181783438629021e-05
-0.36543602921680785   -0.001895435754788094   -9.181783438629021e-05
-0.36543602921680785   -0.001895435754788094   -9.181783438629021e-05
-0.36543602921680785   -0.001895435754788094   -9.181783438629021e-05
-0.48729533998155206   -0.010270052955568404   0.0071944638896374175
-0.48729533998155206   -0.010270052955568404   0.0071944638896374175
-0.48729533998155206   -0.010270052955568404   0.0071944638896374175
-0.48729533998155206   -0.010270052955568404   0.0071944638896374175
-0.24933464945966155   0.021368075432041958   -0.006211855581551514
-0.24933464945966155   0.021368075432041958   -0.006211855581551514
-0.24933464945966155   0.021368075432041958   -0.006211855581551514
-0.24933464945966155   0.021368075432041958   -0.006211855581551514
-0.24105549810992852   0.05746030954944151   0.011324388936858769
-0.24105549810992852   0.05746030954944151   0.011324388936858769
-0.24105549810992852   0.05746030954944151   0.011324388936858769
-0.24105549810992852   0.05746030954944151   0.011324388936858769
-0.4944318835985467   -0.014773387899064558   -0.021906808028212123
-0.4944318835985467   -0.014773387899064558   -0.021906808028212123
-0.4944318835985467   -0.014773387899064558   -0.021906808028212123
-0.4944318835985467   -0.014773387899064558   -0.021906808028212123
-0.3655439457737807   0.013038472364282086   0.005669619582339205
-0.3655439457737807   0.013038472364282086   0.005669619582339205
-0.3655439457737807   0.013038472364282086   0.005669619582339205
-0.3655439457737807   0.013038472364282086   0.005669619582339205
-0.2585507082453895   -0.05351155055902849   -0.001361340251632286
-0.2585507082453895   -0.05351155055902849   -0.001361340251632286
-0.2585507082453895   -0.05351155055902849   -0.001361340251632286
-0.2585507082453895   -0.05351155055902849   -0.001361340251632286
-0.009995137711182267   0.0023844033119884683   0.011032454676742388
-0.009995137711182267   0.0023844033119884683   0.011032454676742388
-0.009995137711182267   0.0023844033119884683   0.011032454676742388
-0.009995137711182267   0.0023844033119884683   0.011032454676742388
-0.010837094568781517   0.015593404547829126   0.005287708407157766
-0.010837094568781517   0.015593404547829126   0.005287708407157766
-0.010837094568781517   0.015593404547829126   0.005287708407157766
-0.010837094568781517   0.015593404547829126   0.005287708407157766
-0.2586178760775922   -0.03418207593865419   -0.006411091078989174
-0.2586178760775922   -0.03418207593865419   -0.006411091078989174
-0.2586178760775922   -0.03418207593865419   -0.006411091078989174
-0.2586178760775922   -0.03418207593865419   -0.006411091078989174
-0.13491890643728752   -0.01685356601592705   -0.0042829898907732165
-0.13491890643728752   -0.01685356601592705   -0.0042829898907732165
-0.13491890643728752   -0.01685356601592705   -0.0042829898907732165
-0.13491890643728752   -0.01685356601592705   -0.0042829898907732165
-0.258338276110033   -0.03566950573151821   -0.003525661448329287
-0.258338276110033   -0.03566950573151821   -0.003525661448329287
-0.258338276110033   -0.03566950573151821   -0.003525661448329287
-0.258338276110033   -0.03566950573151821   -0.003525661448329287
-0.009695820923535976   0.01850170795349755   0.008085773227717162
-0.009695820923535976   0.01850170795349755   0.008085773227717162
-0.009695820923535976   0.01850170795349755   0.008085773227717162
-0.009695820923535976   0.01850170795349755   0.008085773227717162
-0.009548052491911978   0.03311479805989989   0.0025010690436492854
-0.009548052491911978   0.03311479805989989   0.0025010690436492854
-0.009548052491911978   0.03311479805989989   0.0025010690436492854
-0.009548052491911978   0.03311479805989989   0.0025010690436492854
-0.25785600778110246   -0.018031495105323855   -0.009419076651392959
-0.25785600778110246   -0.018031495105323855   -0.009419076651392959
-0.25785600778110246   -0.018031495105323855   -0.009419076651392959
-0.25785600778110246   -0.018031495105323855   -0.009419076651392959
-0.13350402944442596   -0.0006674798106048388   0.0017947752519121736
-0.13350402944442596   -0.0006674798106048388   0.0017947752519121736
-0.13350402944442596   -0.0006674798106048388   0.0017947752519121736
-0.13350402944442596   -0.0006674798106048388   0.0017947752519121736
-0.2574710978668134   -0.018396024384053765   -0.007129997801217553
-0.2574710978668134   -0.018396024384053765   -0.007129997801217553
-0.2574710978668134   -0.018396024384053765   -0.007129997801217553
-0.2574710978668134   -0.018396024384053765   -0.007129997801217553
-0.00876060052244356   0.03465168922238671   0.0049014377285047485
-0.00876060052244356   0.03465168922238671   0.0049014377285047485
-0.00876060052244356   0.03465168922238671   0.0049014377285047485
-0.00876060052244356   0.03465168922238671   0.0049014377285047485
-0.009187259039953792   0.051152846363354786   -0.0004694360888768002
-0.009187259039953792   0.051152846363354786   -0.0004694360888768002
-0.009187259039953792   0.051152846363354786   -0.0004694360888768002
-0.009187259039953792   0.051152846363354786   -0.0004694360888768002
-0.2576283121320856   -0.0016126403517017426   -0.012466731272785069
-0.2576283121320856   -0.0016126403517017426   -0.012466731272785069
-0.2576283121320856   -0.0016126403517017426   -0.012466731272785069
-0.2576283121320856   -0.0016126403517017426   -0.012466731272785069
-0.13238050187237937   0.015534594249144155   0.007370146969035282
-0.13238050187237937   0.015534594249144155   0.007370146969035282
-0.13238050187237937   0.015534594249144155   0.007370146969035282
-0.13238050187237937   0.015534594249144155   0.007370146969035282
-0.026996667946224212   -0.058773255007151914   -0.01281753817932679
-0.026996667946224212   -0.058773255007151914   -0.01281753817932679
-0.026996667946224212   -0.058773255007151914   -0.01281753817932679
-0.026996667946224212   -0.058773255007151914   -0.01281753817932679
0.228250170347126   0.015930090368146535   0.02098952303241406
0.228250170347126   0.015930090368146535   0.02098952303241406
0.228250170347126   0.015930090368146535   0.02098952303241406
0.228250170347126   0.015930090368146535   0.02098952303241406
0.22075185859725818   0.008261879843521697   -0.008403573096970277
0.22075185859725818   0.008261879843521697   -0.008403573096970277
0.22075185859725818   0.008261879843521697   -0.008403573096970277
0.22075185859725818   0.008261879843521697   -0.008403573096970277
-0.018366947649695396   -0.021374470396853716   0.004606317947271325
-0.018366947649695396   -0.021374470396853716   0.004606317947271325
-0.018366947649695396   -0.021374470396853716   0.004606317947271325
-0.018366947649695396   -0.021374470396853716   0.004606317947271325
0.09946964446631636   -0.013764462903395468   -0.002443575388110124
0.09946964446631636   -0.013764462903395468   -0.002443575388110124
0.09946964446631636   -0.013764462903395468   -0.002443575388110124
0.09946964446631636   -0.013764462903395468   -0.002443575388110124
-0.026798146101555516   -0.04279352951551965   -0.01613061519336333
-0.026798146101555516   -0.04279352951551965   -0.01613061519336333
-0.026798146101555516   -0.04279352951551965   -0.01613061519336333
-0.026798146101555516   -0.04279352951551965   -0.01613061519336333
0.2307999053693242   0.03129778728239355   0.018800753324488016
0.2307999053693242   0.03129778728239355   0.018800753324488016
0.2307999053693242   0.03129778728239355   0.018800753324488016
0.2307999053693242   0.03129778728239355   0.018800753324488016
0.224504077511054   0.02457348538150072   -0.011798624683057977
0.224504077511054   0.02457348538150072   -0.011798624683057977
0.224504077511054   0.02457348538150072   -0.011798624683057977
0.224504077511054   0.02457348538150072   -0.011798624683057977
-0.01777338268682505   -0.006900585962813087   0.0013898020917972199
-0.01777338268682505   -0.006900585962813087   0.0013898020917972199
-0.01777338268682505   -0.006900585962813087   0.0013898020917972199
-0.01777338268682505   -0.006900585962813087   0.0013898020917972199
0.10049430704677041   0.0009045501072705263   0.0036054867064845234
0.10049430704677041   0.0009045501072705263   0.0036054867064845234
0.10049430704677041   0.0009045501072705263   0.0036054867064845234
0.10049430704677041   0.0009045501072705263   0.0036054867064845234
-0.025976406218928605   -0.027056722278492477   -0.019469179253041407
-0.025976406218928605   -0.027056722278492477   -0.019469179253041407
-0.025976406218928605   -0.027056722278492477   -0.019469179253041407
-0.025976406218928605   -0.027056722278492477   -0.019469179253041407
0.2344699468728779   0.04649246752690045   0.01611173998066193
0.2344699468728779   0.04649246752690045   0.01611173998066193
0.2344699468728779   0.04649246752690045   0.01611173998066193
0.2344699468728779   0.04649246752690045   0.01611173998066193
0.2268658471763832   0.044991071632527364   -0.012364765605277562
0.2268658471763832   0.044991071632527364   -0.012364765605277562
0.2268658471763832   0.044991071632527364   -0.012364765605277562
0.2268658471763832   0.044991071632527364   -0.012364765605277562
-0.017692392485070863   0.00997750129782589   -0.0018197582489330685
-0.017692392485070863   0.00997750129782589   -0.0018197582489330685
-0.017692392485070863   0.00997750129782589   -0.0018197582489330685
-0.017692392485070863   0.00997750129782589   -0.0018197582489330685
0.10414392437726014   0.017222171020109214   0.01077205684864668
0.10414392437726014   0.017222171020109214   0.01077205684864668
0.10414392437726014   0.017222171020109214   0.01077205684864668
0.10414392437726014   0.017222171020109214   0.01077205684864668
0.20416453857655423   -0.05844594365206766   -0.02506260180022875
0.20416453857655423   -0.05844594365206766   -0.02506260180022875
0.20416453857655423   -0.05844594365206766   -0.02506260180022875
0.20416453857655423   -0.05844594365206766   -0.02506260180022875
0.45026984882476145   0.03347437466826039   0.023511342124900317
0.45026984882476145   0.03347437466826039   0.023511342124900317
0.45026984882476145   0.03347437466826039   0.023511342124900317
0.45026984882476145   0.03347437466826039   0.023511342124900317
0.446798217428892   -0.002660010529457038   -0.033366570891146294
0.446798217428892   -0.002660010529457038   -0.033366570891146294
0.446798217428892   -0.002660010529457038   -0.033366570891146294
0.446798217428892   -0.002660010529457038   -0.033366570891146294
0.22301787115075714   -0.004640563004552359   0.015828932518600507
0.22301787115075714   -0.004640563004552359   0.015828932518600507
0.22301787115075714   -0.004640563004552359   0.015828932518600507
0.22301787115075714   -0.004640563004552359   0.015828932518600507
0.31498348045845603   -0.011535441735608332   -0.010435732587667907
0.31498348045845603   -0.011535441735608332   -0.010435732587667907
0.31498348045845603   -0.011535441735608332   -0.010435732587667907
0.31498348045845603   -0.011535441735608332   -0.010435732587667907
0.20448897552589265   -0.050616472044902175   -0.030839636565370827
0.20448897552589265   -0.050616472044902175   -0.030839636565370827
0.20448897552589265   -0.050616472044902175   -0.030839636565370827
0.20448897552589265   -0.050616472044902175   -0.030839636565370827
0.4666545063337149   0.044643291790851185   0.018611571312660412
0.4666545063337149   0.044643291790851185   0.018611571312660412
0.4666545063337149   0.044643291790851185   0.018611571312660412
0.4666545063337149   0.044643291790851185   0.018611571312660412
0.4580631971239126   0.006643820666943648   -0.04481784009891142
0.4580631971239126   0.006643820666943648   -0.04481784009891142
0.4580631971239126   0.006643820666943648   -0.04481784009891142
0.4580631971239126   0.006643820666943648   -0.04481784009891142
0.224808388659696   0.0024612699296441   0.011835146512012482
0.224808388659696   0.0024612699296441   0.011835146512012482
0.224808388659696   0.0024612699296441   0.011835146512012482
0.224808388659696   0.0024612699296441   0.011835146512012482
0.32950108871367684   -0.0014523619670607085   -0.0031262870789880923
0.32950108871367684   -0.0014523619670607085   -0.0031262870789880923
0.32950108871367684   -0.0014523619670607085   -0.0031262870789880923
0.32950108871367684   -0.0014523619670607085   -0.0031262870789880923
0.20695972816120667   -0.041335568596644716   -0.033611317454147284
0.20695972816120667   -0.041335568596644716   -0.033611317454147284
0.20695972816120667   -0.041335568596644716   -0.033611317454147284
0.20695972816120667   -0.041335568596644716   -0.033611317454147284
0.47884840272432055   0.05337720429515144   0.01237480427492459
0.47884840272432055   0.05337720429515144   0.01237480427492459
0.47884840272432055   0.05337720429515144   0.01237480427492459
0.47884840272432055   0.05337720429515144   0.01237480427492459
0.47593352457113614   0.030821509184743863   -0.04222979730184168
0.47593352457113614   0.030821509184743863   -0.04222979730184168
0.47593352457113614   0.030821509184743863   -0.04222979730184168
0.47593352457113614   0.030821509184743863   -0.04222979730184168
0.22568676600904738   0.01806190824004908   0.008668991950525557
0.22568676600904738   0.01806190824004908   0.008668991950525557
0.22568676600904738   0.01806190824004908   0.008668991950525557
0.22568676600904738   0.01806190824004908   0.008668991950525557
0.3322082752506115   0.010039761254055812   0.004999356056076508
0.3322082752506115   0.010039761254055812   0.004999356056076508
0.3322082752506115   0.010039761254055812   0.004999356056076508
0.3322082752506115   0.010039761254055812   0.004999356056076508
-0.525068171846686   -0.016890265082169134   0.03476081737700021
-0.525068171846686   -0.016890265082169134   0.03476081737700021
-0.525068171846686   -0.016890265082169134   0.03476081737700021
-0.525068171846686   -0.016890265082169134   0.03476081737700021
-0.36844291811815766   -0.024886425501032372   -0.013063480437596704
-0.36844291811815766   -0.024886425501032372   -0.013063480437596704
-0.36844291811815766   -0.024886425501032372   -0.013063480437596704
-0.36844291811815766   -0.024886425501032372   -0.013063480437596704
-0.34661716809316023   0.03491810680457362   0.029604331910790236
-0.34661716809316023   0.03491810680457362   0.029604331910790236
-0.34661716809316023   0.03491810680457362   0.029604331910790236
-0.34661716809316023   0.03491810680457362   0.029604331910790236
-0.5250966991230217   -0.04328395879829079   -0.0191226226730653
-0.5250966991230217   -0.04328395879829079   -0.0191226226730653
-0.5250966991230217   -0.04328395879829079   -0.0191226226730653
-0.5250966991230217   -0.04328395879829079   -0.0191226226730653
-0.4232858194040961   -0.006683889380825911   -0.0011536421175442797
-0.4232858194040961   -0.006683889380825911   -0.0011536421175442797
-0.4232858194040961   -0.006683889380825911   -0.0011536421175442797
-0.4232858194040961   -0.006683889380825911   -0.0011536421175442797
-0.5052325865063808   0.003880794218450931   0.033033187393397334
-0.5052325865063808   0.003880794218450931   0.033033187393397334
-0.5052325865063808   0.003880794218450931   0.033033187393397334
-0.5052325865063808   0.003880794218450931   0.033033187393397334
-0.3648600356272941   -0.010625401129662093   -0.01606649782564163
-0.3648600356272941   -0.010625401129662093   -0.01606649782564163
-0.3648600356272941   -0.010625401129662093   -0.01606649782564163
-0.3648600356272941   -0.010625401129662093   -0.01606649782564163
-0.3433428741994356   0.04220769777985178   0.024993593288523578
-0.3433428741994356   0.04220769777985178   0.024993593288523578
-0.3433428741994356   0.04220769777985178   0.024993593288523578
-0.3433428741994356   0.04220769777985178   0.024993593288523578
-0.5125314240058639   -0.035152579822128105   -0.02414026259182223
-0.5125314240058639   -0.035152579822128105   -0.02414026259182223
-0.5125314240058639   -0.035152579822128105   -0.02414026259182223
-0.5125314240058639   -0.035152579822128105   -0.02414026259182223
-0.4202285169095996   0.0029168716392948685   0.004296211733893433
-0.4202285169095996   0.0029168716392948685   0.004296211733893433
-0.4202285169095996   0.0029168716392948685   0.004296211733893433
-0.4202285169095996   0.0029168716392948685   0.004296211733893433
-0.49285612573608045   0.012602548834842978   0.026481100100124434
-0.49285612573608045   0.012602548834842978   0.026481100100124434
-0.49285612573608045   0.012602548834842978   0.026481100100124434
-0.49285612573608045   0.012602548834842978   0.026481100100124434
-0.3615572193303062   -0.00408647773820571   -0.019783956847768094
-0.3615572193303062   -0.00408647773820571   -0.019783956847768094
-0.3615572193303062   -0.00408647773820571   -0.019783956847768094
-0.3615572193303062   -0.00408647773820571   -0.019783956847768094
-0.3415344652343442   0.04938241454466312   0.021503836133373713
-0.3415344652343442   0.04938241454466312   0.021503836133373713
-0.3415344652343442   0.04938241454466312   0.021503836133373713
-0.3415344652343442   0.04938241454466312   0.021503836133373713
-0.495741242890642   -0.024367936177824456   -0.028882113639515244
-0.495741242890642   -0.024367936177824456   -0.028882113639515244
-0.495741242890642   -0.024367936177824456   -0.028882113639515244
-0.495741242890642   -0.024367936177824456   -0.028882113639515244
-0.40438933447902947   0.011945301503165723   0.01189944984282619
-0.40438933447902947   0.011945301503165723   0.01189944984282619
-0.40438933447902947   0.011945301503165723   0.01189944984282619
-0.40438933447902947   0.011945301503165723   0.01189944984282619
-0.3641401731539172   -0.029626908879295574   0.013190727761865001
-0.3641401731539172   -0.029626908879295574   0.013190727761865001
-0.3641401731539172   -0.029626908879295574   0.013190727761865001
-0.3641401731539172   -0.029626908879295574   0.013190727761865001
-0.2121331347049424   -0.01611925641023681   -0.0021125275845509384
-0.2121331347049424   -0.01611925641023681   -0.0021125275845509384
-0.2121331347049424   -0.01611925641023681   -0.0021125275845509384
-0.2121331347049424   -0.01611925641023681   -0.0021125275845509384
-0.20133053736016931   0.020373601512531717   0.015957512154732588
-0.20133053736016931   0.020373601512531717   0.015957512154732588
-0.20133053736016931   0.020373601512531717   0.015957512154732588
-0.20133053736016931   0.020373601512531717   0.015957512154732588
-0.3696665351655387   -0.03532789824971833   -0.015396498396810102
-0.3696665351655387   -0.03532789824971833   -0.015396498396810102
-0.3696665351655387   -0.03532789824971833   -0.015396498396810102
-0.3696665351655387   -0.03532789824971833   -0.015396498396810102
-0.2856937218264458   -0.013864173123180855   -0.0059275594337177915
-0.2856937218264458   -0.013864173123180855   -0.0059275594337177915
-0.2856937218264458   -0.013864173123180855   -0.0059275594337177915
-0.2856937218264458   -0.013864173123180855   -0.0059275594337177915
-0.3598382745052419   -0.012363389180365558   0.010780295835318837
-0.3598382745052419   -0.012363389180365558   0.010780295835318837
-0.3598382745052419   -0.012363389180365558   0.010780295835318837
-0.3598382745052419   -0.012363389180365558   0.010780295835318837
-0.20989652417916393   -0.0013286337155180086   -0.005170186712190897
-0.20989652417916393   -0.0013286337155180086   -0.005170186712190897
-0.20989652417916393   -0.0013286337155180086   -0.005170186712190897
-0.20989652417916393   -0.0013286337155180086   -0.005170186712190897
-0.1987736572163275   0.03533685780577546   0.013071064043781905
-0.1987736572163275   0.03533685780577546   0.013071064043781905
-0.1987736572163275   0.03533685780577546   0.013071064043781905
-0.1987736572163275   0.03533685780577546   0.013071064043781905
-0.3646605697446004   -0.021238051861898616   -0.018149134795550394
-0.3646605697446004   -0.021238051861898616   -0.018149134795550394
-0.3646605697446004   -0.021238051861898616   -0.018149134795550394
-0.3646605697446004   -0.021238051861898616   -0.018149134795550394
-0.280200671103499   0.0008059501480213171   0.00037716827945423123
-0.280200671103499   0.0008059501480213171   0.00037716827945423123
-0.280200671103499   0.0008059501480213171   0.00037716827945423123
-0.280200671103499   0.0008059501480213171   0.00037716827945423123
-0.35408914081690224   0.003627949894260435   0.009842008086781578
-0.35408914081690224   0.003627949894260435   0.009842008086781578
-0.35408914081690224   0.003627949894260435   0.009842008086781578
-0.35408914081690224   0.003627949894260435   0.009842008086781578
-0.2077776753686774   0.01203826682496359   -0.008650435737154783
-0.2077776753686774   0.01203826682496359   -0.008650435737154783
-0.2077776753686774   0.01203826682496359   -0.008650435737154783
-0.2077776753686774   0.01203826682496359   -0.008650435737154783
-0.19630208677648506   0.051310564004921316   0.010383154669659462
-0.19630208677648506   0.051310564004921316   0.010383154669659462
-0.19630208677648506   0.051310564004921316   0.010383154669659462
-0.19630208677648506   0.051310564004921316   0.010383154669659462
-0.36092532654695886   -0.006023144284647092   -0.020044911600386902
-0.36092532654695886   -0.006023144284647092   -0.020044911600386902
-0.36092532654695886   -0.006023144284647092   -0.020044911600386902
-0.36092532654695886   -0.006023144284647092   -0.020044911600386902
-0.27805749598826   0.014649959091541306   0.006395944486834119
-0.27805749598826   0.014649959091541306   0.006395944486834119
-0.27805749598826   0.014649959091541306   0.006395944486834119
-0.27805749598826   0.014649959091541306   0.006395944486834119
-0.2165614645502225   -0.04100836636283767   0.0006349331416480766
-0.2165614645502225   -0.04100836636283767   0.0006349331416480766
-0.2165614645502225   -0.04100836636283767   0.0006349331416480766
-0.2165614645502225   -0.04100836636283767   0.0006349331416480766
-0.05734242403148855   -0.005012648725202072   0.008807550811710604
-0.05734242403148855   -0.005012648725202072   0.008807550811710604
-0.05734242403148855   -0.005012648725202072   0.008807550811710604
-0.05734242403148855   -0.005012648725202072   0.008807550811710604
-0.05597981234088845   0.008228627960588625   0.0030043646805211826
-0.05597981234088845   0.008228627960588625   0.0030043646805211826
-0.05597981234088845   0.008228627960588625   0.0030043646805211826
-0.05597981234088845   0.008228627960588625   0.0030043646805211826
-0.21419057621742554   -0.023890763345015564   -0.004078317274003317
-0.21419057621742554   -0.023890763345015564   -0.004078317274003317
-0.21419057621742554   -0.023890763345015564   -0.004078317274003317
-0.21419057621742554   -0.023890763345015564   -0.004078317274003317
-0.13625528928910044   -0.014755011692197671   -0.004224866493309649
-0.13625528928910044   -0.014755011692197671   -0.004224866493309649
-0.13625528928910044   -0.014755011692197671   -0.004224866493309649
-0.13625528928910044   -0.014755011692197671   -0.004224866493309649
-0.21383469415442574   -0.0243176294991892   -0.001872040804830677
-0.21383469415442574   -0.0243176294991892   -0.001872040804830677
-0.21383469415442574   -0.0243176294991892   -0.001872040804830677
-0.21383469415442574   -0.0243176294991892   -0.001872040804830677
-0.0550700426662019   0.009921145852448621   0.00586069516209396
-0.0550700426662019   0.009921145852448621   0.00586069516209396
-0.0550700426662019   0.009921145852448621   0.00586069516209396
-0.0550700426662019   0.009921145852448621   0.00586069516209396
-0.052889651194761036   0.024994713186225825   0.0007456082200178026
-0.052889651194761036   0.024994713186225825   0.0007456082200178026
-0.052889651194761036   0.024994713186225825   0.0007456082200178026
-0.052889651194761036   0.024994713186225825   0.0007456082200178026
-0.2116293692109127   -0.008849674289943009   -0.007020963833425646
-0.2116293692109127   -0.008849674289943009   -0.007020963833425646
-0.2116293692109127   -0.008849674289943009   -0.007020963833425646
-0.2116293692109127   -0.008849674289943009   -0.007020963833425646
-0.13295318169251286   0.0002958051323533814   0.0017238915187535184
-0.13295318169251286   0.0002958051323533814   0.0017238915187535184
-0.13295318169251286   0.0002958051323533814   0.0017238915187535184
-0.13295318169251286   0.0002958051323533814   0.0017238915187535184
-0.21083777370550233   -0.007605470899323827   -0.004307189696993022
-0.21083777370550233   -0.007605470899323827   -0.004307189696993022
-0.21083777370550233   -0.007605470899323827   -0.004307189696993022
-0.21083777370550233   -0.007605470899323827   -0.004307189696993022
-0.05251248482774014   0.024919271668037354   0.0027068815733112834
-0.05251248482774014   0.024919271668037354   0.0027068815733112834
-0.05251248482774014   0.024919271668037354   0.0027068815733112834
-0.05251248482774014   0.024919271668037354   0.0027068815733112834
-0.050112708960649247   0.04200412726710476   -0.0018984963501927805
-0.050112708960649247   0.04200412726710476   -0.0018984963501927805
-0.050112708960649247   0.04200412726710476   -0.0018984963501927805
-0.050112708960649247   0.04200412726710476   -0.0018984963501927805
-0.20938994808094782   0.006362463164056427   -0.010108051011790487
-0.20938994808094782   0.006362463164056427   -0.010108051011790487
-0.20938994808094782   0.006362463164056427   -0.010108051011790487
-0.20938994808094782   0.006362463164056427   -0.010108051011790487
-0.12993931840175352   0.015419097147206656   0.007455093950252987
-0.12993931840175352   0.015419097147206656   0.007455093950252987
-0.12993931840175352   0.015419097147206656   0.007455093950252987
-0.12993931840175352   0.015419097147206656   0.007455093950252987
-0.07049135126287247   -0.05033838781201526   -0.011611346258396398
-0.07049135126287247   -0.05033838781201526   -0.011611346258396398
-0.07049135126287247   -0.05033838781201526   -0.011611346258396398
-0.07049135126287247   -0.05033838781201526   -0.011611346258396398
0.09518592875794642   0.007422314829184252   0.01908693109668162
0.09518592875794642   0.007422314829184252   0.01908693109668162
0.09518592875794642   0.007422314829184252   0.01908693109668162
0.09518592875794642   0.007422314829184252   0.01908693109668162
0.08829729782944488   -0.003125311249405679   -0.010812131794632609
0.08829729782944488   -0.003125311249405679   -0.010812131794632609
0.08829729782944488   -0.003125311249405679   -0.010812131794632609
0.08829729782944488   -0.003125311249405679   -0.010812131794632609
-0.05912030339055216   -0.011603306076789182   0.00713384346958046
-0.05912030339055216   -0.011603306076789182   0.00713384346958046
-0.05912030339055216   -0.011603306076789182   0.00713384346958046
-0.05912030339055216   -0.011603306076789182   0.00713384346958046
0.012871500729003811   -0.014008842027107102   -0.0030160436565312646
0.012871500729003811   -0.014008842027107102   -0.0030160436565312646
0.012871500729003811   -0.014008842027107102   -0.0030160436565312646
0.012871500729003811   -0.014008842027107102   -0.0030160436565312646
-0.06811205336419048   -0.03510866468690588   -0.014319547788494424
-0.06811205336419048   -0.03510866468690588   -0.014319547788494424
-0.06811205336419048   -0.03510866468690588   -0.014319547788494424
-0.06811205336419048   -0.03510866468690588   -0.014319547788494424
0.09879426789325665   0.02188526745088367   0.016662139824135915
0.09879426789325665   0.02188526745088367   0.016662139824135915
0.09879426789325665   0.02188526745088367   0.016662139824135915
0.09879426789325665   0.02188526745088367   0.016662139824135915
0.09406355880291227   0.012737111695542794   -0.012258651106164526
0.09406355880291227   0.012737111695542794   -0.012258651106164526
0.09406355880291227   0.012737111695542794   -0.012258651106164526
0.09406355880291227   0.012737111695542794   -0.012258651106164526
-0.056891898233980664   0.0018474927767479256   0.0038815934333980666
-0.056891898233980664   0.0018474927767479256   0.0038815934333980666
-0.056891898233980664   0.0018474927767479256   0.0038815934333980666
-0.056891898233980664   0.0018474927767479256   0.0038815934333980666
0.01594916325078072   -0.00033962231937749617   0.003042728951682248
0.01594916325078072   -0.00033962231937749617   0.003042728951682248
0.01594916325078072   -0.00033962231937749617   0.003042728951682248
0.01594916325078072   -0.00033962231937749617   0.003042728951682248
-0.06556986437759191   -0.020224993017423327   -0.017435751490487122
-0.06556986437759191   -0.020224993017423327   -0.017435751490487122
-0.06556986437759191   -0.020224993017423327   -0.017435751490487122
-0.06556986437759191   -0.020224993017423327   -0.017435751490487122
0.10404761136401514   0.03611568390720596   0.014283039487684742
0.10404761136401514   0.03611568390720596   0.014283039487684742
0.10404761136401514   0.03611568390720596   0.014283039487684742
0.10404761136401514   0.03611568390720596   0.014283039487684742
0.09871359135919006   0.03078650499059664   -0.014180723629336402
0.09871359135919006   0.03078650499059664   -0.014180723629336402
0.09871359135919006   0.03078650499059664   -0.014180723629336402
0.09871359135919006   0.03078650499059664   -0.014180723629336402
-0.05451202293299656   0.01732161786376875   0.0007874431914062785
-0.05451202293299656   0.01732161786376875   0.0007874431914062785
-0.05451202293299656   0.01732161786376875   0.0007874431914062785
-0.05451202293299656   0.01732161786376875   0.0007874431914062785
0.020668082193692414   0.014488113216052867   0.009303015398834439
0.020668082193692414   0.014488113216052867   0.009303015398834439
0.020668082193692414   0.014488113216052867   0.009303015398834439
0.020668082193692414   0.014488113216052867   0.009303015398834439
0.0751133126829944   -0.05085830656237644   -0.022995527886516858
0.0751133126829944   -0.05085830656237644   -0.022995527886516858
0.0751133126829944   -0.05085830656237644   -0.022995527886516858
0.0751133126829944   -0.05085830656237644   -0.022995527886516858
0.23005715267847726   0.022814103096209667   0.024857175547434038
0.23005715267847726   0.022814103096209667   0.024857175547434038
0.23005715267847726   0.022814103096209667   0.024857175547434038
0.23005715267847726   0.022814103096209667   0.024857175547434038
0.22767823014197922   -0.012931926061552558   -0.03028824175761872
0.22767823014197922   -0.012931926061552558   -0.03028824175761872
0.22767823014197922   -0.012931926061552558   -0.03028824175761872
0.22767823014197922   -0.012931926061552558   -0.03028824175761872
0.09567059510867829   0.004358034959280544   0.018571008392847248
0.09567059510867829   0.004358034959280544   0.018571008392847248
0.09567059510867829   0.004358034959280544   0.018571008392847248
0.09567059510867829   0.004358034959280544   0.018571008392847248
0.1489242268598755   -0.010653392206174783   -0.00799765152127955
0.1489242268598755   -0.010653392206174783   -0.00799765152127955
0.1489242268598755   -0.010653392206174783   -0.00799765152127955
0.1489242268598755   -0.010653392206174783   -0.00799765152127955
0.07730845466909214   -0.04227047047813838   -0.026611188367664594
0.07730845466909214   -0.04227047047813838   -0.026611188367664594
0.07730845466909214   -0.04227047047813838   -0.026611188367664594
0.07730845466909214   -0.04227047047813838   -0.026611188367664594
0.24757493800273409   0.035231146797036   0.021032224687568747
0.24757493800273409   0.035231146797036   0.021032224687568747
0.24757493800273409   0.035231146797036   0.021032224687568747
0.24757493800273409   0.035231146797036   0.021032224687568747
0.24043221468557674   -0.004055524211052645   -0.03637265021734819
0.24043221468557674   -0.004055524211052645   -0.03637265021734819
0.24043221468557674   -0.004055524211052645   -0.03637265021734819
0.24043221468557674   -0.004055524211052645   -0.03637265021734819
0.09904195548946375   0.0108631834741109   0.014507260548022777
0.09904195548946375   0.0108631834741109   0.014507260548022777
0.09904195548946375   0.0108631834741109   0.014507260548022777
0.09904195548946375   0.0108631834741109   0.014507260548022777
0.16172953342231045   -0.001681439505210755   -0.0008799783104958721
0.16172953342231045   -0.001681439505210755   -0.0008799783104958721
0.16172953342231045   -0.001681439505210755   -0.0008799783104958721
0.16172953342231045   -0.001681439505210755   -0.0008799783104958721
0.08081202409337665   -0.034884062398068696   -0.03089515056023215
0.08081202409337665   -0.034884062398068696   -0.03089515056023215
0.08081202409337665   -0.034884062398068696   -0.03089515056023215
0.08081202409337665   -0.034884062398068696   -0.03089515056023215
0.26026535399394896   0.0432949295734148   0.015442592540049344
0.26026535399394896   0.0432949295734148   0.015442592540049344
0.26026535399394896   0.0432949295734148   0.015442592540049344
0.26026535399394896   0.0432949295734148   0.015442592540049344
0.2600602332680375   0.015407447090281523   -0.0389767810573062
0.2600602332680375   0.015407447090281523   -0.0389767810573062
0.2600602332680375   0.015407447090281523   -0.0389767810573062
0.2600602332680375   0.015407447090281523   -0.0389767810573062
0.10248935268365743   0.023946947511187464   0.011537640472409693
0.10248935268365743   0.023946947511187464   0.011537640472409693
0.10248935268365743   0.023946947511187464   0.011537640472409693
0.10248935268365743   0.023946947511187464   0.011537640472409693
0.16824193078540525   0.008170318554767346   0.005278627016232608
0.16824193078540525   0.008170318554767346   0.005278627016232608
0.16824193078540525   0.008170318554767346   0.005278627016232608
0.16824193078540525   0.008170318554767346   0.005278627016232608
-0.3127244600937095   -0.004925327531387885   0.031023551386177524
-0.3127244600937095   -0.004925327531387885   0.031023551386177524
-0.3127244600937095   -0.004925327531387885   0.031023551386177524
-0.3127244600937095   -0.004925327531387885   0.031023551386177524
-0.2453042038515518   -0.03136497445494444   -0.015242445617752629
-0.2453042038515518   -0.03136497445494444   -0.015242445617752629
-0.2453042038515518   -0.03136497445494444   -0.015242445617752629
-0.2453042038515518   -0.03136497445494444   -0.015242445617752629
-0.22198776730047712   0.026461790693813138   0.026497192964909853
-0.22198776730047712   0.026461790693813138   0.026497192964909853
-0.22198776730047712   0.026461790693813138   0.026497192964909853
-0.22198776730047712   0.026461790693813138   0.026497192964909853
-0.31147163102432285   -0.03398132341532372   -0.020789370101068808
-0.31147163102432285   -0.03398132341532372   -0.020789370101068808
-0.31147163102432285   -0.03398132341532372   -0.020789370101068808
-0.31147163102432285   -0.03398132341532372   -0.020789370101068808
-0.26249279574079937   -0.007154388153991616   -0.004079652183623831
-0.26249279574079937   -0.007154388153991616   -0.004079652183623831
-0.26249279574079937   -0.007154388153991616   -0.004079652183623831
-0.26249279574079937   -0.007154388153991616   -0.004079652183623831
-0.2919759793192985   0.013088518915677277   0.02961904609305194
-0.2919759793192985   0.013088518915677277   0.02961904609305194
-0.2919759793192985   0.013088518915677277   0.02961904609305194
-0.2919759793192985   0.013088518915677277   0.02961904609305194
-0.2401164494529616   -0.019241082084647677   -0.01844334501904986
-0.2401164494529616   -0.019241082084647677   -0.01844334501904986
-0.2401164494529616   -0.019241082084647677   -0.01844334501904986
-0.2401164494529616   -0.019241082084647677   -0.01844334501904986
-0.21655398375136986   0.03334887427315679   0.022389567630108142
-0.21655398375136986   0.03334887427315679   0.022389567630108142
-0.21655398375136986   0.03334887427315679   0.022389567630108142
-0.21655398375136986   0.03334887427315679   0.022389567630108142
-0.29709996877405637   -0.02617375131423308   -0.02593813005646421
-0.29709996877405637   -0.02617375131423308   -0.02593813005646421
-0.29709996877405637   -0.02617375131423308   -0.02593813005646421
-0.29709996877405637   -0.02617375131423308   -0.02593813005646421
-0.25497785873707896   0.0018443741064181549   0.0016836328637752866
-0.25497785873707896   0.0018443741064181549   0.0016836328637752866
-0.25497785873707896   0.0018443741064181549   0.0016836328637752866
-0.25497785873707896   0.0018443741064181549   0.0016836328637752866
-0.277608025091133   0.02144143323997169   0.023906403803945774
-0.277608025091133   0.02144143323997169   0.023906403803945774
-0.277608025091133   0.02144143323997169   0.023906403803945774
-0.277608025091133   0.02144143323997169   0.023906403803945774
-0.23475670181281524   -0.012977084659569663   -0.022298063744388256
-0.23475670181281524   -0.012977084659569663   -0.022298063744388256
-0.23475670181281524   -0.012977084659569663   -0.022298063744388256
-0.23475670181281524   -0.012977084659569663   -0.022298063744388256
-0.2121750830964313   0.04198299135234433   0.019306364217118042
-0.2121750830964313   0.04198299135234433   0.019306364217118042
-0.2121750830964313   0.04198299135234433   0.019306364217118042
-0.2121750830964313   0.04198299135234433   0.019306364217118042
-0.27780248408924124   -0.01366284829058751   -0.03000319642279426
-0.27780248408924124   -0.01366284829058751   -0.03000319642279426
-0.27780248408924124   -0.01366284829058751   -0.03000319642279426
-0.27780248408924124   -0.01366284829058751   -0.03000319642279426
-0.23986487932647704   0.010749600408643215   0.008807880125002707
-0.23986487932647704   0.010749600408643215   0.008807880125002707
-0.23986487932647704   0.010749600408643215   0.008807880125002707
-0.23986487932647704   0.010749600408643215   0.008807880125002707
-0.2365551708372629   -0.01762800760003435   0.01476575259878185
-0.2365551708372629   -0.01762800760003435   0.01476575259878185
-0.2365551708372629   -0.01762800760003435   0.01476575259878185
-0.2365551708372629   -0.01762800760003435   0.01476575259878185
-0.17489208321124863   -0.023763837072127023   -0.004505098639362409
-0.17489208321124863   -0.023763837072127023   -0.004505098639362409
-0.17489208321124863   -0.023763837072127023   -0.004505098639362409
-0.17489208321124863   -0.023763837072127023   -0.004505098639362409
-0.16194558529300904   0.012005581375131504   0.013549949854909397
-0.16194558529300904   0.012005581375131504   0.013549949854909397
-0.16194558529300904   0.012005581375131504   0.013549949854909397
-0.16194558529300904   0.012005581375131504   0.013549949854909397
-0.24017892633528717   -0.025043680243175607   -0.012953131272145934
-0.24017892633528717   -0.025043680243175607   -0.012953131272145934
-0.24017892633528717   -0.025043680243175607   -0.012953131272145934
-0.24017892633528717   -0.025043680243175607   -0.012953131272145934
-0.2028613356887259   -0.012515386750452356   -0.005536971033317873
-0.2028613356887259   -0.012515386750452356   -0.005536971033317873
-0.2028613356887259   -0.012515386750452356   -0.005536971033317873
-0.2028613356887259   -0.012515386750452356   -0.005536971033317873
-0.23044526615010721   -0.0018917057376296037   0.012563195148202052
-0.23044526615010721   -0.0018917057376296037   0.012563195148202052
-0.23044526615010721   -0.0018917057376296037   0.012563195148202052
-0.23044526615010721   -0.0018917057376296037   0.012563195148202052
-0.1705771361286238   -0.010044283780851548   -0.007557939167181346
-0.1705771361286238   -0.010044283780851548   -0.007557939167181346
-0.1705771361286238   -0.010044283780851548   -0.007557939167181346
-0.1705771361286238   -0.010044283780851548   -0.007557939167181346
-0.1572680513402334   0.026035964268567337   0.010828427452412283
-0.1572680513402334   0.026035964268567337   0.010828427452412283
-0.1572680513402334   0.026035964268567337   0.010828427452412283
-0.1572680513402334   0.026035964268567337   0.010828427452412283
-0.2331226187295229   -0.011590308775051544   -0.015514424212442895
-0.2331226187295229   -0.011590308775051544   -0.015514424212442895
-0.2331226187295229   -0.011590308775051544   -0.015514424212442895
-0.2331226187295229   -0.011590308775051544   -0.015514424212442895
-0.19606122361848283   0.0009766110977642434   0.0005052477795901601
-0.19606122361848283   0.0009766110977642434   0.0005052477795901601
-0.19606122361848283   0.0009766110977642434   0.0005052477795901601
-0.19606122361848283   0.0009766110977642434   0.0005052477795901601
-0.22281611581000715   0.013038518505121527   0.011389263104956963
-0.22281611581000715   0.013038518505121527   0.011389263104956963
-0.22281611581000715   0.013038518505121527   0.011389263104956963
-0.22281611581000715   0.013038518505121527   0.011389263104956963
-0.16630241706668092   0.002679274181462507   -0.010986711092722305
-0.16630241706668092   0.002679274181462507   -0.010986711092722305
-0.16630241706668092   0.002679274181462507   -0.010986711092722305
-0.16630241706668092   0.002679274181462507   -0.010986711092722305
-0.15260404833112218   0.041297313478823254   0.008236099001128195
-0.15260404833112218   0.041297313478823254   0.008236099001128195
-0.15260404833112218   0.041297313478823254   0.008236099001128195
-0.15260404833112218   0.041297313478823254   0.008236099001128195
-0.22732349701240387   0.0031360765349961947   -0.017588790545392807
-0.22732349701240387   0.0031360765349961947   -0.017588790545392807
-0.22732349701240387   0.0031360765349961947   -0.017588790545392807
-0.22732349701240387   0.0031360765349961947   -0.017588790545392807
-0.19115518655142702   0.014241738207447847   0.0064293275624570274
-0.19115518655142702   0.014241738207447847   0.0064293275624570274
-0.19115518655142702   0.014241738207447847   0.0064293275624570274
-0.19115518655142702   0.014241738207447847   0.0064293275624570274
-0.1746446965884895   -0.029700844932069773   0.0026688423343730495
-0.1746446965884895   -0.029700844932069773   0.0026688423343730495
-0.1746446965884895   -0.029700844932069773   0.0026688423343730495
-0.1746446965884895   -0.029700844932069773   0.0026688423343730495
-0.10533829411089   -0.012711724533984581   0.00637855204365852
-0.10533829411089   -0.012711724533984581   0.00637855204365852
-0.10533829411089   -0.012711724533984581   0.00637855204365852
-0.10533829411089   -0.012711724533984581   0.00637855204365852
-0.10188477885142037   -0.00045168593589680825   0.0008112724055852902
-0.10188477885142037   -0.00045168593589680825   0.0008112724055852902
-0.10188477885142037   -0.00045168593589680825   0.0008112724055852902
-0.10188477885142037   -0.00045168593589680825   0.0008112724055852902
-0.17004665602043698   -0.01347214718360338   -0.0014776752234953502
-0.17004665602043698   -0.01347214718360338   -0.0014776752234953502
-0.17004665602043698   -0.01347214718360338   -0.0014776752234953502
-0.17004665602043698   -0.01347214718360338   -0.0014776752234953502
-0.1382006576178043   -0.013421182039888072   -0.0040434686093968894
-0.1382006576178043   -0.013421182039888072   -0.0040434686093968894
-0.1382006576178043   -0.013421182039888072   -0.0040434686093968894
-0.1382006576178043   -0.013421182039888072   -0.0040434686093968894
-0.16983025164890325   -0.014147162571997409   0.0002793620225651711
-0.16983025164890325   -0.014147162571997409   0.0002793620225651711
-0.16983025164890325   -0.014147162571997409   0.0002793620225651711
-0.16983025164890325   -0.014147162571997409   0.0002793620225651711
-0.10100421243975505   0.0013203002356959315   0.003442118292319255
-0.10100421243975505   0.0013203002356959315   0.003442118292319255
-0.10100421243975505   0.0013203002356959315   0.003442118292319255
-0.10100421243975505   0.0013203002356959315   0.003442118292319255
-0.0967935224956657   0.015237543567639397   -0.001420721260760642
-0.0967935224956657   0.015237543567639397   -0.001420721260760642
-0.0967935224956657   0.015237543567639397   -0.001420721260760642
-0.0967935224956657   0.015237543567639397   -0.001420721260760642
-0.1653592577819451   0.0007615552117455002   -0.004353195699326193
-0.1653592577819451   0.0007615552117455002   -0.004353195699326193
-0.1653592577819451   0.0007615552117455002   -0.004353195699326193
-0.1653592577819451   0.0007615552117455002   -0.004353195699326193
-0.1328246840851381   0.0006679082290689253   0.001824091560685034
-0.1328246840851381   0.0006679082290689253   0.001824091560685034
-0.1328246840851381   0.0006679082290689253   0.001824091560685034
-0.1328246840851381   0.0006679082290689253   0.001824091560685034
-0.16477385567977884   0.0014939126563477054   -0.0021585426330982503
-0.16477385567977884   0.0014939126563477054   -0.0021585426330982503
-0.16477385567977884   0.0014939126563477054   -0.0021585426330982503
-0.16477385567977884   0.0014939126563477054   -0.0021585426330982503
-0.09638626660781657   0.015497844113051221   0.0003552576330738983
-0.09638626660781657   0.015497844113051221   0.0003552576330738983
-0.09638626660781657   0.015497844113051221   0.0003552576330738983
-0.09638626660781657   0.015497844113051221   0.0003552576330738983
-0.09198311167784504   0.03107418856351214   -0.003956260417614739
-0.09198311167784504   0.03107418856351214   -0.003956260417614739
-0.09198311167784504   0.03107418856351214   -0.003956260417614739
-0.09198311167784504   0.03107418856351214   -0.003956260417614739
-0.16097732860201835   0.015103799467960574   -0.007436788342489989
-0.16097732860201835   0.015103799467960574   -0.007436788342489989
-0.16097732860201835   0.015103799467960574   -0.007436788342489989
-0.16097732860201835   0.015103799467960574   -0.007436788342489989
-0.12774615037919035   0.014808110568577053   0.007454623151804413
-0.12774615037919035   0.014808110568577053   0.007454623151804413
-0.12774615037919035   0.014808110568577053   0.007454623151804413
-0.12774615037919035   0.014808110568577053   0.007454623151804413
-0.1140112028416635   -0.04014503411575966   -0.009552682028435714
-0.1140112028416635   -0.04014503411575966   -0.009552682028435714
-0.1140112028416635   -0.04014503411575966   -0.009552682028435714
-0.1140112028416635   -0.04014503411575966   -0.009552682028435714
-0.03797694268978864   -0.000982437137675231   0.016705068526980754
-0.03797694268978864   -0.000982437137675231   0.016705068526980754
-0.03797694268978864   -0.000982437137675231   0.016705068526980754
-0.03797694268978864   -0.000982437137675231   0.016705068526980754
-0.042858743746761324   -0.012269850120799999   -0.012460436394256784
-0.042858743746761324   -0.012269850120799999   -0.012460436394256784
-0.042858743746761324   -0.012269850120799999   -0.012460436394256784
-0.042858743746761324   -0.012269850120799999   -0.012460436394256784
-0.10033803742540266   -0.0015230455731472942   0.009616339172923444
-0.10033803742540266   -0.0015230455731472942   0.009616339172923444
-0.10033803742540266   -0.0015230455731472942   0.009616339172923444
-0.10033803742540266   -0.0015230455731472942   0.009616339172923444
-0.07375575542251879   -0.013134862446371359   -0.0029212670942870018
-0.07375575542251879   -0.013134862446371359   -0.0029212670942870018
-0.07375575542251879   -0.013134862446371359   -0.0029212670942870018
-0.07375575542251879   -0.013134862446371359   -0.0029212670942870018
-0.10948397893032813   -0.025525077219692403   -0.012111336705159683
-0.10948397893032813   -0.025525077219692403   -0.012111336705159683
-0.10948397893032813   -0.025525077219692403   -0.012111336705159683
-0.10948397893032813   -0.025525077219692403   -0.012111336705159683
-0.032485260764001836   0.012959723003580101   0.014177405395159602
-0.032485260764001836   0.012959723003580101   0.014177405395159602
-0.032485260764001836   0.012959723003580101   0.014177405395159602
-0.032485260764001836   0.012959723003580101   0.014177405395159602
-0.03536163960790787   0.0025708403979475634   -0.014031927086684208
-0.03536163960790787   0.0025708403979475634   -0.014031927086684208
-0.03536163960790787   0.0025708403979475634   -0.014031927086684208
-0.03536163960790787   0.0025708403979475634   -0.014031927086684208
-0.09602087220436108   0.01125445622595259   0.006425617537449186
-0.09602087220436108   0.01125445622595259   0.006425617537449186
-0.09602087220436108   0.01125445622595259   0.006425617537449186
-0.09602087220436108   0.01125445622595259   0.006425617537449186
-0.06801404509538317   5.34685447876708e-06   0.003064691491409879
-0.06801404509538317   5.34685447876708e-06   0.003064691491409879
-0.06801404509538317   5.34685447876708e-06   0.003064691491409879
-0.06801404509538317   5.34685447876708e-06   0.003064691491409879
-0.10487568607945748   -0.011536985501201505   -0.015057010110879954
-0.10487568607945748   -0.011536985501201505   -0.015057010110879954
-0.10487568607945748   -0.011536985501201505   -0.015057010110879954
-0.10487568607945748   -0.011536985501201505   -0.015057010110879954
-0.02536356915272913   0.026505538705185235   0.012023726881972781
-0.02536356915272913   0.026505538705185235   0.012023726881972781
-0.02536356915272913   0.026505538705185235   0.012023726881972781
-0.02536356915272913   0.026505538705185235   0.012023726881972781
-0.02902451863410853   0.019115338986030104   -0.015731455496174974
-0.02902451863410853   0.019115338986030104   -0.015731455496174974
-0.02902451863410853   0.019115338986030104   -0.015731455496174974
-0.02902451863410853   0.019115338986030104   -0.015731455496174974
-0.09160061902023554   0.025681310921637435   0.003349080512307345
-0.09160061902023554   0.025681310921637435   0.003349080512307345
-0.09160061902023554   0.025681310921637435   0.003349080512307345
-0.09160061902023554   0.025681310921637435   0.003349080512307345
-0.062096322512461125   0.01366217598182447   0.009037463677610758
-0.062096322512461125   0.01366217598182447   0.009037463677610758
-0.062096322512461125   0.01366217598182447   0.009037463677610758
-0.062096322512461125   0.01366217598182447   0.009037463677610758
-0.05391371001119913   -0.043119787995636275   -0.0208414172221116
-0.05391371001119913   -0.043119787995636275   -0.0208414172221116
-0.05391371001119913   -0.043119787995636275   -0.0208414172221116
-0.05391371001119913   -0.043119787995636275   -0.0208414172221116
0.01201697572212776   0.012336525695527964   0.02560819905725925
0.01201697572212776   0.012336525695527964   0.02560819905725925
0.01201697572212776   0.012336525695527964   0.02560819905725925
0.01201697572212776   0.012336525695527964   0.02560819905725925
0.01202288905658991   -0.02161271613431631   -0.02763504102304863
0.01202288905658991   -0.02161271613431631   -0.02763504102304863
0.01202288905658991   -0.02161271613431631   -0.02763504102304863
0.01202288905658991   -0.02161271613431631   -0.02763504102304863
-0.0310434654014997   0.0133815448325648   0.020964560378686548
-0.0310434654014997   0.0133815448325648   0.020964560378686548
-0.0310434654014997   0.0133815448325648   0.020964560378686548
-0.0310434654014997   0.0133815448325648   0.020964560378686548
-0.015585680945389934   -0.009289195755098083   -0.004769607329711637
-0.015585680945389934   -0.009289195755098083   -0.004769607329711637
-0.015585680945389934   -0.009289195755098083   -0.004769607329711637
-0.015585680945389934   -0.009289195755098083   -0.004769607329711637
-0.04933744410019884   -0.033152110181261164   -0.023971678100984148
-0.04933744410019884   -0.033152110181261164   -0.023971678100984148
-0.04933744410019884   -0.033152110181261164   -0.023971678100984148
-0.04933744410019884   -0.033152110181261164   -0.023971678100984148
0.03162720293622028   0.026231274060440724   0.022542538180346183
0.03162720293622028   0.026231274060440724   0.022542538180346183
0.03162720293622028   0.026231274060440724   0.022542538180346183
0.03162720293622028   0.026231274060440724   0.022542538180346183
0.02646049881160731   -0.013127019242789272   -0.03286229635862166
0.02646049881160731   -0.013127019242789272   -0.03286229635862166
0.02646049881160731   -0.013127019242789272   -0.03286229635862166
0.02646049881160731   -0.013127019242789272   -0.03286229635862166
-0.02579508221666531   0.019540169802971043   0.016831530464505095
-0.02579508221666531   0.019540169802971043   0.016831530464505095
-0.02579508221666531   0.019540169802971043   0.016831530464505095
-0.02579508221666531   0.019540169802971043   0.016831530464505095
-0.003799049903665022   -0.0005394654534474222   0.0016962682646393073
-0.003799049903665022   -0.0005394654534474222   0.0016962682646393073
-0.003799049903665022   -0.0005394654534474222   0.0016962682646393073
-0.003799049903665022   -0.0005394654534474222   0.0016962682646393073
-0.04385388010571885   -0.026168244658407065   -0.027754044519384468
-0.04385388010571885   -0.026168244658407065   -0.027754044519384468
-0.04385388010571885   -0.026168244658407065   -0.027754044519384468
-0.04385388010571885   -0.026168244658407065   -0.027754044519384468
0.045834221151246496   0.03389631966917449   0.0169829764276105
0.045834221151246496   0.03389631966917449   0.0169829764276105
0.045834221151246496   0.03389631966917449   0.0169829764276105
0.045834221151246496   0.03389631966917449   0.0169829764276105
0.046771041250567164   0.0034507353598182064   -0.03522510885134633
0.046771041250567164   0.0034507353598182064   -0.03522510885134633
0.046771041250567164   0.0034507353598182064   -0.03522510885134633
0.046771041250567164   0.0034507353598182064   -0.03522510885134633
-0.020898494049515576   0.03033197687603455   0.013682029536785356
-0.020898494049515576   0.03033197687603455   0.013682029536785356
-0.020898494049515576   0.03033197687603455   0.013682029536785356
-0.020898494049515576   0.03033197687603455   0.013682029536785356
0.0069583478774037505   0.008619169630918345   0.008046338848780383
0.0069583478774037505   0.008619169630918345   0.008046338848780383
0.0069583478774037505   0.008619169630918345   0.008046338848780383
0.0069583478774037505   0.008619169630918345   0.008046338848780383
-0.10144218169893442   0.006310912488066971   0.029274966944687016
-0.10144218169893442   0.006310912488066971   0.029274966944687016
-0.10144218169893442   0.006310912488066971   0.029274966944687016
-0.10144218169893442   0.006310912488066971   0.029274966944687016
-0.12317662982694177   -0.03803326011009095   -0.017132312740991376
-0.12317662982694177   -0.03803326011009095   -0.017132312740991376
-0.12317662982694177   -0.03803326011009095   -0.017132312740991376
-0.12317662982694177   -0.03803326011009095   -0.017132312740991376
-0.09834395591479334   0.017590213957199993   0.02394064165202795
-0.09834395591479334   0.017590213957199993   0.02394064165202795
-0.09834395591479334   0.017590213957199993   0.02394064165202795
-0.09834395591479334   0.017590213957199993   0.02394064165202795
-0.0985808921274101   -0.02466973941140133   -0.02213302115710525
-0.0985808921274101   -0.02466973941140133   -0.02213302115710525
-0.0985808921274101   -0.02466973941140133   -0.02213302115710525
-0.0985808921274101   -0.02466973941140133   -0.02213302115710525
-0.10280439983650554   -0.007893226298605348   -0.008125653357375475
-0.10280439983650554   -0.007893226298605348   -0.008125653357375475
-0.10280439983650554   -0.007893226298605348   -0.008125653357375475
-0.10280439983650554   -0.007893226298605348   -0.008125653357375475
-0.07935940813441433   0.022049939218471176   0.027254720178004857
-0.07935940813441433   0.022049939218471176   0.027254720178004857
-0.07935940813441433   0.022049939218471176   0.027254720178004857
-0.07935940813441433   0.022049939218471176   0.027254720178004857
-0.11634297477945985   -0.02790699954434262   -0.020557239169761963
-0.11634297477945985   -0.02790699954434262   -0.020557239169761963
-0.11634297477945985   -0.02790699954434262   -0.020557239169761963
-0.11634297477945985   -0.02790699954434262   -0.020557239169761963
-0.09081039384243647   0.024296881445189773   0.020125458809022462
-0.09081039384243647   0.024296881445189773   0.020125458809022462
-0.09081039384243647   0.024296881445189773   0.020125458809022462
-0.09081039384243647   0.024296881445189773   0.020125458809022462
-0.082223321237638   -0.017090331468124692   -0.02752668460812174
-0.082223321237638   -0.017090331468124692   -0.02752668460812174
-0.082223321237638   -0.017090331468124692   -0.02752668460812174
-0.082223321237638   -0.017090331468124692   -0.02752668460812174
-0.09074154940643243   0.0006572232009945563   -0.0018025561404467856
-0.09074154940643243   0.0006572232009945563   -0.0018025561404467856
-0.09074154940643243   0.0006572232009945563   -0.0018025561404467856
-0.09074154940643243   0.0006572232009945563   -0.0018025561404467856
-0.06290998155125299   0.030201507177298078   0.021748175178380503
-0.06290998155125299   0.030201507177298078   0.021748175178380503
-0.06290998155125299   0.030201507177298078   0.021748175178380503
-0.06290998155125299   0.030201507177298078   0.021748175178380503
-0.10897650722606297   -0.021847730897471936   -0.02456049576644832
-0.10897650722606297   -0.021847730897471936   -0.02456049576644832
-0.10897650722606297   -0.021847730897471936   -0.02456049576644832
-0.10897650722606297   -0.021847730897471936   -0.02456049576644832
-0.08393651855647268   0.03458673132112905   0.01737873610302
-0.08393651855647268   0.03458673132112905   0.01737873610302
-0.08393651855647268   0.03458673132112905   0.01737873610302
-0.08393651855647268   0.03458673132112905   0.01737873610302
-0.060379887090781445   -0.002687469916813328   -0.0309958992273872
-0.060379887090781445   -0.002687469916813328   -0.0309958992273872
-0.060379887090781445   -0.002687469916813328   -0.0309958992273872
-0.060379887090781445   -0.002687469916813328   -0.0309958992273872
-0.07629211457623031   0.00962238976439836   0.004945371483237886
-0.07629211457623031   0.00962238976439836   0.004945371483237886
-0.07629211457623031   0.00962238976439836   0.004945371483237886
-0.07629211457623031   0.00962238976439836   0.004945371483237886
-0.11010196435704386   -0.006552702228110434   0.016760456726515764
-0.11010196435704386   -0.006552702228110434   0.016760456726515764
-0.11010196435704386   -0.006552702228110434   0.016760456726515764
-0.11010196435704386   -0.006552702228110434   0.016760456726515764
-0.13840304574708648   -0.031034994423844088   -0.006689865588699745
-0.13840304574708648   -0.031034994423844088   -0.006689865588699745
-0.13840304574708648   -0.031034994423844088   -0.006689865588699745
-0.13840304574708648   -0.031034994423844088   -0.006689865588699745
-0.12362760719288333   0.003080544411958361   0.011116672861127726
-0.12362760719288333   0.003080544411958361   0.011116672861127726
-0.12362760719288333   0.003080544411958361   0.011116672861127726
-0.12362760719288333   0.003080544411958361   0.011116672861127726
-0.11154500993191352   -0.014395898113671176   -0.010078516362701769
-0.11154500993191352   -0.014395898113671176   -0.010078516362701769
-0.11154500993191352   -0.014395898113671176   -0.010078516362701769
-0.11154500993191352   -0.014395898113671176   -0.010078516362701769
-0.12103361009456748   -0.01127319177067778   -0.005658773534667648
-0.12103361009456748   -0.01127319177067778   -0.005658773534667648
-0.12103361009456748   -0.01127319177067778   -0.005658773534667648
-0.12103361009456748   -0.01127319177067778   -0.005658773534667648
-0.10210822654993691   0.008085822045854705   0.014623680387655363
-0.10210822654993691   0.008085822045854705   0.014623680387655363
-0.10210822654993691   0.008085822045854705   0.014623680387655363
-0.10210822654993691   0.008085822045854705   0.014623680387655363
-0.13210486019969286   -0.01844164537239934   -0.009747402388563227
-0.13210486019969286   -0.01844164537239934   -0.009747402388563227
-0.13210486019969286   -0.01844164537239934   -0.009747402388563227
-0.13210486019969286   -0.01844164537239934   -0.009747402388563227
-0.1169112590043142   0.016449652724217653   0.008474023558694414
-0.1169112590043142   0.016449652724217653   0.008474023558694414
-0.1169112590043142   0.016449652724217653   0.008474023558694414
-0.1169112590043142   0.016449652724217653   0.008474023558694414
-0.10250785953102559   -0.001546809981272334   -0.012518178207461053
-0.10250785953102559   -0.001546809981272334   -0.012518178207461053
-0.10250785953102559   -0.001546809981272334   -0.012518178207461053
-0.10250785953102559   -0.001546809981272334   -0.012518178207461053
-0.11298416734196352   0.0011696885674143433   0.00016684575877132495
-0.11298416734196352   0.0011696885674143433   0.00016684575877132495
-0.11298416734196352   0.0011696885674143433   0.00016684575877132495
-0.11298416734196352   0.0011696885674143433   0.00016684575877132495
-0.09260934839157928   0.022250619697271178   0.013176947811227104
-0.09260934839157928   0.022250619697271178   0.013176947811227104
-0.09260934839157928   0.022250619697271178   0.013176947811227104
-0.09260934839157928   0.022250619697271178   0.013176947811227104
-0.1257862905348448   -0.006324297345413   -0.013127184024329847
-0.1257862905348448   -0.006324297345413   -0.013127184024329847
-0.1257862905348448   -0.006324297345413   -0.013127184024329847
-0.1257862905348448   -0.006324297345413   -0.013127184024329847
-0.11015931082437588   0.03127904473496833   0.005961864266439862
-0.11015931082437588   0.03127904473496833   0.005961864266439862
-0.11015931082437588   0.03127904473496833   0.005961864266439862
-0.11015931082437588   0.03127904473496833   0.005961864266439862
-0.09473898178983253   0.012747163130881308   -0.014794011873531583
-0.09473898178983253   0.012747163130881308   -0.014794011873531583
-0.09473898178983253   0.012747163130881308   -0.014794011873531583
-0.09473898178983253   0.012747163130881308   -0.014794011873531583
-0.10537065133145754   0.014055869903559927   0.00610904852415073
-0.10537065133145754   0.014055869903559927   0.00610904852415073
-0.10537065133145754   0.014055869903559927   0.00610904852415073
-0.10537065133145754   0.014055869903559927   0.00610904852415073
-0.13364610713375957   -0.018697525780393826   0.004757358834481848
-0.13364610713375957   -0.018697525780393826   0.004757358834481848
-0.13364610713375957   -0.018697525780393826   0.004757358834481848
-0.13364610713375957   -0.018697525780393826   0.004757358834481848
-0.1534930376153243   -0.01978819375242396   0.004024586407028944
-0.1534930376153243   -0.01978819375242396   0.004024586407028944
-0.1534930376153243   -0.01978819375242396   0.004024586407028944
-0.1534930376153243   -0.01978819375242396   0.004024586407028944
-0.1481454403908599   -0.009087995285517292   -0.0014581313626419994
-0.1481454403908599   -0.009087995285517292   -0.0014581313626419994
-0.1481454403908599   -0.009087995285517292   -0.0014581313626419994
-0.1481454403908599   -0.009087995285517292   -0.0014581313626419994
-0.1267169874250645   -0.0025866907069110323   0.0013370068190912661
-0.1267169874250645   -0.0025866907069110323   0.0013370068190912661
-0.1267169874250645   -0.0025866907069110323   0.0013370068190912661
-0.1267169874250645   -0.0025866907069110323   0.0013370068190912661
-0.14071162218004457   -0.0118303002165795   -0.003774329108998215
-0.14071162218004457   -0.0118303002165795   -0.003774329108998215
-0.14071162218004457   -0.0118303002165795   -0.003774329108998215
-0.14071162218004457   -0.0118303002165795   -0.003774329108998215
-0.12679698297502887   -0.004047174881126138   0.0023975132434827257
-0.12679698297502887   -0.004047174881126138   0.0023975132434827257
-0.12679698297502887   -0.004047174881126138   0.0023975132434827257
-0.12679698297502887   -0.004047174881126138   0.0023975132434827257
-0.14715833926466293   -0.006720405535069699   0.001109784517896382
-0.14715833926466293   -0.006720405535069699   0.001109784517896382
-0.14715833926466293   -0.006720405535069699   0.001109784517896382
-0.14715833926466293   -0.006720405535069699   0.001109784517896382
-0.1410795208490351   0.005750771927976614   -0.0036868490510806196
-0.1410795208490351   0.005750771927976614   -0.0036868490510806196
-0.1410795208490351   0.005750771927976614   -0.0036868490510806196
-0.1410795208490351   0.005750771927976614   -0.0036868490510806196
-0.12002296236530106   0.010839877687652249   -0.0014747182096745484
-0.12002296236530106   0.010839877687652249   -0.0014747182096745484
-0.12002296236530106   0.010839877687652249   -0.0014747182096745484
-0.12002296236530106   0.010839877687652249   -0.0014747182096745484
-0.1333229681695552   0.001418877666128398   0.0019860273068600396
-0.1333229681695552   0.001418877666128398   0.0019860273068600396
-0.1333229681695552   0.001418877666128398   0.0019860273068600396
-0.1333229681695552   0.001418877666128398   0.0019860273068600396
-0.11976167045868441   0.010738363015395599   -6.674400433638421e-05
-0.11976167045868441   0.010738363015395599   -6.674400433638421e-05
-0.11976167045868441   0.010738363015395599   -6.674400433638421e-05
-0.11976167045868441   0.010738363015395599   -6.674400433638421e-05
-0.14054796195610494   0.006645137399779781   -0.0019234200582330177
-0.14054796195610494   0.006645137399779781   -0.0019234200582330177
-0.14054796195610494   0.006645137399779781   -0.0019234200582330177
-0.14054796195610494   0.006645137399779781   -0.0019234200582330177
-0.13431257731412244   0.020685617424874778   -0.006192449845822562
-0.13431257731412244   0.020685617424874778   -0.006192449845822562
-0.13431257731412244   0.020685617424874778   -0.006192449845822562
-0.13431257731412244   0.020685617424874778   -0.006192449845822562
-0.11365765666904881   0.02432148130011043   -0.0045723015220659625
-0.11365765666904881   0.02432148130011043   -0.0045723015220659625
-0.11365765666904881   0.02432148130011043   -0.0045723015220659625
-0.11365765666904881   0.02432148130011043   -0.0045723015220659625
-0.12628458393833145   0.014693728443585734   0.0074758057477798
-0.12628458393833145   0.014693728443585734   0.0074758057477798
-0.12628458393833145   0.014693728443585734   0.0074758057477798
-0.12628458393833145   0.014693728443585734   0.0074758057477798
-0.15780576975484978   -0.02979555822057387   -0.007531709822451296
-0.15780576975484978   -0.02979555822057387   -0.007531709822451296
-0.15780576975484978   -0.02979555822057387   -0.007531709822451296
-0.15780576975484978   -0.02979555822057387   -0.007531709822451296
-0.16997536088264867   -0.008765786682617644   0.014243093251554206
-0.16997536088264867   -0.008765786682617644   0.014243093251554206
-0.16997536088264867   -0.008765786682617644   0.014243093251554206
-0.16997536088264867   -0.008765786682617644   0.014243093251554206
-0.17283348999339743   -0.020790994398512633   -0.014227952385908484
-0.17283348999339743   -0.020790994398512633   -0.014227952385908484
-0.17283348999339743   -0.020790994398512633   -0.014227952385908484
-0.17283348999339743   -0.020790994398512633   -0.014227952385908484
-0.14184387361732176   0.008874707718681075   0.012086999500850262
-0.14184387361732176   0.008874707718681075   0.012086999500850262
-0.14184387361732176   0.008874707718681075   0.012086999500850262
-0.14184387361732176   0.008874707718681075   0.012086999500850262
-0.15992944655768013   -0.011815073447919603   -0.002379882594168184
-0.15992944655768013   -0.011815073447919603   -0.002379882594168184
-0.15992944655768013   -0.011815073447919603   -0.002379882594168184
-0.15992944655768013   -0.011815073447919603   -0.002379882594168184
-0.15115129595400875   -0.015603371671861807   -0.009972032792043034
-0.15115129595400875   -0.015603371671861807   -0.009972032792043034
-0.15115129595400875   -0.015603371671861807   -0.009972032792043034
-0.15115129595400875   -0.015603371671861807   -0.009972032792043034
-0.16257538632818241   0.004637766320555528   0.011633805221098496
-0.16257538632818241   0.004637766320555528   0.011633805221098496
-0.16257538632818241   0.004637766320555528   0.011633805221098496
-0.16257538632818241   0.004637766320555528   0.011633805221098496
-0.16351797674332935   -0.006723234030849297   -0.01596572920759197
-0.16351797674332935   -0.006723234030849297   -0.01596572920759197
-0.16351797674332935   -0.006723234030849297   -0.01596572920759197
-0.16351797674332935   -0.006723234030849297   -0.01596572920759197
-0.1355001371225137   0.02097944621346775   0.008981395296033916
-0.1355001371225137   0.02097944621346775   0.008981395296033916
-0.1355001371225137   0.02097944621346775   0.008981395296033916
-0.1355001371225137   0.02097944621346775   0.008981395296033916
-0.1514954945184759   0.0009572556050093869   0.003572600015609672
-0.1514954945184759   0.0009572556050093869   0.003572600015609672
-0.1514954945184759   0.0009572556050093869   0.003572600015609672
-0.1514954945184759   0.0009572556050093869   0.003572600015609672
-0.1445174367795254   -0.0022959262930669078   -0.012829730482491681
-0.1445174367795254   -0.0022959262930669078   -0.012829730482491681
-0.1445174367795254   -0.0022959262930669078   -0.012829730482491681
-0.1445174367795254   -0.0022959262930669078   -0.012829730482491681
-0.1535400347718637   0.017512780790137884   0.009687965828749952
-0.1535400347718637   0.017512780790137884   0.009687965828749952
-0.1535400347718637   0.017512780790137884   0.009687965828749952
-0.1535400347718637   0.017512780790137884   0.009687965828749952
-0.15537429895495486   0.008750889029509053   -0.0175293490136076
-0.15537429895495486   0.008750889029509053   -0.0175293490136076
-0.15537429895495486   0.008750889029509053   -0.0175293490136076
-0.15537429895495486   0.008750889029509053   -0.0175293490136076
-0.12913953041869958   0.03444096940572878   0.005917432650437659
-0.12913953041869958   0.03444096940572878   0.005917432650437659
-0.12913953041869958   0.03444096940572878   0.005917432650437659
-0.12913953041869958   0.03444096940572878   0.005917432650437659
-0.14438424155902743   0.013595392322914991   0.009251634117098102
-0.14438424155902743   0.013595392322914991   0.009251634117098102
-0.14438424155902743   0.013595392322914991   0.009251634117098102
-0.14438424155902743   0.013595392322914991   0.009251634117098102
-0.1819374593204491   -0.035368865207044284   -0.018964320413025152
-0.1819374593204491   -0.035368865207044284   -0.018964320413025152
-0.1819374593204491   -0.035368865207044284   -0.018964320413025152
-0.1819374593204491   -0.035368865207044284   -0.018964320413025152
-0.20298732099361422   0.00231774759463578   0.02579062844403289
-0.20298732099361422   0.00231774759463578   0.02579062844403289
-0.20298732099361422   0.00231774759463578   0.02579062844403289
-0.20298732099361422   0.00231774759463578   0.02579062844403289
-0.2005215889306982   -0.029771203907806788   -0.02532105979397289
-0.2005215889306982   -0.029771203907806788   -0.02532105979397289
-0.2005215889306982   -0.029771203907806788   -0.02532105979397289
-0.2005215889306982   -0.029771203907806788   -0.02532105979397289
-0.15673729145289886   0.022348484536701956   0.023113561381367907
-0.15673729145289886   0.022348484536701956   0.023113561381367907
-0.15673729145289886   0.022348484536701956   0.023113561381367907
-0.15673729145289886   0.022348484536701956   0.023113561381367907
-0.1780730564729041   -0.0077341029287111875   -0.0010383210071743592
-0.1780730564729041   -0.0077341029287111875   -0.0010383210071743592
-0.1780730564729041   -0.0077341029287111875   -0.0010383210071743592
-0.1780730564729041   -0.0077341029287111875   -0.0010383210071743592
-0.17495526771157738   -0.023932745650210818   -0.02169508972511388
-0.17495526771157738   -0.023932745650210818   -0.02169508972511388
-0.17495526771157738   -0.023932745650210818   -0.02169508972511388
-0.17495526771157738   -0.023932745650210818   -0.02169508972511388
-0.1812995379441269   0.0175141010069959   0.023503890224081017
-0.1812995379441269   0.0175141010069959   0.023503890224081017
-0.1812995379441269   0.0175141010069959   0.023503890224081017
-0.1812995379441269   0.0175141010069959   0.023503890224081017
-0.18431923849158677   -0.021572467217057235   -0.030207498360714822
-0.18431923849158677   -0.021572467217057235   -0.030207498360714822
-0.18431923849158677   -0.021572467217057235   -0.030207498360714822
-0.18431923849158677   -0.021572467217057235   -0.030207498360714822
-0.1495688525541467   0.028124249163064594   0.01893240854440745
-0.1495688525541467   0.028124249163064594   0.01893240854440745
-0.1495688525541467   0.028124249163064594   0.01893240854440745
-0.1495688525541467   0.028124249163064594   0.01893240854440745
-0.16722684816254257   0.0008522052850633149   0.004655516807860636
-0.16722684816254257   0.0008522052850633149   0.004655516807860636
-0.16722684816254257   0.0008522052850633149   0.004655516807860636
-0.16722684816254257   0.0008522052850633149   0.004655516807860636
-0.1674423675715775   -0.01718148069737416   -0.02512943668230877
-0.1674423675715775   -0.01718148069737416   -0.02512943668230877
-0.1674423675715775   -0.01718148069737416   -0.02512943668230877
-0.1674423675715775   -0.01718148069737416   -0.02512943668230877
-0.16539185709676973   0.024787129020767608   0.01806981237554556
-0.16539185709676973   0.024787129020767608   0.01806981237554556
-0.16539185709676973   0.024787129020767608   0.01806981237554556
-0.16539185709676973   0.024787129020767608   0.01806981237554556
-0.162968103377084   -0.0074267722700165   -0.0330421068658938
-0.162968103377084   -0.0074267722700165   -0.0330421068658938
-0.162968103377084   -0.0074267722700165   -0.0330421068658938
-0.162968103377084   -0.0074267722700165   -0.0330421068658938
-0.1431660255501333   0.03666891293744928   0.015593994102558122
-0.1431660255501333   0.03666891293744928   0.015593994102558122
-0.1431660255501333   0.03666891293744928   0.015593994102558122
-0.1431660255501333   0.03666891293744928   0.015593994102558122
-0.1521450444449189   0.009399247089834306   0.01127824539163461
-0.1521450444449189   0.009399247089834306   0.01127824539163461
-0.1521450444449189   0.009399247089834306   0.01127824539163461
-0.1521450444449189   0.009399247089834306   0.01127824539163461
0.1104215672680829   0.01774283914371569   0.028149986433017134
0.1104215672680829   0.01774283914371569   0.028149986433017134
0.1104215672680829   0.01774283914371569   0.028149986433017134
0.1104215672680829   0.01774283914371569   0.028149986433017134
-0.0019445360598158209   -0.045126364690379776   -0.018494843774502525
-0.0019445360598158209   -0.045126364690379776   -0.018494843774502525
-0.0019445360598158209   -0.045126364690379776   -0.018494843774502525
-0.0019445360598158209   -0.045126364690379776   -0.018494843774502525
0.024363563252959606   0.008689824453640707   0.02172034278773523
0.024363563252959606   0.008689824453640707   0.02172034278773523
0.024363563252959606   0.008689824453640707   0.02172034278773523
0.024363563252959606   0.008689824453640707   0.02172034278773523
0.1148763581456534   -0.015441793856608287   -0.023199457301882283
0.1148763581456534   -0.015441793856608287   -0.023199457301882283
0.1148763581456534   -0.015441793856608287   -0.023199457301882283
0.1148763581456534   -0.015441793856608287   -0.023199457301882283
0.05642195474739042   -0.008627316128187075   -0.013480758677951066
0.05642195474739042   -0.008627316128187075   -0.013480758677951066
0.05642195474739042   -0.008627316128187075   -0.013480758677951066
0.05642195474739042   -0.008627316128187075   -0.013480758677951066
0.1339520896355385   0.031342452025663686   0.025394954265271236
0.1339520896355385   0.031342452025663686   0.025394954265271236
0.1339520896355385   0.031342452025663686   0.025394954265271236
0.1339520896355385   0.031342452025663686   0.025394954265271236
0.006479372551102957   -0.03690288064060313   -0.02210790562730608
0.006479372551102957   -0.03690288064060313   -0.02210790562730608
0.006479372551102957   -0.03690288064060313   -0.02210790562730608
0.006479372551102957   -0.03690288064060313   -0.02210790562730608
0.033817544889841525   0.015244199597488465   0.01810510459246453
0.033817544889841525   0.015244199597488465   0.01810510459246453
0.033817544889841525   0.015244199597488465   0.01810510459246453
0.033817544889841525   0.015244199597488465   0.01810510459246453
0.13318261084682007   -0.008042410041806343   -0.02896878478535947
0.13318261084682007   -0.008042410041806343   -0.02896878478535947
0.13318261084682007   -0.008042410041806343   -0.02896878478535947
0.13318261084682007   -0.008042410041806343   -0.02896878478535947
0.07296359577844802   -0.00047771408997805166   -0.006397736645647198
0.07296359577844802   -0.00047771408997805166   -0.006397736645647198
0.07296359577844802   -0.00047771408997805166   -0.006397736645647198
0.07296359577844802   -0.00047771408997805166   -0.006397736645647198
0.15244906697893654   0.03934475021958156   0.01997633561383499
0.15244906697893654   0.03934475021958156   0.01997633561383499
0.15244906697893654   0.03934475021958156   0.01997633561383499
0.15244906697893654   0.03934475021958156   0.01997633561383499
0.015708486307272014   -0.030985563114352466   -0.026210425608542046
0.015708486307272014   -0.030985563114352466   -0.026210425608542046
0.015708486307272014   -0.030985563114352466   -0.026210425608542046
0.015708486307272014   -0.030985563114352466   -0.026210425608542046
0.0429842263374046   0.02731747087442629   0.01566469130062484
0.0429842263374046   0.02731747087442629   0.01566469130062484
0.0429842263374046   0.02731747087442629   0.01566469130062484
0.0429842263374046   0.02731747087442629   0.01566469130062484
0.15750554459233193   0.00850675622868282   -0.031930023859684006
0.15750554459233193   0.00850675622868282   -0.031930023859684006
0.15750554459233193   0.00850675622868282   -0.031930023859684006
0.15750554459233193   0.00850675622868282   -0.031930023859684006
0.08674167456739279   0.00868597689313346   0.00027393289794860496
0.08674167456739279   0.00868597689313346   0.00027393289794860496
0.08674167456739279   0.00868597689313346   0.00027393289794860496
0.08674167456739279   0.00868597689313346   0.00027393289794860496
0.015614465450657727   0.004951033959115609   0.019222765128369835
0.015614465450657727   0.004951033959115609   0.019222765128369835
0.015614465450657727   0.004951033959115609   0.019222765128369835
0.015614465450657727   0.004951033959115609   0.019222765128369835
-0.10321819796796321   -0.03836557193705095   -0.008494621791589479
-0.10321819796796321   -0.03836557193705095   -0.008494621791589479
-0.10321819796796321   -0.03836557193705095   -0.008494621791589479
-0.10321819796796321   -0.03836557193705095   -0.008494621791589479
-0.08669786194163215   -0.005665761699624471   0.008725017717235047
-0.08669786194163215   -0.005665761699624471   0.008725017717235047
-0.08669786194163215   -0.005665761699624471   0.008725017717235047
-0.08669786194163215   -0.005665761699624471   0.008725017717235047
0.01612042963394631   -0.0041241026300152615   -0.006681398223677196
0.01612042963394631   -0.0041241026300152615   -0.006681398223677196
0.01612042963394631   -0.0041241026300152615   -0.006681398223677196
0.01612042963394631   -0.0041241026300152615   -0.006681398223677196
-0.04041214985969999   -0.00981954380849776   -0.0064506034955678655
-0.04041214985969999   -0.00981954380849776   -0.0064506034955678655
-0.04041214985969999   -0.00981954380849776   -0.0064506034955678655
-0.04041214985969999   -0.00981954380849776   -0.0064506034955678655
0.025374356127497114   0.018413753911303017   0.017050377702758558
0.025374356127497114   0.018413753911303017   0.017050377702758558
0.025374356127497114   0.018413753911303017   0.017050377702758558
0.025374356127497114   0.018413753911303017   0.017050377702758558
-0.09507879435631465   -0.02733062416207701   -0.01151478189372496
-0.09507879435631465   -0.02733062416207701   -0.01151478189372496
-0.09507879435631465   -0.02733062416207701   -0.01151478189372496
-0.09507879435631465   -0.02733062416207701   -0.01151478189372496
-0.07808784896400721   0.007072597458574213   0.006158848424768617
-0.07808784896400721   0.007072597458574213   0.006158848424768617
-0.07808784896400721   0.007072597458574213   0.006158848424768617
-0.07808784896400721   0.007072597458574213   0.006158848424768617
0.02692367992271861   0.007932039482667318   -0.009052060128328859
0.02692367992271861   0.007932039482667318   -0.009052060128328859
0.02692367992271861   0.007932039482667318   -0.009052060128328859
0.02692367992271861   0.007932039482667318   -0.009052060128328859
-0.03128028784973275   0.0013930035543988951   -0.0008103322790306154
-0.03128028784973275   0.0013930035543988951   -0.0008103322790306154
-0.03128028784973275   0.0013930035543988951   -0.0008103322790306154
-0.03128028784973275   0.0013930035543988951   -0.0008103322790306154
0.03657041267557982   0.03182934060439155   0.015284302514252935
0.03657041267557982   0.03182934060439155   0.015284302514252935
0.03657041267557982   0.03182934060439155   0.015284302514252935
0.03657041267557982   0.03182934060439155   0.015284302514252935
-0.08689218940543926   -0.01598231135171832   -0.014807944972099153
-0.08689218940543926   -0.01598231135171832   -0.014807944972099153
-0.08689218940543926   -0.01598231135171832   -0.014807944972099153
-0.08689218940543926   -0.01598231135171832   -0.014807944972099153
-0.06942180867598381   0.02151199426214829   0.003712970668954608
-0.06942180867598381   0.02151199426214829   0.003712970668954608
-0.06942180867598381   0.02151199426214829   0.003712970668954608
-0.06942180867598381   0.02151199426214829   0.003712970668954608
0.03640603122276786   0.021637492170366705   -0.011546305568499237
0.03640603122276786   0.021637492170366705   -0.011546305568499237
0.03640603122276786   0.021637492170366705   -0.011546305568499237
0.03640603122276786   0.021637492170366705   -0.011546305568499237
-0.021145711190841424   0.013807590748947508   0.005215806652228301
-0.021145711190841424   0.013807590748947508   0.005215806652228301
-0.021145711190841424   0.013807590748947508   0.005215806652228301
-0.021145711190841424   0.013807590748947508   0.005215806652228301
-0.09391149943172772   -0.007285119672169034   0.006958418624707021
-0.09391149943172772   -0.007285119672169034   0.006958418624707021
-0.09391149943172772   -0.007285119672169034   0.006958418624707021
-0.09391149943172772   -0.007285119672169034   0.006958418624707021
-0.2026306650810997   -0.027457055576630397   0.0017160365944237504
-0.2026306650810997   -0.027457055576630397   0.0017160365944237504
-0.2026306650810997   -0.027457055576630397   0.0017160365944237504
-0.2026306650810997   -0.027457055576630397   0.0017160365944237504
-0.19512990818792655   -0.017297610431985567   -0.0038046710434040234
-0.19512990818792655   -0.017297610431985567   -0.0038046710434040234
-0.19512990818792655   -0.017297610431985567   -0.0038046710434040234
-0.19512990818792655   -0.017297610431985567   -0.0038046710434040234
-0.08501751304284977   0.007201975775566586   0.004259024735956909
-0.08501751304284977   0.007201975775566586   0.004259024735956909
-0.08501751304284977   0.007201975775566586   0.004259024735956909
-0.08501751304284977   0.007201975775566586   0.004259024735956909
-0.14438161821120193   -0.010302859276879326   -0.0037811394011380813
-0.14438161821120193   -0.010302859276879326   -0.0037811394011380813
-0.14438161821120193   -0.010302859276879326   -0.0037811394011380813
-0.14438161821120193   -0.010302859276879326   -0.0037811394011380813
-0.08510768012235528   0.006391502010509781   0.004618663103486115
-0.08510768012235528   0.006391502010509781   0.004618663103486115
-0.08510768012235528   0.006391502010509781   0.004618663103486115
-0.08510768012235528   0.006391502010509781   0.004618663103486115
-0.19428589062645854   -0.01573328618496372   -0.0011489074830858441
-0.19428589062645854   -0.01573328618496372   -0.0011489074830858441
-0.19428589062645854   -0.01573328618496372   -0.0011489074830858441
-0.19428589062645854   -0.01573328618496372   -0.0011489074830858441
-0.18606727036265835   -0.003270442071689597   -0.005982009009026488
-0.18606727036265835   -0.003270442071689597   -0.005982009009026488
-0.18606727036265835   -0.003270442071689597   -0.005982009009026488
-0.18606727036265835   -0.003270442071689597   -0.005982009009026488
-0.07649450150547984   0.019608318055935985   0.0015898651200446003
-0.07649450150547984   0.019608318055935985   0.0015898651200446003
-0.07649450150547984   0.019608318055935985   0.0015898651200446003
-0.07649450150547984   0.019608318055935985   0.0015898651200446003
-0.13501792194585094   0.0020056195337771407   0.0019102264815942585
-0.13501792194585094   0.0020056195337771407   0.0019102264815942585
-0.13501792194585094   0.0020056195337771407   0.0019102264815942585
-0.13501792194585094   0.0020056195337771407   0.0019102264815942585
-0.07625061255787076   0.02031068072823201   0.002106947185793963
-0.07625061255787076   0.02031068072823201   0.002106947185793963
-0.07625061255787076   0.02031068072823201   0.002106947185793963
-0.07625061255787076   0.02031068072823201   0.002106947185793963
-0.18570491930138272   -0.003366564735101149   -0.004074131039238189
-0.18570491930138272   -0.003366564735101149   -0.004074131039238189
-0.18570491930138272   -0.003366564735101149   -0.004074131039238189
-0.18570491930138272   -0.003366564735101149   -0.004074131039238189
-0.17736826918202944   0.01080262219297154   -0.008455984544779761
-0.17736826918202944   0.01080262219297154   -0.008455984544779761
-0.17736826918202944   0.01080262219297154   -0.008455984544779761
-0.17736826918202944   0.01080262219297154   -0.008455984544779761
-0.06835538896718642   0.03205098840766318   -0.0014939249325722822
-0.06835538896718642   0.03205098840766318   -0.0014939249325722822
-0.06835538896718642   0.03205098840766318   -0.0014939249325722822
-0.06835538896718642   0.03205098840766318   -0.0014939249325722822
-0.12615165340967577   0.014283700453964609   0.0072303283888587935
-0.12615165340967577   0.014283700453964609   0.0072303283888587935
-0.12615165340967577   0.014283700453964609   0.0072303283888587935
-0.12615165340967577   0.014283700453964609   0.0072303283888587935
-0.2024634293373486   -0.019244155897131975   -0.005660684366317523
-0.2024634293373486   -0.019244155897131975   -0.005660684366317523
-0.2024634293373486   -0.019244155897131975   -0.005660684366317523
-0.2024634293373486   -0.019244155897131975   -0.005660684366317523
-0.30129482839926813   -0.01719497234553937   0.01171862034767041
-0.30129482839926813   -0.01719497234553937   0.01171862034767041
-0.30129482839926813   -0.01719497234553937   0.01171862034767041
-0.30129482839926813   -0.01719497234553937   0.01171862034767041
-0.30162243118416987   -0.02871357957219159   -0.016075879386665003
-0.30162243118416987   -0.02871357957219159   -0.016075879386665003
-0.30162243118416987   -0.02871357957219159   -0.016075879386665003
-0.30162243118416987   -0.02871357957219159   -0.016075879386665003
-0.18439915174744226   0.01808145862545893   0.01447004210157292
-0.18439915174744226   0.01808145862545893   0.01447004210157292
-0.18439915174744226   0.01808145862545893   0.01447004210157292
-0.18439915174744226   0.01808145862545893   0.01447004210157292
-0.24605013006109913   -0.010586367364291797   -0.001612097646409686
-0.24605013006109913   -0.010586367364291797   -0.001612097646409686
-0.24605013006109913   -0.010586367364291797   -0.001612097646409686
-0.24605013006109913   -0.010586367364291797   -0.001612097646409686
-0.1935906087643279   -0.005477663401976841   -0.007928120955417848
-0.1935906087643279   -0.005477663401976841   -0.007928120955417848
-0.1935906087643279   -0.005477663401976841   -0.007928120955417848
-0.1935906087643279   -0.005477663401976841   -0.007928120955417848
-0.29180121455900654   -0.004524697936480054   0.008841322103442295
-0.29180121455900654   -0.004524697936480054   0.008841322103442295
-0.29180121455900654   -0.004524697936480054   0.008841322103442295
-0.29180121455900654   -0.004524697936480054   0.008841322103442295
-0.29021941387674494   -0.015338748861597258   -0.01789030332504457
-0.29021941387674494   -0.015338748861597258   -0.01789030332504457
-0.29021941387674494   -0.015338748861597258   -0.01789030332504457
-0.29021941387674494   -0.015338748861597258   -0.01789030332504457
-0.17603981137757754   0.029364898534170743   0.011519945310517248
-0.17603981137757754   0.029364898534170743   0.011519945310517248
-0.17603981137757754   0.029364898534170743   0.011519945310517248
-0.17603981137757754   0.029364898534170743   0.011519945310517248
-0.23476419439663798   0.001827540961593127   0.00426143844656246
-0.23476419439663798   0.001827540961593127   0.00426143844656246
-0.23476419439663798   0.001827540961593127   0.00426143844656246
-0.23476419439663798   0.001827540961593127   0.00426143844656246
-0.18492410587618538   0.007159206394877611   -0.010695835043229735
-0.18492410587618538   0.007159206394877611   -0.010695835043229735
-0.18492410587618538   0.007159206394877611   -0.010695835043229735
-0.18492410587618538   0.007159206394877611   -0.010695835043229735
-0.28062840196247446   0.0075736606933583805   0.007152346691352306
-0.28062840196247446   0.0075736606933583805   0.007152346691352306
-0.28062840196247446   0.0075736606933583805   0.007152346691352306
-0.28062840196247446   0.0075736606933583805   0.007152346691352306
-0.2800253487819429   -0.0007729285659021923   -0.0192662388444739
-0.2800253487819429   -0.0007729285659021923   -0.0192662388444739
-0.2800253487819429   -0.0007729285659021923   -0.0192662388444739
-0.2800253487819429   -0.0007729285659021923   -0.0192662388444739
-0.16776926948435514   0.04179610355447981   0.008545532582083522
-0.16776926948435514   0.04179610355447981   0.008545532582083522
-0.16776926948435514   0.04179610355447981   0.008545532582083522
-0.16776926948435514   0.04179610355447981   0.008545532582083522
-0.22639663857463113   0.013375633247647428   0.009516659416367024
-0.22639663857463113   0.013375633247647428   0.009516659416367024
-0.22639663857463113   0.013375633247647428   0.009516659416367024
-0.22639663857463113   0.013375633247647428   0.009516659416367024
-0.30918050642489386   -0.0275499696713552   -0.017354772454642335
-0.30918050642489386   -0.0275499696713552   -0.017354772454642335
-0.30918050642489386   -0.0275499696713552   -0.017354772454642335
-0.30918050642489386   -0.0275499696713552   -0.017354772454642335
-0.4140087292945243   -0.007611566781034557   0.02561082031404059
-0.4140087292945243   -0.007611566781034557   0.02561082031404059
-0.4140087292945243   -0.007611566781034557   0.02561082031404059
-0.4140087292945243   -0.007611566781034557   0.02561082031404059
-0.4085773088178599   -0.037292098896367164   -0.023249338419016642
-0.4085773088178599   -0.037292098896367164   -0.023249338419016642
-0.4085773088178599   -0.037292098896367164   -0.023249338419016642
-0.4085773088178599   -0.037292098896367164   -0.023249338419016642
-0.28148851983717776   0.03063435103908975   0.025245746737014317
-0.28148851983717776   0.03063435103908975   0.025245746737014317
-0.28148851983717776   0.03063435103908975   0.025245746737014317
-0.28148851983717776   0.03063435103908975   0.025245746737014317
-0.3380575020332537   -0.0060354927834984085   0.0029155473374069193
-0.3380575020332537   -0.0060354927834984085   0.0029155473374069193
-0.3380575020332537   -0.0060354927834984085   0.0029155473374069193
-0.3380575020332537   -0.0060354927834984085   0.0029155473374069193
-0.299545443832212   -0.014763968879372875   -0.01964055331969311
-0.299545443832212   -0.014763968879372875   -0.01964055331969311
-0.299545443832212   -0.014763968879372875   -0.01964055331969311
-0.299545443832212   -0.014763968879372875   -0.01964055331969311
-0.3899442518583175   0.0086823539866   0.023941493495720723
-0.3899442518583175   0.0086823539866   0.023941493495720723
-0.3899442518583175   0.0086823539866   0.023941493495720723
-0.3899442518583175   0.0086823539866   0.023941493495720723
-0.39041302815772533   -0.029370201323479367   -0.027695668284733726
-0.39041302815772533   -0.029370201323479367   -0.027695668284733726
-0.39041302815772533   -0.029370201323479367   -0.027695668284733726
-0.39041302815772533   -0.029370201323479367   -0.027695668284733726
-0.2722389789541218   0.0358453446789634   0.020827777747507735
-0.2722389789541218   0.0358453446789634   0.020827777747507735
-0.2722389789541218   0.0358453446789634   0.020827777747507735
-0.2722389789541218   0.0358453446789634   0.020827777747507735
-0.32793090807002034   0.00229591824075992   0.007644187671018852
-0.32793090807002034   0.00229591824075992   0.007644187671018852
-0.32793090807002034   0.00229591824075992   0.007644187671018852
-0.32793090807002034   0.00229591824075992   0.007644187671018852
-0.28976373865765437   -0.008242787487294283   -0.02270788860389461
-0.28976373865765437   -0.008242787487294283   -0.02270788860389461
-0.28976373865765437   -0.008242787487294283   -0.02270788860389461
-0.28976373865765437   -0.008242787487294283   -0.02270788860389461
-0.37218811896873427   0.0154180803282392   0.01864059600849919
-0.37218811896873427   0.0154180803282392   0.01864059600849919
-0.37218811896873427   0.0154180803282392   0.01864059600849919
-0.37218811896873427   0.0154180803282392   0.01864059600849919
-0.36795273967823994   -0.017590819476733383   -0.030917953840248494
-0.36795273967823994   -0.017590819476733383   -0.030917953840248494
-0.36795273967823994   -0.017590819476733383   -0.030917953840248494
-0.36795273967823994   -0.017590819476733383   -0.030917953840248494
-0.2641377194741531   0.04205269006519004   0.017346289063382907
-0.2641377194741531   0.04205269006519004   0.017346289063382907
-0.2641377194741531   0.04205269006519004   0.017346289063382907
-0.2641377194741531   0.04205269006519004   0.017346289063382907
-0.30851956486453924   0.010070157454841147   0.014341573228754664
-0.30851956486453924   0.010070157454841147   0.014341573228754664
-0.30851956486453924   0.010070157454841147   0.014341573228754664
-0.30851956486453924   0.010070157454841147   0.014341573228754664
0.32543680990959023   0.02963444960713256   0.02792788174365306
0.32543680990959023   0.02963444960713256   0.02792788174365306
0.32543680990959023   0.02963444960713256   0.02792788174365306
0.32543680990959023   0.02963444960713256   0.02792788174365306
0.11882719037953378   -0.053486157870353976   -0.01836742896545188
0.11882719037953378   -0.053486157870353976   -0.01836742896545188
0.11882719037953378   -0.053486157870353976   -0.01836742896545188
0.11882719037953378   -0.053486157870353976   -0.01836742896545188
0.14623514685367103   -0.0005175744847615293   0.020062850849318498
0.14623514685367103   -0.0005175744847615293   0.020062850849318498
0.14623514685367103   -0.0005175744847615293   0.020062850849318498
0.14623514685367103   -0.0005175744847615293   0.020062850849318498
0.33105305613008446   -0.0069632256368269   -0.023470991293169288
0.33105305613008446   -0.0069632256368269   -0.023470991293169288
0.33105305613008446   -0.0069632256368269   -0.023470991293169288
0.33105305613008446   -0.0069632256368269   -0.023470991293169288
0.21622273300939024   -0.009537259932555893   -0.02073222658778081
0.21622273300939024   -0.009537259932555893   -0.02073222658778081
0.21622273300939024   -0.009537259932555893   -0.02073222658778081
0.21622273300939024   -0.009537259932555893   -0.02073222658778081
0.35021822197017066   0.04112066068563438   0.024270951584798417
0.35021822197017066   0.04112066068563438   0.024270951584798417
0.35021822197017066   0.04112066068563438   0.024270951584798417
0.35021822197017066   0.04112066068563438   0.024270951584798417
0.1284411442124683   -0.04723029760833649   -0.02219443923311641
0.1284411442124683   -0.04723029760833649   -0.02219443923311641
0.1284411442124683   -0.04723029760833649   -0.02219443923311641
0.1284411442124683   -0.04723029760833649   -0.02219443923311641
0.15691976859273254   0.005803050423204309   0.016521359793781325
0.15691976859273254   0.005803050423204309   0.016521359793781325
0.15691976859273254   0.005803050423204309   0.016521359793781325
0.15691976859273254   0.005803050423204309   0.016521359793781325
0.35071678167699755   0.00020991301227156478   -0.02949921552595471
0.35071678167699755   0.00020991301227156478   -0.02949921552595471
0.35071678167699755   0.00020991301227156478   -0.02949921552595471
0.35071678167699755   0.00020991301227156478   -0.02949921552595471
0.2368217251005889   -0.0018074481842350124   -0.012598372061887471
0.2368217251005889   -0.0018074481842350124   -0.012598372061887471
0.2368217251005889   -0.0018074481842350124   -0.012598372061887471
0.2368217251005889   -0.0018074481842350124   -0.012598372061887471
0.37007803040026466   0.048861515872070486   0.018655425230580072
0.37007803040026466   0.048861515872070486   0.018655425230580072
0.37007803040026466   0.048861515872070486   0.018655425230580072
0.37007803040026466   0.048861515872070486   0.018655425230580072
0.13900418529507957   -0.04140288701098044   -0.025850619260296793
0.13900418529507957   -0.04140288701098044   -0.025850619260296793
0.13900418529507957   -0.04140288701098044   -0.025850619260296793
0.13900418529507957   -0.04140288701098044   -0.025850619260296793
0.16759265940228385   0.01977384196799597   0.014318290026929812
0.16759265940228385   0.01977384196799597   0.014318290026929812
0.16759265940228385   0.01977384196799597   0.014318290026929812
0.16759265940228385   0.01977384196799597   0.014318290026929812
0.37657201177707017   0.01890876717394903   -0.031799536705305484
0.37657201177707017   0.01890876717394903   -0.031799536705305484
0.37657201177707017   0.01890876717394903   -0.031799536705305484
0.37657201177707017   0.01890876717394903   -0.031799536705305484
0.24936090729885027   0.007629532613357262   -0.005600941696611244
0.24936090729885027   0.007629532613357262   -0.005600941696611244
0.24936090729885027   0.007629532613357262   -0.005600941696611244
0.24936090729885027   0.007629532613357262   -0.005600941696611244
0.14102443316032667   0.016673670050463857   0.022458957017694698
0.14102443316032667   0.016673670050463857   0.022458957017694698
0.14102443316032667   0.016673670050463857   0.022458957017694698
0.14102443316032667   0.016673670050463857   0.022458957017694698
-0.06939352063682727   -0.04993066258326896   -0.009646054242095227
-0.06939352063682727   -0.04993066258326896   -0.009646054242095227
-0.06939352063682727   -0.04993066258326896   -0.009646054242095227
-0.06939352063682727   -0.04993066258326896   -0.009646054242095227
-0.050633848937906   -0.014791256478420639   0.006737111106148219
-0.050633848937906   -0.014791256478420639   0.006737111106148219
-0.050633848937906   -0.014791256478420639   0.006737111106148219
-0.050633848937906   -0.014791256478420639   0.006737111106148219
0.14192528344692554   0.0008721150906134158   -0.00287615575978025
0.14192528344692554   0.0008721150906134158   -0.00287615575978025
0.14192528344692554   0.0008721150906134158   -0.00287615575978025
0.14192528344692554   0.0008721150906134158   -0.00287615575978025
0.03887083637195803   -0.010420594123956852   -0.008783415273803063
0.03887083637195803   -0.010420594123956852   -0.008783415273803063
0.03887083637195803   -0.010420594123956852   -0.008783415273803063
0.03887083637195803   -0.010420594123956852   -0.008783415273803063
0.1520192370559894   0.028404236645299133   0.020061490730851665
0.1520192370559894   0.028404236645299133   0.020061490730851665
0.1520192370559894   0.028404236645299133   0.020061490730851665
0.1520192370559894   0.028404236645299133   0.020061490730851665
-0.059890014558550746   -0.04148559004468751   -0.012849383430808655
-0.059890014558550746   -0.04148559004468751   -0.012849383430808655
-0.059890014558550746   -0.04148559004468751   -0.012849383430808655
-0.059890014558550746   -0.04148559004468751   -0.012849383430808655
-0.04068917707120533   -0.0029315277201137895   0.004242960851689549
-0.04068917707120533   -0.0029315277201137895   0.004242960851689549
-0.04068917707120533   -0.0029315277201137895   0.004242960851689549
-0.04068917707120533   -0.0029315277201137895   0.004242960851689549
0.1536717518325526   0.011488820502933428   -0.005404494086845568
0.1536717518325526   0.011488820502933428   -0.005404494086845568
0.1536717518325526   0.011488820502933428   -0.005404494086845568
0.1536717518325526   0.011488820502933428   -0.005404494086845568
0.0484618328743469   -0.0010627406468398538   -0.003485626898747979
0.0484618328743469   -0.0010627406468398538   -0.003485626898747979
0.0484618328743469   -0.0010627406468398538   -0.003485626898747979
0.0484618328743469   -0.0010627406468398538   -0.003485626898747979
0.164172847631668   0.04075853844371297   0.017831266967950045
0.164172847631668   0.04075853844371297   0.017831266967950045
0.164172847631668   0.04075853844371297   0.017831266967950045
0.164172847631668   0.04075853844371297   0.017831266967950045
-0.050352583539610495   -0.03136355633018341   -0.015642042880266653
-0.050352583539610495   -0.03136355633018341   -0.015642042880266653
-0.050352583539610495   -0.03136355633018341   -0.015642042880266653
-0.050352583539610495   -0.03136355633018341   -0.015642042880266653
-0.030861612117539773   0.01084599079913532   0.001763830915651474
-0.030861612117539773   0.01084599079913532   0.001763830915651474
-0.030861612117539773   0.01084599079913532   0.001763830915651474
-0.030861612117539773   0.01084599079913532   0.001763830915651474
0.16406172328318167   0.02416332138324763   -0.007725869983830758
0.16406172328318167   0.02416332138324763   -0.007725869983830758
0.16406172328318167   0.02416332138324763   -0.007725869983830758
0.16406172328318167   0.02416332138324763   -0.007725869983830758
0.060389330029263645   0.01044517185585237   0.002709295828051504
0.060389330029263645   0.01044517185585237   0.002709295828051504
0.060389330029263645   0.01044517185585237   0.002709295828051504
0.060389330029263645   0.01044517185585237   0.002709295828051504
-0.05482352966024989   0.0036798431667994687   0.009593394890723271
-0.05482352966024989   0.0036798431667994687   0.009593394890723271
-0.05482352966024989   0.0036798431667994687   0.009593394890723271
-0.05482352966024989   0.0036798431667994687   0.009593394890723271
-0.25389371985808357   -0.04417328562779495   -0.001329538593407046
-0.25389371985808357   -0.04417328562779495   -0.001329538593407046
-0.25389371985808357   -0.04417328562779495   -0.001329538593407046
-0.25389371985808357   -0.04417328562779495   -0.001329538593407046
-0.24213952974224948   -0.026263643287500794   -0.005947053879980281
-0.24213952974224948   -0.026263643287500794   -0.005947053879980281
-0.24213952974224948   -0.026263643287500794   -0.005947053879980281
-0.24213952974224948   -0.026263643287500794   -0.005947053879980281
-0.04636302241510441   0.006961507769027136   0.006338479472708376
-0.04636302241510441   0.006961507769027136   0.006338479472708376
-0.04636302241510441   0.006961507769027136   0.006338479472708376
-0.04636302241510441   0.006961507769027136   0.006338479472708376
-0.14956275432988436   -0.01353616415801753   -0.0054950322366757514
-0.14956275432988436   -0.01353616415801753   -0.0054950322366757514
-0.14956275432988436   -0.01353616415801753   -0.0054950322366757514
-0.14956275432988436   -0.01353616415801753   -0.0054950322366757514
-0.04438091783525209   0.0159329932484118   0.007277516892585315
-0.04438091783525209   0.0159329932484118   0.007277516892585315
-0.04438091783525209   0.0159329932484118   0.007277516892585315
-0.04438091783525209   0.0159329932484118   0.007277516892585315
-0.24355083469726793   -0.034664329142051586   -0.0046028928005217235
-0.24355083469726793   -0.034664329142051586   -0.0046028928005217235
-0.24355083469726793   -0.034664329142051586   -0.0046028928005217235
-0.24355083469726793   -0.034664329142051586   -0.0046028928005217235
-0.23117171591893945   -0.013251021783002873   -0.008029619661190054
-0.23117171591893945   -0.013251021783002873   -0.008029619661190054
-0.23117171591893945   -0.013251021783002873   -0.008029619661190054
-0.23117171591893945   -0.013251021783002873   -0.008029619661190054
-0.036687846745347044   0.01769159718341452   0.003626487577452685
-0.036687846745347044   0.01769159718341452   0.003626487577452685
-0.036687846745347044   0.01769159718341452   0.003626487577452685
-0.036687846745347044   0.01769159718341452   0.003626487577452685
-0.13849483941211876   -0.002653683807567305   -7.751385833161453e-05
-0.13849483941211876   -0.002653683807567305   -7.751385833161453e-05
-0.13849483941211876   -0.002653683807567305   -7.751385833161453e-05
-0.13849483941211876   -0.002653683807567305   -7.751385833161453e-05
-0.034291570632701815   0.02865902022608445   0.004640445098008892
-0.034291570632701815   0.02865902022608445   0.004640445098008892
-0.034291570632701815   0.02865902022608445   0.004640445098008892
-0.034291570632701815   0.02865902022608445   0.004640445098008892
-0.23304015531084027   -0.023690608104928384   -0.006932230298768595
-0.23304015531084027   -0.023690608104928384   -0.006932230298768595
-0.23304015531084027   -0.023690608104928384   -0.006932230298768595
-0.23304015531084027   -0.023690608104928384   -0.006932230298768595
-0.22095775499138123   -0.0002718508924008864   -0.010505755408697836
-0.22095775499138123   -0.0002718508924008864   -0.010505755408697836
-0.22095775499138123   -0.0002718508924008864   -0.010505755408697836
-0.22095775499138123   -0.0002718508924008864   -0.010505755408697836
-0.02746840775965052   0.02864028330205934   0.0009355602021736964
-0.02746840775965052   0.02864028330205934   0.0009355602021736964
-0.02746840775965052   0.02864028330205934   0.0009355602021736964
-0.02746840775965052   0.02864028330205934   0.0009355602021736964
-0.12833687036358835   0.008190258594115159   0.005072974529050915
-0.12833687036358835   0.008190258594115159   0.005072974529050915
-0.12833687036358835   0.008190258594115159   0.005072974529050915
-0.12833687036358835   0.008190258594115159   0.005072974529050915
-0.24742188057350692   -0.009494027007987009   -0.003649600790329008
-0.24742188057350692   -0.009494027007987009   -0.003649600790329008
-0.24742188057350692   -0.009494027007987009   -0.003649600790329008
-0.24742188057350692   -0.009494027007987009   -0.003649600790329008
-0.43458316393077334   -0.03594545245976472   0.008128158505375552
-0.43458316393077334   -0.03594545245976472   0.008128158505375552
-0.43458316393077334   -0.03594545245976472   0.008128158505375552
-0.43458316393077334   -0.03594545245976472   0.008128158505375552
-0.429068214716689   -0.03731851549796476   -0.01786076554629884
-0.429068214716689   -0.03731851549796476   -0.01786076554629884
-0.429068214716689   -0.03731851549796476   -0.01786076554629884
-0.429068214716689   -0.03731851549796476   -0.01786076554629884
-0.22914622803131748   0.016917662074729535   0.01583814931245107
-0.22914622803131748   0.016917662074729535   0.01583814931245107
-0.22914622803131748   0.016917662074729535   0.01583814931245107
-0.22914622803131748   0.016917662074729535   0.01583814931245107
-0.3327382985240971   -0.014420518673479286   -0.001927529579366172
-0.3327382985240971   -0.014420518673479286   -0.001927529579366172
-0.3327382985240971   -0.014420518673479286   -0.001927529579366172
-0.3327382985240971   -0.014420518673479286   -0.001927529579366172
-0.23607426466699535   0.0037296277191600016   -0.005613999510368652
-0.23607426466699535   0.0037296277191600016   -0.005613999510368652
-0.23607426466699535   0.0037296277191600016   -0.005613999510368652
-0.23607426466699535   0.0037296277191600016   -0.005613999510368652
-0.42207817588921764   -0.024068478950601088   0.003839392043698108
-0.42207817588921764   -0.024068478950601088   0.003839392043698108
-0.42207817588921764   -0.024068478950601088   0.003839392043698108
-0.42207817588921764   -0.024068478950601088   0.003839392043698108
-0.41469703845464595   -0.024621996417733646   -0.0197573023719363
-0.41469703845464595   -0.024621996417733646   -0.0197573023719363
-0.41469703845464595   -0.024621996417733646   -0.0197573023719363
-0.41469703845464595   -0.024621996417733646   -0.0197573023719363
-0.21895462518682748   0.027129664405327193   0.01267514781104212
-0.21895462518682748   0.027129664405327193   0.01267514781104212
-0.21895462518682748   0.027129664405327193   0.01267514781104212
-0.21895462518682748   0.027129664405327193   0.01267514781104212
-0.3180770127838851   -0.0024020200919198653   0.0035200312302181326
-0.3180770127838851   -0.0024020200919198653   0.0035200312302181326
-0.3180770127838851   -0.0024020200919198653   0.0035200312302181326
-0.3180770127838851   -0.0024020200919198653   0.0035200312302181326
-0.22545925361243416   0.01552779586896913   -0.008246125780634224
-0.22545925361243416   0.01552779586896913   -0.008246125780634224
-0.22545925361243416   0.01552779586896913   -0.008246125780634224
-0.22545925361243416   0.01552779586896913   -0.008246125780634224
-0.4078147490578282   -0.012642466910164712   0.002674615104583354
-0.4078147490578282   -0.012642466910164712   0.002674615104583354
-0.4078147490578282   -0.012642466910164712   0.002674615104583354
-0.4078147490578282   -0.012642466910164712   0.002674615104583354
-0.40185077294850124   -0.010886120399657348   -0.020784083724456198
-0.40185077294850124   -0.010886120399657348   -0.020784083724456198
-0.40185077294850124   -0.010886120399657348   -0.020784083724456198
-0.40185077294850124   -0.010886120399657348   -0.020784083724456198
-0.20908434906531026   0.03832697563161277   0.01026244769764564
-0.20908434906531026   0.03832697563161277   0.01026244769764564
-0.20908434906531026   0.03832697563161277   0.01026244769764564
-0.20908434906531026   0.03832697563161277   0.01026244769764564
-0.3082739468323574   0.00784809349586317   0.00821045688625965
-0.3082739468323574   0.00784809349586317   0.00821045688625965
-0.3082739468323574   0.00784809349586317   0.00821045688625965
-0.3082739468323574   0.00784809349586317   0.00821045688625965
-0.4362761736244138   -0.020369740161951602   -0.01591260226063982
-0.4362761736244138   -0.020369740161951602   -0.01591260226063982
-0.4362761736244138   -0.020369740161951602   -0.01591260226063982
-0.4362761736244138   -0.020369740161951602   -0.01591260226063982
-0.6225982774309453   -0.022565022672395907   0.027527676964797465
-0.6225982774309453   -0.022565022672395907   0.027527676964797465
-0.6225982774309453   -0.022565022672395907   0.027527676964797465
-0.6225982774309453   -0.022565022672395907   0.027527676964797465
-0.6111424283564155   -0.044587813792277914   -0.021211168900586157
-0.6111424283564155   -0.044587813792277914   -0.021211168900586157
-0.6111424283564155   -0.044587813792277914   -0.021211168900586157
-0.6111424283564155   -0.044587813792277914   -0.021211168900586157
-0.4055117374059924   0.03455964267244592   0.028043462836773485
-0.4055117374059924   0.03455964267244592   0.028043462836773485
-0.4055117374059924   0.03455964267244592   0.028043462836773485
-0.4055117374059924   0.03455964267244592   0.028043462836773485
-0.4958387331702192   -0.006117891183507973   0.005914833963117257
-0.4958387331702192   -0.006117891183507973   0.005914833963117257
-0.4958387331702192   -0.006117891183507973   0.005914833963117257
-0.4958387331702192   -0.006117891183507973   0.005914833963117257
-0.4228166732693564   -0.006220619796890536   -0.017700954010708418
-0.4228166732693564   -0.006220619796890536   -0.017700954010708418
-0.4228166732693564   -0.006220619796890536   -0.017700954010708418
-0.4228166732693564   -0.006220619796890536   -0.017700954010708418
-0.5935248226970754   -0.0034948815269657957   0.02578392713079784
-0.5935248226970754   -0.0034948815269657957   0.02578392713079784
-0.5935248226970754   -0.0034948815269657957   0.02578392713079784
-0.5935248226970754   -0.0034948815269657957   0.02578392713079784
-0.5892633140810961   -0.036725870672045774   -0.025003963880563966
-0.5892633140810961   -0.036725870672045774   -0.025003963880563966
-0.5892633140810961   -0.036725870672045774   -0.025003963880563966
-0.5892633140810961   -0.036725870672045774   -0.025003963880563966
-0.39348984412498456   0.039404932226643374   0.022251740631993623
-0.39348984412498456   0.039404932226643374   0.022251740631993623
-0.39348984412498456   0.039404932226643374   0.022251740631993623
-0.39348984412498456   0.039404932226643374   0.022251740631993623
-0.4847966343287104   0.00247461602331861   0.010404560805539809
-0.4847966343287104   0.00247461602331861   0.010404560805539809
-0.4847966343287104   0.00247461602331861   0.010404560805539809
-0.4847966343287104   0.00247461602331861   0.010404560805539809
-0.4098316208114958   0.00012568220266932772   -0.020177892776588637
-0.4098316208114958   0.00012568220266932772   -0.020177892776588637
-0.4098316208114958   0.00012568220266932772   -0.020177892776588637
-0.4098316208114958   0.00012568220266932772   -0.020177892776588637
-0.5726041595469973   0.0028707571995114922   0.018695180918362267
-0.5726041595469973   0.0028707571995114922   0.018695180918362267
-0.5726041595469973   0.0028707571995114922   0.018695180918362267
-0.5726041595469973   0.0028707571995114922   0.018695180918362267
-0.5652733508635983   -0.027349695117291475   -0.02853000545957954
-0.5652733508635983   -0.027349695117291475   -0.02853000545957954
-0.5652733508635983   -0.027349695117291475   -0.02853000545957954
-0.5652733508635983   -0.027349695117291475   -0.02853000545957954
-0.38296112670302435   0.04383682845474483   0.018941198648526045
-0.38296112670302435   0.04383682845474483   0.018941198648526045
-0.38296112670302435   0.04383682845474483   0.018941198648526045
-0.38296112670302435   0.04383682845474483   0.018941198648526045
-0.4604827926834411   0.009587462754969314   0.017261178606577936
-0.4604827926834411   0.009587462754969314   0.017261178606577936
-0.4604827926834411   0.009587462754969314   0.017261178606577936
-0.4604827926834411   0.009587462754969314   0.017261178606577936
0.5428810621028805   0.040682867992871644   0.0284238286273296
0.5428810621028805   0.040682867992871644   0.0284238286273296
0.5428810621028805   0.040682867992871644   0.0284238286273296
0.5428810621028805   0.040682867992871644   0.0284238286273296
0.23891202903548794   -0.06330063037551556   -0.013205869776179695
0.23891202903548794   -0.06330063037551556   -0.013205869776179695
0.23891202903548794   -0.06330063037551556   -0.013205869776179695
0.23891202903548794   -0.06330063037551556   -0.013205869776179695
0.26592240443734716   -0.011401446492396994   0.019468556121702195
0.26592240443734716   -0.011401446492396994   0.019468556121702195
0.26592240443734716   -0.011401446492396994   0.019468556121702195
0.26592240443734716   -0.011401446492396994   0.019468556121702195
0.5486001871605051   -0.0003686745320925916   -0.020598817963558867
0.5486001871605051   -0.0003686745320925916   -0.020598817963558867
0.5486001871605051   -0.0003686745320925916   -0.020598817963558867
0.5486001871605051   -0.0003686745320925916   -0.020598817963558867
0.375732896348737   -0.011134881076044045   -0.029161033816425944
0.375732896348737   -0.011134881076044045   -0.029161033816425944
0.375732896348737   -0.011134881076044045   -0.029161033816425944
0.375732896348737   -0.011134881076044045   -0.029161033816425944
0.5675029304362584   0.049775160216389   0.023771063666720958
0.5675029304362584   0.049775160216389   0.023771063666720958
0.5675029304362584   0.049775160216389   0.023771063666720958
0.5675029304362584   0.049775160216389   0.023771063666720958
0.24884074919354846   -0.05972419320892452   -0.017616973380761892
0.24884074919354846   -0.05972419320892452   -0.017616973380761892
0.24884074919354846   -0.05972419320892452   -0.017616973380761892
0.24884074919354846   -0.05972419320892452   -0.017616973380761892
0.2763805233669321   -0.0056141628340195815   0.015716663552639547
0.2763805233669321   -0.0056141628340195815   0.015716663552639547
0.2763805233669321   -0.0056141628340195815   0.015716663552639547
0.2763805233669321   -0.0056141628340195815   0.015716663552639547
0.5670322693153563   0.0060023687946923615   -0.025670700922661892
0.5670322693153563   0.0060023687946923615   -0.025670700922661892
0.5670322693153563   0.0060023687946923615   -0.025670700922661892
0.5670322693153563   0.0060023687946923615   -0.025670700922661892
0.39898450451331435   -0.004348819564657769   -0.019875541423716222
0.39898450451331435   -0.004348819564657769   -0.019875541423716222
0.39898450451331435   -0.004348819564657769   -0.019875541423716222
0.39898450451331435   -0.004348819564657769   -0.019875541423716222
0.5858151250695438   0.05664884510380701   0.01759710153916085
0.5858151250695438   0.05664884510380701   0.01759710153916085
0.5858151250695438   0.05664884510380701   0.01759710153916085
0.5858151250695438   0.05664884510380701   0.01759710153916085
0.2591855864152818   -0.054672720340599654   -0.02119946369903211
0.2591855864152818   -0.054672720340599654   -0.02119946369903211
0.2591855864152818   -0.054672720340599654   -0.02119946369903211
0.2591855864152818   -0.054672720340599654   -0.02119946369903211
0.2858684722758895   0.009883885127485684   0.013779592563558412
0.2858684722758895   0.009883885127485684   0.013779592563558412
0.2858684722758895   0.009883885127485684   0.013779592563558412
0.2858684722758895   0.009883885127485684   0.013779592563558412
0.5897599411153577   0.02466531122744925   -0.026858999415701898
0.5897599411153577   0.02466531122744925   -0.026858999415701898
0.5897599411153577   0.02466531122744925   -0.026858999415701898
0.5897599411153577   0.02466531122744925   -0.026858999415701898
0.4074719711121333   0.0048269080956032245   -0.013484648727331863
0.4074719711121333   0.0048269080956032245   -0.013484648727331863
0.4074719711121333   0.0048269080956032245   -0.013484648727331863
0.4074719711121333   0.0048269080956032245   -0.013484648727331863
0.264248592552371   0.0239685286579448   0.026207788774775316
0.264248592552371   0.0239685286579448   0.026207788774775316
0.264248592552371   0.0239685286579448   0.026207788774775316
0.264248592552371   0.0239685286579448   0.026207788774775316
-0.03378586919753012   -0.0777382501462691   -0.007558249539355976
-0.03378586919753012   -0.0777382501462691   -0.007558249539355976
-0.03378586919753012   -0.0777382501462691   -0.007558249539355976
-0.03378586919753012   -0.0777382501462691   -0.007558249539355976
-0.010636028350426874   -0.027756875802638834   0.00654020157131088
-0.010636028350426874   -0.027756875802638834   0.00654020157131088
-0.010636028350426874   -0.027756875802638834   0.00654020157131088
-0.010636028350426874   -0.027756875802638834   0.00654020157131088
0.26191008307985025   -0.013373636888312737   0.0013791397301331325
0.26191008307985025   -0.013373636888312737   0.0013791397301331325
0.26191008307985025   -0.013373636888312737   0.0013791397301331325
0.26191008307985025   -0.013373636888312737   0.0013791397301331325
0.1171648817707274   -0.021388132040482413   -0.01377745349508371
0.1171648817707274   -0.021388132040482413   -0.01377745349508371
0.1171648817707274   -0.021388132040482413   -0.01377745349508371
0.1171648817707274   -0.021388132040482413   -0.01377745349508371
0.27551711417921787   0.032811536713966735   0.02322912162469396
0.27551711417921787   0.032811536713966735   0.02322912162469396
0.27551711417921787   0.032811536713966735   0.02322912162469396
0.27551711417921787   0.032811536713966735   0.02322912162469396
-0.023271759206775693   -0.07297074916189913   -0.011424579351172918
-0.023271759206775693   -0.07297074916189913   -0.011424579351172918
-0.023271759206775693   -0.07297074916189913   -0.011424579351172918
-0.023271759206775693   -0.07297074916189913   -0.011424579351172918
2.2268430926550287e-05   -0.017368894921685217   0.003956412191687263
2.2268430926550287e-05   -0.017368894921685217   0.003956412191687263
2.2268430926550287e-05   -0.017368894921685217   0.003956412191687263
2.2268430926550287e-05   -0.017368894921685217   0.003956412191687263
0.27285742075501884   -0.005536843261886339   -0.0019761690790599806
0.27285742075501884   -0.005536843261886339   -0.0019761690790599806
0.27285742075501884   -0.005536843261886339   -0.0019761690790599806
0.27285742075501884   -0.005536843261886339   -0.0019761690790599806
0.12638071784038876   -0.015000271071733556   -0.008908373649966859
0.12638071784038876   -0.015000271071733556   -0.008908373649966859
0.12638071784038876   -0.015000271071733556   -0.008908373649966859
0.12638071784038876   -0.015000271071733556   -0.008908373649966859
0.28719571748041806   0.043425172255902034   0.020753299030147387
0.28719571748041806   0.043425172255902034   0.020753299030147387
0.28719571748041806   0.043425172255902034   0.020753299030147387
0.28719571748041806   0.043425172255902034   0.020753299030147387
-0.013728032219988456   -0.06574291436499201   -0.016421071619580983
-0.013728032219988456   -0.06574291436499201   -0.016421071619580983
-0.013728032219988456   -0.06574291436499201   -0.016421071619580983
-0.013728032219988456   -0.06574291436499201   -0.016421071619580983
0.008395460782062538   -0.005154897573113668   0.0013492977354819
0.008395460782062538   -0.005154897573113668   0.0013492977354819
0.008395460782062538   -0.005154897573113668   0.0013492977354819
0.008395460782062538   -0.005154897573113668   0.0013492977354819
0.2810344468733332   0.004490415181298911   -0.004997064503042119
0.2810344468733332   0.004490415181298911   -0.004997064503042119
0.2810344468733332   0.004490415181298911   -0.004997064503042119
0.2810344468733332   0.004490415181298911   -0.004997064503042119
0.1377893830682302   -0.005426383610692961   -0.003653470178117471
0.1377893830682302   -0.005426383610692961   -0.003653470178117471
0.1377893830682302   -0.005426383610692961   -0.003653470178117471
0.1377893830682302   -0.005426383610692961   -0.003653470178117471
-0.012726702382554524   0.006938243719866486   0.013061090669386414
-0.012726702382554524   0.006938243719866486   0.013061090669386414
-0.012726702382554524   0.006938243719866486   0.013061090669386414
-0.012726702382554524   0.006938243719866486   0.013061090669386414
-0.3043283490054064   -0.09729583497848683   -0.006006095498857158
-0.3043283490054064   -0.09729583497848683   -0.006006095498857158
-0.3043283490054064   -0.09729583497848683   -0.006006095498857158
-0.3043283490054064   -0.09729583497848683   -0.006006095498857158
-0.2810509035803635   -0.042530237501069976   -0.006432365712518041
-0.2810509035803635   -0.042530237501069976   -0.006432365712518041
-0.2810509035803635   -0.042530237501069976   -0.006432365712518041
-0.2810509035803635   -0.042530237501069976   -0.006432365712518041
-0.01165757102162725   -0.032282873093673704   0.0059584855063438726
-0.01165757102162725   -0.032282873093673704   0.0059584855063438726
-0.01165757102162725   -0.032282873093673704   0.0059584855063438726
-0.01165757102162725   -0.032282873093673704   0.0059584855063438726
-0.15311077441679966   -0.039074933188043205   -0.012274420339337117
-0.15311077441679966   -0.039074933188043205   -0.012274420339337117
-0.15311077441679966   -0.039074933188043205   -0.012274420339337117
-0.15311077441679966   -0.039074933188043205   -0.012274420339337117
-0.0008829500470277215   0.016916308171028634   0.010632409114639179
-0.0008829500470277215   0.016916308171028634   0.010632409114639179
-0.0008829500470277215   0.016916308171028634   0.010632409114639179
-0.0008829500470277215   0.016916308171028634   0.010632409114639179
-0.2911196352741542   -0.09102352948496087   -0.008282732197580377
-0.2911196352741542   -0.09102352948496087   -0.008282732197580377
-0.2911196352741542   -0.09102352948496087   -0.008282732197580377
-0.2911196352741542   -0.09102352948496087   -0.008282732197580377
-0.267820602522387   -0.031005257911362525   -0.008725032119407922
-0.267820602522387   -0.031005257911362525   -0.008725032119407922
-0.267820602522387   -0.031005257911362525   -0.008725032119407922
-0.267820602522387   -0.031005257911362525   -0.008725032119407922
-0.0017382850046681053   -0.024742929357999557   0.0025276794500283233
-0.0017382850046681053   -0.024742929357999557   0.0025276794500283233
-0.0017382850046681053   -0.024742929357999557   0.0025276794500283233
-0.0017382850046681053   -0.024742929357999557   0.0025276794500283233
-0.14026714590645864   -0.03077221900674294   -0.006774551095554319
-0.14026714590645864   -0.03077221900674294   -0.006774551095554319
-0.14026714590645864   -0.03077221900674294   -0.006774551095554319
-0.14026714590645864   -0.03077221900674294   -0.006774551095554319
0.009951142782886986   0.02795039614961225   0.008281492880191973
0.009951142782886986   0.02795039614961225   0.008281492880191973
0.009951142782886986   0.02795039614961225   0.008281492880191973
0.009951142782886986   0.02795039614961225   0.008281492880191973
-0.2794886583983305   -0.08367721150736242   -0.014393357903123592
-0.2794886583983305   -0.08367721150736242   -0.014393357903123592
-0.2794886583983305   -0.08367721150736242   -0.014393357903123592
-0.2794886583983305   -0.08367721150736242   -0.014393357903123592
-0.2584653052610845   -0.020002120804404742   -0.011279562828712713
-0.2584653052610845   -0.020002120804404742   -0.011279562828712713
-0.2584653052610845   -0.020002120804404742   -0.011279562828712713
-0.2584653052610845   -0.020002120804404742   -0.011279562828712713
0.0047596757159858085   -0.01867464834052307   -0.003309876827492342
0.0047596757159858085   -0.01867464834052307   -0.003309876827492342
0.0047596757159858085   -0.01867464834052307   -0.003309876827492342
0.0047596757159858085   -0.01867464834052307   -0.003309876827492342
-0.13085328329479173   -0.02300613961211494   -0.0033000932533938836
-0.13085328329479173   -0.02300613961211494   -0.0033000932533938836
-0.13085328329479173   -0.02300613961211494   -0.0033000932533938836
-0.13085328329479173   -0.02300613961211494   -0.0033000932533938836
-0.285289566808518   -0.007778307195808097   -0.00032971229709657067
-0.285289566808518   -0.007778307195808097   -0.00032971229709657067
-0.285289566808518   -0.007778307195808097   -0.00032971229709657067
-0.285289566808518   -0.007778307195808097   -0.00032971229709657067
-0.5763695107520418   -0.1046045410938174   -0.004759877090595449
-0.5763695107520418   -0.1046045410938174   -0.004759877090595449
-0.5763695107520418   -0.1046045410938174   -0.004759877090595449
-0.5763695107520418   -0.1046045410938174   -0.004759877090595449
-0.5515151490549265   -0.054518314164568746   -0.01897281086041607
-0.5515151490549265   -0.054518314164568746   -0.01897281086041607
-0.5515151490549265   -0.054518314164568746   -0.01897281086041607
-0.5515151490549265   -0.054518314164568746   -0.01897281086041607
-0.2754734402014674   -0.03358278298061532   0.012507496661504938
-0.2754734402014674   -0.03358278298061532   0.012507496661504938
-0.2754734402014674   -0.03358278298061532   0.012507496661504938
-0.2754734402014674   -0.03358278298061532   0.012507496661504938
-0.41850234131334446   -0.04711573095606629   -0.008633052464972587
-0.41850234131334446   -0.04711573095606629   -0.008633052464972587
-0.41850234131334446   -0.04711573095606629   -0.008633052464972587
-0.41850234131334446   -0.04711573095606629   -0.008633052464972587
-0.2706705872124276   0.0050274634176932995   -0.002088484791604686
-0.2706705872124276   0.0050274634176932995   -0.002088484791604686
-0.2706705872124276   0.0050274634176932995   -0.002088484791604686
-0.2706705872124276   0.0050274634176932995   -0.002088484791604686
-0.5564982889262887   -0.09330884744520157   -0.00509797693658979
-0.5564982889262887   -0.09330884744520157   -0.00509797693658979
-0.5564982889262887   -0.09330884744520157   -0.00509797693658979
-0.5564982889262887   -0.09330884744520157   -0.00509797693658979
-0.5325628656577683   -0.04251644091150811   -0.021947138302193435
-0.5325628656577683   -0.04251644091150811   -0.021947138302193435
-0.5325628656577683   -0.04251644091150811   -0.021947138302193435
-0.5325628656577683   -0.04251644091150811   -0.021947138302193435
-0.2626547519888664   -0.02459665643302891   0.010695619069863577
-0.2626547519888664   -0.02459665643302891   0.010695619069863577
-0.2626547519888664   -0.02459665643302891   0.010695619069863577
-0.2626547519888664   -0.02459665643302891   0.010695619069863577
-0.39895962494716897   -0.035598086460484735   -0.0027454966807982824
-0.39895962494716897   -0.035598086460484735   -0.0027454966807982824
-0.39895962494716897   -0.035598086460484735   -0.0027454966807982824
-0.39895962494716897   -0.035598086460484735   -0.0027454966807982824
-0.257416304388906   0.016133782608358176   -0.0038425819717244278
-0.257416304388906   0.016133782608358176   -0.0038425819717244278
-0.257416304388906   0.016133782608358176   -0.0038425819717244278
-0.257416304388906   0.016133782608358176   -0.0038425819717244278
-0.5386786277996138   -0.08412419449477998   -0.010918195428144303
-0.5386786277996138   -0.08412419449477998   -0.010918195428144303
-0.5386786277996138   -0.08412419449477998   -0.010918195428144303
-0.5386786277996138   -0.08412419449477998   -0.010918195428144303
-0.5172556039068054   -0.02989247643005334   -0.0226635577691898
-0.5172556039068054   -0.02989247643005334   -0.0226635577691898
-0.5172556039068054   -0.02989247643005334   -0.0226635577691898
-0.5172556039068054   -0.02989247643005334   -0.0226635577691898
-0.25530523489633866   -0.018883417423444765   0.003402085614058307
-0.25530523489633866   -0.018883417423444765   0.003402085614058307
-0.25530523489633866   -0.018883417423444765   0.003402085614058307
-0.25530523489633866   -0.018883417423444765   0.003402085614058307
-0.3883621963748307   -0.028590262160273903   -0.0008036122816809117
-0.3883621963748307   -0.028590262160273903   -0.0008036122816809117
-0.3883621963748307   -0.028590262160273903   -0.0008036122816809117
-0.3883621963748307   -0.028590262160273903   -0.0008036122816809117
-0.5609176470156436   -0.018462876568982933   -0.01364222293343928
-0.5609176470156436   -0.018462876568982933   -0.01364222293343928
-0.5609176470156436   -0.018462876568982933   -0.01364222293343928
-0.5609176470156436   -0.018462876568982933   -0.01364222293343928
-0.8459506947186781   -0.07135700223764926   0.03128801080291091
-0.8459506947186781   -0.07135700223764926   0.03128801080291091
-0.8459506947186781   -0.07135700223764926   0.03128801080291091
-0.8459506947186781   -0.07135700223764926   0.03128801080291091
-0.8177323547327648   -0.05717750015883406   -0.01842163399285406
-0.8177323547327648   -0.05717750015883406   -0.01842163399285406
-0.8177323547327648   -0.05717750015883406   -0.01842163399285406
-0.8177323547327648   -0.05717750015883406   -0.01842163399285406
-0.5279489865089985   0.01541212643989523   0.02892756126475534
-0.5279489865089985   0.01541212643989523   0.02892756126475534
-0.5279489865089985   0.01541212643989523   0.02892756126475534
-0.5279489865089985   0.01541212643989523   0.02892756126475534
-0.6572759429473267   -0.02220518382726072   0.0035310482721412906
-0.6572759429473267   -0.02220518382726072   0.0035310482721412906
-0.6572759429473267   -0.02220518382726072   0.0035310482721412906
-0.6572759429473267   -0.02220518382726072   0.0035310482721412906
-0.5400404654449348   -0.0009819474147518131   -0.015135759560272775
-0.5400404654449348   -0.0009819474147518131   -0.015135759560272775
-0.5400404654449348   -0.0009819474147518131   -0.015135759560272775
-0.5400404654449348   -0.0009819474147518131   -0.015135759560272775
-0.8036935630654175   -0.038836113572775   0.033430937757823236
-0.8036935630654175   -0.038836113572775   0.033430937757823236
-0.8036935630654175   -0.038836113572775   0.033430937757823236
-0.8036935630654175   -0.038836113572775   0.033430937757823236
-0.7874134862526105   -0.0482178231044445   -0.021938393895804556
-0.7874134862526105   -0.0482178231044445   -0.021938393895804556
-0.7874134862526105   -0.0482178231044445   -0.021938393895804556
-0.7874134862526105   -0.0482178231044445   -0.021938393895804556
-0.5092376210844225   0.024288931276836595   0.027873712376190886
-0.5092376210844225   0.024288931276836595   0.027873712376190886
-0.5092376210844225   0.024288931276836595   0.027873712376190886
-0.5092376210844225   0.024288931276836595   0.027873712376190886
-0.6397210262907314   -0.00895218608072168   0.01319779406930903
-0.6397210262907314   -0.00895218608072168   0.01319779406930903
-0.6397210262907314   -0.00895218608072168   0.01319779406930903
-0.6397210262907314   -0.00895218608072168   0.01319779406930903
-0.5217394411213037   0.0060294778289193   -0.016375934360292416
-0.5217394411213037   0.0060294778289193   -0.016375934360292416
-0.5217394411213037   0.0060294778289193   -0.016375934360292416
-0.5217394411213037   0.0060294778289193   -0.016375934360292416
-0.7744946853866698   -0.02954138882746793   0.02397917615691559
-0.7744946853866698   -0.02954138882746793   0.02397917615691559
-0.7744946853866698   -0.02954138882746793   0.02397917615691559
-0.7744946853866698   -0.02954138882746793   0.02397917615691559
-0.7560213630301309   -0.039870771650015624   -0.026536565548169674
-0.7560213630301309   -0.039870771650015624   -0.026536565548169674
-0.7560213630301309   -0.039870771650015624   -0.026536565548169674
-0.7560213630301309   -0.039870771650015624   -0.026536565548169674
-0.49550180709703284   0.03472578519857669   0.021487164651043243
-0.49550180709703284   0.03472578519857669   0.021487164651043243
-0.49550180709703284   0.03472578519857669   0.021487164651043243
-0.49550180709703284   0.03472578519857669   0.021487164651043243
-0.605774651155574   0.0023343270618952916   0.02299493721716908
-0.605774651155574   0.0023343270618952916   0.02299493721716908
-0.605774651155574   0.0023343270618952916   0.02299493721716908
-0.605774651155574   0.0023343270618952916   0.02299493721716908
0.7386547409271514   0.04456901197634465   0.026399630091457706
0.7386547409271514   0.04456901197634465   0.026399630091457706
0.7386547409271514   0.04456901197634465   0.026399630091457706
0.7386547409271514   0.04456901197634465   0.026399630091457706
0.3513872991599138   -0.0653653523383979   0.005521960885469614
0.3513872991599138   -0.0653653523383979   0.005521960885469614
0.3513872991599138   -0.0653653523383979   0.005521960885469614
0.3513872991599138   -0.0653653523383979   0.005521960885469614
0.37043675708141305   -0.027843496430809966   0.020190502621946254
0.37043675708141305   -0.027843496430809966   0.020190502621946254
0.37043675708141305   -0.027843496430809966   0.020190502621946254
0.37043675708141305   -0.027843496430809966   0.020190502621946254
0.7423398972492752   0.0070573985110709   -0.006198875135395326
0.7423398972492752   0.0070573985110709   -0.006198875135395326
0.7423398972492752   0.0070573985110709   -0.006198875135395326
0.7423398972492752   0.0070573985110709   -0.006198875135395326
0.518892969267915   -0.013823508438048415   -0.03422542593681745
0.518892969267915   -0.013823508438048415   -0.03422542593681745
0.518892969267915   -0.013823508438048415   -0.03422542593681745
0.518892969267915   -0.013823508438048415   -0.03422542593681745
0.7562294981612243   0.04944854737320599   0.020857980562214797
0.7562294981612243   0.04944854737320599   0.020857980562214797
0.7562294981612243   0.04944854737320599   0.020857980562214797
0.7562294981612243   0.04944854737320599   0.020857980562214797
0.3598542877130293   -0.06692751374937976   0.006362173098597303
0.3598542877130293   -0.06692751374937976   0.006362173098597303
0.3598542877130293   -0.06692751374937976   0.006362173098597303
0.3598542877130293   -0.06692751374937976   0.006362173098597303
0.37756920066445887   -0.023688951708246628   0.015335765213555959
0.37756920066445887   -0.023688951708246628   0.015335765213555959
0.37756920066445887   -0.023688951708246628   0.015335765213555959
0.37756920066445887   -0.023688951708246628   0.015335765213555959
0.7550814590412397   0.011727041622694195   -0.002201550568573761
0.7550814590412397   0.011727041622694195   -0.002201550568573761
0.7550814590412397   0.011727041622694195   -0.002201550568573761
0.7550814590412397   0.011727041622694195   -0.002201550568573761
0.540029389865679   -0.010876759656721191   -0.023455955282581674
0.540029389865679   -0.010876759656721191   -0.023455955282581674
0.540029389865679   -0.010876759656721191   -0.023455955282581674
0.540029389865679   -0.010876759656721191   -0.023455955282581674
0.7668587357093193   0.05398681428076493   0.014425060113753357
0.7668587357093193   0.05398681428076493   0.014425060113753357
0.7668587357093193   0.05398681428076493   0.014425060113753357
0.7668587357093193   0.05398681428076493   0.014425060113753357
0.3680916989171493   -0.06364894944554735   0.007908254214308935
0.3680916989171493   -0.06364894944554735   0.007908254214308935
0.3680916989171493   -0.06364894944554735   0.007908254214308935
0.3680916989171493   -0.06364894944554735   0.007908254214308935
0.38810501074074283   -0.007489668664059729   0.014021031501368075
0.38810501074074283   -0.007489668664059729   0.014021031501368075
0.38810501074074283   -0.007489668664059729   0.014021031501368075
0.38810501074074283   -0.007489668664059729   0.014021031501368075
0.7683930642154184   0.022566111987687265   -0.0006948539449156202
0.7683930642154184   0.022566111987687265   -0.0006948539449156202
0.7683930642154184   0.022566111987687265   -0.0006948539449156202
0.7683930642154184   0.022566111987687265   -0.0006948539449156202
0.5424129255346053   -0.004858049773332096   -0.017635911314732557
0.5424129255346053   -0.004858049773332096   -0.017635911314732557
0.5424129255346053   -0.004858049773332096   -0.017635911314732557
0.5424129255346053   -0.004858049773332096   -0.017635911314732557
0.3710073149708143   0.01031947842965486   0.027937209171919462
0.3710073149708143   0.01031947842965486   0.027937209171919462
0.3710073149708143   0.01031947842965486   0.027937209171919462
0.3710073149708143   0.01031947842965486   0.027937209171919462
0.01771906153438816   -0.12913667551269317   0.01289614975757828
0.01771906153438816   -0.12913667551269317   0.01289614975757828
0.01771906153438816   -0.12913667551269317   0.01289614975757828
0.01771906153438816   -0.12913667551269317   0.01289614975757828
0.04239670463371058   -0.055111414033685524   0.01220363244940888
0.04239670463371058   -0.055111414033685524   0.01220363244940888
0.04239670463371058   -0.055111414033685524   0.01220363244940888
0.04239670463371058   -0.055111414033685524   0.01220363244940888
0.36159037121397686   -0.06043380742500787   0.008548884278960042
0.36159037121397686   -0.06043380742500787   0.008548884278960042
0.36159037121397686   -0.06043380742500787   0.008548884278960042
0.36159037121397686   -0.06043380742500787   0.008548884278960042
0.19178417815413223   -0.05733115072825488   -0.021617515765247865
0.19178417815413223   -0.05733115072825488   -0.021617515765247865
0.19178417815413223   -0.05733115072825488   -0.021617515765247865
0.19178417815413223   -0.05733115072825488   -0.021617515765247865
0.37955490481798476   0.014555873740072528   0.02338187113392497
0.37955490481798476   0.014555873740072528   0.02338187113392497
0.37955490481798476   0.014555873740072528   0.02338187113392497
0.37955490481798476   0.014555873740072528   0.02338187113392497
0.029178783411281176   -0.12535448281719158   0.01635709512076791
0.029178783411281176   -0.12535448281719158   0.01635709512076791
0.029178783411281176   -0.12535448281719158   0.01635709512076791
0.029178783411281176   -0.12535448281719158   0.01635709512076791
0.05226603650636257   -0.04750464621983197   0.00877620037986817
0.05226603650636257   -0.04750464621983197   0.00877620037986817
0.05226603650636257   -0.04750464621983197   0.00877620037986817
0.05226603650636257   -0.04750464621983197   0.00877620037986817
0.3700610443236012   -0.05640249614130566   0.010508527942326693
0.3700610443236012   -0.05640249614130566   0.010508527942326693
0.3700610443236012   -0.05640249614130566   0.010508527942326693
0.3700610443236012   -0.05640249614130566   0.010508527942326693
0.2001289040484357   -0.054382212519845194   -0.010814880657858739
0.2001289040484357   -0.054382212519845194   -0.010814880657858739
0.2001289040484357   -0.054382212519845194   -0.010814880657858739
0.2001289040484357   -0.054382212519845194   -0.010814880657858739
0.38754006148403924   0.021745951850310044   0.019755165752901517
0.38754006148403924   0.021745951850310044   0.019755165752901517
0.38754006148403924   0.021745951850310044   0.019755165752901517
0.38754006148403924   0.021745951850310044   0.019755165752901517
0.039348922340674955   -0.12109119121669717   0.017777174548295333
0.039348922340674955   -0.12109119121669717   0.017777174548295333
0.039348922340674955   -0.12109119121669717   0.017777174548295333
0.039348922340674955   -0.12109119121669717   0.017777174548295333
0.06744938011660608   -0.036077694297177935   0.00574745486130074
0.06744938011660608   -0.036077694297177935   0.00574745486130074
0.06744938011660608   -0.036077694297177935   0.00574745486130074
0.06744938011660608   -0.036077694297177935   0.00574745486130074
0.3793037692569898   -0.05029608562736676   0.012821241045912951
0.3793037692569898   -0.05029608562736676   0.012821241045912951
0.3793037692569898   -0.05029608562736676   0.012821241045912951
0.3793037692569898   -0.05029608562736676   0.012821241045912951
0.21495817654678653   -0.047301282303157   0.0017785852756999725
0.21495817654678653   -0.047301282303157   0.0017785852756999725
0.21495817654678653   -0.047301282303157   0.0017785852756999725
0.21495817654678653   -0.047301282303157   0.0017785852756999725
0.03982952638705958   -0.02366723424881147   0.017979032757053683
0.03982952638705958   -0.02366723424881147   0.017979032757053683
0.03982952638705958   -0.02366723424881147   0.017979032757053683
0.03982952638705958   -0.02366723424881147   0.017979032757053683
-0.3184125541338272   -0.22102028779447375   0.018951205081612965
-0.3184125541338272   -0.22102028779447375   0.018951205081612965
-0.3184125541338272   -0.22102028779447375   0.018951205081612965
-0.3184125541338272   -0.22102028779447375   0.018951205081612965
-0.2795414151154949   -0.08684296599869946   0.0010418650750827901
-0.2795414151154949   -0.08684296599869946   0.0010418650750827901
-0.2795414151154949   -0.08684296599869946   0.0010418650750827901
-0.2795414151154949   -0.08684296599869946   0.0010418650750827901
0.020711211683925763   -0.15888096768602114   0.007545721352820396
0.020711211683925763   -0.15888096768602114   0.007545721352820396
0.020711211683925763   -0.15888096768602114   0.007545721352820396
0.020711211683925763   -0.15888096768602114   0.007545721352820396
-0.13839516397016607   -0.12346345076506857   -0.025924420950988764
-0.13839516397016607   -0.12346345076506857   -0.025924420950988764
-0.13839516397016607   -0.12346345076506857   -0.025924420950988764
-0.13839516397016607   -0.12346345076506857   -0.025924420950988764
0.050164975037280124   -0.01826945574703899   0.014203026180610083
0.050164975037280124   -0.01826945574703899   0.014203026180610083
0.050164975037280124   -0.01826945574703899   0.014203026180610083
0.050164975037280124   -0.01826945574703899   0.014203026180610083
-0.3020819783677282   -0.2205412778365653   0.022037360651784167
-0.3020819783677282   -0.2205412778365653   0.022037360651784167
-0.3020819783677282   -0.2205412778365653   0.022037360651784167
-0.3020819783677282   -0.2205412778365653   0.022037360651784167
-0.26453906069079003   -0.0778760444395934   -0.0003371202718342476
-0.26453906069079003   -0.0778760444395934   -0.0003371202718342476
-0.26453906069079003   -0.0778760444395934   -0.0003371202718342476
-0.26453906069079003   -0.0778760444395934   -0.0003371202718342476
0.03113010746143953   -0.15518862296568076   0.010780531901101745
0.03113010746143953   -0.15518862296568076   0.010780531901101745
0.03113010746143953   -0.15518862296568076   0.010780531901101745
0.03113010746143953   -0.15518862296568076   0.010780531901101745
-0.12316215210899545   -0.11905755064851023   -0.009552878373421083
-0.12316215210899545   -0.11905755064851023   -0.009552878373421083
-0.12316215210899545   -0.11905755064851023   -0.009552878373421083
-0.12316215210899545   -0.11905755064851023   -0.009552878373421083
0.05961644781882447   -0.011143997115695421   0.009167607838041112
0.05961644781882447   -0.011143997115695421   0.009167607838041112
0.05961644781882447   -0.011143997115695421   0.009167607838041112
0.05961644781882447   -0.011143997115695421   0.009167607838041112
-0.2868255603595835   -0.2157208296009916   0.02607516654560131
-0.2868255603595835   -0.2157208296009916   0.02607516654560131
-0.2868255603595835   -0.2157208296009916   0.02607516654560131
-0.2868255603595835   -0.2157208296009916   0.02607516654560131
-0.23977187184180804   -0.0675644730673466   -0.003227452903816125
-0.23977187184180804   -0.0675644730673466   -0.003227452903816125
-0.23977187184180804   -0.0675644730673466   -0.003227452903816125
-0.23977187184180804   -0.0675644730673466   -0.003227452903816125
0.047382502447708565   -0.14522229716117124   0.014557669380807443
0.047382502447708565   -0.14522229716117124   0.014557669380807443
0.047382502447708565   -0.14522229716117124   0.014557669380807443
0.047382502447708565   -0.14522229716117124   0.014557669380807443
-0.10343678735926912   -0.1094813984309582   0.007467138259503802
-0.10343678735926912   -0.1094813984309582   0.007467138259503802
-0.10343678735926912   -0.1094813984309582   0.007467138259503802
-0.10343678735926912   -0.1094813984309582   0.007467138259503802
-0.28501524238677306   -0.043665180665133405   0.00858265668754038
-0.28501524238677306   -0.043665180665133405   0.00858265668754038
-0.28501524238677306   -0.043665180665133405   0.00858265668754038
-0.28501524238677306   -0.043665180665133405   0.00858265668754038
-0.7046825460374323   -0.34290655557391014   -0.015311512313534163
-0.7046825460374323   -0.34290655557391014   -0.015311512313534163
-0.7046825460374323   -0.34290655557391014   -0.015311512313534163
-0.7046825460374323   -0.34290655557391014   -0.015311512313534163
-0.6406875531418244   -0.11298710455307132   -0.019299998260402747
-0.6406875531418244   -0.11298710455307132   -0.019299998260402747
-0.6406875531418244   -0.11298710455307132   -0.019299998260402747
-0.6406875531418244   -0.11298710455307132   -0.019299998260402747
-0.3182226890607192   -0.28533392192072277   0.00612645127098458
-0.3182226890607192   -0.28533392192072277   0.00612645127098458
-0.3182226890607192   -0.28533392192072277   0.00612645127098458
-0.3182226890607192   -0.28533392192072277   0.00612645127098458
-0.4866337269927849   -0.2029013528674632   -0.027319708656829218
-0.4866337269927849   -0.2029013528674632   -0.027319708656829218
-0.4866337269927849   -0.2029013528674632   -0.027319708656829218
-0.4866337269927849   -0.2029013528674632   -0.027319708656829218
-0.2673245759004074   -0.03283157535195008   0.008114670503771137
-0.2673245759004074   -0.03283157535195008   0.008114670503771137
-0.2673245759004074   -0.03283157535195008   0.008114670503771137
-0.2673245759004074   -0.03283157535195008   0.008114670503771137
-0.6898170075124774   -0.3637207923321776   -0.014213582334562054
-0.6898170075124774   -0.3637207923321776   -0.014213582334562054
-0.6898170075124774   -0.3637207923321776   -0.014213582334562054
-0.6898170075124774   -0.3637207923321776   -0.014213582334562054
-0.6206145350041211   -0.10227044602362068   -0.01971354586784048
-0.6206145350041211   -0.10227044602362068   -0.01971354586784048
-0.6206145350041211   -0.10227044602362068   -0.01971354586784048
-0.6206145350041211   -0.10227044602362068   -0.01971354586784048
-0.30360775435297244   -0.2828309117036542   0.00927427868131716
-0.30360775435297244   -0.2828309117036542   0.00927427868131716
-0.30360775435297244   -0.2828309117036542   0.00927427868131716
-0.30360775435297244   -0.2828309117036542   0.00927427868131716
-0.465411815228529   -0.19710367263573658   -0.01873220443625161
-0.465411815228529   -0.19710367263573658   -0.01873220443625161
-0.465411815228529   -0.19710367263573658   -0.01873220443625161
-0.465411815228529   -0.19710367263573658   -0.01873220443625161
-0.253208534657009   -0.024298869740945358   0.0027383351984239393
-0.253208534657009   -0.024298869740945358   0.0027383351984239393
-0.253208534657009   -0.024298869740945358   0.0027383351984239393
-0.253208534657009   -0.024298869740945358   0.0027383351984239393
-0.670827237003872   -0.36061597029011133   -0.012431531600099473
-0.670827237003872   -0.36061597029011133   -0.012431531600099473
-0.670827237003872   -0.36061597029011133   -0.012431531600099473
-0.670827237003872   -0.36061597029011133   -0.012431531600099473
-0.5892078402964362   -0.09081687024165265   -0.02236257307688352
-0.5892078402964362   -0.09081687024165265   -0.02236257307688352
-0.5892078402964362   -0.09081687024165265   -0.02236257307688352
-0.5892078402964362   -0.09081687024165265   -0.02236257307688352
-0.2719733467159635   -0.2533242296137166   0.021524929271780104
-0.2719733467159635   -0.2533242296137166   0.021524929271780104
-0.2719733467159635   -0.2533242296137166   0.021524929271780104
-0.2719733467159635   -0.2533242296137166   0.021524929271780104
-0.44187362781647893   -0.17809148208110095   -0.009886396989733641
-0.44187362781647893   -0.17809148208110095   -0.009886396989733641
-0.44187362781647893   -0.17809148208110095   -0.009886396989733641
-0.44187362781647893   -0.17809148208110095   -0.009886396989733641
-0.6414292394488028   -0.037583850277593936   -0.004367684666702964
-0.6414292394488028   -0.037583850277593936   -0.004367684666702964
-0.6414292394488028   -0.037583850277593936   -0.004367684666702964
-0.6414292394488028   -0.037583850277593936   -0.004367684666702964
-1.1278046813447296   -0.22324702808939176   0.011569540897770736
-1.1278046813447296   -0.22324702808939176   0.011569540897770736
-1.1278046813447296   -0.22324702808939176   0.011569540897770736
-1.1278046813447296   -0.22324702808939176   0.011569540897770736
-1.084001967538445   -0.10624390696004637   -0.023299624705521507
-1.084001967538445   -0.10624390696004637   -0.023299624705521507
-1.084001967538445   -0.10624390696004637   -0.023299624705521507
-1.084001967538445   -0.10624390696004637   -0.023299624705521507
-0.6285317284188277   -0.11667328460288731   0.04516530540439112
-0.6285317284188277   -0.11667328460288731   0.04516530540439112
-0.6285317284188277   -0.11667328460288731   0.04516530540439112
-0.6285317284188277   -0.11667328460288731   0.04516530540439112
-0.835276517124443   -0.12914645624820184   0.011415382766533621
-0.835276517124443   -0.12914645624820184   0.011415382766533621
-0.835276517124443   -0.12914645624820184   0.011415382766533621
-0.835276517124443   -0.12914645624820184   0.011415382766533621
-0.6157890745805726   -0.007916954524009201   0.00012224451679189452
-0.6157890745805726   -0.007916954524009201   0.00012224451679189452
-0.6157890745805726   -0.007916954524009201   0.00012224451679189452
-0.6157890745805726   -0.007916954524009201   0.00012224451679189452
-1.100794961015106   -0.21905057667733135   0.00554207762844916
-1.100794961015106   -0.21905057667733135   0.00554207762844916
-1.100794961015106   -0.21905057667733135   0.00554207762844916
-1.100794961015106   -0.21905057667733135   0.00554207762844916
-1.060241008939932   -0.097404952614592   -0.02959231922544269
-1.060241008939932   -0.097404952614592   -0.02959231922544269
-1.060241008939932   -0.097404952614592   -0.02959231922544269
-1.060241008939932   -0.097404952614592   -0.02959231922544269
-0.6078824913524863   -0.11103437749762798   0.05271060386434631
-0.6078824913524863   -0.11103437749762798   0.05271060386434631
-0.6078824913524863   -0.11103437749762798   0.05271060386434631
-0.6078824913524863   -0.11103437749762798   0.05271060386434631
-0.8230433764392954   -0.10649525831192697   0.011101639141685084
-0.8230433764392954   -0.10649525831192697   0.011101639141685084
-0.8230433764392954   -0.10649525831192697   0.011101639141685084
-0.8230433764392954   -0.10649525831192697   0.011101639141685084
-0.5974074623483608   -9.125431143094942e-05   -0.0058573743012239055
-0.5974074623483608   -9.125431143094942e-05   -0.0058573743012239055
-0.5974074623483608   -9.125431143094942e-05   -0.0058573743012239055
-0.5974074623483608   -9.125431143094942e-05   -0.0058573743012239055
-1.0720952837935156   -0.20972732165024624   0.023458675542284424
-1.0720952837935156   -0.20972732165024624   0.023458675542284424
-1.0720952837935156   -0.20972732165024624   0.023458675542284424
-1.0720952837935156   -0.20972732165024624   0.023458675542284424
-1.0108621251005054   -0.07929262305874474   -0.033244558632106666
-1.0108621251005054   -0.07929262305874474   -0.033244558632106666
-1.0108621251005054   -0.07929262305874474   -0.033244558632106666
-1.0108621251005054   -0.07929262305874474   -0.033244558632106666
-0.5756751935200619   -0.10353190049278689   0.058015691056127444
-0.5756751935200619   -0.10353190049278689   0.058015691056127444
-0.5756751935200619   -0.10353190049278689   0.058015691056127444
-0.5756751935200619   -0.10353190049278689   0.058015691056127444
-0.7747088838784444   -0.08151031870906898   0.023282883045397166
-0.7747088838784444   -0.08151031870906898   0.023282883045397166
-0.7747088838784444   -0.08151031870906898   0.023282883045397166
-0.7747088838784444   -0.08151031870906898   0.023282883045397166
0.8091397668883143   0.02732361755023749   0.011214342600245827
0.8091397668883143   0.02732361755023749   0.011214342600245827
0.8091397668883143   0.02732361755023749   0.011214342600245827
0.8091397668883143   0.02732361755023749   0.011214342600245827
0.41192395115111496   -0.02220155385303231   0.007922931584734155
0.41192395115111496   -0.02220155385303231   0.007922931584734155
0.41192395115111496   -0.02220155385303231   0.007922931584734155
0.41192395115111496   -0.02220155385303231   0.007922931584734155
0.39621309660084914   -0.057725154607570855   0.016015159919822088
0.39621309660084914   -0.057725154607570855   0.016015159919822088
0.39621309660084914   -0.057725154607570855   0.016015159919822088
0.39621309660084914   -0.057725154607570855   0.016015159919822088
0.8033154319439592   0.045203720197142805   0.005613825437502412
0.8033154319439592   0.045203720197142805   0.005613825437502412
0.8033154319439592   0.045203720197142805   0.005613825437502412
0.8033154319439592   0.045203720197142805   0.005613825437502412
0.5729039121346555   -0.00792468653527098   -0.021227284435834347
0.5729039121346555   -0.00792468653527098   -0.021227284435834347
0.5729039121346555   -0.00792468653527098   -0.021227284435834347
0.5729039121346555   -0.00792468653527098   -0.021227284435834347
0.7991315651819597   0.021362624574680356   0.008535587249967475
0.7991315651819597   0.021362624574680356   0.008535587249967475
0.7991315651819597   0.021362624574680356   0.008535587249967475
0.7991315651819597   0.021362624574680356   0.008535587249967475
0.3991330306945799   -0.03514799165337705   0.0080376674342824
0.3991330306945799   -0.03514799165337705   0.0080376674342824
0.3991330306945799   -0.03514799165337705   0.0080376674342824
0.3991330306945799   -0.03514799165337705   0.0080376674342824
0.3861310457502178   -0.05898138065688881   0.01320675132453318
0.3861310457502178   -0.05898138065688881   0.01320675132453318
0.3861310457502178   -0.05898138065688881   0.01320675132453318
0.3861310457502178   -0.05898138065688881   0.01320675132453318
0.7941529624027871   0.04333676941989337   0.009929192110932829
0.7941529624027871   0.04333676941989337   0.009929192110932829
0.7941529624027871   0.04333676941989337   0.009929192110932829
0.7941529624027871   0.04333676941989337   0.009929192110932829
0.5714826979495417   -0.010916625126330348   -0.024384993793952543
0.5714826979495417   -0.010916625126330348   -0.024384993793952543
0.5714826979495417   -0.010916625126330348   -0.024384993793952543
0.5714826979495417   -0.010916625126330348   -0.024384993793952543
0.7878509586469754   0.019227033506585   0.0025289092451753134
0.7878509586469754   0.019227033506585   0.0025289092451753134
0.7878509586469754   0.019227033506585   0.0025289092451753134
0.7878509586469754   0.019227033506585   0.0025289092451753134
0.3901358928272905   -0.03716880142232579   0.011418407475333701
0.3901358928272905   -0.03716880142232579   0.011418407475333701
0.3901358928272905   -0.03716880142232579   0.011418407475333701
0.3901358928272905   -0.03716880142232579   0.011418407475333701
0.3755314239706938   -0.05358546609317617   0.01140889589549187
0.3755314239706938   -0.05358546609317617   0.01140889589549187
0.3755314239706938   -0.05358546609317617   0.01140889589549187
0.3755314239706938   -0.05358546609317617   0.01140889589549187
0.7800761554982614   0.04408259837640302   0.014450242925203825
0.7800761554982614   0.04408259837640302   0.014450242925203825
0.7800761554982614   0.04408259837640302   0.014450242925203825
0.7800761554982614   0.04408259837640302   0.014450242925203825
0.5502844088771294   -0.010899983010021791   -0.032756205206903186
0.5502844088771294   -0.010899983010021791   -0.032756205206903186
0.5502844088771294   -0.010899983010021791   -0.032756205206903186
0.5502844088771294   -0.010899983010021791   -0.032756205206903186
0.40893793226921626   -0.04942822887733467   0.020219512199542752
0.40893793226921626   -0.04942822887733467   0.020219512199542752
0.40893793226921626   -0.04942822887733467   0.020219512199542752
0.40893793226921626   -0.04942822887733467   0.020219512199542752
0.07650001791373465   -0.048640863670152634   0.003968434310998678
0.07650001791373465   -0.048640863670152634   0.003968434310998678
0.07650001791373465   -0.048640863670152634   0.003968434310998678
0.07650001791373465   -0.048640863670152634   0.003968434310998678
0.049374335800788705   -0.12039154522996276   0.02097623066740447
0.049374335800788705   -0.12039154522996276   0.02097623066740447
0.049374335800788705   -0.12039154522996276   0.02097623066740447
0.049374335800788705   -0.12039154522996276   0.02097623066740447
0.4110006797266221   0.01670777739222848   0.015520143548887734
0.4110006797266221   0.01670777739222848   0.015520143548887734
0.4110006797266221   0.01670777739222848   0.015520143548887734
0.4110006797266221   0.01670777739222848   0.015520143548887734
0.2328051079852471   -0.05064687850111404   -0.0009535183105094484
0.2328051079852471   -0.05064687850111404   -0.0009535183105094484
0.2328051079852471   -0.05064687850111404   -0.0009535183105094484
0.2328051079852471   -0.05064687850111404   -0.0009535183105094484
0.3976487616488526   -0.05153186673614282   0.01700019728840954
0.3976487616488526   -0.05153186673614282   0.01700019728840954
0.3976487616488526   -0.05153186673614282   0.01700019728840954
0.3976487616488526   -0.05153186673614282   0.01700019728840954
0.0593472240414512   -0.05553093093869367   0.005980057579447886
0.0593472240414512   -0.05553093093869367   0.005980057579447886
0.0593472240414512   -0.05553093093869367   0.005980057579447886
0.0593472240414512   -0.05553093093869367   0.005980057579447886
0.037175717993318494   -0.12132894924552584   0.018761588751508518
0.037175717993318494   -0.12132894924552584   0.018761588751508518
0.037175717993318494   -0.12132894924552584   0.018761588751508518
0.037175717993318494   -0.12132894924552584   0.018761588751508518
0.4017088111874094   0.013776479991732538   0.01833771786187022
0.4017088111874094   0.013776479991732538   0.01833771786187022
0.4017088111874094   0.013776479991732538   0.01833771786187022
0.4017088111874094   0.013776479991732538   0.01833771786187022
0.2161917705005744   -0.0539326365786542   -0.011015591129748491
0.2161917705005744   -0.0539326365786542   -0.011015591129748491
0.2161917705005744   -0.0539326365786542   -0.011015591129748491
0.2161917705005744   -0.0539326365786542   -0.011015591129748491
0.38767977227562805   -0.052155546233684055   0.014124549528377148
0.38767977227562805   -0.052155546233684055   0.014124549528377148
0.38767977227562805   -0.052155546233684055   0.014124549528377148
0.38767977227562805   -0.052155546233684055   0.014124549528377148
0.047526720585693016   -0.05907495933951144   0.008262611807366746
0.047526720585693016   -0.05907495933951144   0.008262611807366746
0.047526720585693016   -0.05907495933951144   0.008262611807366746
0.047526720585693016   -0.05907495933951144   0.008262611807366746
0.02353894408301406   -0.1210902244201291   0.014615372256076967
0.02353894408301406   -0.1210902244201291   0.014615372256076967
0.02353894408301406   -0.1210902244201291   0.014615372256076967
0.02353894408301406   -0.1210902244201291   0.014615372256076967
0.3911629441005543   0.014102877030973876   0.02187815342064601
0.3911629441005543   0.014102877030973876   0.02187815342064601
0.3911629441005543   0.014102877030973876   0.02187815342064601
0.3911629441005543   0.014102877030973876   0.02187815342064601
0.2061366446073557   -0.05336946505767223   -0.01953444737913264
0.2061366446073557   -0.05336946505767223   -0.01953444737913264
0.2061366446073557   -0.05336946505767223   -0.01953444737913264
0.2061366446073557   -0.05336946505767223   -0.01953444737913264
0.0599415749198533   -0.14552719322147728   0.01806254889291467
0.0599415749198533   -0.14552719322147728   0.01806254889291467
0.0599415749198533   -0.14552719322147728   0.01806254889291467
0.0599415749198533   -0.14552719322147728   0.01806254889291467
-0.24616986546442962   -0.07505261462907098   -3.73095433084461e-05
-0.24616986546442962   -0.07505261462907098   -3.73095433084461e-05
-0.24616986546442962   -0.07505261462907098   -3.73095433084461e-05
-0.24616986546442962   -0.07505261462907098   -3.73095433084461e-05
-0.29524084598305367   -0.2187735444123487   0.02403489538819268
-0.29524084598305367   -0.2187735444123487   0.02403489538819268
-0.29524084598305367   -0.2187735444123487   0.02403489538819268
-0.29524084598305367   -0.2187735444123487   0.02403489538819268
0.06894883143535067   -0.011441005115917335   0.009898168726168943
0.06894883143535067   -0.011441005115917335   0.009898168726168943
0.06894883143535067   -0.011441005115917335   0.009898168726168943
0.06894883143535067   -0.011441005115917335   0.009898168726168943
-0.10180791925609656   -0.11110095607268386   0.0042446473068943925
-0.10180791925609656   -0.11110095607268386   0.0042446473068943925
-0.10180791925609656   -0.11110095607268386   0.0042446473068943925
-0.10180791925609656   -0.11110095607268386   0.0042446473068943925
0.041135965433828074   -0.15368882873839754   0.013081662341036096
0.041135965433828074   -0.15368882873839754   0.013081662341036096
0.041135965433828074   -0.15368882873839754   0.013081662341036096
0.041135965433828074   -0.15368882873839754   0.013081662341036096
-0.27218429909117714   -0.08128203989951495   0.001826125334739393
-0.27218429909117714   -0.08128203989951495   0.001826125334739393
-0.27218429909117714   -0.08128203989951495   0.001826125334739393
-0.27218429909117714   -0.08128203989951495   0.001826125334739393
-0.31218348844510546   -0.22206498509009573   0.019712317185602624
-0.31218348844510546   -0.22206498509009573   0.019712317185602624
-0.31218348844510546   -0.22206498509009573   0.019712317185602624
-0.31218348844510546   -0.22206498509009573   0.019712317185602624
0.05750765401182172   -0.01468834180230157   0.013780661400800412
0.05750765401182172   -0.01468834180230157   0.013780661400800412
0.05750765401182172   -0.01468834180230157   0.013780661400800412
0.05750765401182172   -0.01468834180230157   0.013780661400800412
-0.12300501226260127   -0.11772796506375227   -0.00988154748998405
-0.12300501226260127   -0.11772796506375227   -0.00988154748998405
-0.12300501226260127   -0.11772796506375227   -0.00988154748998405
-0.12300501226260127   -0.11772796506375227   -0.00988154748998405
0.02814212162605345   -0.15624116248254413   0.008505820152201644
0.02814212162605345   -0.15624116248254413   0.008505820152201644
0.02814212162605345   -0.15624116248254413   0.008505820152201644
0.02814212162605345   -0.15624116248254413   0.008505820152201644
-0.28851679136382113   -0.08621099971433763   0.0021918172162630565
-0.28851679136382113   -0.08621099971433763   0.0021918172162630565
-0.28851679136382113   -0.08621099971433763   0.0021918172162630565
-0.28851679136382113   -0.08621099971433763   0.0021918172162630565
-0.33060210525590566   -0.22045619570911307   0.016372784344712586
-0.33060210525590566   -0.22045619570911307   0.016372784344712586
-0.33060210525590566   -0.22045619570911307   0.016372784344712586
-0.33060210525590566   -0.22045619570911307   0.016372784344712586
0.04479123812794656   -0.01645324093592526   0.01623985899653469
0.04479123812794656   -0.01645324093592526   0.01623985899653469
0.04479123812794656   -0.01645324093592526   0.01623985899653469
0.04479123812794656   -0.01645324093592526   0.01623985899653469
-0.14024642125412082   -0.12019350579721212   -0.024080840983051965
-0.14024642125412082   -0.12019350579721212   -0.024080840983051965
-0.14024642125412082   -0.12019350579721212   -0.024080840983051965
-0.14024642125412082   -0.12019350579721212   -0.024080840983051965
-0.27685485915451674   -0.24998474521598563   0.021469852593172682
-0.27685485915451674   -0.24998474521598563   0.021469852593172682
-0.27685485915451674   -0.24998474521598563   0.021469852593172682
-0.27685485915451674   -0.24998474521598563   0.021469852593172682
-0.6115268709025737   -0.09330919941342364   -0.013945515698028032
-0.6115268709025737   -0.09330919941342364   -0.013945515698028032
-0.6115268709025737   -0.09330919941342364   -0.013945515698028032
-0.6115268709025737   -0.09330919941342364   -0.013945515698028032
-0.6974040371233556   -0.366094147573571   -0.01849332893065101
-0.6974040371233556   -0.366094147573571   -0.01849332893065101
-0.6974040371233556   -0.366094147573571   -0.01849332893065101
-0.6974040371233556   -0.366094147573571   -0.01849332893065101
-0.25853103751284856   -0.019742154704962142   0.008552548031829527
-0.25853103751284856   -0.019742154704962142   0.008552548031829527
-0.25853103751284856   -0.019742154704962142   0.008552548031829527
-0.25853103751284856   -0.019742154704962142   0.008552548031829527
-0.4565851257012614   -0.17495593641778043   -0.014476380994516053
-0.4565851257012614   -0.17495593641778043   -0.014476380994516053
-0.4565851257012614   -0.17495593641778043   -0.014476380994516053
-0.4565851257012614   -0.17495593641778043   -0.014476380994516053
-0.311534757550838   -0.283719389371294   0.007511182508216481
-0.311534757550838   -0.283719389371294   0.007511182508216481
-0.311534757550838   -0.283719389371294   0.007511182508216481
-0.311534757550838   -0.283719389371294   0.007511182508216481
-0.6431530271266059   -0.10086962294847848   -0.01246280357199477
-0.6431530271266059   -0.10086962294847848   -0.01246280357199477
-0.6431530271266059   -0.10086962294847848   -0.01246280357199477
-0.6431530271266059   -0.10086962294847848   -0.01246280357199477
-0.7176112708916538   -0.37176263130879184   -0.02138080280572017
-0.7176112708916538   -0.37176263130879184   -0.02138080280572017
-0.7176112708916538   -0.37176263130879184   -0.02138080280572017
-0.7176112708916538   -0.37176263130879184   -0.02138080280572017
-0.2742101030926759   -0.025135928047242205   0.012650186904894204
-0.2742101030926759   -0.025135928047242205   0.012650186904894204
-0.2742101030926759   -0.025135928047242205   0.012650186904894204
-0.2742101030926759   -0.025135928047242205   0.012650186904894204
-0.48134146401288624   -0.19409994312325946   -0.02101132807216792
-0.48134146401288624   -0.19409994312325946   -0.02101132807216792
-0.48134146401288624   -0.19409994312325946   -0.02101132807216792
-0.48134146401288624   -0.19409994312325946   -0.02101132807216792
-0.3289532198578978   -0.2891626046121619   0.0029612796437039693
-0.3289532198578978   -0.2891626046121619   0.0029612796437039693
-0.3289532198578978   -0.2891626046121619   0.0029612796437039693
-0.3289532198578978   -0.2891626046121619   0.0029612796437039693
-0.6631361226154472   -0.10800392323289348   -0.012763769500590818
-0.6631361226154472   -0.10800392323289348   -0.012763769500590818
-0.6631361226154472   -0.10800392323289348   -0.012763769500590818
-0.6631361226154472   -0.10800392323289348   -0.012763769500590818
-0.7347791662431276   -0.3550105458869699   -0.024100832567322282
-0.7347791662431276   -0.3550105458869699   -0.024100832567322282
-0.7347791662431276   -0.3550105458869699   -0.024100832567322282
-0.7347791662431276   -0.3550105458869699   -0.024100832567322282
-0.29398490111591613   -0.03278148822764096   0.011784097563183205
-0.29398490111591613   -0.03278148822764096   0.011784097563183205
-0.29398490111591613   -0.03278148822764096   0.011784097563183205
-0.29398490111591613   -0.03278148822764096   0.011784097563183205
-0.5042770831688028   -0.20053149492988015   -0.027367105544902025
-0.5042770831688028   -0.20053149492988015   -0.027367105544902025
-0.5042770831688028   -0.20053149492988015   -0.027367105544902025
-0.5042770831688028   -0.20053149492988015   -0.027367105544902025
-0.6016937231978865   -0.10996378329765205   0.05187480670962624
-0.6016937231978865   -0.10996378329765205   0.05187480670962624
-0.6016937231978865   -0.10996378329765205   0.05187480670962624
-0.6016937231978865   -0.10996378329765205   0.05187480670962624
-1.0538003292794327   -0.0781878737160989   -0.018092353319593184
-1.0538003292794327   -0.0781878737160989   -0.018092353319593184
-1.0538003292794327   -0.0781878737160989   -0.018092353319593184
-1.0538003292794327   -0.0781878737160989   -0.018092353319593184
-1.1174041092203382   -0.2206468850582939   0.014169683928868582
-1.1174041092203382   -0.2206468850582939   0.014169683928868582
-1.1174041092203382   -0.2206468850582939   0.014169683928868582
-1.1174041092203382   -0.2206468850582939   0.014169683928868582
-0.6175084094723414   0.009475537733450418   0.005415124017392879
-0.6175084094723414   0.009475537733450418   0.005415124017392879
-0.6175084094723414   0.009475537733450418   0.005415124017392879
-0.6175084094723414   0.009475537733450418   0.005415124017392879
-0.8072481788413615   -0.07746392618774603   0.016087745094488626
-0.8072481788413615   -0.07746392618774603   0.016087745094488626
-0.8072481788413615   -0.07746392618774603   0.016087745094488626
-0.8072481788413615   -0.07746392618774603   0.016087745094488626
-0.6348478304599081   -0.1177757122744835   0.04596926908749063
-0.6348478304599081   -0.1177757122744835   0.04596926908749063
-0.6348478304599081   -0.1177757122744835   0.04596926908749063
-0.6348478304599081   -0.1177757122744835   0.04596926908749063
-1.0973921766550983   -0.09072312347268582   -0.01569441483053153
-1.0973921766550983   -0.09072312347268582   -0.01569441483053153
-1.0973921766550983   -0.09072312347268582   -0.01569441483053153
-1.0973921766550983   -0.09072312347268582   -0.01569441483053153
-1.1440199195629126   -0.229856816314283   -0.005264162008502493
-1.1440199195629126   -0.229856816314283   -0.005264162008502493
-1.1440199195629126   -0.229856816314283   -0.005264162008502493
-1.1440199195629126   -0.229856816314283   -0.005264162008502493
-0.6363639772034506   0.0033534194368055603   0.00973961488969291
-0.6363639772034506   0.0033534194368055603   0.00973961488969291
-0.6363639772034506   0.0033534194368055603   0.00973961488969291
-0.6363639772034506   0.0033534194368055603   0.00973961488969291
-0.8546653781465856   -0.1020692244110293   0.006493766428601045
-0.8546653781465856   -0.1020692244110293   0.006493766428601045
-0.8546653781465856   -0.1020692244110293   0.006493766428601045
-0.8546653781465856   -0.1020692244110293   0.006493766428601045
-0.6561314517823068   -0.12364596505834818   0.03790162649056583
-0.6561314517823068   -0.12364596505834818   0.03790162649056583
-0.6561314517823068   -0.12364596505834818   0.03790162649056583
-0.6561314517823068   -0.12364596505834818   0.03790162649056583
-1.1187656993080617   -0.09737068614313116   -0.011479190905379716
-1.1187656993080617   -0.09737068614313116   -0.011479190905379716
-1.1187656993080617   -0.09737068614313116   -0.011479190905379716
-1.1187656993080617   -0.09737068614313116   -0.011479190905379716
-1.1668026871488337   -0.23340417248907577   -0.00021817529654510892
-1.1668026871488337   -0.23340417248907577   -0.00021817529654510892
-1.1668026871488337   -0.23340417248907577   -0.00021817529654510892
-1.1668026871488337   -0.23340417248907577   -0.00021817529654510892
-0.6629176462757498   -0.023903740859442635   0.004099962242039221
-0.6629176462757498   -0.023903740859442635   0.004099962242039221
-0.6629176462757498   -0.023903740859442635   0.004099962242039221
-0.6629176462757498   -0.023903740859442635   0.004099962242039221
-0.8644652395788165   -0.12309563063931049   0.010204655113296827
-0.8644652395788165   -0.12309563063931049   0.010204655113296827
-0.8644652395788165   -0.12309563063931049   0.010204655113296827
-0.8644652395788165   -0.12309563063931049   0.010204655113296827
0.7120108095227871   0.03322256550741991   -0.015043329984676796
0.7120108095227871   0.03322256550741991   -0.015043329984676796
0.7120108095227871   0.03322256550741991   -0.015043329984676796
0.7120108095227871   0.03322256550741991   -0.015043329984676796
0.35742917234050536   -0.007796735717190403   0.007228598135241737
0.35742917234050536   -0.007796735717190403   0.007228598135241737
0.35742917234050536   -0.007796735717190403   0.007228598135241737
0.35742917234050536   -0.007796735717190403   0.007228598135241737
0.3351767506248089   -0.05223335490017905   -0.01343286872995661
0.3351767506248089   -0.05223335490017905   -0.01343286872995661
0.3351767506248089   -0.05223335490017905   -0.01343286872995661
0.3351767506248089   -0.05223335490017905   -0.01343286872995661
0.703901368313484   0.051150563227481016   0.008457273552808932
0.703901368313484   0.051150563227481016   0.008457273552808932
0.703901368313484   0.051150563227481016   0.008457273552808932
0.703901368313484   0.051150563227481016   0.008457273552808932
0.4995024938672869   0.0012371312479891872   -0.019279591924113083
0.4995024938672869   0.0012371312479891872   -0.019279591924113083
0.4995024938672869   0.0012371312479891872   -0.019279591924113083
0.4995024938672869   0.0012371312479891872   -0.019279591924113083
0.6927134217491518   0.01891181155200658   -0.015243707593371375
0.6927134217491518   0.01891181155200658   -0.015243707593371375
0.6927134217491518   0.01891181155200658   -0.015243707593371375
0.6927134217491518   0.01891181155200658   -0.015243707593371375
0.34575741763927104   -0.020601882774574115   0.007838994216746255
0.34575741763927104   -0.020601882774574115   0.007838994216746255
0.34575741763927104   -0.020601882774574115   0.007838994216746255
0.34575741763927104   -0.020601882774574115   0.007838994216746255
0.3231746355006026   -0.05507251774738692   -0.011138916823314839
0.3231746355006026   -0.05507251774738692   -0.011138916823314839
0.3231746355006026   -0.05507251774738692   -0.011138916823314839
0.3231746355006026   -0.05507251774738692   -0.011138916823314839
0.6872701760947044   0.047094836221659137   0.012472093460308926
0.6872701760947044   0.047094836221659137   0.012472093460308926
0.6872701760947044   0.047094836221659137   0.012472093460308926
0.6872701760947044   0.047094836221659137   0.012472093460308926
0.49317469846211415   -0.0048421502131475586   -0.0228541104871396
0.49317469846211415   -0.0048421502131475586   -0.0228541104871396
0.49317469846211415   -0.0048421502131475586   -0.0228541104871396
0.49317469846211415   -0.0048421502131475586   -0.0228541104871396
0.6759905531390732   0.015293510104772062   -0.012124695200959816
0.6759905531390732   0.015293510104772062   -0.012124695200959816
0.6759905531390732   0.015293510104772062   -0.012124695200959816
0.6759905531390732   0.015293510104772062   -0.012124695200959816
0.3335951691650209   -0.024130280921717887   0.010021514673107364
0.3335951691650209   -0.024130280921717887   0.010021514673107364
0.3335951691650209   -0.024130280921717887   0.010021514673107364
0.3335951691650209   -0.024130280921717887   0.010021514673107364
0.3115824419743918   -0.05403947645372292   -0.0076664177015254645
0.3115824419743918   -0.05403947645372292   -0.0076664177015254645
0.3115824419743918   -0.05403947645372292   -0.0076664177015254645
0.3115824419743918   -0.05403947645372292   -0.0076664177015254645
0.6667075455473659   0.04452843589517888   0.016331395753985282
0.6667075455473659   0.04452843589517888   0.016331395753985282
0.6667075455473659   0.04452843589517888   0.016331395753985282
0.6667075455473659   0.04452843589517888   0.016331395753985282
0.46916406871104543   -0.008404876834378058   -0.029915142485779898
0.46916406871104543   -0.008404876834378058   -0.029915142485779898
0.46916406871104543   -0.008404876834378058   -0.029915142485779898
0.46916406871104543   -0.008404876834378058   -0.029915142485779898
0.35983752706600025   0.007939732089337737   0.003533903956185018
0.35983752706600025   0.007939732089337737   0.003533903956185018
0.35983752706600025   0.007939732089337737   0.003533903956185018
0.35983752706600025   0.007939732089337737   0.003533903956185018
0.03286729987143781   -0.021885042127847112   -0.0010111278648502423
0.03286729987143781   -0.021885042127847112   -0.0010111278648502423
0.03286729987143781   -0.021885042127847112   -0.0010111278648502423
0.03286729987143781   -0.021885042127847112   -0.0010111278648502423
0.011893642221013124   -0.06881520045560419   -0.012987708184635939
0.011893642221013124   -0.06881520045560419   -0.012987708184635939
0.011893642221013124   -0.06881520045560419   -0.012987708184635939
0.011893642221013124   -0.06881520045560419   -0.012987708184635939
0.3601762741932065   0.04166169046885777   0.017669703742991604
0.3601762741932065   0.04166169046885777   0.017669703742991604
0.3601762741932065   0.04166169046885777   0.017669703742991604
0.3601762741932065   0.04166169046885777   0.017669703742991604
0.18768849731898835   -0.009396642514524121   -0.007305368833370742
0.18768849731898835   -0.009396642514524121   -0.007305368833370742
0.18768849731898835   -0.009396642514524121   -0.007305368833370742
0.18768849731898835   -0.009396642514524121   -0.007305368833370742
0.3499678482684744   0.0025458627570443815   0.0057434018311455885
0.3499678482684744   0.0025458627570443815   0.0057434018311455885
0.3499678482684744   0.0025458627570443815   0.0057434018311455885
0.3499678482684744   0.0025458627570443815   0.0057434018311455885
0.022501331520592683   -0.02930010936894314   0.0005356472266008286
0.022501331520592683   -0.02930010936894314   0.0005356472266008286
0.022501331520592683   -0.02930010936894314   0.0005356472266008286
0.022501331520592683   -0.02930010936894314   0.0005356472266008286
0.00032009261980760553   -0.07199233728915655   -0.009117649974973408
0.00032009261980760553   -0.07199233728915655   -0.009117649974973408
0.00032009261980760553   -0.07199233728915655   -0.009117649974973408
0.00032009261980760553   -0.07199233728915655   -0.009117649974973408
0.3474774722130915   0.03583280608776456   0.019469942903978084
0.3474774722130915   0.03583280608776456   0.019469942903978084
0.3474774722130915   0.03583280608776456   0.019469942903978084
0.3474774722130915   0.03583280608776456   0.019469942903978084
0.17430990056759715   -0.014788566250811055   -0.01034079885618041
0.17430990056759715   -0.014788566250811055   -0.01034079885618041
0.17430990056759715   -0.014788566250811055   -0.01034079885618041
0.17430990056759715   -0.014788566250811055   -0.01034079885618041
0.3378499591764409   -0.0010248310176139974   0.00819001482610614
0.3378499591764409   -0.0010248310176139974   0.00819001482610614
0.3378499591764409   -0.0010248310176139974   0.00819001482610614
0.3378499591764409   -0.0010248310176139974   0.00819001482610614
0.009899901871734946   -0.03518240396850085   0.0019714629640075736
0.009899901871734946   -0.03518240396850085   0.0019714629640075736
0.009899901871734946   -0.03518240396850085   0.0019714629640075736
0.009899901871734946   -0.03518240396850085   0.0019714629640075736
-0.012085452259891744   -0.07217854073334802   -0.0062805390405175215
-0.012085452259891744   -0.07217854073334802   -0.0062805390405175215
-0.012085452259891744   -0.07217854073334802   -0.0062805390405175215
-0.012085452259891744   -0.07217854073334802   -0.0062805390405175215
0.33466261164946104   0.03219491238813315   0.021500041831965792
0.33466261164946104   0.03219491238813315   0.021500041831965792
0.33466261164946104   0.03219491238813315   0.021500041831965792
0.33466261164946104   0.03219491238813315   0.021500041831965792
0.16395048811600543   -0.016843545835746994   -0.01290954407598708
0.16395048811600543   -0.016843545835746994   -0.01290954407598708
0.16395048811600543   -0.016843545835746994   -0.01290954407598708
0.16395048811600543   -0.016843545835746994   -0.01290954407598708
0.03399209980962831   -0.018722661438294007   0.001450491136549134
0.03399209980962831   -0.018722661438294007   0.001450491136549134
0.03399209980962831   -0.018722661438294007   0.001450491136549134
0.03399209980962831   -0.018722661438294007   0.001450491136549134
-0.28106108226282933   -0.0323659915416952   -0.0088098133995334
-0.28106108226282933   -0.0323659915416952   -0.0088098133995334
-0.28106108226282933   -0.0323659915416952   -0.0088098133995334
-0.28106108226282933   -0.0323659915416952   -0.0088098133995334
-0.3043802850175905   -0.09106274610142787   -0.014881419748411819
-0.3043802850175905   -0.09106274610142787   -0.014881419748411819
-0.3043802850175905   -0.09106274610142787   -0.014881419748411819
-0.3043802850175905   -0.09106274610142787   -0.014881419748411819
0.036435327044821955   0.030688357902840024   0.010217157575964014
0.036435327044821955   0.030688357902840024   0.010217157575964014
0.036435327044821955   0.030688357902840024   0.010217157575964014
0.036435327044821955   0.030688357902840024   0.010217157575964014
-0.12911133784103823   -0.02653777126321573   -0.007209540274803862
-0.12911133784103823   -0.02653777126321573   -0.007209540274803862
-0.12911133784103823   -0.02653777126321573   -0.007209540274803862
-0.12911133784103823   -0.02653777126321573   -0.007209540274803862
0.025284247113031767   -0.02093627713470885   0.006086392954560964
0.025284247113031767   -0.02093627713470885   0.006086392954560964
0.025284247113031767   -0.02093627713470885   0.006086392954560964
0.025284247113031767   -0.02093627713470885   0.006086392954560964
-0.29236478090079837   -0.038573686878877175   -0.007292958387001667
-0.29236478090079837   -0.038573686878877175   -0.007292958387001667
-0.29236478090079837   -0.038573686878877175   -0.007292958387001667
-0.29236478090079837   -0.038573686878877175   -0.007292958387001667
-0.31793835625486677   -0.09452847058272756   -0.00997397223464106
-0.31793835625486677   -0.09452847058272756   -0.00997397223464106
-0.31793835625486677   -0.09452847058272756   -0.00997397223464106
-0.31793835625486677   -0.09452847058272756   -0.00997397223464106
0.023740463300127267   0.024456975567643303   0.011534890569825033
0.023740463300127267   0.024456975567643303   0.011534890569825033
0.023740463300127267   0.024456975567643303   0.011534890569825033
0.023740463300127267   0.024456975567643303   0.011534890569825033
-0.14034225015082077   -0.03021183575261767   -0.008634572101637593
-0.14034225015082077   -0.03021183575261767   -0.008634572101637593
-0.14034225015082077   -0.03021183575261767   -0.008634572101637593
-0.14034225015082077   -0.03021183575261767   -0.008634572101637593
0.013276281934399675   -0.024630463863483318   0.008301423172313702
0.013276281934399675   -0.024630463863483318   0.008301423172313702
0.013276281934399675   -0.024630463863483318   0.008301423172313702
0.013276281934399675   -0.024630463863483318   0.008301423172313702
-0.30728491577689687   -0.04525177203935897   -0.005983468388162132
-0.30728491577689687   -0.04525177203935897   -0.005983468388162132
-0.30728491577689687   -0.04525177203935897   -0.005983468388162132
-0.30728491577689687   -0.04525177203935897   -0.005983468388162132
-0.3329660830103292   -0.0970248387467933   -0.008860808919529685
-0.3329660830103292   -0.0970248387467933   -0.008860808919529685
-0.3329660830103292   -0.0970248387467933   -0.008860808919529685
-0.3329660830103292   -0.0970248387467933   -0.008860808919529685
0.010006806639256415   0.01914407500888617   0.01285813971298908
0.010006806639256415   0.01914407500888617   0.01285813971298908
0.010006806639256415   0.01914407500888617   0.01285813971298908
0.010006806639256415   0.01914407500888617   0.01285813971298908
-0.15491475742660316   -0.03460869166526567   -0.012087778337288394
-0.15491475742660316   -0.03460869166526567   -0.012087778337288394
-0.15491475742660316   -0.03460869166526567   -0.012087778337288394
-0.15491475742660316   -0.03460869166526567   -0.012087778337288394
-0.2764753390878468   -0.022632673103452496   0.004385584037131601
-0.2764753390878468   -0.022632673103452496   0.004385584037131601
-0.2764753390878468   -0.022632673103452496   0.004385584037131601
-0.2764753390878468   -0.022632673103452496   0.004385584037131601
-0.5880330018933316   -0.037911000154131944   -0.015405229256245528
-0.5880330018933316   -0.037911000154131944   -0.015405229256245528
-0.5880330018933316   -0.037911000154131944   -0.015405229256245528
-0.5880330018933316   -0.037911000154131944   -0.015405229256245528
-0.6144899622961519   -0.09564552925708383   -0.015005399945475692
-0.6144899622961519   -0.09564552925708383   -0.015005399945475692
-0.6144899622961519   -0.09564552925708383   -0.015005399945475692
-0.6144899622961519   -0.09564552925708383   -0.015005399945475692
-0.27787023643729125   0.023587102481448033   0.0030189745702028613
-0.27787023643729125   0.023587102481448033   0.0030189745702028613
-0.27787023643729125   0.023587102481448033   0.0030189745702028613
-0.27787023643729125   0.023587102481448033   0.0030189745702028613
-0.43562583779558983   -0.0316209889838239   -0.0059732547208242726
-0.43562583779558983   -0.0316209889838239   -0.0059732547208242726
-0.43562583779558983   -0.0316209889838239   -0.0059732547208242726
-0.43562583779558983   -0.0316209889838239   -0.0059732547208242726
-0.28610913085177075   -0.024904968319389514   0.010316573298645573
-0.28610913085177075   -0.024904968319389514   0.010316573298645573
-0.28610913085177075   -0.024904968319389514   0.010316573298645573
-0.28610913085177075   -0.024904968319389514   0.010316573298645573
-0.6045757863549545   -0.04547817692953143   -0.015601872567046447
-0.6045757863549545   -0.04547817692953143   -0.015601872567046447
-0.6045757863549545   -0.04547817692953143   -0.015601872567046447
-0.6045757863549545   -0.04547817692953143   -0.015601872567046447
-0.633208107492592   -0.10158910970760784   -0.010617716997017876
-0.633208107492592   -0.10158910970760784   -0.010617716997017876
-0.633208107492592   -0.10158910970760784   -0.010617716997017876
-0.633208107492592   -0.10158910970760784   -0.010617716997017876
-0.29295553418925335   0.01675669931634502   0.0036549681943517792
-0.29295553418925335   0.01675669931634502   0.0036549681943517792
-0.29295553418925335   0.01675669931634502   0.0036549681943517792
-0.29295553418925335   0.01675669931634502   0.0036549681943517792
-0.44735828828693647   -0.03484884084167546   -0.005949808442570922
-0.44735828828693647   -0.03484884084167546   -0.005949808442570922
-0.44735828828693647   -0.03484884084167546   -0.005949808442570922
-0.44735828828693647   -0.03484884084167546   -0.005949808442570922
-0.30106612226204454   -0.030887853193955837   0.010746580340694737
-0.30106612226204454   -0.030887853193955837   0.010746580340694737
-0.30106612226204454   -0.030887853193955837   0.010746580340694737
-0.30106612226204454   -0.030887853193955837   0.010746580340694737
-0.6239708927972475   -0.0528179305747514   -0.013202822653151626
-0.6239708927972475   -0.0528179305747514   -0.013202822653151626
-0.6239708927972475   -0.0528179305747514   -0.013202822653151626
-0.6239708927972475   -0.0528179305747514   -0.013202822653151626
-0.6543565944020369   -0.1094729814997516   -0.011301675511279972
-0.6543565944020369   -0.1094729814997516   -0.011301675511279972
-0.6543565944020369   -0.1094729814997516   -0.011301675511279972
-0.6543565944020369   -0.1094729814997516   -0.011301675511279972
-0.30926560526154895   0.008288327462327785   0.00432841361524481
-0.30926560526154895   0.008288327462327785   0.00432841361524481
-0.30926560526154895   0.008288327462327785   0.00432841361524481
-0.30926560526154895   0.008288327462327785   0.00432841361524481
-0.4684906806968022   -0.04300765681711998   -0.009780122199039442
-0.4684906806968022   -0.04300765681711998   -0.009780122199039442
-0.4684906806968022   -0.04300765681711998   -0.009780122199039442
-0.4684906806968022   -0.04300765681711998   -0.009780122199039442
-0.5684074063544837   0.02622627599132349   0.018585472292539033
-0.5684074063544837   0.02622627599132349   0.018585472292539033
-0.5684074063544837   0.02622627599132349   0.018585472292539033
-0.5684074063544837   0.02622627599132349   0.018585472292539033
-0.8808141678380145   -0.04383674808914892   -0.011486838612918326
-0.8808141678380145   -0.04383674808914892   -0.011486838612918326
-0.8808141678380145   -0.04383674808914892   -0.011486838612918326
-0.8808141678380145   -0.04383674808914892   -0.011486838612918326
-0.9018552196130935   -0.04467708377791635   0.018998826601311157
-0.9018552196130935   -0.04467708377791635   0.018998826601311157
-0.9018552196130935   -0.04467708377791635   0.018998826601311157
-0.9018552196130935   -0.04467708377791635   0.018998826601311157
-0.5895155152571977   0.01861736490866489   -0.004396058916459007
-0.5895155152571977   0.01861736490866489   -0.004396058916459007
-0.5895155152571977   0.01861736490866489   -0.004396058916459007
-0.5895155152571977   0.01861736490866489   -0.004396058916459007
-0.7008525204936016   0.00038172786416523774   0.017866629016939847
-0.7008525204936016   0.00038172786416523774   0.017866629016939847
-0.7008525204936016   0.00038172786416523774   0.017866629016939847
-0.7008525204936016   0.00038172786416523774   0.017866629016939847
-0.5836675512653031   0.019877424801428928   0.023583701150247265
-0.5836675512653031   0.019877424801428928   0.023583701150247265
-0.5836675512653031   0.019877424801428928   0.023583701150247265
-0.5836675512653031   0.019877424801428928   0.023583701150247265
-0.9072998430745247   -0.045533803140217516   -0.0073675713435440646
-0.9072998430745247   -0.045533803140217516   -0.0073675713435440646
-0.9072998430745247   -0.045533803140217516   -0.0073675713435440646
-0.9072998430745247   -0.045533803140217516   -0.0073675713435440646
-0.928346372934293   -0.05181157142257109   0.02589705632365208
-0.928346372934293   -0.05181157142257109   0.02589705632365208
-0.928346372934293   -0.05181157142257109   0.02589705632365208
-0.928346372934293   -0.05181157142257109   0.02589705632365208
-0.608940181701371   0.013759932084913884   -0.004627129833440477
-0.608940181701371   0.013759932084913884   -0.004627129833440477
-0.608940181701371   0.013759932084913884   -0.004627129833440477
-0.608940181701371   0.013759932084913884   -0.004627129833440477
-0.7353467956185662   -0.007933336207431502   0.010030774132460403
-0.7353467956185662   -0.007933336207431502   0.010030774132460403
-0.7353467956185662   -0.007933336207431502   0.010030774132460403
-0.7353467956185662   -0.007933336207431502   0.010030774132460403
-0.6035901213994522   0.012614073643233387   0.02326903011783374
-0.6035901213994522   0.012614073643233387   0.02326903011783374
-0.6035901213994522   0.012614073643233387   0.02326903011783374
-0.6035901213994522   0.012614073643233387   0.02326903011783374
-0.9347046813465217   -0.05167396109120059   -0.006032096068862167
-0.9347046813465217   -0.05167396109120059   -0.006032096068862167
-0.9347046813465217   -0.05167396109120059   -0.006032096068862167
-0.9347046813465217   -0.05167396109120059   -0.006032096068862167
-0.9660897268474029   -0.08088762631157469   0.02235261555306259
-0.9660897268474029   -0.08088762631157469   0.02235261555306259
-0.9660897268474029   -0.08088762631157469   0.02235261555306259
-0.9660897268474029   -0.08088762631157469   0.02235261555306259
-0.631340308277821   -0.001316755629704791   -0.004376470760257184
-0.631340308277821   -0.001316755629704791   -0.004376470760257184
-0.631340308277821   -0.001316755629704791   -0.004376470760257184
-0.631340308277821   -0.001316755629704791   -0.004376470760257184
-0.7495302004131044   -0.01849130210173011   0.003267653396134912
-0.7495302004131044   -0.01849130210173011   0.003267653396134912
-0.7495302004131044   -0.01849130210173011   0.003267653396134912
-0.7495302004131044   -0.01849130210173011   0.003267653396134912
0.5805624582683063   0.03135008085518742   -0.020170604930685516
0.5805624582683063   0.03135008085518742   -0.020170604930685516
0.5805624582683063   0.03135008085518742   -0.020170604930685516
0.5805624582683063   0.03135008085518742   -0.020170604930685516
0.28699554237558683   -0.0008628775974929698   0.0071604735954542385
0.28699554237558683   -0.0008628775974929698   0.0071604735954542385
0.28699554237558683   -0.0008628775974929698   0.0071604735954542385
0.28699554237558683   -0.0008628775974929698   0.0071604735954542385
0.2628720510327782   -0.04247026118312301   -0.018617531219490016
0.2628720510327782   -0.04247026118312301   -0.018617531219490016
0.2628720510327782   -0.04247026118312301   -0.018617531219490016
0.2628720510327782   -0.04247026118312301   -0.018617531219490016
0.569910051677893   0.04667719459807808   0.008999143021345312
0.569910051677893   0.04667719459807808   0.008999143021345312
0.569910051677893   0.04667719459807808   0.008999143021345312
0.569910051677893   0.04667719459807808   0.008999143021345312
0.40310836276700285   0.0035343997606893385   -0.01328144539419733
0.40310836276700285   0.0035343997606893385   -0.01328144539419733
0.40310836276700285   0.0035343997606893385   -0.01328144539419733
0.40310836276700285   0.0035343997606893385   -0.01328144539419733
0.5581602951298025   0.0164136707133149   -0.019486115834340144
0.5581602951298025   0.0164136707133149   -0.019486115834340144
0.5581602951298025   0.0164136707133149   -0.019486115834340144
0.5581602951298025   0.0164136707133149   -0.019486115834340144
0.2741292496762299   -0.012699295202996244   0.007897496017636726
0.2741292496762299   -0.012699295202996244   0.007897496017636726
0.2741292496762299   -0.012699295202996244   0.007897496017636726
0.2741292496762299   -0.012699295202996244   0.007897496017636726
0.2508121024579889   -0.04593451630277586   -0.016216595525150528
0.2508121024579889   -0.04593451630277586   -0.016216595525150528
0.2508121024579889   -0.04593451630277586   -0.016216595525150528
0.2508121024579889   -0.04593451630277586   -0.016216595525150528
0.5518890021568917   0.04188816104745098   0.01238502002628318
0.5518890021568917   0.04188816104745098   0.01238502002628318
0.5518890021568917   0.04188816104745098   0.01238502002628318
0.5518890021568917   0.04188816104745098   0.01238502002628318
0.3938802127150316   -0.0027699487680905854   -0.017274549338699433
0.3938802127150316   -0.0027699487680905854   -0.017274549338699433
0.3938802127150316   -0.0027699487680905854   -0.017274549338699433
0.3938802127150316   -0.0027699487680905854   -0.017274549338699433
0.5403800126513062   0.012140026291731429   -0.015411792745915961
0.5403800126513062   0.012140026291731429   -0.015411792745915961
0.5403800126513062   0.012140026291731429   -0.015411792745915961
0.5403800126513062   0.012140026291731429   -0.015411792745915961
0.261869358594294   -0.016638114916338216   0.009773283769935012
0.261869358594294   -0.016638114916338216   0.009773283769935012
0.261869358594294   -0.016638114916338216   0.009773283769935012
0.261869358594294   -0.016638114916338216   0.009773283769935012
0.2398266049357687   -0.04676589559960152   -0.013259321108319608
0.2398266049357687   -0.04676589559960152   -0.013259321108319608
0.2398266049357687   -0.04676589559960152   -0.013259321108319608
0.2398266049357687   -0.04676589559960152   -0.013259321108319608
0.5315738381967073   0.037838765994758716   0.015489229563083358
0.5315738381967073   0.037838765994758716   0.015489229563083358
0.5315738381967073   0.037838765994758716   0.015489229563083358
0.5315738381967073   0.037838765994758716   0.015489229563083358
0.3716993194821255   -0.007048073863704027   -0.0233794730691041
0.3716993194821255   -0.007048073863704027   -0.0233794730691041
0.3716993194821255   -0.007048073863704027   -0.0233794730691041
0.3716993194821255   -0.007048073863704027   -0.0233794730691041
0.292219424162609   0.03055917440830966   0.0018578305247624743
0.292219424162609   0.03055917440830966   0.0018578305247624743
0.292219424162609   0.03055917440830966   0.0018578305247624743
0.292219424162609   0.03055917440830966   0.0018578305247624743
0.00880061971465728   -0.009983813557983433   -0.0013444531227930253
0.00880061971465728   -0.009983813557983433   -0.0013444531227930253
0.00880061971465728   -0.009983813557983433   -0.0013444531227930253
0.00880061971465728   -0.009983813557983433   -0.0013444531227930253
-0.009389775149884287   -0.03833600733027571   -0.012752735909600382
-0.009389775149884287   -0.03833600733027571   -0.012752735909600382
-0.009389775149884287   -0.03833600733027571   -0.012752735909600382
-0.009389775149884287   -0.03833600733027571   -0.012752735909600382
0.28671692005890476   0.042382690063665115   0.015753862664349447
0.28671692005890476   0.042382690063665115   0.015753862664349447
0.28671692005890476   0.042382690063665115   0.015753862664349447
0.28671692005890476   0.042382690063665115   0.015753862664349447
0.14232845945895167   0.006045238154445201   -0.0015661074357031946
0.14232845945895167   0.006045238154445201   -0.0015661074357031946
0.14232845945895167   0.006045238154445201   -0.0015661074357031946
0.14232845945895167   0.006045238154445201   -0.0015661074357031946
0.2803496722718428   0.02285207674544258   0.0034482370472639513
0.2803496722718428   0.02285207674544258   0.0034482370472639513
0.2803496722718428   0.02285207674544258   0.0034482370472639513
0.2803496722718428   0.02285207674544258   0.0034482370472639513
-0.002905293775398685   -0.01868816042462923   2.182405718114972e-05
-0.002905293775398685   -0.01868816042462923   2.182405718114972e-05
-0.002905293775398685   -0.01868816042462923   2.182405718114972e-05
-0.002905293775398685   -0.01868816042462923   2.182405718114972e-05
-0.020811937440714055   -0.04392964725225677   -0.011052914142323055
-0.020811937440714055   -0.04392964725225677   -0.011052914142323055
-0.020811937440714055   -0.04392964725225677   -0.011052914142323055
-0.020811937440714055   -0.04392964725225677   -0.011052914142323055
0.27377377929229246   0.0352425094684505   0.017414762875138573
0.27377377929229246   0.0352425094684505   0.017414762875138573
0.27377377929229246   0.0352425094684505   0.017414762875138573
0.27377377929229246   0.0352425094684505   0.017414762875138573
0.1283211226002369   -0.001012706610057007   -0.005568143302983431
0.1283211226002369   -0.001012706610057007   -0.005568143302983431
0.1283211226002369   -0.001012706610057007   -0.005568143302983431
0.1283211226002369   -0.001012706610057007   -0.005568143302983431
0.26765032205085953   0.016984487251506593   0.0050554988849201826
0.26765032205085953   0.016984487251506593   0.0050554988849201826
0.26765032205085953   0.016984487251506593   0.0050554988849201826
0.26765032205085953   0.016984487251506593   0.0050554988849201826
-0.014678973327275536   -0.025662118163306883   0.0013443773359196488
-0.014678973327275536   -0.025662118163306883   0.0013443773359196488
-0.014678973327275536   -0.025662118163306883   0.0013443773359196488
-0.014678973327275536   -0.025662118163306883   0.0013443773359196488
-0.03210985658752388   -0.04722749084633618   -0.008839506103411257
-0.03210985658752388   -0.04722749084633618   -0.008839506103411257
-0.03210985658752388   -0.04722749084633618   -0.008839506103411257
-0.03210985658752388   -0.04722749084633618   -0.008839506103411257
0.261461485864464   0.02927487977359585   0.01887430816195582
0.261461485864464   0.02927487977359585   0.01887430816195582
0.261461485864464   0.02927487977359585   0.01887430816195582
0.261461485864464   0.02927487977359585   0.01887430816195582
0.11805236125139229   -0.005451561852899828   -0.008492554251710019
0.11805236125139229   -0.005451561852899828   -0.008492554251710019
0.11805236125139229   -0.005451561852899828   -0.008492554251710019
0.11805236125139229   -0.005451561852899828   -0.008492554251710019
0.01851825010568313   0.030636512222320444   0.0066233730520323325
0.01851825010568313   0.030636512222320444   0.0066233730520323325
0.01851825010568313   0.030636512222320444   0.0066233730520323325
0.01851825010568313   0.030636512222320444   0.0066233730520323325
-0.260928878253737   -0.017174362618467644   -0.00893971621856753
-0.260928878253737   -0.017174362618467644   -0.00893971621856753
-0.260928878253737   -0.017174362618467644   -0.00893971621856753
-0.260928878253737   -0.017174362618467644   -0.00893971621856753
-0.2751174674396551   -0.03530751139016676   -0.00820939440459286
-0.2751174674396551   -0.03530751139016676   -0.00820939440459286
-0.2751174674396551   -0.03530751139016676   -0.00820939440459286
-0.2751174674396551   -0.03530751139016676   -0.00820939440459286
0.009315093825978355   0.03473366435697437   0.00770193728246275
0.009315093825978355   0.03473366435697437   0.00770193728246275
0.009315093825978355   0.03473366435697437   0.00770193728246275
0.009315093825978355   0.03473366435697437   0.00770193728246275
-0.12688996056862234   0.003779372844554152   0.0005204917404268358
-0.12688996056862234   0.003779372844554152   0.0005204917404268358
-0.12688996056862234   0.003779372844554152   0.0005204917404268358
-0.12688996056862234   0.003779372844554152   0.0005204917404268358
0.007379210490921574   0.024487450058081492   0.008268734906071724
0.007379210490921574   0.024487450058081492   0.008268734906071724
0.007379210490921574   0.024487450058081492   0.008268734906071724
0.007379210490921574   0.024487450058081492   0.008268734906071724
-0.2728673687071057   -0.02474708169378128   -0.007519330438231438
-0.2728673687071057   -0.02474708169378128   -0.007519330438231438
-0.2728673687071057   -0.02474708169378128   -0.007519330438231438
-0.2728673687071057   -0.02474708169378128   -0.007519330438231438
-0.2873702185760481   -0.041445833990429184   -0.006868475344362023
-0.2873702185760481   -0.041445833990429184   -0.006868475344362023
-0.2873702185760481   -0.041445833990429184   -0.006868475344362023
-0.2873702185760481   -0.041445833990429184   -0.006868475344362023
-0.0024719471212817897   0.0273927206080426   0.009324669594538895
-0.0024719471212817897   0.0273927206080426   0.009324669594538895
-0.0024719471212817897   0.0273927206080426   0.009324669594538895
-0.0024719471212817897   0.0273927206080426   0.009324669594538895
-0.13863414789064657   -0.0022601753216296254   -0.0024706676417280823
-0.13863414789064657   -0.0022601753216296254   -0.0024706676417280823
-0.13863414789064657   -0.0022601753216296254   -0.0024706676417280823
-0.13863414789064657   -0.0022601753216296254   -0.0024706676417280823
-0.004119953463938598   0.018561154832270513   0.009916203657026945
-0.004119953463938598   0.018561154832270513   0.009916203657026945
-0.004119953463938598   0.018561154832270513   0.009916203657026945
-0.004119953463938598   0.018561154832270513   0.009916203657026945
-0.28545642962060586   -0.03234848560187112   -0.006396878955705649
-0.28545642962060586   -0.03234848560187112   -0.006396878955705649
-0.28545642962060586   -0.03234848560187112   -0.006396878955705649
-0.28545642962060586   -0.03234848560187112   -0.006396878955705649
-0.29953252350571097   -0.046262443820748775   -0.004635124290202903
-0.29953252350571097   -0.046262443820748775   -0.004635124290202903
-0.29953252350571097   -0.046262443820748775   -0.004635124290202903
-0.29953252350571097   -0.046262443820748775   -0.004635124290202903
-0.014686816051927334   0.02047747775382134   0.010570727974414933
-0.014686816051927334   0.02047747775382134   0.010570727974414933
-0.014686816051927334   0.02047747775382134   0.010570727974414933
-0.014686816051927334   0.02047747775382134   0.010570727974414933
-0.15127359017583322   -0.008400161496050617   -0.005748144630634544
-0.15127359017583322   -0.008400161496050617   -0.005748144630634544
-0.15127359017583322   -0.008400161496050617   -0.005748144630634544
-0.15127359017583322   -0.008400161496050617   -0.005748144630634544
-0.24615888958560128   0.035910034216163074   0.011825830287483866
-0.24615888958560128   0.035910034216163074   0.011825830287483866
-0.24615888958560128   0.035910034216163074   0.011825830287483866
-0.24615888958560128   0.035910034216163074   0.011825830287483866
-0.5222420008736546   -0.023527953538635488   -0.014583049988011843
-0.5222420008736546   -0.023527953538635488   -0.014583049988011843
-0.5222420008736546   -0.023527953538635488   -0.014583049988011843
-0.5222420008736546   -0.023527953538635488   -0.014583049988011843
-0.533287688271019   -0.028619766770339894   -0.002597919855024229
-0.533287688271019   -0.028619766770339894   -0.002597919855024229
-0.533287688271019   -0.028619766770339894   -0.002597919855024229
-0.533287688271019   -0.028619766770339894   -0.002597919855024229
-0.2611982183289436   0.026365042890597754   -0.0002857031317957705
-0.2611982183289436   0.026365042890597754   -0.0002857031317957705
-0.2611982183289436   0.026365042890597754   -0.0002857031317957705
-0.2611982183289436   0.026365042890597754   -0.0002857031317957705
-0.38789276132149453   0.003686727389736036   0.0028569252095835135
-0.38789276132149453   0.003686727389736036   0.0028569252095835135
-0.38789276132149453   0.003686727389736036   0.0028569252095835135
-0.38789276132149453   0.003686727389736036   0.0028569252095835135
-0.25783451530528156   0.029641685641029043   0.013256169236082936
-0.25783451530528156   0.029641685641029043   0.013256169236082936
-0.25783451530528156   0.029641685641029043   0.013256169236082936
-0.25783451530528156   0.029641685641029043   0.013256169236082936
-0.5362364124241609   -0.03148143065025159   -0.01447987674082513
-0.5362364124241609   -0.03148143065025159   -0.01447987674082513
-0.5362364124241609   -0.03148143065025159   -0.01447987674082513
-0.5362364124241609   -0.03148143065025159   -0.01447987674082513
-0.548368370067594   -0.03553105446138233   -0.0023709648159443153
-0.548368370067594   -0.03553105446138233   -0.0023709648159443153
-0.548368370067594   -0.03553105446138233   -0.0023709648159443153
-0.548368370067594   -0.03553105446138233   -0.0023709648159443153
-0.27360437410273314   0.019360190175322728   0.0011547228564640737
-0.27360437410273314   0.019360190175322728   0.0011547228564640737
-0.27360437410273314   0.019360190175322728   0.0011547228564640737
-0.27360437410273314   0.019360190175322728   0.0011547228564640737
-0.3983776423580489   -0.0017949702221418395   0.0004105714468320906
-0.3983776423580489   -0.0017949702221418395   0.0004105714468320906
-0.3983776423580489   -0.0017949702221418395   0.0004105714468320906
-0.3983776423580489   -0.0017949702221418395   0.0004105714468320906
-0.2699135403183187   0.023689934035361085   0.015279147918497507
-0.2699135403183187   0.023689934035361085   0.015279147918497507
-0.2699135403183187   0.023689934035361085   0.015279147918497507
-0.2699135403183187   0.023689934035361085   0.015279147918497507
-0.5511998093165535   -0.03900140378596435   -0.013057811736166294
-0.5511998093165535   -0.03900140378596435   -0.013057811736166294
-0.5511998093165535   -0.03900140378596435   -0.013057811736166294
-0.5511998093165535   -0.03900140378596435   -0.013057811736166294
-0.5622367059962784   -0.04294797421173492   0.0011180059796453007
-0.5622367059962784   -0.04294797421173492   0.0011180059796453007
-0.5622367059962784   -0.04294797421173492   0.0011180059796453007
-0.5622367059962784   -0.04294797421173492   0.0011180059796453007
-0.28675305170466203   0.01098858095536688   0.0020112099389307074
-0.28675305170466203   0.01098858095536688   0.0020112099389307074
-0.28675305170466203   0.01098858095536688   0.0020112099389307074
-0.28675305170466203   0.01098858095536688   0.0020112099389307074
-0.4149446685713295   -0.009587379354722966   -0.002914405458525636
-0.4149446685713295   -0.009587379354722966   -0.002914405458525636
-0.4149446685713295   -0.009587379354722966   -0.002914405458525636
-0.4149446685713295   -0.009587379354722966   -0.002914405458525636
-0.5039089378663922   0.03712710660807603   0.01642720490158414
-0.5039089378663922   0.03712710660807603   0.01642720490158414
-0.5039089378663922   0.03712710660807603   0.01642720490158414
-0.5039089378663922   0.03712710660807603   0.01642720490158414
-0.7713984775908166   -0.03575715624229986   -0.013230246844971622
-0.7713984775908166   -0.03575715624229986   -0.013230246844971622
-0.7713984775908166   -0.03575715624229986   -0.013230246844971622
-0.7713984775908166   -0.03575715624229986   -0.013230246844971622
-0.7816301326008857   -0.01614883663157654   0.01388755072602172
-0.7816301326008857   -0.01614883663157654   0.01388755072602172
-0.7816301326008857   -0.01614883663157654   0.01388755072602172
-0.7816301326008857   -0.01614883663157654   0.01388755072602172
-0.5252785660585547   0.01609391396185221   -0.007265989524894337
-0.5252785660585547   0.01609391396185221   -0.007265989524894337
-0.5252785660585547   0.01609391396185221   -0.007265989524894337
-0.5252785660585547   0.01609391396185221   -0.007265989524894337
-0.6169668760825054   0.007579994079893043   0.014317706443839041
-0.6169668760825054   0.007579994079893043   0.014317706443839041
-0.6169668760825054   0.007579994079893043   0.014317706443839041
-0.6169668760825054   0.007579994079893043   0.014317706443839041
-0.5156577788751482   0.03804541336596959   0.01888644698801501
-0.5156577788751482   0.03804541336596959   0.01888644698801501
-0.5156577788751482   0.03804541336596959   0.01888644698801501
-0.5156577788751482   0.03804541336596959   0.01888644698801501
-0.7906847116645835   -0.037534127915983984   -0.01000005330804657
-0.7906847116645835   -0.037534127915983984   -0.01000005330804657
-0.7906847116645835   -0.037534127915983984   -0.01000005330804657
-0.7906847116645835   -0.037534127915983984   -0.01000005330804657
-0.800373796524706   -0.01976717207726289   0.01917096417901061
-0.800373796524706   -0.01976717207726289   0.01917096417901061
-0.800373796524706   -0.01976717207726289   0.01917096417901061
-0.800373796524706   -0.01976717207726289   0.01917096417901061
-0.5396647094560838   0.012071278164485971   -0.006454994384262017
-0.5396647094560838   0.012071278164485971   -0.006454994384262017
-0.5396647094560838   0.012071278164485971   -0.006454994384262017
-0.5396647094560838   0.012071278164485971   -0.006454994384262017
-0.6430469702857041   0.003768908408787658   0.009358645084456753
-0.6430469702857041   0.003768908408787658   0.009358645084456753
-0.6430469702857041   0.003768908408787658   0.009358645084456753
-0.6430469702857041   0.003768908408787658   0.009358645084456753
-0.5290343134542751   0.0353501537157289   0.02341811007353871
-0.5290343134542751   0.0353501537157289   0.02341811007353871
-0.5290343134542751   0.0353501537157289   0.02341811007353871
-0.5290343134542751   0.0353501537157289   0.02341811007353871
-0.8104504379043731   -0.0424922930063617   -0.008487121790211133
-0.8104504379043731   -0.0424922930063617   -0.008487121790211133
-0.8104504379043731   -0.0424922930063617   -0.008487121790211133
-0.8104504379043731   -0.0424922930063617   -0.008487121790211133
-0.8258076423426433   -0.035540111979778244   0.018974081554197803
-0.8258076423426433   -0.035540111979778244   0.018974081554197803
-0.8258076423426433   -0.035540111979778244   0.018974081554197803
-0.8258076423426433   -0.035540111979778244   0.018974081554197803
-0.5551255116608041   -0.000192770922412544   -0.006081225632305846
-0.5551255116608041   -0.000192770922412544   -0.006081225632305846
-0.5551255116608041   -0.000192770922412544   -0.006081225632305846
-0.5551255116608041   -0.000192770922412544   -0.006081225632305846
-0.6502452578365742   -0.0018064384558671154   0.007800676521212482
-0.6502452578365742   -0.0018064384558671154   0.007800676521212482
-0.6502452578365742   -0.0018064384558671154   0.007800676521212482
-0.6502452578365742   -0.0018064384558671154   0.007800676521212482
0.4434845700357756   0.02487349455220335   -0.020646693316253007
0.4434845700357756   0.02487349455220335   -0.020646693316253007
0.4434845700357756   0.02487349455220335   -0.020646693316253007
0.4434845700357756   0.02487349455220335   -0.020646693316253007
0.21035699042234288   0.003727085801398841   0.007754579899747961
0.21035699042234288   0.003727085801398841   0.007754579899747961
0.21035699042234288   0.003727085801398841   0.007754579899747961
0.21035699042234288   0.003727085801398841   0.007754579899747961
0.18747647240746962   -0.03554531545417681   -0.019679827969505768
0.18747647240746962   -0.03554531545417681   -0.019679827969505768
0.18747647240746962   -0.03554531545417681   -0.019679827969505768
0.18747647240746962   -0.03554531545417681   -0.019679827969505768
0.4341787844483499   0.040497392679519725   0.009606357215902413
0.4341787844483499   0.040497392679519725   0.009606357215902413
0.4341787844483499   0.040497392679519725   0.009606357215902413
0.4341787844483499   0.040497392679519725   0.009606357215902413
0.30240554495259936   0.004069775925496823   -0.008955669507998526
0.30240554495259936   0.004069775925496823   -0.008955669507998526
0.30240554495259936   0.004069775925496823   -0.008955669507998526
0.30240554495259936   0.004069775925496823   -0.008955669507998526
0.42254363358908525   0.011491401246556052   -0.01956340564745711
0.42254363358908525   0.011491401246556052   -0.01956340564745711
0.42254363358908525   0.011491401246556052   -0.01956340564745711
0.42254363358908525   0.011491401246556052   -0.01956340564745711
0.1988862394629084   -0.006764707825039233   0.008588399678549147
0.1988862394629084   -0.006764707825039233   0.008588399678549147
0.1988862394629084   -0.006764707825039233   0.008588399678549147
0.1988862394629084   -0.006764707825039233   0.008588399678549147
0.17681077671881093   -0.038968495783410884   -0.01682003868993
0.17681077671881093   -0.038968495783410884   -0.01682003868993
0.17681077671881093   -0.038968495783410884   -0.01682003868993
0.17681077671881093   -0.038968495783410884   -0.01682003868993
0.4175883326607861   0.03558781514911835   0.012700721263718882
0.4175883326607861   0.03558781514911835   0.012700721263718882
0.4175883326607861   0.03558781514911835   0.012700721263718882
0.4175883326607861   0.03558781514911835   0.012700721263718882
0.29302159957733304   -0.0019098464570757312   -0.012434073906453257
0.29302159957733304   -0.0019098464570757312   -0.012434073906453257
0.29302159957733304   -0.0019098464570757312   -0.012434073906453257
0.29302159957733304   -0.0019098464570757312   -0.012434073906453257
0.40621182412457735   0.007130766818409018   -0.015724773086612187
0.40621182412457735   0.007130766818409018   -0.015724773086612187
0.40621182412457735   0.007130766818409018   -0.015724773086612187
0.40621182412457735   0.007130766818409018   -0.015724773086612187
0.18789294428352427   -0.010805788424194114   0.010428091774418443
0.18789294428352427   -0.010805788424194114   0.010428091774418443
0.18789294428352427   -0.010805788424194114   0.010428091774418443
0.18789294428352427   -0.010805788424194114   0.010428091774418443
0.16722098923974016   -0.04093271159665622   -0.014015309437039537
0.16722098923974016   -0.04093271159665622   -0.014015309437039537
0.16722098923974016   -0.04093271159665622   -0.014015309437039537
0.16722098923974016   -0.04093271159665622   -0.014015309437039537
0.3988593173184843   0.03037715151487943   0.01514402214649149
0.3988593173184843   0.03037715151487943   0.01514402214649149
0.3988593173184843   0.03037715151487943   0.01514402214649149
0.3988593173184843   0.03037715151487943   0.01514402214649149
0.2739711427461551   -0.006377548477214334   -0.01766751942540908
0.2739711427461551   -0.006377548477214334   -0.01766751942540908
0.2739711427461551   -0.006377548477214334   -0.01766751942540908
0.2739711427461551   -0.006377548477214334   -0.01766751942540908
0.21408375635886956   0.031137336226812026   -0.0010218408430280124
0.21408375635886956   0.031137336226812026   -0.0010218408430280124
0.21408375635886956   0.031137336226812026   -0.0010218408430280124
0.21408375635886956   0.031137336226812026   -0.0010218408430280124
-0.014517344868821561   -0.003391808716453321   -0.00024989721749056853
-0.014517344868821561   -0.003391808716453321   -0.00024989721749056853
-0.014517344868821561   -0.003391808716453321   -0.00024989721749056853
-0.014517344868821561   -0.003391808716453321   -0.00024989721749056853
-0.03063938348058116   -0.026756751444948712   -0.01258704133923377
-0.03063938348058116   -0.026756751444948712   -0.01258704133923377
-0.03063938348058116   -0.026756751444948712   -0.01258704133923377
-0.03063938348058116   -0.026756751444948712   -0.01258704133923377
0.20870894491002848   0.036881387876754164   0.014055831212356146
0.20870894491002848   0.036881387876754164   0.014055831212356146
0.20870894491002848   0.036881387876754164   0.014055831212356146
0.20870894491002848   0.036881387876754164   0.014055831212356146
0.09294682878672916   0.00903576363222875   0.0006998392397643593
0.09294682878672916   0.00903576363222875   0.0006998392397643593
0.09294682878672916   0.00903576363222875   0.0006998392397643593
0.09294682878672916   0.00903576363222875   0.0006998392397643593
0.20321834528078558   0.02269087230312584   0.0007933486397722718
0.20321834528078558   0.02269087230312584   0.0007933486397722718
0.20321834528078558   0.02269087230312584   0.0007933486397722718
0.20321834528078558   0.02269087230312584   0.0007933486397722718
-0.02505740873515274   -0.012474860755134487   0.0010409416980941212
-0.02505740873515274   -0.012474860755134487   0.0010409416980941212
-0.02505740873515274   -0.012474860755134487   0.0010409416980941212
-0.02505740873515274   -0.012474860755134487   0.0010409416980941212
-0.04068058289782972   -0.03321920404278905   -0.010439442490937022
-0.04068058289782972   -0.03321920404278905   -0.010439442490937022
-0.04068058289782972   -0.03321920404278905   -0.010439442490937022
-0.04068058289782972   -0.03321920404278905   -0.010439442490937022
0.19686257752421887   0.0291115505815652   0.015358918972132124
0.19686257752421887   0.0291115505815652   0.015358918972132124
0.19686257752421887   0.0291115505815652   0.015358918972132124
0.19686257752421887   0.0291115505815652   0.015358918972132124
0.08052370694057251   0.0013363845723117149   -0.00316018573231556
0.08052370694057251   0.0013363845723117149   -0.00316018573231556
0.08052370694057251   0.0013363845723117149   -0.00316018573231556
0.08052370694057251   0.0013363845723117149   -0.00316018573231556
0.1915571584786735   0.015754089663244486   0.0021892846627274577
0.1915571584786735   0.015754089663244486   0.0021892846627274577
0.1915571584786735   0.015754089663244486   0.0021892846627274577
0.1915571584786735   0.015754089663244486   0.0021892846627274577
-0.035457845216197506   -0.019944424488381247   0.0023994663628162404
-0.035457845216197506   -0.019944424488381247   0.0023994663628162404
-0.035457845216197506   -0.019944424488381247   0.0023994663628162404
-0.035457845216197506   -0.019944424488381247   0.0023994663628162404
-0.050583524623119505   -0.038593547723364124   -0.008422818835260592
-0.050583524623119505   -0.038593547723364124   -0.008422818835260592
-0.050583524623119505   -0.038593547723364124   -0.008422818835260592
-0.050583524623119505   -0.038593547723364124   -0.008422818835260592
0.18592423197219618   0.02197723802632635   0.016590954602256923
0.18592423197219618   0.02197723802632635   0.016590954602256923
0.18592423197219618   0.02197723802632635   0.016590954602256923
0.18592423197219618   0.02197723802632635   0.016590954602256923
0.07106968752797477   -0.004433678919733446   -0.006353828768287235
0.07106968752797477   -0.004433678919733446   -0.006353828768287235
0.07106968752797477   -0.004433678919733446   -0.006353828768287235
0.07106968752797477   -0.004433678919733446   -0.006353828768287235
-0.005406798001739346   0.03675016862995142   0.0051608597715148115
-0.005406798001739346   0.03675016862995142   0.0051608597715148115
-0.005406798001739346   0.03675016862995142   0.0051608597715148115
-0.005406798001739346   0.03675016862995142   0.0051608597715148115
-0.2346373841073798   -0.010515051928828685   -0.007778304167237531
-0.2346373841073798   -0.010515051928828685   -0.007778304167237531
-0.2346373841073798   -0.010515051928828685   -0.007778304167237531
-0.2346373841073798   -0.010515051928828685   -0.007778304167237531
-0.24502164775718788   -0.01889453222423361   -0.006102304040410903
-0.24502164775718788   -0.01889453222423361   -0.006102304040410903
-0.24502164775718788   -0.01889453222423361   -0.006102304040410903
-0.24502164775718788   -0.01889453222423361   -0.006102304040410903
-0.015581380207273787   0.02977547177020476   0.006170751812150602
-0.015581380207273787   0.02977547177020476   0.006170751812150602
-0.015581380207273787   0.02977547177020476   0.006170751812150602
-0.015581380207273787   0.02977547177020476   0.006170751812150602
-0.12486291433335565   0.009325711803540904   0.0024423719529040825
-0.12486291433335565   0.009325711803540904   0.0024423719529040825
-0.12486291433335565   0.009325711803540904   0.0024423719529040825
-0.12486291433335565   0.009325711803540904   0.0024423719529040825
-0.015392146295140713   0.029691922920718462   0.007200470222302283
-0.015392146295140713   0.029691922920718462   0.007200470222302283
-0.015392146295140713   0.029691922920718462   0.007200470222302283
-0.015392146295140713   0.029691922920718462   0.007200470222302283
-0.2450198984396353   -0.01862000014506169   -0.006368089531820116
-0.2450198984396353   -0.01862000014506169   -0.006368089531820116
-0.2450198984396353   -0.01862000014506169   -0.006368089531820116
-0.2450198984396353   -0.01862000014506169   -0.006368089531820116
-0.25530872802567345   -0.0258866736295638   -0.004235520689101485
-0.25530872802567345   -0.0258866736295638   -0.004235520689101485
-0.25530872802567345   -0.0258866736295638   -0.004235520689101485
-0.25530872802567345   -0.0258866736295638   -0.004235520689101485
-0.026055178597979865   0.02177667924080619   0.007691695724717024
-0.026055178597979865   0.02177667924080619   0.007691695724717024
-0.026055178597979865   0.02177667924080619   0.007691695724717024
-0.026055178597979865   0.02177667924080619   0.007691695724717024
-0.13525618326209804   0.002400117639552342   -0.0006776308522079954
-0.13525618326209804   0.002400117639552342   -0.0006776308522079954
-0.13525618326209804   0.002400117639552342   -0.0006776308522079954
-0.13525618326209804   0.002400117639552342   -0.0006776308522079954
-0.025655734060253024   0.022653457360143375   0.00881214029401401
-0.025655734060253024   0.022653457360143375   0.00881214029401401
-0.025655734060253024   0.022653457360143375   0.00881214029401401
-0.025655734060253024   0.022653457360143375   0.00881214029401401
-0.25565720190354446   -0.02671248108904524   -0.00515208261897547
-0.25565720190354446   -0.02671248108904524   -0.00515208261897547
-0.25565720190354446   -0.02671248108904524   -0.00515208261897547
-0.25565720190354446   -0.02671248108904524   -0.00515208261897547
-0.26546627967231073   -0.032269157223204045   -0.002382983290313217
-0.26546627967231073   -0.032269157223204045   -0.002382983290313217
-0.26546627967231073   -0.032269157223204045   -0.002382983290313217
-0.26546627967231073   -0.032269157223204045   -0.002382983290313217
-0.036577583718876205   0.0140407786688625   0.00897255929372925
-0.036577583718876205   0.0140407786688625   0.00897255929372925
-0.036577583718876205   0.0140407786688625   0.00897255929372925
-0.036577583718876205   0.0140407786688625   0.00897255929372925
-0.14613181272592635   -0.004580131380781172   -0.004157059361299823
-0.14613181272592635   -0.004580131380781172   -0.004157059361299823
-0.14613181272592635   -0.004580131380781172   -0.004157059361299823
-0.14613181272592635   -0.004580131380781172   -0.004157059361299823
-0.22038801748974696   0.041958457111808574   0.010995019880285516
-0.22038801748974696   0.041958457111808574   0.010995019880285516
-0.22038801748974696   0.041958457111808574   0.010995019880285516
-0.22038801748974696   0.041958457111808574   0.010995019880285516
-0.4501090750282316   -0.017818805059487214   -0.01394550172151773
-0.4501090750282316   -0.017818805059487214   -0.01394550172151773
-0.4501090750282316   -0.017818805059487214   -0.01394550172151773
-0.4501090750282316   -0.017818805059487214   -0.01394550172151773
-0.45576733368335814   -0.012300150752469902   0.0009574440072805494
-0.45576733368335814   -0.012300150752469902   0.0009574440072805494
-0.45576733368335814   -0.012300150752469902   0.0009574440072805494
-0.45576733368335814   -0.012300150752469902   0.0009574440072805494
-0.23606925045380084   0.0214390144192054   -0.0016738641669149304
-0.23606925045380084   0.0214390144192054   -0.0016738641669149304
-0.23606925045380084   0.0214390144192054   -0.0016738641669149304
-0.23606925045380084   0.0214390144192054   -0.0016738641669149304
-0.338351198784027   0.008729048353933733   0.004131463866368323
-0.338351198784027   0.008729048353933733   0.004131463866368323
-0.338351198784027   0.008729048353933733   0.004131463866368323
-0.338351198784027   0.008729048353933733   0.004131463866368323
-0.2303954819978734   0.03517460774129708   0.012959384790630694
-0.2303954819978734   0.03517460774129708   0.012959384790630694
-0.2303954819978734   0.03517460774129708   0.012959384790630694
-0.2303954819978734   0.03517460774129708   0.012959384790630694
-0.46139834292876625   -0.02599298486404221   -0.013504768108187598
-0.46139834292876625   -0.02599298486404221   -0.013504768108187598
-0.46139834292876625   -0.02599298486404221   -0.013504768108187598
-0.46139834292876625   -0.02599298486404221   -0.013504768108187598
-0.4677522116902239   -0.019372575006526796   0.0016387345347072362
-0.4677522116902239   -0.019372575006526796   0.0016387345347072362
-0.4677522116902239   -0.019372575006526796   0.0016387345347072362
-0.4677522116902239   -0.019372575006526796   0.0016387345347072362
-0.2465057736720525   0.014028201665610113   -0.0001356242161690037
-0.2465057736720525   0.014028201665610113   -0.0001356242161690037
-0.2465057736720525   0.014028201665610113   -0.0001356242161690037
-0.2465057736720525   0.014028201665610113   -0.0001356242161690037
-0.34707402079907973   0.002588494800609867   0.0012357553316279628
-0.34707402079907973   0.002588494800609867   0.0012357553316279628
-0.34707402079907973   0.002588494800609867   0.0012357553316279628
-0.34707402079907973   0.002588494800609867   0.0012357553316279628
-0.24058970337066532   0.028688971284765427   0.014783957671609765
-0.24058970337066532   0.028688971284765427   0.014783957671609765
-0.24058970337066532   0.028688971284765427   0.014783957671609765
-0.24058970337066532   0.028688971284765427   0.014783957671609765
-0.47336781344568307   -0.03373287607975439   -0.012078973169361022
-0.47336781344568307   -0.03373287607975439   -0.012078973169361022
-0.47336781344568307   -0.03373287607975439   -0.012078973169361022
-0.47336781344568307   -0.03373287607975439   -0.012078973169361022
-0.47860386365067736   -0.02701197061539784   0.0038592640311224356
-0.47860386365067736   -0.02701197061539784   0.0038592640311224356
-0.47860386365067736   -0.02701197061539784   0.0038592640311224356
-0.47860386365067736   -0.02701197061539784   0.0038592640311224356
-0.2572378084608991   0.005513269380150246   0.000976946163392705
-0.2572378084608991   0.005513269380150246   0.000976946163392705
-0.2572378084608991   0.005513269380150246   0.000976946163392705
-0.2572378084608991   0.005513269380150246   0.000976946163392705
-0.3605351179845992   -0.005190936413658906   -0.0024715069656599913
-0.3605351179845992   -0.005190936413658906   -0.0024715069656599913
-0.3605351179845992   -0.005190936413658906   -0.0024715069656599913
-0.3605351179845992   -0.005190936413658906   -0.0024715069656599913
-0.43313481254133857   0.03763585605606842   0.015471149597391737
-0.43313481254133857   0.03763585605606842   0.015471149597391737
-0.43313481254133857   0.03763585605606842   0.015471149597391737
-0.43313481254133857   0.03763585605606842   0.015471149597391737
-0.65579687654341   -0.03036014837798416   -0.01515047413742791
-0.65579687654341   -0.03036014837798416   -0.01515047413742791
-0.65579687654341   -0.03036014837798416   -0.01515047413742791
-0.65579687654341   -0.03036014837798416   -0.01515047413742791
-0.6628294111144366   -0.007120893338117162   0.014210819031140687
-0.6628294111144366   -0.007120893338117162   0.014210819031140687
-0.6628294111144366   -0.007120893338117162   0.014210819031140687
-0.6628294111144366   -0.007120893338117162   0.014210819031140687
-0.4530290019163253   0.011095565147678219   -0.00874661305770319
-0.4530290019163253   0.011095565147678219   -0.00874661305770319
-0.4530290019163253   0.011095565147678219   -0.00874661305770319
-0.4530290019163253   0.011095565147678219   -0.00874661305770319
-0.5267616161358857   0.00830614401800206   0.013014011253242856
-0.5267616161358857   0.00830614401800206   0.013014011253242856
-0.5267616161358857   0.00830614401800206   0.013014011253242856
-0.5267616161358857   0.00830614401800206   0.013014011253242856
-0.4423135145513001   0.03777116662608487   0.01815522228901434
-0.4423135145513001   0.03777116662608487   0.01815522228901434
-0.4423135145513001   0.03777116662608487   0.01815522228901434
-0.4423135145513001   0.03777116662608487   0.01815522228901434
-0.6733738366946698   -0.03362543303173082   -0.012006769176403823
-0.6733738366946698   -0.03362543303173082   -0.012006769176403823
-0.6733738366946698   -0.03362543303173082   -0.012006769176403823
-0.6733738366946698   -0.03362543303173082   -0.012006769176403823
-0.6785422804988289   -0.010860609859951603   0.01776313653631046
-0.6785422804988289   -0.010860609859951603   0.01776313653631046
-0.6785422804988289   -0.010860609859951603   0.01776313653631046
-0.6785422804988289   -0.010860609859951603   0.01776313653631046
-0.4642941653185632   0.007034772499852099   -0.007478381113368123
-0.4642941653185632   0.007034772499852099   -0.007478381113368123
-0.4642941653185632   0.007034772499852099   -0.007478381113368123
-0.4642941653185632   0.007034772499852099   -0.007478381113368123
-0.5489597382440188   0.004151654835265001   0.008051400207696822
-0.5489597382440188   0.004151654835265001   0.008051400207696822
-0.5489597382440188   0.004151654835265001   0.008051400207696822
-0.5489597382440188   0.004151654835265001   0.008051400207696822
-0.45292892349070757   0.03498829528297169   0.021394305242790304
-0.45292892349070757   0.03498829528297169   0.021394305242790304
-0.45292892349070757   0.03498829528297169   0.021394305242790304
-0.45292892349070757   0.03498829528297169   0.021394305242790304
-0.6896145497619354   -0.03852116007831895   -0.009937659560851114
-0.6896145497619354   -0.03852116007831895   -0.009937659560851114
-0.6896145497619354   -0.03852116007831895   -0.009937659560851114
-0.6896145497619354   -0.03852116007831895   -0.009937659560851114
-0.6992870798538535   -0.02433337265659523   0.017377333889845515
-0.6992870798538535   -0.02433337265659523   0.017377333889845515
-0.6992870798538535   -0.02433337265659523   0.017377333889845515
-0.6992870798538535   -0.02433337265659523   0.017377333889845515
-0.4762134195783352   -0.004415805868853054   -0.006784680353711173
-0.4762134195783352   -0.004415805868853054   -0.006784680353711173
-0.4762134195783352   -0.004415805868853054   -0.006784680353711173
-0.4762134195783352   -0.004415805868853054   -0.006784680353711173
-0.5543569336860873   -0.001077500789484015   0.0064534806108814124
-0.5543569336860873   -0.001077500789484015   0.0064534806108814124
-0.5543569336860873   -0.001077500789484015   0.0064534806108814124
-0.5543569336860873   -0.001077500789484015   0.0064534806108814124
0.3078654752244316   0.017631989738447915   -0.020229385217095323
0.3078654752244316   0.017631989738447915   -0.020229385217095323
0.3078654752244316   0.017631989738447915   -0.020229385217095323
0.3078654752244316   0.017631989738447915   -0.020229385217095323
0.1314738035243508   0.007909282338790128   0.008581751298664744
0.1314738035243508   0.007909282338790128   0.008581751298664744
0.1314738035243508   0.007909282338790128   0.008581751298664744
0.1314738035243508   0.007909282338790128   0.008581751298664744
0.11069955754933465   -0.02990019678176094   -0.01890236319148564
0.11069955754933465   -0.02990019678176094   -0.01890236319148564
0.11069955754933465   -0.02990019678176094   -0.01890236319148564
0.11069955754933465   -0.02990019678176094   -0.01890236319148564
0.30092057874791917   0.03463482711832644   0.010438670438186085
0.30092057874791917   0.03463482711832644   0.010438670438186085
0.30092057874791917   0.03463482711832644   0.010438670438186085
0.30092057874791917   0.03463482711832644   0.010438670438186085
0.20148481043961897   0.004440239768151263   -0.005495636197470673
0.20148481043961897   0.004440239768151263   -0.005495636197470673
0.20148481043961897   0.004440239768151263   -0.005495636197470673
0.20148481043961897   0.004440239768151263   -0.005495636197470673
0.28928593694302196   0.005814674534734589   -0.018914386002710615
0.28928593694302196   0.005814674534734589   -0.018914386002710615
0.28928593694302196   0.005814674534734589   -0.018914386002710615
0.28928593694302196   0.005814674534734589   -0.018914386002710615
0.12211478379520123   -0.0012994597571972626   0.009573031013285459
0.12211478379520123   -0.0012994597571972626   0.009573031013285459
0.12211478379520123   -0.0012994597571972626   0.009573031013285459
0.12211478379520123   -0.0012994597571972626   0.009573031013285459
0.1018783998927174   -0.03331912603264106   -0.01612405187700942
0.1018783998927174   -0.03331912603264106   -0.01612405187700942
0.1018783998927174   -0.03331912603264106   -0.01612405187700942
0.1018783998927174   -0.03331912603264106   -0.01612405187700942
0.2863895586680904   0.0297778409843876   0.013511727011091084
0.2863895586680904   0.0297778409843876   0.013511727011091084
0.2863895586680904   0.0297778409843876   0.013511727011091084
0.2863895586680904   0.0297778409843876   0.013511727011091084
0.19248988931130376   -0.0012306882606298586   -0.00882375403514686
0.19248988931130376   -0.0012306882606298586   -0.00882375403514686
0.19248988931130376   -0.0012306882606298586   -0.00882375403514686
0.19248988931130376   -0.0012306882606298586   -0.00882375403514686
0.27493147583889355   0.0014301085849120349   -0.015430954735420135
0.27493147583889355   0.0014301085849120349   -0.015430954735420135
0.27493147583889355   0.0014301085849120349   -0.015430954735420135
0.27493147583889355   0.0014301085849120349   -0.015430954735420135
0.11300656223525578   -0.005301314119824221   0.011498947922866657
0.11300656223525578   -0.005301314119824221   0.011498947922866657
0.11300656223525578   -0.005301314119824221   0.011498947922866657
0.11300656223525578   -0.005301314119824221   0.011498947922866657
0.09401093274974576   -0.03631120874756903   -0.01344939459701224
0.09401093274974576   -0.03631120874756903   -0.01344939459701224
0.09401093274974576   -0.03631120874756903   -0.01344939459701224
0.09401093274974576   -0.03631120874756903   -0.01344939459701224
0.2693951789302962   0.023470896134443246   0.015468259782897524
0.2693951789302962   0.023470896134443246   0.015468259782897524
0.2693951789302962   0.023470896134443246   0.015468259782897524
0.2693951789302962   0.023470896134443246   0.015468259782897524
0.17690669276098314   -0.005839196649444552   -0.013455951898959777
0.17690669276098314   -0.005839196649444552   -0.013455951898959777
0.17690669276098314   -0.005839196649444552   -0.013455951898959777
0.17690669276098314   -0.005839196649444552   -0.013455951898959777
0.13255605320645833   0.025377755626415668   -0.0034754735784254926
0.13255605320645833   0.025377755626415668   -0.0034754735784254926
0.13255605320645833   0.025377755626415668   -0.0034754735784254926
0.13255605320645833   0.025377755626415668   -0.0034754735784254926
-0.04008804912488466   0.0018832326567631424   0.0010598833098529937
-0.04008804912488466   0.0018832326567631424   0.0010598833098529937
-0.04008804912488466   0.0018832326567631424   0.0010598833098529937
-0.04008804912488466   0.0018832326567631424   0.0010598833098529937
-0.05429225965402035   -0.020870128088307006   -0.011700544048900871
-0.05429225965402035   -0.020870128088307006   -0.011700544048900871
-0.05429225965402035   -0.020870128088307006   -0.011700544048900871
-0.05429225965402035   -0.020870128088307006   -0.011700544048900871
0.12907127027021117   0.03044717954254925   0.012608824088588641
0.12907127027021117   0.03044717954254925   0.012608824088588641
0.12907127027021117   0.03044717954254925   0.012608824088588641
0.12907127027021117   0.03044717954254925   0.012608824088588641
0.04090028496404199   0.008756403257964264   0.0015840451003237101
0.04090028496404199   0.008756403257964264   0.0015840451003237101
0.04090028496404199   0.008756403257964264   0.0015840451003237101
0.04090028496404199   0.008756403257964264   0.0015840451003237101
0.12342577893866251   0.01664941486223774   -0.0018208678888446375
0.12342577893866251   0.01664941486223774   -0.0018208678888446375
0.12342577893866251   0.01664941486223774   -0.0018208678888446375
0.12342577893866251   0.01664941486223774   -0.0018208678888446375
-0.048735518361138264   -0.007161113446667436   0.002374147773869973
-0.048735518361138264   -0.007161113446667436   0.002374147773869973
-0.048735518361138264   -0.007161113446667436   0.002374147773869973
-0.048735518361138264   -0.007161113446667436   0.002374147773869973
-0.0624903687930821   -0.02773016469668165   -0.009496711101801183
-0.0624903687930821   -0.02773016469668165   -0.009496711101801183
-0.0624903687930821   -0.02773016469668165   -0.009496711101801183
-0.0624903687930821   -0.02773016469668165   -0.009496711101801183
0.11900742516879964   0.022492081026097684   0.013709867444664134
0.11900742516879964   0.022492081026097684   0.013709867444664134
0.11900742516879964   0.022492081026097684   0.013709867444664134
0.11900742516879964   0.022492081026097684   0.013709867444664134
0.030752606099351626   0.0009451441462806588   -0.002167492564548401
0.030752606099351626   0.0009451441462806588   -0.002167492564548401
0.030752606099351626   0.0009451441462806588   -0.002167492564548401
0.030752606099351626   0.0009451441462806588   -0.002167492564548401
0.11354057049539948   0.009290750335105588   -0.00042307523134657186
0.11354057049539948   0.009290750335105588   -0.00042307523134657186
0.11354057049539948   0.009290750335105588   -0.00042307523134657186
0.11354057049539948   0.009290750335105588   -0.00042307523134657186
-0.057241866931104696   -0.014747186817109768   0.003762820328515877
-0.057241866931104696   -0.014747186817109768   0.003762820328515877
-0.057241866931104696   -0.014747186817109768   0.003762820328515877
-0.057241866931104696   -0.014747186817109768   0.003762820328515877
-0.07057439389110162   -0.03413298933508569   -0.00746155634150547
-0.07057439389110162   -0.03413298933508569   -0.00746155634150547
-0.07057439389110162   -0.03413298933508569   -0.00746155634150547
-0.07057439389110162   -0.03413298933508569   -0.00746155634150547
0.10992614105289872   0.014893593050687992   0.014921845120497688
0.10992614105289872   0.014893593050687992   0.014921845120497688
0.10992614105289872   0.014893593050687992   0.014921845120497688
0.10992614105289872   0.014893593050687992   0.014921845120497688
0.022663207029750367   -0.005480834224606801   -0.005463603113208671
0.022663207029750367   -0.005480834224606801   -0.005463603113208671
0.022663207029750367   -0.005480834224606801   -0.005463603113208671
0.022663207029750367   -0.005480834224606801   -0.005463603113208671
-0.03372407501310321   0.03181322335714884   0.002949763168373533
-0.03372407501310321   0.03181322335714884   0.002949763168373533
-0.03372407501310321   0.03181322335714884   0.002949763168373533
-0.03372407501310321   0.03181322335714884   0.002949763168373533
-0.20904843644738935   -0.005594234019899835   -0.00639041725703085
-0.20904843644738935   -0.005594234019899835   -0.00639041725703085
-0.20904843644738935   -0.005594234019899835   -0.00639041725703085
-0.20904843644738935   -0.005594234019899835   -0.00639041725703085
-0.2171595885292128   -0.012719028322688335   -0.004723540330375871
-0.2171595885292128   -0.012719028322688335   -0.004723540330375871
-0.2171595885292128   -0.012719028322688335   -0.004723540330375871
-0.2171595885292128   -0.012719028322688335   -0.004723540330375871
-0.042155987580422404   0.023200865952823363   0.004909822277957488
-0.042155987580422404   0.023200865952823363   0.004909822277957488
-0.042155987580422404   0.023200865952823363   0.004909822277957488
-0.042155987580422404   0.023200865952823363   0.004909822277957488
-0.125211499641713   0.009018263788174382   0.0025029166887259313
-0.125211499641713   0.009018263788174382   0.0025029166887259313
-0.125211499641713   0.009018263788174382   0.0025029166887259313
-0.125211499641713   0.009018263788174382   0.0025029166887259313
-0.0419187521835919   0.02427768337958413   0.005019181835350205
-0.0419187521835919   0.02427768337958413   0.005019181835350205
-0.0419187521835919   0.02427768337958413   0.005019181835350205
-0.0419187521835919   0.02427768337958413   0.005019181835350205
-0.21742632493260453   -0.01382534675600762   -0.004950903914015302
-0.21742632493260453   -0.01382534675600762   -0.004950903914015302
-0.21742632493260453   -0.01382534675600762   -0.004950903914015302
-0.21742632493260453   -0.01382534675600762   -0.004950903914015302
-0.2254463820845582   -0.020193518591470158   -0.002768089950086386
-0.2254463820845582   -0.020193518591470158   -0.002768089950086386
-0.2254463820845582   -0.020193518591470158   -0.002768089950086386
-0.2254463820845582   -0.020193518591470158   -0.002768089950086386
-0.0507611104947759   0.015015136380476109   0.006404279312571155
-0.0507611104947759   0.015015136380476109   0.006404279312571155
-0.0507611104947759   0.015015136380476109   0.006404279312571155
-0.0507611104947759   0.015015136380476109   0.006404279312571155
-0.13372927720826694   0.001722532682696256   -0.0007128868574919171
-0.13372927720826694   0.001722532682696256   -0.0007128868574919171
-0.13372927720826694   0.001722532682696256   -0.0007128868574919171
-0.13372927720826694   0.001722532682696256   -0.0007128868574919171
-0.050347410670653375   0.016731230536717025   0.006756684276944721
-0.050347410670653375   0.016731230536717025   0.006756684276944721
-0.050347410670653375   0.016731230536717025   0.006756684276944721
-0.050347410670653375   0.016731230536717025   0.006756684276944721
-0.22600153358998742   -0.02205106442901747   -0.003686301639685193
-0.22600153358998742   -0.02205106442901747   -0.003686301639685193
-0.22600153358998742   -0.02205106442901747   -0.003686301639685193
-0.22600153358998742   -0.02205106442901747   -0.003686301639685193
-0.23358568539431385   -0.027327510567536354   -0.0008607852128273774
-0.23358568539431385   -0.027327510567536354   -0.0008607852128273774
-0.23358568539431385   -0.027327510567536354   -0.0008607852128273774
-0.23358568539431385   -0.027327510567536354   -0.0008607852128273774
-0.05930006311518335   0.007063741456564205   0.00771336674643494
-0.05930006311518335   0.007063741456564205   0.00771336674643494
-0.05930006311518335   0.007063741456564205   0.00771336674643494
-0.05930006311518335   0.007063741456564205   0.00771336674643494
-0.1426048740077229   -0.00557847739588543   -0.004202821259450853
-0.1426048740077229   -0.00557847739588543   -0.004202821259450853
-0.1426048740077229   -0.00557847739588543   -0.004202821259450853
-0.1426048740077229   -0.00557847739588543   -0.004202821259450853
-0.19732270317709613   0.03738031055829211   0.009263704516243362
-0.19732270317709613   0.03738031055829211   0.009263704516243362
-0.19732270317709613   0.03738031055829211   0.009263704516243362
-0.19732270317709613   0.03738031055829211   0.009263704516243362
-0.37531394046201505   -0.01306954693559978   -0.012911284722952901
-0.37531394046201505   -0.01306954693559978   -0.012911284722952901
-0.37531394046201505   -0.01306954693559978   -0.012911284722952901
-0.37531394046201505   -0.01306954693559978   -0.012911284722952901
-0.3783405173720446   -0.0061313249653509455   0.002745705828547107
-0.3783405173720446   -0.0061313249653509455   0.002745705828547107
-0.3783405173720446   -0.0061313249653509455   0.002745705828547107
-0.3783405173720446   -0.0061313249653509455   0.002745705828547107
-0.21117401304868885   0.015151662102385312   -0.0026663533528337204
-0.21117401304868885   0.015151662102385312   -0.0026663533528337204
-0.21117401304868885   0.015151662102385312   -0.0026663533528337204
-0.21117401304868885   0.015151662102385312   -0.0026663533528337204
-0.2887874999894611   0.00840570012597805   0.003614319968145232
-0.2887874999894611   0.00840570012597805   0.003614319968145232
-0.2887874999894611   0.00840570012597805   0.003614319968145232
-0.2887874999894611   0.00840570012597805   0.003614319968145232
-0.20537132546275966   0.030177601322194852   0.01132114535700652
-0.20537132546275966   0.030177601322194852   0.01132114535700652
-0.20537132546275966   0.030177601322194852   0.01132114535700652
-0.20537132546275966   0.030177601322194852   0.01132114535700652
-0.38440668805263706   -0.021420747279823724   -0.012295725259945989
-0.38440668805263706   -0.021420747279823724   -0.012295725259945989
-0.38440668805263706   -0.021420747279823724   -0.012295725259945989
-0.38440668805263706   -0.021420747279823724   -0.012295725259945989
-0.38812035626279007   -0.013539275801812883   0.0036415710374535053
-0.38812035626279007   -0.013539275801812883   0.0036415710374535053
-0.38812035626279007   -0.013539275801812883   0.0036415710374535053
-0.38812035626279007   -0.013539275801812883   0.0036415710374535053
-0.21955193085125485   0.007601336142916963   -0.001090688517960646
-0.21955193085125485   0.007601336142916963   -0.001090688517960646
-0.21955193085125485   0.007601336142916963   -0.001090688517960646
-0.21955193085125485   0.007601336142916963   -0.001090688517960646
-0.2959101981651837   0.0018175117457919915   0.00039787308656973053
-0.2959101981651837   0.0018175117457919915   0.00039787308656973053
-0.2959101981651837   0.0018175117457919915   0.00039787308656973053
-0.2959101981651837   0.0018175117457919915   0.00039787308656973053
-0.2135383073006081   0.023303810715642678   0.013274954662549392
-0.2135383073006081   0.023303810715642678   0.013274954662549392
-0.2135383073006081   0.023303810715642678   0.013274954662549392
-0.2135383073006081   0.023303810715642678   0.013274954662549392
-0.39416226529293485   -0.029270035854036702   -0.0108372140610489
-0.39416226529293485   -0.029270035854036702   -0.0108372140610489
-0.39416226529293485   -0.029270035854036702   -0.0108372140610489
-0.39416226529293485   -0.029270035854036702   -0.0108372140610489
-0.39680891758776915   -0.021458818160695586   0.00568761758603353
-0.39680891758776915   -0.021458818160695586   0.00568761758603353
-0.39680891758776915   -0.021458818160695586   0.00568761758603353
-0.39680891758776915   -0.021458818160695586   0.00568761758603353
-0.2280801093075186   -0.0008071762075025773   0.00014676086111145917
-0.2280801093075186   -0.0008071762075025773   0.00014676086111145917
-0.2280801093075186   -0.0008071762075025773   0.00014676086111145917
-0.2280801093075186   -0.0008071762075025773   0.00014676086111145917
-0.3067369444889339   -0.005892564001264457   -0.0033604051906881236
-0.3067369444889339   -0.005892564001264457   -0.0033604051906881236
-0.3067369444889339   -0.005892564001264457   -0.0033604051906881236
-0.3067369444889339   -0.005892564001264457   -0.0033604051906881236
-0.3602782501297238   0.03467766311068539   0.014519956892218352
-0.3602782501297238   0.03467766311068539   0.014519956892218352
-0.3602782501297238   0.03467766311068539   0.014519956892218352
-0.3602782501297238   0.03467766311068539   0.014519956892218352
-0.5324623342569614   -0.02464189649373852   -0.016552259811048846
-0.5324623342569614   -0.02464189649373852   -0.016552259811048846
-0.5324623342569614   -0.02464189649373852   -0.016552259811048846
-0.5324623342569614   -0.02464189649373852   -0.016552259811048846
-0.5374194331016935   -0.0011601975339087522   0.014365004719730276
-0.5374194331016935   -0.0011601975339087522   0.014365004719730276
-0.5374194331016935   -0.0011601975339087522   0.014365004719730276
-0.5374194331016935   -0.0011601975339087522   0.014365004719730276
-0.3785507195304426   0.005423417683932633   -0.009860047612732122
-0.3785507195304426   0.005423417683932633   -0.009860047612732122
-0.3785507195304426   0.005423417683932633   -0.009860047612732122
-0.3785507195304426   0.005423417683932633   -0.009860047612732122
-0.4322311825621688   0.007888962588369589   0.011044921287750711
-0.4322311825621688   0.007888962588369589   0.011044921287750711
-0.4322311825621688   0.007888962588369589   0.011044921287750711
-0.4322311825621688   0.007888962588369589   0.011044921287750711
-0.36756371905163226   0.03336468235434062   0.01713369011091577
-0.36756371905163226   0.03336468235434062   0.01713369011091577
-0.36756371905163226   0.03336468235434062   0.01713369011091577
-0.36756371905163226   0.03336468235434062   0.01713369011091577
-0.5486346191459733   -0.02932964776978486   -0.013541475265788801
-0.5486346191459733   -0.02932964776978486   -0.013541475265788801
-0.5486346191459733   -0.02932964776978486   -0.013541475265788801
-0.5486346191459733   -0.02932964776978486   -0.013541475265788801
-0.5512691667858649   -0.00524656384228224   0.01808993864324666
-0.5512691667858649   -0.00524656384228224   0.01808993864324666
-0.5512691667858649   -0.00524656384228224   0.01808993864324666
-0.5512691667858649   -0.00524656384228224   0.01808993864324666
-0.38756083105991934   0.0012852713795217935   -0.008385350129533238
-0.38756083105991934   0.0012852713795217935   -0.008385350129533238
-0.38756083105991934   0.0012852713795217935   -0.008385350129533238
-0.38756083105991934   0.0012852713795217935   -0.008385350129533238
-0.4510975250836013   0.003209986001416809   0.005925123448231432
-0.4510975250836013   0.003209986001416809   0.005925123448231432
-0.4510975250836013   0.003209986001416809   0.005925123448231432
-0.4510975250836013   0.003209986001416809   0.005925123448231432
-0.3760646707549189   0.03021041015854492   0.02017031261645168
-0.3760646707549189   0.03021041015854492   0.02017031261645168
-0.3760646707549189   0.03021041015854492   0.02017031261645168
-0.3760646707549189   0.03021041015854492   0.02017031261645168
-0.5629286739415882   -0.03433504947202971   -0.011119111505621886
-0.5629286739415882   -0.03433504947202971   -0.011119111505621886
-0.5629286739415882   -0.03433504947202971   -0.011119111505621886
-0.5629286739415882   -0.03433504947202971   -0.011119111505621886
-0.5697960769845521   -0.01815557070552022   0.018099152869185283
-0.5697960769845521   -0.01815557070552022   0.018099152869185283
-0.5697960769845521   -0.01815557070552022   0.018099152869185283
-0.5697960769845521   -0.01815557070552022   0.018099152869185283
-0.39700462179919294   -0.009331702866911623   -0.007418018764875502
-0.39700462179919294   -0.009331702866911623   -0.007418018764875502
-0.39700462179919294   -0.009331702866911623   -0.007418018764875502
-0.39700462179919294   -0.009331702866911623   -0.007418018764875502
-0.4561746122955925   -0.0021769552518162427   0.0035382934238894423
-0.4561746122955925   -0.0021769552518162427   0.0035382934238894423
-0.4561746122955925   -0.0021769552518162427   0.0035382934238894423
-0.4561746122955925   -0.0021769552518162427   0.0035382934238894423
0.17302358048715197   0.010509738066761337   -0.01996574702428037
0.17302358048715197   0.010509738066761337   -0.01996574702428037
0.17302358048715197   0.010509738066761337   -0.01996574702428037
0.17302358048715197   0.010509738066761337   -0.01996574702428037
0.051412662298422764   0.011823157835062634   0.009459860208106642
0.051412662298422764   0.011823157835062634   0.009459860208106642
0.051412662298422764   0.011823157835062634   0.009459860208106642
0.051412662298422764   0.011823157835062634   0.009459860208106642
0.03288166711059728   -0.024587912278274962   -0.017636114907499077
0.03288166711059728   -0.024587912278274962   -0.017636114907499077
0.03288166711059728   -0.024587912278274962   -0.017636114907499077
0.03288166711059728   -0.024587912278274962   -0.017636114907499077
0.16850648345296704   0.028838175306734957   0.011377814508146731
0.16850648345296704   0.028838175306734957   0.011377814508146731
0.16850648345296704   0.028838175306734957   0.011377814508146731
0.16850648345296704   0.028838175306734957   0.011377814508146731
0.1002853372423201   0.004832904018707847   -0.0022851134168489088
0.1002853372423201   0.004832904018707847   -0.0022851134168489088
0.1002853372423201   0.004832904018707847   -0.0022851134168489088
0.1002853372423201   0.004832904018707847   -0.0022851134168489088
0.15680399064490683   5.373380416884635e-05   -0.018350208029589584
0.15680399064490683   5.373380416884635e-05   -0.018350208029589584
0.15680399064490683   5.373380416884635e-05   -0.018350208029589584
0.15680399064490683   5.373380416884635e-05   -0.018350208029589584
0.04421958569779232   0.0038319550034258514   0.010633610746775879
0.04421958569779232   0.0038319550034258514   0.010633610746775879
0.04421958569779232   0.0038319550034258514   0.010633610746775879
0.04421958569779232   0.0038319550034258514   0.010633610746775879
0.025898851704107943   -0.0280257276055478   -0.0150154089746034
0.025898851704107943   -0.0280257276055478   -0.0150154089746034
0.025898851704107943   -0.0280257276055478   -0.0150154089746034
0.025898851704107943   -0.0280257276055478   -0.0150154089746034
0.15595153765885814   0.024099357059394824   0.014668198110931775
0.15595153765885814   0.024099357059394824   0.014668198110931775
0.15595153765885814   0.024099357059394824   0.014668198110931775
0.15595153765885814   0.024099357059394824   0.014668198110931775
0.09162821847516196   -0.0005583913731510709   -0.005751029846209784
0.09162821847516196   -0.0005583913731510709   -0.005751029846209784
0.09162821847516196   -0.0005583913731510709   -0.005751029846209784
0.09162821847516196   -0.0005583913731510709   -0.005751029846209784
0.14430131531046375   -0.004365720336406812   -0.015117836235238965
0.14430131531046375   -0.004365720336406812   -0.015117836235238965
0.14430131531046375   -0.004365720336406812   -0.015117836235238965
0.14430131531046375   -0.004365720336406812   -0.015117836235238965
0.03705656561145338   -5.315865079761305e-05   0.01280059160737434
0.03705656561145338   -5.315865079761305e-05   0.01280059160737434
0.03705656561145338   -5.315865079761305e-05   0.01280059160737434
0.03705656561145338   -5.315865079761305e-05   0.01280059160737434
0.019666009595119847   -0.03207330171397264   -0.012523560123990309
0.019666009595119847   -0.03207330171397264   -0.012523560123990309
0.019666009595119847   -0.03207330171397264   -0.012523560123990309
0.019666009595119847   -0.03207330171397264   -0.012523560123990309
0.1403760203631228   0.016585715171353065   0.01632778138660012
0.1403760203631228   0.016585715171353065   0.01632778138660012
0.1403760203631228   0.016585715171353065   0.01632778138660012
0.1403760203631228   0.016585715171353065   0.01632778138660012
0.07939977617542576   -0.00531728305487628   -0.010035011836388361
0.07939977617542576   -0.00531728305487628   -0.010035011836388361
0.07939977617542576   -0.00531728305487628   -0.010035011836388361
0.07939977617542576   -0.00531728305487628   -0.010035011836388361
0.04972728741804498   0.01850462669302871   -0.005648483051748801
0.04972728741804498   0.01850462669302871   -0.005648483051748801
0.04972728741804498   0.01850462669302871   -0.005648483051748801
0.04972728741804498   0.01850462669302871   -0.005648483051748801
-0.06741887043531894   0.005675739967020674   0.0022231286615368726
-0.06741887043531894   0.005675739967020674   0.0022231286615368726
-0.06741887043531894   0.005675739967020674   0.0022231286615368726
-0.06741887043531894   0.005675739967020674   0.0022231286615368726
-0.07936743789425933   -0.015830057399101555   -0.010338652455194884
-0.07936743789425933   -0.015830057399101555   -0.010338652455194884
-0.07936743789425933   -0.015830057399101555   -0.010338652455194884
-0.07936743789425933   -0.015830057399101555   -0.010338652455194884
0.04811602038538405   0.022926532441394733   0.011021206746765657
0.04811602038538405   0.022926532441394733   0.011021206746765657
0.04811602038538405   0.022926532441394733   0.011021206746765657
0.04811602038538405   0.022926532441394733   0.011021206746765657
-0.01265771462106316   0.0074834039629871575   0.0019696326182429493
-0.01265771462106316   0.0074834039629871575   0.0019696326182429493
-0.01265771462106316   0.0074834039629871575   0.0019696326182429493
-0.01265771462106316   0.0074834039629871575   0.0019696326182429493
0.04245194918541169   0.009772522621276071   -0.004145139432977781
0.04245194918541169   0.009772522621276071   -0.004145139432977781
0.04245194918541169   0.009772522621276071   -0.004145139432977781
0.04245194918541169   0.009772522621276071   -0.004145139432977781
-0.07401893732328889   -0.002991618207984853   0.0035654112085406683
-0.07401893732328889   -0.002991618207984853   0.0035654112085406683
-0.07401893732328889   -0.002991618207984853   0.0035654112085406683
-0.07401893732328889   -0.002991618207984853   0.0035654112085406683
-0.08561001248844254   -0.022799047569515687   -0.008128337876160532
-0.08561001248844254   -0.022799047569515687   -0.008128337876160532
-0.08561001248844254   -0.022799047569515687   -0.008128337876160532
-0.08561001248844254   -0.022799047569515687   -0.008128337876160532
0.039926753122943005   0.015074764402419692   0.012023606111605118
0.039926753122943005   0.015074764402419692   0.012023606111605118
0.039926753122943005   0.015074764402419692   0.012023606111605118
0.039926753122943005   0.015074764402419692   0.012023606111605118
-0.02039292436580236   -7.537561622663128e-05   -0.0016571923787512522
-0.02039292436580236   -7.537561622663128e-05   -0.0016571923787512522
-0.02039292436580236   -7.537561622663128e-05   -0.0016571923787512522
-0.02039292436580236   -7.537561622663128e-05   -0.0016571923787512522
0.03442634357881611   0.002294296481538399   -0.002697973688148752
0.03442634357881611   0.002294296481538399   -0.002697973688148752
0.03442634357881611   0.002294296481538399   -0.002697973688148752
0.03442634357881611   0.002294296481538399   -0.002697973688148752
-0.08051873691032065   -0.010427713614636801   0.0049567060595709644
-0.08051873691032065   -0.010427713614636801   0.0049567060595709644
-0.08051873691032065   -0.010427713614636801   0.0049567060595709644
-0.08051873691032065   -0.010427713614636801   0.0049567060595709644
-0.09180216758512494   -0.029662914779989086   -0.0061323853948640344
-0.09180216758512494   -0.029662914779989086   -0.0061323853948640344
-0.09180216758512494   -0.029662914779989086   -0.0061323853948640344
-0.09180216758512494   -0.029662914779989086   -0.0061323853948640344
0.03275556635977408   0.007416582081758629   0.013434339903550063
0.03275556635977408   0.007416582081758629   0.013434339903550063
0.03275556635977408   0.007416582081758629   0.013434339903550063
0.03275556635977408   0.007416582081758629   0.013434339903550063
-0.027045334879873806   -0.006785738000478179   -0.005066188097226369
-0.027045334879873806   -0.006785738000478179   -0.005066188097226369
-0.027045334879873806   -0.006785738000478179   -0.005066188097226369
-0.027045334879873806   -0.006785738000478179   -0.005066188097226369
-0.06383338703323896   0.024910097035106573   0.0009161886038508166
-0.06383338703323896   0.024910097035106573   0.0009161886038508166
-0.06383338703323896   0.024910097035106573   0.0009161886038508166
-0.06383338703323896   0.024910097035106573   0.0009161886038508166
-0.1845492566887577   -0.002466002377049366   -0.005137716768049191
-0.1845492566887577   -0.002466002377049366   -0.005137716768049191
-0.1845492566887577   -0.002466002377049366   -0.005137716768049191
-0.1845492566887577   -0.002466002377049366   -0.005137716768049191
-0.1901898711491517   -0.008008173640830944   -0.003101492121569358
-0.1901898711491517   -0.008008173640830944   -0.003101492121569358
-0.1901898711491517   -0.008008173640830944   -0.003101492121569358
-0.1901898711491517   -0.008008173640830944   -0.003101492121569358
-0.0704088974359201   0.015111680974488607   0.0035123114629102264
-0.0704088974359201   0.015111680974488607   0.0035123114629102264
-0.0704088974359201   0.015111680974488607   0.0035123114629102264
-0.0704088974359201   0.015111680974488607   0.0035123114629102264
-0.1269362815084724   0.007217447173995441   0.0020222008169072277
-0.1269362815084724   0.007217447173995441   0.0020222008169072277
-0.1269362815084724   0.007217447173995441   0.0020222008169072277
-0.1269362815084724   0.007217447173995441   0.0020222008169072277
-0.07009200292912574   0.01722782618480459   0.002980638786566977
-0.07009200292912574   0.01722782618480459   0.002980638786566977
-0.07009200292912574   0.01722782618480459   0.002980638786566977
-0.07009200292912574   0.01722782618480459   0.002980638786566977
-0.19078490971023224   -0.01040246290542815   -0.0036823956623767817
-0.19078490971023224   -0.01040246290542815   -0.0036823956623767817
-0.19078490971023224   -0.01040246290542815   -0.0036823956623767817
-0.19078490971023224   -0.01040246290542815   -0.0036823956623767817
-0.19640893306822155   -0.015616411702827807   -0.0011056385305027484
-0.19640893306822155   -0.015616411702827807   -0.0011056385305027484
-0.19640893306822155   -0.015616411702827807   -0.0011056385305027484
-0.19640893306822155   -0.015616411702827807   -0.0011056385305027484
-0.07699529724975995   0.007148106569077772   0.0049980841786588836
-0.07699529724975995   0.007148106569077772   0.0049980841786588836
-0.07699529724975995   0.007148106569077772   0.0049980841786588836
-0.07699529724975995   0.007148106569077772   0.0049980841786588836
-0.13342061140591224   -1.9029154582073105e-05   -0.0012226197260147885
-0.13342061140591224   -1.9029154582073105e-05   -0.0012226197260147885
-0.13342061140591224   -1.9029154582073105e-05   -0.0012226197260147885
-0.13342061140591224   -1.9029154582073105e-05   -0.0012226197260147885
-0.07656972441726502   0.009522807262922088   0.004751247647290183
-0.07656972441726502   0.009522807262922088   0.004751247647290183
-0.07656972441726502   0.009522807262922088   0.004751247647290183
-0.07656972441726502   0.009522807262922088   0.004751247647290183
-0.1972291743862384   -0.018385780882196744   -0.0024374759412198934
-0.1972291743862384   -0.018385780882196744   -0.0024374759412198934
-0.1972291743862384   -0.018385780882196744   -0.0024374759412198934
-0.1972291743862384   -0.018385780882196744   -0.0024374759412198934
-0.20250213155060703   -0.02295269505105067   0.0008332526437842469
-0.20250213155060703   -0.02295269505105067   0.0008332526437842469
-0.20250213155060703   -0.02295269505105067   0.0008332526437842469
-0.20250213155060703   -0.02295269505105067   0.0008332526437842469
-0.08347688461258404   -0.000516253795161039   0.006347368483013439
-0.08347688461258404   -0.000516253795161039   0.006347368483013439
-0.08347688461258404   -0.000516253795161039   0.006347368483013439
-0.08347688461258404   -0.000516253795161039   0.006347368483013439
-0.1402488111762003   -0.007269203361293108   -0.004748697795352931
-0.1402488111762003   -0.007269203361293108   -0.004748697795352931
-0.1402488111762003   -0.007269203361293108   -0.004748697795352931
-0.1402488111762003   -0.007269203361293108   -0.004748697795352931
-0.175277899028092   0.031058776772851182   0.0076942923853788245
-0.175277899028092   0.031058776772851182   0.0076942923853788245
-0.175277899028092   0.031058776772851182   0.0076942923853788245
-0.175277899028092   0.031058776772851182   0.0076942923853788245
-0.29937407914210057   -0.009227586384658877   -0.011620092573561851
-0.29937407914210057   -0.009227586384658877   -0.011620092573561851
-0.29937407914210057   -0.009227586384658877   -0.011620092573561851
-0.29937407914210057   -0.009227586384658877   -0.011620092573561851
-0.29992307471365803   -0.0011549166638240016   0.004549814481073666
-0.29992307471365803   -0.0011549166638240016   0.004549814481073666
-0.29992307471365803   -0.0011549166638240016   0.004549814481073666
-0.29992307471365803   -0.0011549166638240016   0.004549814481073666
-0.1871267151489554   0.007805101852713596   -0.0035989876141361357
-0.1871267151489554   0.007805101852713596   -0.0035989876141361357
-0.1871267151489554   0.007805101852713596   -0.0035989876141361357
-0.1871267151489554   0.007805101852713596   -0.0035989876141361357
-0.2391682799124708   0.007094012599291724   0.0026264033996359626
-0.2391682799124708   0.007094012599291724   0.0026264033996359626
-0.2391682799124708   0.007094012599291724   0.0026264033996359626
-0.2391682799124708   0.007094012599291724   0.0026264033996359626
-0.18129238505008047   0.023614009432720767   0.009763755300235186
-0.18129238505008047   0.023614009432720767   0.009763755300235186
-0.18129238505008047   0.023614009432720767   0.009763755300235186
-0.18129238505008047   0.023614009432720767   0.009763755300235186
-0.3062881442819004   -0.017494563713201072   -0.010935886310764517
-0.3062881442819004   -0.017494563713201072   -0.010935886310764517
-0.3062881442819004   -0.017494563713201072   -0.010935886310764517
-0.3062881442819004   -0.017494563713201072   -0.010935886310764517
-0.3075866453676048   -0.008663523448078969   0.005619728043409697
-0.3075866453676048   -0.008663523448078969   0.005619728043409697
-0.3075866453676048   -0.008663523448078969   0.005619728043409697
-0.3075866453676048   -0.008663523448078969   0.005619728043409697
-0.19337845255600994   0.0004591366484754389   -0.002028784320751695
-0.19337845255600994   0.0004591366484754389   -0.002028784320751695
-0.19337845255600994   0.0004591366484754389   -0.002028784320751695
-0.19337845255600994   0.0004591366484754389   -0.002028784320751695
-0.24464802473666128   0.000367380842436385   -0.0007702029614329534
-0.24464802473666128   0.000367380842436385   -0.0007702029614329534
-0.24464802473666128   0.000367380842436385   -0.0007702029614329534
-0.24464802473666128   0.000367380842436385   -0.0007702029614329534
-0.18739000391815167   0.016605315280444607   0.011767280236574376
-0.18739000391815167   0.016605315280444607   0.011767280236574376
-0.18739000391815167   0.016605315280444607   0.011767280236574376
-0.18739000391815167   0.016605315280444607   0.011767280236574376
-0.31390700684897077   -0.025141614923555794   -0.009503987887947062
-0.31390700684897077   -0.025141614923555794   -0.009503987887947062
-0.31390700684897077   -0.025141614923555794   -0.009503987887947062
-0.31390700684897077   -0.025141614923555794   -0.009503987887947062
-0.31419037378573916   -0.016517028117843183   0.007707765787629054
-0.31419037378573916   -0.016517028117843183   0.007707765787629054
-0.31419037378573916   -0.016517028117843183   0.007707765787629054
-0.31419037378573916   -0.016517028117843183   0.007707765787629054
-0.19971236644798396   -0.007428048930854414   -0.0007425679633005378
-0.19971236644798396   -0.007428048930854414   -0.0007425679633005378
-0.19971236644798396   -0.007428048930854414   -0.0007425679633005378
-0.19971236644798396   -0.007428048930854414   -0.0007425679633005378
-0.25288970639693514   -0.007014010974118176   -0.004492260775112446
-0.25288970639693514   -0.007014010974118176   -0.004492260775112446
-0.25288970639693514   -0.007014010974118176   -0.004492260775112446
-0.25288970639693514   -0.007014010974118176   -0.004492260775112446
-0.2863588162014986   0.030612488523768633   0.013616147221024076
-0.2863588162014986   0.030612488523768633   0.013616147221024076
-0.2863588162014986   0.030612488523768633   0.013616147221024076
-0.2863588162014986   0.030612488523768633   0.013616147221024076
-0.40445096204141706   -0.018769700231360167   -0.01741686340454832
-0.40445096204141706   -0.018769700231360167   -0.01741686340454832
-0.40445096204141706   -0.018769700231360167   -0.01741686340454832
-0.40445096204141706   -0.018769700231360167   -0.01741686340454832
-0.4073263250257924   0.0045010108064537785   0.014303523495223434
-0.4073263250257924   0.0045010108064537785   0.014303523495223434
-0.4073263250257924   0.0045010108064537785   0.014303523495223434
-0.4073263250257924   0.0045010108064537785   0.014303523495223434
-0.30284992241134945   -0.0006413306006092523   -0.010598010070601696
-0.30284992241134945   -0.0006413306006092523   -0.010598010070601696
-0.30284992241134945   -0.0006413306006092523   -0.010598010070601696
-0.30284992241134945   -0.0006413306006092523   -0.010598010070601696
-0.3351367348093923   0.007181543544305308   0.008236775835437995
-0.3351367348093923   0.007181543544305308   0.008236775835437995
-0.3351367348093923   0.007181543544305308   0.008236775835437995
-0.3351367348093923   0.007181543544305308   0.008236775835437995
-0.2917869122748106   0.02796944221658254   0.01610626779490075
-0.2917869122748106   0.02796944221658254   0.01610626779490075
-0.2917869122748106   0.02796944221658254   0.01610626779490075
-0.2917869122748106   0.02796944221658254   0.01610626779490075
-0.4189569449479636   -0.024677371796372916   -0.014671193512805908
-0.4189569449479636   -0.024677371796372916   -0.014671193512805908
-0.4189569449479636   -0.024677371796372916   -0.014671193512805908
-0.4189569449479636   -0.024677371796372916   -0.014671193512805908
-0.41929256602694565   0.0002651743691852865   0.018245899785810572
-0.41929256602694565   0.0002651743691852865   0.018245899785810572
-0.41929256602694565   0.0002651743691852865   0.018245899785810572
-0.41929256602694565   0.0002651743691852865   0.018245899785810572
-0.3097409186414518   -0.004739694444894721   -0.00907546732901364
-0.3097409186414518   -0.004739694444894721   -0.00907546732901364
-0.3097409186414518   -0.004739694444894721   -0.00907546732901364
-0.3097409186414518   -0.004739694444894721   -0.00907546732901364
-0.35055771385846235   0.002190545907006805   0.0031326828840275364
-0.35055771385846235   0.002190545907006805   0.0031326828840275364
-0.35055771385846235   0.002190545907006805   0.0031326828840275364
-0.35055771385846235   0.002190545907006805   0.0031326828840275364
-0.29821883093358886   0.024658163986482462   0.019137112778924242
-0.29821883093358886   0.024658163986482462   0.019137112778924242
-0.29821883093358886   0.024658163986482462   0.019137112778924242
-0.29821883093358886   0.024658163986482462   0.019137112778924242
-0.4313464806116577   -0.029664510939038324   -0.012093987829525851
-0.4313464806116577   -0.029664510939038324   -0.012093987829525851
-0.4313464806116577   -0.029664510939038324   -0.012093987829525851
-0.4313464806116577   -0.029664510939038324   -0.012093987829525851
-0.435814501322997   -0.011849925454371746   0.018800747821627946
-0.435814501322997   -0.011849925454371746   0.018800747821627946
-0.435814501322997   -0.011849925454371746   0.018800747821627946
-0.435814501322997   -0.011849925454371746   0.018800747821627946
-0.31686091566299357   -0.014246270875377852   -0.007915700841116034
-0.31686091566299357   -0.014246270875377852   -0.007915700841116034
-0.31686091566299357   -0.014246270875377852   -0.007915700841116034
-0.31686091566299357   -0.014246270875377852   -0.007915700841116034
-0.35539573156210225   -0.003157381486235372   0.0001382054863212842
-0.35539573156210225   -0.003157381486235372   0.0001382054863212842
-0.35539573156210225   -0.003157381486235372   0.0001382054863212842
-0.35539573156210225   -0.003157381486235372   0.0001382054863212842
0.03697616805461182   0.0030257398105226914   -0.020090735670766788
0.03697616805461182   0.0030257398105226914   -0.020090735670766788
0.03697616805461182   0.0030257398105226914   -0.020090735670766788
0.03697616805461182   0.0030257398105226914   -0.020090735670766788
-0.029292200441253483   0.0149237730912958   0.010189807746019198
-0.029292200441253483   0.0149237730912958   0.010189807746019198
-0.029292200441253483   0.0149237730912958   0.010189807746019198
-0.029292200441253483   0.0149237730912958   0.010189807746019198
-0.045674125433236776   -0.019518682451235107   -0.016225865395484478
-0.045674125433236776   -0.019518682451235107   -0.016225865395484478
-0.045674125433236776   -0.019518682451235107   -0.016225865395484478
-0.045674125433236776   -0.019518682451235107   -0.016225865395484478
0.03449512485771674   0.021798813224629655   0.01246416107198044
0.03449512485771674   0.021798813224629655   0.01246416107198044
0.03449512485771674   0.021798813224629655   0.01246416107198044
0.03449512485771674   0.021798813224629655   0.01246416107198044
-0.001800964396241886   0.004792739128198728   0.0017120253233807118
-0.001800964396241886   0.004792739128198728   0.0017120253233807118
-0.001800964396241886   0.004792739128198728   0.0017120253233807118
-0.001800964396241886   0.004792739128198728   0.0017120253233807118
0.022802626354269225   -0.006181718882302092   -0.018017799338325393
0.022802626354269225   -0.006181718882302092   -0.018017799338325393
0.022802626354269225   -0.006181718882302092   -0.018017799338325393
0.022802626354269225   -0.006181718882302092   -0.018017799338325393
-0.03466061979457914   0.007782856790906745   0.011540123555661785
-0.03466061979457914   0.007782856790906745   0.011540123555661785
-0.03466061979457914   0.007782856790906745   0.011540123555661785
-0.03466061979457914   0.007782856790906745   0.011540123555661785
-0.05110032659530572   -0.023004174954302098   -0.013797597703388986
-0.05110032659530572   -0.023004174954302098   -0.013797597703388986
-0.05110032659530572   -0.023004174954302098   -0.013797597703388986
-0.05110032659530572   -0.023004174954302098   -0.013797597703388986
0.023392466723671936   0.017084159201099236   0.017148588844759234
0.023392466723671936   0.017084159201099236   0.017148588844759234
0.023392466723671936   0.017084159201099236   0.017148588844759234
0.023392466723671936   0.017084159201099236   0.017148588844759234
-0.01046595240456183   -0.0004364293855339827   -0.002288993137651619
-0.01046595240456183   -0.0004364293855339827   -0.002288993137651619
-0.01046595240456183   -0.0004364293855339827   -0.002288993137651619
-0.01046595240456183   -0.0004364293855339827   -0.002288993137651619
0.011415142400873827   -0.010726946940009783   -0.01492692662812229
0.011415142400873827   -0.010726946940009783   -0.01492692662812229
0.011415142400873827   -0.010726946940009783   -0.01492692662812229
0.011415142400873827   -0.010726946940009783   -0.01492692662812229
-0.04007082501490061   0.0038591084444164004   0.014486626799917602
-0.04007082501490061   0.0038591084444164004   0.014486626799917602
-0.04007082501490061   0.0038591084444164004   0.014486626799917602
-0.04007082501490061   0.0038591084444164004   0.014486626799917602
-0.056066891381021056   -0.028261580278112354   -0.011465784116583114
-0.056066891381021056   -0.028261580278112354   -0.011465784116583114
-0.056066891381021056   -0.028261580278112354   -0.011465784116583114
-0.056066891381021056   -0.028261580278112354   -0.011465784116583114
0.007970223684541903   0.007268783744018471   0.019601016955116922
0.007970223684541903   0.007268783744018471   0.019601016955116922
0.007970223684541903   0.007268783744018471   0.019601016955116922
0.007970223684541903   0.007268783744018471   0.019601016955116922
-0.019988319603235227   -0.00565896541654204   -0.0069440547198970125
-0.019988319603235227   -0.00565896541654204   -0.0069440547198970125
-0.019988319603235227   -0.00565896541654204   -0.0069440547198970125
-0.019988319603235227   -0.00565896541654204   -0.0069440547198970125
-0.033814467203245005   0.010377036905497085   -0.007874789878139686
-0.033814467203245005   0.010377036905497085   -0.007874789878139686
-0.033814467203245005   0.010377036905497085   -0.007874789878139686
-0.033814467203245005   0.010377036905497085   -0.007874789878139686
-0.09540022470696   0.00403430925607165   0.0026120738446803243
-0.09540022470696   0.00403430925607165   0.0026120738446803243
-0.09540022470696   0.00403430925607165   0.0026120738446803243
-0.09540022470696   0.00403430925607165   0.0026120738446803243
-0.10390638253280256   -0.011379264418616234   -0.008485374635087231
-0.10390638253280256   -0.011379264418616234   -0.008485374635087231
-0.10390638253280256   -0.011379264418616234   -0.008485374635087231
-0.10390638253280256   -0.011379264418616234   -0.008485374635087231
-0.03485876928970397   0.01020041126072874   0.008131821610215688
-0.03485876928970397   0.01020041126072874   0.008131821610215688
-0.03485876928970397   0.01020041126072874   0.008131821610215688
-0.03485876928970397   0.01020041126072874   0.008131821610215688
-0.06687860218906119   0.0031001558322756827   0.0016889422027132452
-0.06687860218906119   0.0031001558322756827   0.0016889422027132452
-0.06687860218906119   0.0031001558322756827   0.0016889422027132452
-0.06687860218906119   0.0031001558322756827   0.0016889422027132452
-0.03943846495391036   0.0019151207784684921   -0.006481366228555795
-0.03943846495391036   0.0019151207784684921   -0.006481366228555795
-0.03943846495391036   0.0019151207784684921   -0.006481366228555795
-0.03943846495391036   0.0019151207784684921   -0.006481366228555795
-0.09989259582774622   -0.003659882895506325   0.003864177367082615
-0.09989259582774622   -0.003659882895506325   0.003864177367082615
-0.09989259582774622   -0.003659882895506325   0.003864177367082615
-0.09989259582774622   -0.003659882895506325   0.003864177367082615
-0.1081435764536355   -0.018204438885833667   -0.006302080753098512
-0.1081435764536355   -0.018204438885833667   -0.006302080753098512
-0.1081435764536355   -0.018204438885833667   -0.006302080753098512
-0.1081435764536355   -0.018204438885833667   -0.006302080753098512
-0.04137529674143584   0.002652299836290635   0.009171076775367226
-0.04137529674143584   0.002652299836290635   0.009171076775367226
-0.04137529674143584   0.002652299836290635   0.009171076775367226
-0.04137529674143584   0.002652299836290635   0.009171076775367226
-0.0722283051443076   -0.0037813562417022516   -0.001775936929602426
-0.0722283051443076   -0.0037813562417022516   -0.001775936929602426
-0.0722283051443076   -0.0037813562417022516   -0.001775936929602426
-0.0722283051443076   -0.0037813562417022516   -0.001775936929602426
-0.045798690412310106   -0.005444803229578797   -0.004848788513134212
-0.045798690412310106   -0.005444803229578797   -0.004848788513134212
-0.045798690412310106   -0.005444803229578797   -0.004848788513134212
-0.045798690412310106   -0.005444803229578797   -0.004848788513134212
-0.10432950469313364   -0.010716657730339117   0.005280496893916259
-0.10432950469313364   -0.010716657730339117   0.005280496893916259
-0.10432950469313364   -0.010716657730339117   0.005280496893916259
-0.10432950469313364   -0.010716657730339117   0.005280496893916259
-0.11240862804870197   -0.025177365280922133   -0.004371202501362366
-0.11240862804870197   -0.025177365280922133   -0.004371202501362366
-0.11240862804870197   -0.025177365280922133   -0.004371202501362366
-0.11240862804870197   -0.025177365280922133   -0.004371202501362366
-0.046833188377632604   -0.004934318180201315   0.01137546880244766
-0.046833188377632604   -0.004934318180201315   0.01137546880244766
-0.046833188377632604   -0.004934318180201315   0.01137546880244766
-0.046833188377632604   -0.004934318180201315   0.01137546880244766
-0.07753667550899748   -0.010525981043257743   -0.005283315401520081
-0.07753667550899748   -0.010525981043257743   -0.005283315401520081
-0.07753667550899748   -0.010525981043257743   -0.005283315401520081
-0.07753667550899748   -0.010525981043257743   -0.005283315401520081
-0.0935763495108145   0.01659106185703733   -0.0008253027755589087
-0.0935763495108145   0.01659106185703733   -0.0008253027755589087
-0.0935763495108145   0.01659106185703733   -0.0008253027755589087
-0.0935763495108145   0.01659106185703733   -0.0008253027755589087
-0.1606907139327769   -0.0056280226726316655   -0.0046153479763510604
-0.1606907139327769   -0.0056280226726316655   -0.0046153479763510604
-0.1606907139327769   -0.0056280226726316655   -0.0046153479763510604
-0.1606907139327769   -0.0056280226726316655   -0.0046153479763510604
-0.1624262041173322   -0.004206483135462111   -0.001061202405446637
-0.1624262041173322   -0.004206483135462111   -0.001061202405446637
-0.1624262041173322   -0.004206483135462111   -0.001061202405446637
-0.1624262041173322   -0.004206483135462111   -0.001061202405446637
-0.09941781261386912   0.001313763440731374   0.0012644471002304456
-0.09941781261386912   0.001313763440731374   0.0012644471002304456
-0.09941781261386912   0.001313763440731374   0.0012644471002304456
-0.09941781261386912   0.001313763440731374   0.0012644471002304456
-0.12874993515118202   0.0018789647820690314   0.0006423138780924402
-0.12874993515118202   0.0018789647820690314   0.0006423138780924402
-0.12874993515118202   0.0018789647820690314   0.0006423138780924402
-0.12874993515118202   0.0018789647820690314   0.0006423138780924402
-0.09785424955676578   0.009166127852530157   0.0012298979739482924
-0.09785424955676578   0.009166127852530157   0.0012298979739482924
-0.09785424955676578   0.009166127852530157   0.0012298979739482924
-0.09785424955676578   0.009166127852530157   0.0012298979739482924
-0.16453713701142642   -0.012606217384251793   -0.0032161326271280943
-0.16453713701142642   -0.012606217384251793   -0.0032161326271280943
-0.16453713701142642   -0.012606217384251793   -0.0032161326271280943
-0.16453713701142642   -0.012606217384251793   -0.0032161326271280943
-0.1664063418321195   -0.011540580296106981   0.0009656944351100014
-0.1664063418321195   -0.011540580296106981   0.0009656944351100014
-0.1664063418321195   -0.011540580296106981   0.0009656944351100014
-0.1664063418321195   -0.011540580296106981   0.0009656944351100014
-0.10390015072140131   -0.005903361621011752   0.0026139706432505103
-0.10390015072140131   -0.005903361621011752   0.0026139706432505103
-0.10390015072140131   -0.005903361621011752   0.0026139706432505103
-0.10390015072140131   -0.005903361621011752   0.0026139706432505103
-0.13305441512971666   -0.00479180146166637   -0.0025380010729452486
-0.13305441512971666   -0.00479180146166637   -0.0025380010729452486
-0.13305441512971666   -0.00479180146166637   -0.0025380010729452486
-0.13305441512971666   -0.00479180146166637   -0.0025380010729452486
-0.10229876243209414   0.0016927556588591831   0.0030247948099154636
-0.10229876243209414   0.0016927556588591831   0.0030247948099154636
-0.10229876243209414   0.0016927556588591831   0.0030247948099154636
-0.10229876243209414   0.0016927556588591831   0.0030247948099154636
-0.16866866799321092   -0.01979763544776377   -0.0020888812186922786
-0.16866866799321092   -0.01979763544776377   -0.0020888812186922786
-0.16866866799321092   -0.01979763544776377   -0.0020888812186922786
-0.16866866799321092   -0.01979763544776377   -0.0020888812186922786
-0.17027940162486993   -0.018562816600752353   0.0029170714673427776
-0.17027940162486993   -0.018562816600752353   0.0029170714673427776
-0.17027940162486993   -0.018562816600752353   0.0029170714673427776
-0.17027940162486993   -0.018562816600752353   0.0029170714673427776
-0.10821653019317976   -0.012695418203873635   0.004107339699200128
-0.10821653019317976   -0.012695418203873635   0.004107339699200128
-0.10821653019317976   -0.012695418203873635   0.004107339699200128
-0.10821653019317976   -0.012695418203873635   0.004107339699200128
-0.13768611929426705   -0.011497112986190161   -0.0059950923799717325
-0.13768611929426705   -0.011497112986190161   -0.0059950923799717325
-0.13768611929426705   -0.011497112986190161   -0.0059950923799717325
-0.13768611929426705   -0.011497112986190161   -0.0059950923799717325
-0.15259210450231628   0.023752301965562668   0.006497374537761598
-0.15259210450231628   0.023752301965562668   0.006497374537761598
-0.15259210450231628   0.023752301965562668   0.006497374537761598
-0.15259210450231628   0.023752301965562668   0.006497374537761598
-0.22362827979897185   -0.00947855352219356   -0.010305030562932945
-0.22362827979897185   -0.00947855352219356   -0.010305030562932945
-0.22362827979897185   -0.00947855352219356   -0.010305030562932945
-0.22362827979897185   -0.00947855352219356   -0.010305030562932945
-0.2207397495295676   0.0031174485672851304   0.006575780339333738
-0.2207397495295676   0.0031174485672851304   0.006575780339333738
-0.2207397495295676   0.0031174485672851304   0.006575780339333738
-0.2207397495295676   0.0031174485672851304   0.006575780339333738
-0.16287663900375915   -0.002994109597518557   -0.0045257503755248875
-0.16287663900375915   -0.002994109597518557   -0.0045257503755248875
-0.16287663900375915   -0.002994109597518557   -0.0045257503755248875
-0.16287663900375915   -0.002994109597518557   -0.0045257503755248875
-0.18926587255734328   0.0036120801189713017   0.0009902570724543754
-0.18926587255734328   0.0036120801189713017   0.0009902570724543754
-0.18926587255734328   0.0036120801189713017   0.0009902570724543754
-0.18926587255734328   0.0036120801189713017   0.0009902570724543754
-0.156384818547366   0.01638427263136672   0.00855496967755544
-0.156384818547366   0.01638427263136672   0.00855496967755544
-0.156384818547366   0.01638427263136672   0.00855496967755544
-0.156384818547366   0.01638427263136672   0.00855496967755544
-0.22803194159961612   -0.017061305275258724   -0.009706426168368715
-0.22803194159961612   -0.017061305275258724   -0.009706426168368715
-0.22803194159961612   -0.017061305275258724   -0.009706426168368715
-0.22803194159961612   -0.017061305275258724   -0.009706426168368715
-0.2260604552450453   -0.00411436893472078   0.007785690452302554
-0.2260604552450453   -0.00411436893472078   0.007785690452302554
-0.2260604552450453   -0.00411436893472078   0.007785690452302554
-0.2260604552450453   -0.00411436893472078   0.007785690452302554
-0.1668210617261388   -0.009580676031561056   -0.003067809299532473
-0.1668210617261388   -0.009580676031561056   -0.003067809299532473
-0.1668210617261388   -0.009580676031561056   -0.003067809299532473
-0.1668210617261388   -0.009580676031561056   -0.003067809299532473
-0.19287132053029413   -0.0028111337408549195   -0.0024561441986805637
-0.19287132053029413   -0.0028111337408549195   -0.0024561441986805637
-0.19287132053029413   -0.0028111337408549195   -0.0024561441986805637
-0.19287132053029413   -0.0028111337408549195   -0.0024561441986805637
-0.16026093319538484   0.00959902404107172   0.010553133281604614
-0.16026093319538484   0.00959902404107172   0.010553133281604614
-0.16026093319538484   0.00959902404107172   0.010553133281604614
-0.16026093319538484   0.00959902404107172   0.010553133281604614
-0.2332526509629546   -0.023926136194509527   -0.008363520877459042
-0.2332526509629546   -0.023926136194509527   -0.008363520877459042
-0.2332526509629546   -0.023926136194509527   -0.008363520877459042
-0.2332526509629546   -0.023926136194509527   -0.008363520877459042
-0.23038158649556947   -0.011424474493978577   0.009944524268648825
-0.23038158649556947   -0.011424474493978577   0.009944524268648825
-0.23038158649556947   -0.011424474493978577   0.009944524268648825
-0.23038158649556947   -0.011424474493978577   0.009944524268648825
-0.1707845886381713   -0.01634928495148902   -0.001822395248429357
-0.1707845886381713   -0.01634928495148902   -0.001822395248429357
-0.1707845886381713   -0.01634928495148902   -0.001822395248429357
-0.1707845886381713   -0.01634928495148902   -0.001822395248429357
-0.19833031406058033   -0.009403161322921197   -0.006004069358032157
-0.19833031406058033   -0.009403161322921197   -0.006004069358032157
-0.19833031406058033   -0.009403161322921197   -0.006004069358032157
-0.19833031406058033   -0.009403161322921197   -0.006004069358032157
-0.2119394851494906   0.02579003805032303   0.012870351111956523
-0.2119394851494906   0.02579003805032303   0.012870351111956523
-0.2119394851494906   0.02579003805032303   0.012870351111956523
-0.2119394851494906   0.02579003805032303   0.012870351111956523
-0.274781290112928   -0.013901528017675968   -0.017037322717588583
-0.274781290112928   -0.013901528017675968   -0.017037322717588583
-0.274781290112928   -0.013901528017675968   -0.017037322717588583
-0.274781290112928   -0.013901528017675968   -0.017037322717588583
-0.2750604788550933   0.009874161229749975   0.014190005524938265
-0.2750604788550933   0.009874161229749975   0.014190005524938265
-0.2750604788550933   0.009874161229749975   0.014190005524938265
-0.2750604788550933   0.009874161229749975   0.014190005524938265
-0.2262412914416684   -0.00740213205570954   -0.010412348598175547
-0.2262412914416684   -0.00740213205570954   -0.010412348598175547
-0.2262412914416684   -0.00740213205570954   -0.010412348598175547
-0.2262412914416684   -0.00740213205570954   -0.010412348598175547
-0.23694550963623118   0.005962192552846822   0.004735181684291538
-0.23694550963623118   0.005962192552846822   0.004735181684291538
-0.23694550963623118   0.005962192552846822   0.004735181684291538
-0.23694550963623118   0.005962192552846822   0.004735181684291538
-0.21523463057209047   0.022037578766805725   0.015181244927198821
-0.21523463057209047   0.022037578766805725   0.015181244927198821
-0.21523463057209047   0.022037578766805725   0.015181244927198821
-0.21523463057209047   0.022037578766805725   0.015181244927198821
-0.2869044113129013   -0.020402821180990856   -0.014752674353356912
-0.2869044113129013   -0.020402821180990856   -0.014752674353356912
-0.2869044113129013   -0.020402821180990856   -0.014752674353356912
-0.2869044113129013   -0.020402821180990856   -0.014752674353356912
-0.28473137016924466   0.005728320703949921   0.01825505994300236
-0.28473137016924466   0.005728320703949921   0.01825505994300236
-0.28473137016924466   0.005728320703949921   0.01825505994300236
-0.28473137016924466   0.005728320703949921   0.01825505994300236
-0.23085280504288397   -0.01119340805803426   -0.009097019413577344
-0.23085280504288397   -0.01119340805803426   -0.009097019413577344
-0.23085280504288397   -0.01119340805803426   -0.009097019413577344
-0.23085280504288397   -0.01119340805803426   -0.009097019413577344
-0.24852334435544504   0.0009402479390645119   -9.186304112268097e-05
-0.24852334435544504   0.0009402479390645119   -9.186304112268097e-05
-0.24852334435544504   0.0009402479390645119   -9.186304112268097e-05
-0.24852334435544504   0.0009402479390645119   -9.186304112268097e-05
-0.21940265527180278   0.018779263309663924   0.01818105807413048
-0.21940265527180278   0.018779263309663924   0.01818105807413048
-0.21940265527180278   0.018779263309663924   0.01818105807413048
-0.21940265527180278   0.018779263309663924   0.01818105807413048
-0.29702706812972746   -0.025089898853147996   -0.01240521030231018
-0.29702706812972746   -0.025089898853147996   -0.01240521030231018
-0.29702706812972746   -0.025089898853147996   -0.01240521030231018
-0.29702706812972746   -0.025089898853147996   -0.01240521030231018
-0.2989470943093328   -0.005225633450704398   0.01927366492860581
-0.2989470943093328   -0.005225633450704398   0.01927366492860581
-0.2989470943093328   -0.005225633450704398   0.01927366492860581
-0.2989470943093328   -0.005225633450704398   0.01927366492860581
-0.23548800358221186   -0.019155559580110927   -0.007856476078430825
-0.23548800358221186   -0.019155559580110927   -0.007856476078430825
-0.23548800358221186   -0.019155559580110927   -0.007856476078430825
-0.23548800358221186   -0.019155559580110927   -0.007856476078430825
-0.2528663597361094   -0.004067932903644329   -0.003484089026719466
-0.2528663597361094   -0.004067932903644329   -0.003484089026719466
-0.2528663597361094   -0.004067932903644329   -0.003484089026719466
-0.2528663597361094   -0.004067932903644329   -0.003484089026719466
-0.10658993232644437   -0.006871101496772666   -0.021486833309132244
-0.10658993232644437   -0.006871101496772666   -0.021486833309132244
-0.10658993232644437   -0.006871101496772666   -0.021486833309132244
-0.10658993232644437   -0.006871101496772666   -0.021486833309132244
-0.1091437477705619   0.016214419003076623   0.009606897349927927
-0.1091437477705619   0.016214419003076623   0.009606897349927927
-0.1091437477705619   0.016214419003076623   0.009606897349927927
-0.1091437477705619   0.016214419003076623   0.009606897349927927
-0.12342063200193713   -0.015209684373513074   -0.014662570059079307
-0.12342063200193713   -0.015209684373513074   -0.014662570059079307
-0.12342063200193713   -0.015209684373513074   -0.014662570059079307
-0.12342063200193713   -0.015209684373513074   -0.014662570059079307
-0.10905550663266188   0.00912145565963569   0.014274818848085898
-0.10905550663266188   0.00912145565963569   0.014274818848085898
-0.10905550663266188   0.00912145565963569   0.014274818848085898
-0.10905550663266188   0.00912145565963569   0.014274818848085898
-0.10640977427520415   0.002886043035972896   0.009805021696696014
-0.10640977427520415   0.002886043035972896   0.009805021696696014
-0.10640977427520415   0.002886043035972896   0.009805021696696014
-0.10640977427520415   0.002886043035972896   0.009805021696696014
-0.12041078512175843   -0.015292687144344582   -0.018087430793415588
-0.12041078512175843   -0.015292687144344582   -0.018087430793415588
-0.12041078512175843   -0.015292687144344582   -0.018087430793415588
-0.12041078512175843   -0.015292687144344582   -0.018087430793415588
-0.11343644101403348   0.00783337092927448   0.012215329577651469
-0.11343644101403348   0.00783337092927448   0.012215329577651469
-0.11343644101403348   0.00783337092927448   0.012215329577651469
-0.11343644101403348   0.00783337092927448   0.012215329577651469
-0.1278207606345451   -0.01908114503499851   -0.012464704977512455
-0.1278207606345451   -0.01908114503499851   -0.012464704977512455
-0.1278207606345451   -0.01908114503499851   -0.012464704977512455
-0.1278207606345451   -0.01908114503499851   -0.012464704977512455
-0.1201245548470872   0.0038912241202967227   0.02671462325809297
-0.1201245548470872   0.0038912241202967227   0.02671462325809297
-0.1201245548470872   0.0038912241202967227   0.02671462325809297
-0.1201245548470872   0.0038912241202967227   0.02671462325809297
-0.11650598040687593   -0.0037487861280285674   0.00399085713541462
-0.11650598040687593   -0.0037487861280285674   0.00399085713541462
-0.11650598040687593   -0.0037487861280285674   0.00399085713541462
-0.11650598040687593   -0.0037487861280285674   0.00399085713541462
-0.1331815927039565   -0.020496865695474563   -0.014182476210481331
-0.1331815927039565   -0.020496865695474563   -0.014182476210481331
-0.1331815927039565   -0.020496865695474563   -0.014182476210481331
-0.1331815927039565   -0.020496865695474563   -0.014182476210481331
-0.11806584875067574   0.002004818807772993   0.015223890599062864
-0.11806584875067574   0.002004818807772993   0.015223890599062864
-0.11806584875067574   0.002004818807772993   0.015223890599062864
-0.11806584875067574   0.002004818807772993   0.015223890599062864
-0.131444640451666   -0.026506650072404915   -0.009861287990799744
-0.131444640451666   -0.026506650072404915   -0.009861287990799744
-0.131444640451666   -0.026506650072404915   -0.009861287990799744
-0.131444640451666   -0.026506650072404915   -0.009861287990799744
-0.13728043620762795   -0.013395953188847952   0.024970849709877417
-0.13728043620762795   -0.013395953188847952   0.024970849709877417
-0.13728043620762795   -0.013395953188847952   0.024970849709877417
-0.13728043620762795   -0.013395953188847952   0.024970849709877417
-0.12548086126043428   -0.011570723545416484   -0.005312333270174233
-0.12548086126043428   -0.011570723545416484   -0.005312333270174233
-0.12548086126043428   -0.011570723545416484   -0.005312333270174233
-0.12548086126043428   -0.011570723545416484   -0.005312333270174233
-0.11710461431114226   -0.0030213222530670984   -0.010961694096831134
-0.11710461431114226   -0.0030213222530670984   -0.010961694096831134
-0.11710461431114226   -0.0030213222530670984   -0.010961694096831134
-0.11710461431114226   -0.0030213222530670984   -0.010961694096831134
-0.12141697190397759   -0.015028107839396085   -0.0006551815906798123
-0.12141697190397759   -0.015028107839396085   -0.0006551815906798123
-0.12141697190397759   -0.015028107839396085   -0.0006551815906798123
-0.12141697190397759   -0.015028107839396085   -0.0006551815906798123
-0.1224991163536245   -0.010080141397158213   -0.00563059461529855
-0.1224991163536245   -0.010080141397158213   -0.00563059461529855
-0.1224991163536245   -0.010080141397158213   -0.00563059461529855
-0.1224991163536245   -0.010080141397158213   -0.00563059461529855
-0.12144508871542724   -0.019915236133651988   -7.93018663908622e-05
-0.12144508871542724   -0.019915236133651988   -7.93018663908622e-05
-0.12144508871542724   -0.019915236133651988   -7.93018663908622e-05
-0.12144508871542724   -0.019915236133651988   -7.93018663908622e-05
-0.11960083309000577   -0.012538362264127224   -0.0002580367023745792
-0.11960083309000577   -0.012538362264127224   -0.0002580367023745792
-0.11960083309000577   -0.012538362264127224   -0.0002580367023745792
-0.11960083309000577   -0.012538362264127224   -0.0002580367023745792
-0.12147867986351434   -0.010652028270143526   -0.00951046547033528
-0.12147867986351434   -0.010652028270143526   -0.00951046547033528
-0.12147867986351434   -0.010652028270143526   -0.00951046547033528
-0.12147867986351434   -0.010652028270143526   -0.00951046547033528
-0.12324588053371066   -0.020123704588840018   0.0006791476759524344
-0.12324588053371066   -0.020123704588840018   0.0006791476759524344
-0.12324588053371066   -0.020123704588840018   0.0006791476759524344
-0.12324588053371066   -0.020123704588840018   0.0006791476759524344
-0.12472583693906301   -0.01658971084742097   -0.0036884364455636283
-0.12472583693906301   -0.01658971084742097   -0.0036884364455636283
-0.12472583693906301   -0.01658971084742097   -0.0036884364455636283
-0.12472583693906301   -0.01658971084742097   -0.0036884364455636283
-0.12611504998642722   -0.025941858641032937   0.0029245618691112326
-0.12611504998642722   -0.025941858641032937   0.0029245618691112326
-0.12611504998642722   -0.025941858641032937   0.0029245618691112326
-0.12611504998642722   -0.025941858641032937   0.0029245618691112326
-0.12256657197742928   -0.01782755932835693   -0.003313663483417309
-0.12256657197742928   -0.01782755932835693   -0.003313663483417309
-0.12256657197742928   -0.01782755932835693   -0.003313663483417309
-0.12256657197742928   -0.01782755932835693   -0.003313663483417309
-0.12645118016240356   -0.0176139014444475   -0.007084046207355745
-0.12645118016240356   -0.0176139014444475   -0.007084046207355745
-0.12645118016240356   -0.0176139014444475   -0.007084046207355745
-0.12645118016240356   -0.0176139014444475   -0.007084046207355745
-0.1253851265361497   -0.025913087817070968   0.002338492538651166
-0.1253851265361497   -0.025913087817070968   0.002338492538651166
-0.1253851265361497   -0.025913087817070968   0.002338492538651166
-0.1253851265361497   -0.025913087817070968   0.002338492538651166
-0.12674924458561895   -0.023546507385406985   -0.0017694210155943294
-0.12674924458561895   -0.023546507385406985   -0.0017694210155943294
-0.12674924458561895   -0.023546507385406985   -0.0017694210155943294
-0.12674924458561895   -0.023546507385406985   -0.0017694210155943294
-0.12971432948384087   -0.033508011595795736   0.0057916283717160885
-0.12971432948384087   -0.033508011595795736   0.0057916283717160885
-0.12971432948384087   -0.033508011595795736   0.0057916283717160885
-0.12971432948384087   -0.033508011595795736   0.0057916283717160885
-0.12655136004203368   -0.024134131678293615   -0.0071636911578387705
-0.12655136004203368   -0.024134131678293615   -0.0071636911578387705
-0.12655136004203368   -0.024134131678293615   -0.0071636911578387705
-0.12655136004203368   -0.024134131678293615   -0.0071636911578387705
-0.11800078039661069   0.003427139376019756   -0.002029471269260146
-0.11800078039661069   0.003427139376019756   -0.002029471269260146
-0.11800078039661069   0.003427139376019756   -0.002029471269260146
-0.11800078039661069   0.003427139376019756   -0.002029471269260146
-0.13580141688640593   -0.025810665274388963   -0.006569894012117097
-0.13580141688640593   -0.025810665274388963   -0.006569894012117097
-0.13580141688640593   -0.025810665274388963   -0.006569894012117097
-0.13580141688640593   -0.025810665274388963   -0.006569894012117097
-0.13043775755138978   -0.004823901458258648   0.0015960675428010138
-0.13043775755138978   -0.004823901458258648   0.0015960675428010138
-0.13043775755138978   -0.004823901458258648   0.0015960675428010138
-0.13043775755138978   -0.004823901458258648   0.0015960675428010138
-0.12563580018857243   -0.027417357922897356   -0.003976797264299009
-0.12563580018857243   -0.027417357922897356   -0.003976797264299009
-0.12563580018857243   -0.027417357922897356   -0.003976797264299009
-0.12563580018857243   -0.027417357922897356   -0.003976797264299009
-0.1273782915113737   -0.0140956069126004   -0.0027823705751489993
-0.1273782915113737   -0.0140956069126004   -0.0027823705751489993
-0.1273782915113737   -0.0140956069126004   -0.0027823705751489993
-0.1273782915113737   -0.0140956069126004   -0.0027823705751489993
-0.11997465748592741   -0.0030568194070992698   -3.162226687211927e-05
-0.11997465748592741   -0.0030568194070992698   -3.162226687211927e-05
-0.11997465748592741   -0.0030568194070992698   -3.162226687211927e-05
-0.11997465748592741   -0.0030568194070992698   -3.162226687211927e-05
-0.13681121484308942   -0.029896754563108818   -0.005198365810846982
-0.13681121484308942   -0.029896754563108818   -0.005198365810846982
-0.13681121484308942   -0.029896754563108818   -0.005198365810846982
-0.13681121484308942   -0.029896754563108818   -0.005198365810846982
-0.132086722603015   -0.011358782687192925   0.003523437193966009
-0.132086722603015   -0.011358782687192925   0.003523437193966009
-0.132086722603015   -0.011358782687192925   0.003523437193966009
-0.132086722603015   -0.011358782687192925   0.003523437193966009
-0.12772152653021834   -0.03255446220265079   -0.0027021330461112947
-0.12772152653021834   -0.03255446220265079   -0.0027021330461112947
-0.12772152653021834   -0.03255446220265079   -0.0027021330461112947
-0.12772152653021834   -0.03255446220265079   -0.0027021330461112947
-0.1291118038603046   -0.01905868371964914   -0.005403854666644819
-0.1291118038603046   -0.01905868371964914   -0.005403854666644819
-0.1291118038603046   -0.01905868371964914   -0.005403854666644819
-0.1291118038603046   -0.01905868371964914   -0.005403854666644819
-0.1222325628190653   -0.009712494589828223   0.0019007178968321516
-0.1222325628190653   -0.009712494589828223   0.0019007178968321516
-0.1222325628190653   -0.009712494589828223   0.0019007178968321516
-0.1222325628190653   -0.009712494589828223   0.0019007178968321516
-0.13837162075092205   -0.034996684736767134   -0.004263151495996973
-0.13837162075092205   -0.034996684736767134   -0.004263151495996973
-0.13837162075092205   -0.034996684736767134   -0.004263151495996973
-0.13837162075092205   -0.034996684736767134   -0.004263151495996973
-0.13345895075760705   -0.017482137909377957   0.005416161736105806
-0.13345895075760705   -0.017482137909377957   0.005416161736105806
-0.13345895075760705   -0.017482137909377957   0.005416161736105806
-0.13345895075760705   -0.017482137909377957   0.005416161736105806
-0.12932564469938332   -0.03744244619936894   -0.0007554827704551147
-0.12932564469938332   -0.03744244619936894   -0.0007554827704551147
-0.12932564469938332   -0.03744244619936894   -0.0007554827704551147
-0.12932564469938332   -0.03744244619936894   -0.0007554827704551147
-0.1311551518543897   -0.024241407525792156   -0.008281751012849638
-0.1311551518543897   -0.024241407525792156   -0.008281751012849638
-0.1311551518543897   -0.024241407525792156   -0.008281751012849638
-0.1311551518543897   -0.024241407525792156   -0.008281751012849638
-0.12537353117263914   0.013487646810104306   0.006271222472223689
-0.12537353117263914   0.013487646810104306   0.006271222472223689
-0.12537353117263914   0.013487646810104306   0.006271222472223689
-0.12537353117263914   0.013487646810104306   0.006271222472223689
-0.1501843527964764   -0.01952779421995698   -0.009244801040100937
-0.1501843527964764   -0.01952779421995698   -0.009244801040100937
-0.1501843527964764   -0.01952779421995698   -0.009244801040100937
-0.1501843527964764   -0.01952779421995698   -0.009244801040100937
-0.14236015994995868   0.003732496990216865   0.008590803509351774
-0.14236015994995868   0.003732496990216865   0.008590803509351774
-0.14236015994995868   0.003732496990216865   0.008590803509351774
-0.14236015994995868   0.003732496990216865   0.008590803509351774
-0.13515503062889342   -0.021279762997699132   -0.005534436305276676
-0.13515503062889342   -0.021279762997699132   -0.005534436305276676
-0.13515503062889342   -0.021279762997699132   -0.005534436305276676
-0.13515503062889342   -0.021279762997699132   -0.005534436305276676
-0.13822329994578816   -0.005760870121166838   -0.001659191909931722
-0.13822329994578816   -0.005760870121166838   -0.001659191909931722
-0.13822329994578816   -0.005760870121166838   -0.001659191909931722
-0.13822329994578816   -0.005760870121166838   -0.001659191909931722
-0.12679718237301316   0.006768283499183948   0.008206758477241661
-0.12679718237301316   0.006768283499183948   0.008206758477241661
-0.12679718237301316   0.006768283499183948   0.008206758477241661
-0.12679718237301316   0.006768283499183948   0.008206758477241661
-0.15166890638931607   -0.025266447690143343   -0.008953984007075078
-0.15166890638931607   -0.025266447690143343   -0.008953984007075078
-0.15166890638931607   -0.025266447690143343   -0.008953984007075078
-0.15166890638931607   -0.025266447690143343   -0.008953984007075078
-0.14510654116913818   -0.002672944860102798   0.009756326000758195
-0.14510654116913818   -0.002672944860102798   0.009756326000758195
-0.14510654116913818   -0.002672944860102798   0.009756326000758195
-0.14510654116913818   -0.002672944860102798   0.009756326000758195
-0.13661071579289435   -0.02606366362869961   -0.004391647813926103
-0.13661071579289435   -0.02606366362869961   -0.004391647813926103
-0.13661071579289435   -0.02606366362869961   -0.004391647813926103
-0.13661071579289435   -0.02606366362869961   -0.004391647813926103
-0.1396695033599344   -0.011155163585052592   -0.004738908015796926
-0.1396695033599344   -0.011155163585052592   -0.004738908015796926
-0.1396695033599344   -0.011155163585052592   -0.004738908015796926
-0.1396695033599344   -0.011155163585052592   -0.004738908015796926
-0.12835476010400024   0.0007425329609517528   0.010081934040893012
-0.12835476010400024   0.0007425329609517528   0.010081934040893012
-0.12835476010400024   0.0007425329609517528   0.010081934040893012
-0.12835476010400024   0.0007425329609517528   0.010081934040893012
-0.15418544712242033   -0.030302091714142176   -0.008009056911612977
-0.15418544712242033   -0.030302091714142176   -0.008009056911612977
-0.15418544712242033   -0.030302091714142176   -0.008009056911612977
-0.15418544712242033   -0.030302091714142176   -0.008009056911612977
-0.14696421918979602   -0.00883838903011628   0.011911714910051375
-0.14696421918979602   -0.00883838903011628   0.011911714910051375
-0.14696421918979602   -0.00883838903011628   0.011911714910051375
-0.14696421918979602   -0.00883838903011628   0.011911714910051375
-0.1378896852774863   -0.030876851098926607   -0.003342797673741718
-0.1378896852774863   -0.030876851098926607   -0.003342797673741718
-0.1378896852774863   -0.030876851098926607   -0.003342797673741718
-0.1378896852774863   -0.030876851098926607   -0.003342797673741718
-0.1421269133807577   -0.016271370995404495   -0.007734941977930289
-0.1421269133807577   -0.016271370995404495   -0.007734941977930289
-0.1421269133807577   -0.016271370995404495   -0.007734941977930289
-0.1421269133807577   -0.016271370995404495   -0.007734941977930289
-0.1380391123133691   0.0193709112640404   0.012582695891434393
-0.1380391123133691   0.0193709112640404   0.012582695891434393
-0.1380391123133691   0.0193709112640404   0.012582695891434393
-0.1380391123133691   0.0193709112640404   0.012582695891434393
-0.14994225474070086   -0.012019253006748817   -0.013319215453714919
-0.14994225474070086   -0.012019253006748817   -0.013319215453714919
-0.14994225474070086   -0.012019253006748817   -0.013319215453714919
-0.14994225474070086   -0.012019253006748817   -0.013319215453714919
-0.14686489039864   0.013355073373222497   0.013997277503448606
-0.14686489039864   0.013355073373222497   0.013997277503448606
-0.14686489039864   0.013355073373222497   0.013997277503448606
-0.14686489039864   0.013355073373222497   0.013997277503448606
-0.14941511439586053   -0.014805064344961878   -0.008146407384978793
-0.14941511439586053   -0.014805064344961878   -0.008146407384978793
-0.14941511439586053   -0.014805064344961878   -0.008146407384978793
-0.14941511439586053   -0.014805064344961878   -0.008146407384978793
-0.14101974521750255   0.0033217273836976396   0.00073766655126737
-0.14101974521750255   0.0033217273836976396   0.00073766655126737
-0.14101974521750255   0.0033217273836976396   0.00073766655126737
-0.14101974521750255   0.0033217273836976396   0.00073766655126737
-0.1389051280668392   0.015056051934936553   0.014542407980225725
-0.1389051280668392   0.015056051934936553   0.014542407980225725
-0.1389051280668392   0.015056051934936553   0.014542407980225725
-0.1389051280668392   0.015056051934936553   0.014542407980225725
-0.15816131311407292   -0.017292479293090017   -0.011837283407399417
-0.15816131311407292   -0.017292479293090017   -0.011837283407399417
-0.15816131311407292   -0.017292479293090017   -0.011837283407399417
-0.15816131311407292   -0.017292479293090017   -0.011837283407399417
-0.15332586780428858   0.009729273947201071   0.017989453374003914
-0.15332586780428858   0.009729273947201071   0.017989453374003914
-0.15332586780428858   0.009729273947201071   0.017989453374003914
-0.15332586780428858   0.009729273947201071   0.017989453374003914
-0.15153085880013484   -0.01763760171926778   -0.007400605295063768
-0.15153085880013484   -0.01763760171926778   -0.007400605295063768
-0.15153085880013484   -0.01763760171926778   -0.007400605295063768
-0.15153085880013484   -0.01763760171926778   -0.007400605295063768
-0.148007126641808   -0.0010539849320642183   -0.002950537692285338
-0.148007126641808   -0.0010539849320642183   -0.002950537692285338
-0.148007126641808   -0.0010539849320642183   -0.002950537692285338
-0.148007126641808   -0.0010539849320642183   -0.002950537692285338
-0.1406177989449387   0.012148679580499457   0.01737841268114594
-0.1406177989449387   0.012148679580499457   0.01737841268114594
-0.1406177989449387   0.012148679580499457   0.01737841268114594
-0.1406177989449387   0.012148679580499457   0.01737841268114594
-0.16524944579999729   -0.021067525493078713   -0.010831637164255987
-0.16524944579999729   -0.021067525493078713   -0.010831637164255987
-0.16524944579999729   -0.021067525493078713   -0.010831637164255987
-0.16524944579999729   -0.021067525493078713   -0.010831637164255987
-0.16452062490201483   0.0004500239524864863   0.019204062904359193
-0.16452062490201483   0.0004500239524864863   0.019204062904359193
-0.16452062490201483   0.0004500239524864863   0.019204062904359193
-0.16452062490201483   0.0004500239524864863   0.019204062904359193
-0.15347838198407782   -0.02307521879196477   -0.006422269299508993
-0.15347838198407782   -0.02307521879196477   -0.006422269299508993
-0.15347838198407782   -0.02307521879196477   -0.006422269299508993
-0.15347838198407782   -0.02307521879196477   -0.006422269299508993
-0.15130717486319922   -0.005112393549129086   -0.006241161712899189
-0.15130717486319922   -0.005112393549129086   -0.006241161712899189
-0.15130717486319922   -0.005112393549129086   -0.006241161712899189
-0.15130717486319922   -0.005112393549129086   -0.006241161712899189
-0.2831499964273519   -0.026022796090442023   -0.027572929460867666
-0.2831499964273519   -0.026022796090442023   -0.027572929460867666
-0.2831499964273519   -0.026022796090442023   -0.027572929460867666
-0.2831499964273519   -0.026022796090442023   -0.027572929460867666
-0.18147831182678792   0.014788765530058236   0.006441659637964456
-0.18147831182678792   0.014788765530058236   0.006441659637964456
-0.18147831182678792   0.014788765530058236   0.006441659637964456
-0.18147831182678792   0.014788765530058236   0.006441659637964456
-0.19077003618908758   -0.012571523800151186   -0.012475548894422771
-0.19077003618908758   -0.012571523800151186   -0.012475548894422771
-0.19077003618908758   -0.012571523800151186   -0.012475548894422771
-0.19077003618908758   -0.012571523800151186   -0.012475548894422771
-0.3019970298474985   -0.035021551394920615   0.030480182261786476
-0.3019970298474985   -0.035021551394920615   0.030480182261786476
-0.3019970298474985   -0.035021551394920615   0.030480182261786476
-0.3019970298474985   -0.035021551394920615   0.030480182261786476
-0.21980785736107514   -0.008704620368049816   0.029777020651100057
-0.21980785736107514   -0.008704620368049816   0.029777020651100057
-0.21980785736107514   -0.008704620368049816   0.029777020651100057
-0.21980785736107514   -0.008704620368049816   0.029777020651100057
-0.3128655948509689   -0.038560303819784335   -0.020323890330699534
-0.3128655948509689   -0.038560303819784335   -0.020323890330699534
-0.3128655948509689   -0.038560303819784335   -0.020323890330699534
-0.3128655948509689   -0.038560303819784335   -0.020323890330699534
-0.18757232425609358   -0.016703624445764752   0.007645111416160874
-0.18757232425609358   -0.016703624445764752   0.007645111416160874
-0.18757232425609358   -0.016703624445764752   0.007645111416160874
-0.18757232425609358   -0.016703624445764752   0.007645111416160874
-0.19403845821745444   -0.018050865432471697   -0.009081921135381895
-0.19403845821745444   -0.018050865432471697   -0.009081921135381895
-0.19403845821745444   -0.018050865432471697   -0.009081921135381895
-0.19403845821745444   -0.018050865432471697   -0.009081921135381895
-0.31209927299903584   -0.048802534539632396   0.00048671606054608886
-0.31209927299903584   -0.048802534539632396   0.00048671606054608886
-0.31209927299903584   -0.048802534539632396   0.00048671606054608886
-0.31209927299903584   -0.048802534539632396   0.00048671606054608886
-0.2440513781657071   -0.02943728675605691   0.0069742476857163425
-0.2440513781657071   -0.02943728675605691   0.0069742476857163425
-0.2440513781657071   -0.02943728675605691   0.0069742476857163425
-0.2440513781657071   -0.02943728675605691   0.0069742476857163425
-0.3144625275515579   -0.04362142776712897   -0.01651066347456473
-0.3144625275515579   -0.04362142776712897   -0.01651066347456473
-0.3144625275515579   -0.04362142776712897   -0.01651066347456473
-0.3144625275515579   -0.04362142776712897   -0.01651066347456473
-0.1939651695567488   -0.02552193809679134   -0.0012444051675356681
-0.1939651695567488   -0.02552193809679134   -0.0012444051675356681
-0.1939651695567488   -0.02552193809679134   -0.0012444051675356681
-0.1939651695567488   -0.02552193809679134   -0.0012444051675356681
-0.19448396739195878   -0.031169759110249225   -0.006694648712798118
-0.19448396739195878   -0.031169759110249225   -0.006694648712798118
-0.19448396739195878   -0.031169759110249225   -0.006694648712798118
-0.19448396739195878   -0.031169759110249225   -0.006694648712798118
-0.32016854254605676   -0.07430553176604908   0.004490210831936889
-0.32016854254605676   -0.07430553176604908   0.004490210831936889
-0.32016854254605676   -0.07430553176604908   0.004490210831936889
-0.32016854254605676   -0.07430553176604908   0.004490210831936889
-0.2441736123531693   -0.04038471617225223   0.0006383763597157571
-0.2441736123531693   -0.04038471617225223   0.0006383763597157571
-0.2441736123531693   -0.04038471617225223   0.0006383763597157571
-0.2441736123531693   -0.04038471617225223   0.0006383763597157571
-0.1959218059662808   -0.033329539533007276   -0.01765750599643258
-0.1959218059662808   -0.033329539533007276   -0.01765750599643258
-0.1959218059662808   -0.033329539533007276   -0.01765750599643258
-0.1959218059662808   -0.033329539533007276   -0.01765750599643258
-0.13610303311736066   -0.08966204263314347   -0.01672866088836246
-0.13610303311736066   -0.08966204263314347   -0.01672866088836246
-0.13610303311736066   -0.08966204263314347   -0.01672866088836246
-0.13610303311736066   -0.08966204263314347   -0.01672866088836246
-0.11945023861931264   -0.019741300431587932   -0.0012044734521851688
-0.11945023861931264   -0.019741300431587932   -0.0012044734521851688
-0.11945023861931264   -0.019741300431587932   -0.0012044734521851688
-0.11945023861931264   -0.019741300431587932   -0.0012044734521851688
-0.20887315579970933   -0.09463967373754267   -0.020922997010140006
-0.20887315579970933   -0.09463967373754267   -0.020922997010140006
-0.20887315579970933   -0.09463967373754267   -0.020922997010140006
-0.20887315579970933   -0.09463967373754267   -0.020922997010140006
-0.16320839676778193   -0.06288448984675657   -0.004802263584702652
-0.16320839676778193   -0.06288448984675657   -0.004802263584702652
-0.16320839676778193   -0.06288448984675657   -0.004802263584702652
-0.16320839676778193   -0.06288448984675657   -0.004802263584702652
-0.19592136139538247   -0.03746280836797864   -0.013340890358068892
-0.19592136139538247   -0.03746280836797864   -0.013340890358068892
-0.19592136139538247   -0.03746280836797864   -0.013340890358068892
-0.19592136139538247   -0.03746280836797864   -0.013340890358068892
-0.13318825953015845   -0.07770439230767096   -0.011931486130332262
-0.13318825953015845   -0.07770439230767096   -0.011931486130332262
-0.13318825953015845   -0.07770439230767096   -0.011931486130332262
-0.13318825953015845   -0.07770439230767096   -0.011931486130332262
-0.12110190582803058   -0.025518339037713087   2.9015727313798888e-05
-0.12110190582803058   -0.025518339037713087   2.9015727313798888e-05
-0.12110190582803058   -0.025518339037713087   2.9015727313798888e-05
-0.12110190582803058   -0.025518339037713087   2.9015727313798888e-05
-0.2098983279724344   -0.09412730908733387   -0.01230482625542112
-0.2098983279724344   -0.09412730908733387   -0.01230482625542112
-0.2098983279724344   -0.09412730908733387   -0.01230482625542112
-0.2098983279724344   -0.09412730908733387   -0.01230482625542112
-0.161595084102629   -0.05893801255112359   -0.00510551330427967
-0.161595084102629   -0.05893801255112359   -0.00510551330427967
-0.161595084102629   -0.05893801255112359   -0.00510551330427967
-0.161595084102629   -0.05893801255112359   -0.00510551330427967
-0.19925424112373918   -0.04316412455181087   -0.010047576547466533
-0.19925424112373918   -0.04316412455181087   -0.010047576547466533
-0.19925424112373918   -0.04316412455181087   -0.010047576547466533
-0.19925424112373918   -0.04316412455181087   -0.010047576547466533
-0.13340190698068133   -0.07813743787719138   -0.00885189119646173
-0.13340190698068133   -0.07813743787719138   -0.00885189119646173
-0.13340190698068133   -0.07813743787719138   -0.00885189119646173
-0.13340190698068133   -0.07813743787719138   -0.00885189119646173
-0.1213902255887844   -0.03264322753418747   0.0017914447847009606
-0.1213902255887844   -0.03264322753418747   0.0017914447847009606
-0.1213902255887844   -0.03264322753418747   0.0017914447847009606
-0.1213902255887844   -0.03264322753418747   0.0017914447847009606
-0.20968216655757296   -0.09547665558564887   -0.018378748065472007
-0.20968216655757296   -0.09547665558564887   -0.018378748065472007
-0.20968216655757296   -0.09547665558564887   -0.018378748065472007
-0.20968216655757296   -0.09547665558564887   -0.018378748065472007
-0.16435624921074612   -0.06332933754891558   -0.009516657072580913
-0.16435624921074612   -0.06332933754891558   -0.009516657072580913
-0.16435624921074612   -0.06332933754891558   -0.009516657072580913
-0.16435624921074612   -0.06332933754891558   -0.009516657072580913
-0.11944503844136826   -0.021537964009387723   -0.0015627661321562052
-0.11944503844136826   -0.021537964009387723   -0.0015627661321562052
-0.11944503844136826   -0.021537964009387723   -0.0015627661321562052
-0.11944503844136826   -0.021537964009387723   -0.0015627661321562052
-0.10169395717770534   -0.06891461893126125   -0.011892686288242365
-0.10169395717770534   -0.06891461893126125   -0.011892686288242365
-0.10169395717770534   -0.06891461893126125   -0.011892686288242365
-0.10169395717770534   -0.06891461893126125   -0.011892686288242365
-0.08770902303657363   -0.01811927028863789   0.00458686375499953
-0.08770902303657363   -0.01811927028863789   0.00458686375499953
-0.08770902303657363   -0.01811927028863789   0.00458686375499953
-0.08770902303657363   -0.01811927028863789   0.00458686375499953
-0.13277568442274498   -0.07453518356510426   -0.013037819335831556
-0.13277568442274498   -0.07453518356510426   -0.013037819335831556
-0.13277568442274498   -0.07453518356510426   -0.013037819335831556
-0.13277568442274498   -0.07453518356510426   -0.013037819335831556
-0.10993988347105958   -0.04636362831313898   -0.005459409066369895
-0.10993988347105958   -0.04636362831313898   -0.005459409066369895
-0.10993988347105958   -0.04636362831313898   -0.005459409066369895
-0.10993988347105958   -0.04636362831313898   -0.005459409066369895
-0.12032947475058106   -0.025524270242052102   0.0001823157019359125
-0.12032947475058106   -0.025524270242052102   0.0001823157019359125
-0.12032947475058106   -0.025524270242052102   0.0001823157019359125
-0.12032947475058106   -0.025524270242052102   0.0001823157019359125
-0.10086329923296046   -0.06783825013591263   -0.011465537379657973
-0.10086329923296046   -0.06783825013591263   -0.011465537379657973
-0.10086329923296046   -0.06783825013591263   -0.011465537379657973
-0.10086329923296046   -0.06783825013591263   -0.011465537379657973
-0.0880094779023479   -0.022878499343614397   0.005965632621200256
-0.0880094779023479   -0.022878499343614397   0.005965632621200256
-0.0880094779023479   -0.022878499343614397   0.005965632621200256
-0.0880094779023479   -0.022878499343614397   0.005965632621200256
-0.133464047807336   -0.07571188990224396   -0.011588143304682403
-0.133464047807336   -0.07571188990224396   -0.011588143304682403
-0.133464047807336   -0.07571188990224396   -0.011588143304682403
-0.133464047807336   -0.07571188990224396   -0.011588143304682403
-0.10997375764385675   -0.048116961619171256   -0.007091370305736261
-0.10997375764385675   -0.048116961619171256   -0.007091370305736261
-0.10997375764385675   -0.048116961619171256   -0.007091370305736261
-0.10997375764385675   -0.048116961619171256   -0.007091370305736261
-0.12163548876163635   -0.0303568963628302   0.0021996583844020234
-0.12163548876163635   -0.0303568963628302   0.0021996583844020234
-0.12163548876163635   -0.0303568963628302   0.0021996583844020234
-0.12163548876163635   -0.0303568963628302   0.0021996583844020234
-0.10023153289179654   -0.0686269888267759   -0.009396152842881478
-0.10023153289179654   -0.0686269888267759   -0.009396152842881478
-0.10023153289179654   -0.0686269888267759   -0.009396152842881478
-0.10023153289179654   -0.0686269888267759   -0.009396152842881478
-0.08727820788099114   -0.027386342371386412   0.007477599551065351
-0.08727820788099114   -0.027386342371386412   0.007477599551065351
-0.08727820788099114   -0.027386342371386412   0.007477599551065351
-0.08727820788099114   -0.027386342371386412   0.007477599551065351
-0.13219870820201196   -0.07659202662527892   -0.008302169190345389
-0.13219870820201196   -0.07659202662527892   -0.008302169190345389
-0.13219870820201196   -0.07659202662527892   -0.008302169190345389
-0.13219870820201196   -0.07659202662527892   -0.008302169190345389
-0.10994545780180123   -0.05047258948394561   -0.008265128609029044
-0.10994545780180123   -0.05047258948394561   -0.008265128609029044
-0.10994545780180123   -0.05047258948394561   -0.008265128609029044
-0.10994545780180123   -0.05047258948394561   -0.008265128609029044
-0.08444984043550503   -0.0028743965345357746   0.008287675026033722
-0.08444984043550503   -0.0028743965345357746   0.008287675026033722
-0.08444984043550503   -0.0028743965345357746   0.008287675026033722
-0.08444984043550503   -0.0028743965345357746   0.008287675026033722
-0.08136361243262347   -0.03678728610878761   -0.007258278419546066
-0.08136361243262347   -0.03678728610878761   -0.007258278419546066
-0.08136361243262347   -0.03678728610878761   -0.007258278419546066
-0.08136361243262347   -0.03678728610878761   -0.007258278419546066
-0.07041871262956001   -0.005315453093044134   0.009550795218664906
-0.07041871262956001   -0.005315453093044134   0.009550795218664906
-0.07041871262956001   -0.005315453093044134   0.009550795218664906
-0.07041871262956001   -0.005315453093044134   0.009550795218664906
-0.09444341898773738   -0.042120609521217135   -0.005083776768240025
-0.09444341898773738   -0.042120609521217135   -0.005083776768240025
-0.09444341898773738   -0.042120609521217135   -0.005083776768240025
-0.09444341898773738   -0.042120609521217135   -0.005083776768240025
-0.08293264908028045   -0.021548364500577087   -0.0029778115136667145
-0.08293264908028045   -0.021548364500577087   -0.0029778115136667145
-0.08293264908028045   -0.021548364500577087   -0.0029778115136667145
-0.08293264908028045   -0.021548364500577087   -0.0029778115136667145
-0.08472466901662674   -0.008174108917476037   0.00956347248357211
-0.08472466901662674   -0.008174108917476037   0.00956347248357211
-0.08472466901662674   -0.008174108917476037   0.00956347248357211
-0.08472466901662674   -0.008174108917476037   0.00956347248357211
-0.08090690514221138   -0.04003139623832595   -0.008174224199310121
-0.08090690514221138   -0.04003139623832595   -0.008174224199310121
-0.08090690514221138   -0.04003139623832595   -0.008174224199310121
-0.08090690514221138   -0.04003139623832595   -0.008174224199310121
-0.07077705008325683   -0.009961526630785214   0.010285371466008351
-0.07077705008325683   -0.009961526630785214   0.010285371466008351
-0.07077705008325683   -0.009961526630785214   0.010285371466008351
-0.07077705008325683   -0.009961526630785214   0.010285371466008351
-0.09468910614080549   -0.044706632650549555   -0.005604375264154395
-0.09468910614080549   -0.044706632650549555   -0.005604375264154395
-0.09468910614080549   -0.044706632650549555   -0.005604375264154395
-0.09468910614080549   -0.044706632650549555   -0.005604375264154395
-0.08280746345894875   -0.025255046639248026   -0.005079107391907861
-0.08280746345894875   -0.025255046639248026   -0.005079107391907861
-0.08280746345894875   -0.025255046639248026   -0.005079107391907861
-0.08280746345894875   -0.025255046639248026   -0.005079107391907861
-0.08498897209368152   -0.012685877384907198   0.010875539705823119
-0.08498897209368152   -0.012685877384907198   0.010875539705823119
-0.08498897209368152   -0.012685877384907198   0.010875539705823119
-0.08498897209368152   -0.012685877384907198   0.010875539705823119
-0.08094437855237918   -0.04244947631842595   -0.00806332119196269
-0.08094437855237918   -0.04244947631842595   -0.00806332119196269
-0.08094437855237918   -0.04244947631842595   -0.00806332119196269
-0.08094437855237918   -0.04244947631842595   -0.00806332119196269
-0.0704508969990319   -0.014334249601361706   0.011931421535620748
-0.0704508969990319   -0.014334249601361706   0.011931421535620748
-0.0704508969990319   -0.014334249601361706   0.011931421535620748
-0.0704508969990319   -0.014334249601361706   0.011931421535620748
-0.09350660883371135   -0.04727081443167734   -0.003779933152244815
-0.09350660883371135   -0.04727081443167734   -0.003779933152244815
-0.09350660883371135   -0.04727081443167734   -0.003779933152244815
-0.09350660883371135   -0.04727081443167734   -0.003779933152244815
-0.08285324138982011   -0.028490909874999144   -0.006576385584829517
-0.08285324138982011   -0.028490909874999144   -0.006576385584829517
-0.08285324138982011   -0.028490909874999144   -0.006576385584829517
-0.08285324138982011   -0.028490909874999144   -0.006576385584829517
-0.06802425797569633   0.00963202582354622   0.013019181932755714
-0.06802425797569633   0.00963202582354622   0.013019181932755714
-0.06802425797569633   0.00963202582354622   0.013019181932755714
-0.06802425797569633   0.00963202582354622   0.013019181932755714
-0.04726189936458407   -0.01232621445322212   -0.0045656751348170784
-0.04726189936458407   -0.01232621445322212   -0.0045656751348170784
-0.04726189936458407   -0.01232621445322212   -0.0045656751348170784
-0.04726189936458407   -0.01232621445322212   -0.0045656751348170784
-0.04182524767089667   0.010920622697233599   0.012892161101042406
-0.04182524767089667   0.010920622697233599   0.012892161101042406
-0.04182524767089667   0.010920622697233599   0.012892161101042406
-0.04182524767089667   0.010920622697233599   0.012892161101042406
-0.07541587197597607   -0.018365984583333647   -0.002384470023125843
-0.07541587197597607   -0.018365984583333647   -0.002384470023125843
-0.07541587197597607   -0.018365984583333647   -0.002384470023125843
-0.07541587197597607   -0.018365984583333647   -0.002384470023125843
-0.05724911298314224   -0.0012468094405227378   -0.0022333283051367593
-0.05724911298314224   -0.0012468094405227378   -0.0022333283051367593
-0.05724911298314224   -0.0012468094405227378   -0.0022333283051367593
-0.05724911298314224   -0.0012468094405227378   -0.0022333283051367593
-0.06720077705519832   0.0061100738330434785   0.014214946164385789
-0.06720077705519832   0.0061100738330434785   0.014214946164385789
-0.06720077705519832   0.0061100738330434785   0.014214946164385789
-0.06720077705519832   0.0061100738330434785   0.014214946164385789
-0.05013853539397134   -0.013653628521438534   -0.0041000262956550106
-0.05013853539397134   -0.013653628521438534   -0.0041000262956550106
-0.05013853539397134   -0.013653628521438534   -0.0041000262956550106
-0.05013853539397134   -0.013653628521438534   -0.0041000262956550106
-0.04387970900414287   0.008612766618316963   0.016200086596867988
-0.04387970900414287   0.008612766618316963   0.016200086596867988
-0.04387970900414287   0.008612766618316963   0.016200086596867988
-0.04387970900414287   0.008612766618316963   0.016200086596867988
-0.0753555471350288   -0.019592472561190278   -0.0029761678624465153
-0.0753555471350288   -0.019592472561190278   -0.0029761678624465153
-0.0753555471350288   -0.019592472561190278   -0.0029761678624465153
-0.0753555471350288   -0.019592472561190278   -0.0029761678624465153
-0.059245205944214875   -0.003759400213710202   -0.0033118120961224675
-0.059245205944214875   -0.003759400213710202   -0.0033118120961224675
-0.059245205944214875   -0.003759400213710202   -0.0033118120961224675
-0.059245205944214875   -0.003759400213710202   -0.0033118120961224675
-0.06675837062381511   0.00406705450124605   0.01635018763118566
-0.06675837062381511   0.00406705450124605   0.01635018763118566
-0.06675837062381511   0.00406705450124605   0.01635018763118566
-0.06675837062381511   0.00406705450124605   0.01635018763118566
-0.05306579804261406   -0.015635672971376212   -0.005481919005790941
-0.05306579804261406   -0.015635672971376212   -0.005481919005790941
-0.05306579804261406   -0.015635672971376212   -0.005481919005790941
-0.05306579804261406   -0.015635672971376212   -0.005481919005790941
-0.05010396094891674   0.002256575266546262   0.01686227995788512
-0.05010396094891674   0.002256575266546262   0.01686227995788512
-0.05010396094891674   0.002256575266546262   0.01686227995788512
-0.05010396094891674   0.002256575266546262   0.01686227995788512
-0.07462020912615298   -0.020783997215261696   -0.002465391486084674
-0.07462020912615298   -0.020783997215261696   -0.002465391486084674
-0.07462020912615298   -0.020783997215261696   -0.002465391486084674
-0.07462020912615298   -0.020783997215261696   -0.002465391486084674
-0.06031495208717443   -0.005629903355327011   -0.004959904502099682
-0.06031495208717443   -0.005629903355327011   -0.004959904502099682
-0.06031495208717443   -0.005629903355327011   -0.004959904502099682
-0.06031495208717443   -0.005629903355327011   -0.004959904502099682
-0.6791836071308526   -0.09753248962659042   -0.05745932084121796
-0.6791836071308526   -0.09753248962659042   -0.05745932084121796
-0.6791836071308526   -0.09753248962659042   -0.05745932084121796
-0.6791836071308526   -0.09753248962659042   -0.05745932084121796
-0.23747617036927293   -0.387499977431663   -0.044704693757340125
-0.23747617036927293   -0.387499977431663   -0.044704693757340125
-0.23747617036927293   -0.387499977431663   -0.044704693757340125
-0.23747617036927293   -0.387499977431663   -0.044704693757340125
-0.1815916245357342   -0.01702526873634618   5.619024289434289e-05
-0.1815916245357342   -0.01702526873634618   5.619024289434289e-05
-0.1815916245357342   -0.01702526873634618   5.619024289434289e-05
-0.1815916245357342   -0.01702526873634618   5.619024289434289e-05
-0.7289376289679992   -0.452529143087588   -0.23629335441111743
-0.7289376289679992   -0.452529143087588   -0.23629335441111743
-0.7289376289679992   -0.452529143087588   -0.23629335441111743
-0.7289376289679992   -0.452529143087588   -0.23629335441111743
-0.44530831746361904   -0.2247084187279073   -0.032796729019089976
-0.44530831746361904   -0.2247084187279073   -0.032796729019089976
-0.44530831746361904   -0.2247084187279073   -0.032796729019089976
-0.44530831746361904   -0.2247084187279073   -0.032796729019089976
-0.6313176728284796   -0.1226052165030806   -0.07811750029803219
-0.6313176728284796   -0.1226052165030806   -0.07811750029803219
-0.6313176728284796   -0.1226052165030806   -0.07811750029803219
-0.6313176728284796   -0.1226052165030806   -0.07811750029803219
-0.25701908278386115   -0.32475669742946156   -0.06934967230462316
-0.25701908278386115   -0.32475669742946156   -0.06934967230462316
-0.25701908278386115   -0.32475669742946156   -0.06934967230462316
-0.25701908278386115   -0.32475669742946156   -0.06934967230462316
-0.185758342363613   -0.022252046966557346   0.006898223290498511
-0.185758342363613   -0.022252046966557346   0.006898223290498511
-0.185758342363613   -0.022252046966557346   0.006898223290498511
-0.185758342363613   -0.022252046966557346   0.006898223290498511
-0.6824552189244149   -0.40528044742747804   -0.21754713327037858
-0.6824552189244149   -0.40528044742747804   -0.21754713327037858
-0.6824552189244149   -0.40528044742747804   -0.21754713327037858
-0.6824552189244149   -0.40528044742747804   -0.21754713327037858
-0.41970455615084834   -0.20315099319286056   0.016582004554978907
-0.41970455615084834   -0.20315099319286056   0.016582004554978907
-0.41970455615084834   -0.20315099319286056   0.016582004554978907
-0.41970455615084834   -0.20315099319286056   0.016582004554978907
-0.5929593912769296   -0.11678465824950615   -0.058563784210928956
-0.5929593912769296   -0.11678465824950615   -0.058563784210928956
-0.5929593912769296   -0.11678465824950615   -0.058563784210928956
-0.5929593912769296   -0.11678465824950615   -0.058563784210928956
-0.250541616235062   -0.28603528236849346   -0.05323491066480871
-0.250541616235062   -0.28603528236849346   -0.05323491066480871
-0.250541616235062   -0.28603528236849346   -0.05323491066480871
-0.250541616235062   -0.28603528236849346   -0.05323491066480871
-0.21464727998723365   -0.056411051403673654   -0.011558649915009073
-0.21464727998723365   -0.056411051403673654   -0.011558649915009073
-0.21464727998723365   -0.056411051403673654   -0.011558649915009073
-0.21464727998723365   -0.056411051403673654   -0.011558649915009073
-0.622211134630661   -0.3427127228939476   -0.19298477150492174
-0.622211134630661   -0.3427127228939476   -0.19298477150492174
-0.622211134630661   -0.3427127228939476   -0.19298477150492174
-0.622211134630661   -0.3427127228939476   -0.19298477150492174
-0.38908835831339594   -0.17651995921543517   0.07251404771481842
-0.38908835831339594   -0.17651995921543517   0.07251404771481842
-0.38908835831339594   -0.17651995921543517   0.07251404771481842
-0.38908835831339594   -0.17651995921543517   0.07251404771481842
-0.17318252207238236   -0.09656624515615471   -0.014170184548396997
-0.17318252207238236   -0.09656624515615471   -0.014170184548396997
-0.17318252207238236   -0.09656624515615471   -0.014170184548396997
-0.17318252207238236   -0.09656624515615471   -0.014170184548396997
-0.08166249951619839   -0.1269696811139998   -0.020252830998436167
-0.08166249951619839   -0.1269696811139998   -0.020252830998436167
-0.08166249951619839   -0.1269696811139998   -0.020252830998436167
-0.08166249951619839   -0.1269696811139998   -0.020252830998436167
-0.07104261106022207   -0.06254770726841503   0.0017062905960108978
-0.07104261106022207   -0.06254770726841503   0.0017062905960108978
-0.07104261106022207   -0.06254770726841503   0.0017062905960108978
-0.07104261106022207   -0.06254770726841503   0.0017062905960108978
-0.2144895576090137   -0.18237614011740969   0.0009173962575623543
-0.2144895576090137   -0.18237614011740969   0.0009173962575623543
-0.2144895576090137   -0.18237614011740969   0.0009173962575623543
-0.2144895576090137   -0.18237614011740969   0.0009173962575623543
-0.11448861496351602   -0.08802365750550332   0.03724593758032536
-0.11448861496351602   -0.08802365750550332   0.03724593758032536
-0.11448861496351602   -0.08802365750550332   0.03724593758032536
-0.11448861496351602   -0.08802365750550332   0.03724593758032536
-0.19804760482422645   -0.09011646677300067   -0.009132513162912843
-0.19804760482422645   -0.09011646677300067   -0.009132513162912843
-0.19804760482422645   -0.09011646677300067   -0.009132513162912843
-0.19804760482422645   -0.09011646677300067   -0.009132513162912843
-0.09371401344077704   -0.1610368302085925   -0.013161598366588378
-0.09371401344077704   -0.1610368302085925   -0.013161598366588378
-0.09371401344077704   -0.1610368302085925   -0.013161598366588378
-0.09371401344077704   -0.1610368302085925   -0.013161598366588378
-0.07719848178933332   -0.06475510939974588   0.0018563259994177732
-0.07719848178933332   -0.06475510939974588   0.0018563259994177732
-0.07719848178933332   -0.06475510939974588   0.0018563259994177732
-0.07719848178933332   -0.06475510939974588   0.0018563259994177732
-0.22566455091699072   -0.18063119999799102   -0.0342536664449549
-0.22566455091699072   -0.18063119999799102   -0.0342536664449549
-0.22566455091699072   -0.18063119999799102   -0.0342536664449549
-0.22566455091699072   -0.18063119999799102   -0.0342536664449549
-0.13741839701850297   -0.1123774340276197   0.016576216592521165
-0.13741839701850297   -0.1123774340276197   0.016576216592521165
-0.13741839701850297   -0.1123774340276197   0.016576216592521165
-0.13741839701850297   -0.1123774340276197   0.016576216592521165
-0.2049399923311654   -0.09410590950896663   -0.017156164004854015
-0.2049399923311654   -0.09410590950896663   -0.017156164004854015
-0.2049399923311654   -0.09410590950896663   -0.017156164004854015
-0.2049399923311654   -0.09410590950896663   -0.017156164004854015
-0.09736603830382407   -0.15072339781743588   -0.013013168155345912
-0.09736603830382407   -0.15072339781743588   -0.013013168155345912
-0.09736603830382407   -0.15072339781743588   -0.013013168155345912
-0.09736603830382407   -0.15072339781743588   -0.013013168155345912
-0.08683963626118571   -0.06668207271739698   0.002751635979396339
-0.08683963626118571   -0.06668207271739698   0.002751635979396339
-0.08683963626118571   -0.06668207271739698   0.002751635979396339
-0.08683963626118571   -0.06668207271739698   0.002751635979396339
-0.24214893281438196   -0.17594053995620795   -0.029537425498215496
-0.24214893281438196   -0.17594053995620795   -0.029537425498215496
-0.24214893281438196   -0.17594053995620795   -0.029537425498215496
-0.24214893281438196   -0.17594053995620795   -0.029537425498215496
-0.14441315635294044   -0.10601740560025955   0.017451874139507443
-0.14441315635294044   -0.10601740560025955   0.017451874139507443
-0.14441315635294044   -0.10601740560025955   0.017451874139507443
-0.14441315635294044   -0.10601740560025955   0.017451874139507443
-0.06295692343088281   -0.057939667717849905   0.004245036031991821
-0.06295692343088281   -0.057939667717849905   0.004245036031991821
-0.06295692343088281   -0.057939667717849905   0.004245036031991821
-0.06295692343088281   -0.057939667717849905   0.004245036031991821
-0.039773197904261155   -0.0419723254724802   -0.01000673819237759
-0.039773197904261155   -0.0419723254724802   -0.01000673819237759
-0.039773197904261155   -0.0419723254724802   -0.01000673819237759
-0.039773197904261155   -0.0419723254724802   -0.01000673819237759
-0.03811661251641825   -0.052161108365229074   0.0041734847572214625
-0.03811661251641825   -0.052161108365229074   0.0041734847572214625
-0.03811661251641825   -0.052161108365229074   0.0041734847572214625
-0.03811661251641825   -0.052161108365229074   0.0041734847572214625
-0.07088800015673326   -0.05613697270934903   -0.003931389445612941
-0.07088800015673326   -0.05613697270934903   -0.003931389445612941
-0.07088800015673326   -0.05613697270934903   -0.003931389445612941
-0.07088800015673326   -0.05613697270934903   -0.003931389445612941
-0.04454659897540257   -0.043779729806884285   0.018781877186072757
-0.04454659897540257   -0.043779729806884285   0.018781877186072757
-0.04454659897540257   -0.043779729806884285   0.018781877186072757
-0.04454659897540257   -0.043779729806884285   0.018781877186072757
-0.06961743041086635   -0.05836589298390642   0.004650379558279006
-0.06961743041086635   -0.05836589298390642   0.004650379558279006
-0.06961743041086635   -0.05836589298390642   0.004650379558279006
-0.06961743041086635   -0.05836589298390642   0.004650379558279006
-0.040095809096648824   -0.05064081492503471   -0.007242791584125786
-0.040095809096648824   -0.05064081492503471   -0.007242791584125786
-0.040095809096648824   -0.05064081492503471   -0.007242791584125786
-0.040095809096648824   -0.05064081492503471   -0.007242791584125786
-0.038851470223947415   -0.053719635452879506   0.003760551358751297
-0.038851470223947415   -0.053719635452879506   0.003760551358751297
-0.038851470223947415   -0.053719635452879506   0.003760551358751297
-0.038851470223947415   -0.053719635452879506   0.003760551358751297
-0.07574316399578067   -0.06521844333057858   0.009596248898013743
-0.07574316399578067   -0.06521844333057858   0.009596248898013743
-0.07574316399578067   -0.06521844333057858   0.009596248898013743
-0.07574316399578067   -0.06521844333057858   0.009596248898013743
-0.04895197870142984   -0.04888513377124775   0.015604192146139704
-0.04895197870142984   -0.04888513377124775   0.015604192146139704
-0.04895197870142984   -0.04888513377124775   0.015604192146139704
-0.04895197870142984   -0.04888513377124775   0.015604192146139704
-0.07547788176161085   -0.060546820570421975   0.006251037308706244
-0.07547788176161085   -0.060546820570421975   0.006251037308706244
-0.07547788176161085   -0.060546820570421975   0.006251037308706244
-0.07547788176161085   -0.060546820570421975   0.006251037308706244
-0.042499106425204776   -0.06177361218012429   -0.006423652920290707
-0.042499106425204776   -0.06177361218012429   -0.006423652920290707
-0.042499106425204776   -0.06177361218012429   -0.006423652920290707
-0.042499106425204776   -0.06177361218012429   -0.006423652920290707
-0.03983945490130761   -0.055393968773911936   0.005328866765789076
-0.03983945490130761   -0.055393968773911936   0.005328866765789076
-0.03983945490130761   -0.055393968773911936   0.005328866765789076
-0.03983945490130761   -0.055393968773911936   0.005328866765789076
-0.08939822191128022   -0.07954036639593756   0.0028170014074625806
-0.08939822191128022   -0.07954036639593756   0.0028170014074625806
-0.08939822191128022   -0.07954036639593756   0.0028170014074625806
-0.08939822191128022   -0.07954036639593756   0.0028170014074625806
-0.05520471466918442   -0.055483726637896094   0.006945689238502008
-0.05520471466918442   -0.055483726637896094   0.006945689238502008
-0.05520471466918442   -0.055483726637896094   0.006945689238502008
-0.05520471466918442   -0.055483726637896094   0.006945689238502008
-0.031762061024989005   -0.02316666333087513   0.011243284062378074
-0.031762061024989005   -0.02316666333087513   0.011243284062378074
-0.031762061024989005   -0.02316666333087513   0.011243284062378074
-0.031762061024989005   -0.02316666333087513   0.011243284062378074
-0.023265126067904488   -0.0021613252309624336   -0.0023103546181617867
-0.023265126067904488   -0.0021613252309624336   -0.0023103546181617867
-0.023265126067904488   -0.0021613252309624336   -0.0023103546181617867
-0.023265126067904488   -0.0021613252309624336   -0.0023103546181617867
-0.022007971201287568   -0.025231982500607757   0.0069239105483570595
-0.022007971201287568   -0.025231982500607757   0.0069239105483570595
-0.022007971201287568   -0.025231982500607757   0.0069239105483570595
-0.022007971201287568   -0.025231982500607757   0.0069239105483570595
-0.030072689302935576   -0.006746530135814856   -0.0010214774047793938
-0.030072689302935576   -0.006746530135814856   -0.0010214774047793938
-0.030072689302935576   -0.006746530135814856   -0.0010214774047793938
-0.030072689302935576   -0.006746530135814856   -0.0010214774047793938
-0.024707399006059297   -0.013554826541032565   0.0055716527111996875
-0.024707399006059297   -0.013554826541032565   0.0055716527111996875
-0.024707399006059297   -0.013554826541032565   0.0055716527111996875
-0.024707399006059297   -0.013554826541032565   0.0055716527111996875
-0.031671319181992195   -0.026418054661329637   0.01065689772545228
-0.031671319181992195   -0.026418054661329637   0.01065689772545228
-0.031671319181992195   -0.026418054661329637   0.01065689772545228
-0.031671319181992195   -0.026418054661329637   0.01065689772545228
-0.019902807753505544   -0.005053924406367573   -0.0027283303069730097
-0.019902807753505544   -0.005053924406367573   -0.0027283303069730097
-0.019902807753505544   -0.005053924406367573   -0.0027283303069730097
-0.019902807753505544   -0.005053924406367573   -0.0027283303069730097
-0.02044670959853665   -0.027450478601923865   0.006433998436705223
-0.02044670959853665   -0.027450478601923865   0.006433998436705223
-0.02044670959853665   -0.027450478601923865   0.006433998436705223
-0.02044670959853665   -0.027450478601923865   0.006433998436705223
-0.03065165375249914   -0.011445170172164927   0.00248516843527812
-0.03065165375249914   -0.011445170172164927   0.00248516843527812
-0.03065165375249914   -0.011445170172164927   0.00248516843527812
-0.03065165375249914   -0.011445170172164927   0.00248516843527812
-0.0230161468964632   -0.015613050595299358   0.0064100187459712795
-0.0230161468964632   -0.015613050595299358   0.0064100187459712795
-0.0230161468964632   -0.015613050595299358   0.0064100187459712795
-0.0230161468964632   -0.015613050595299358   0.0064100187459712795
-0.03214194402478104   -0.028632179828477537   0.012220726730181247
-0.03214194402478104   -0.028632179828477537   0.012220726730181247
-0.03214194402478104   -0.028632179828477537   0.012220726730181247
-0.03214194402478104   -0.028632179828477537   0.012220726730181247
-0.01920383890588441   -0.010510888525240913   -0.004291238176716528
-0.01920383890588441   -0.010510888525240913   -0.004291238176716528
-0.01920383890588441   -0.010510888525240913   -0.004291238176716528
-0.01920383890588441   -0.010510888525240913   -0.004291238176716528
-0.017591626975802806   -0.029908756825249093   0.0071153730219879075
-0.017591626975802806   -0.029908756825249093   0.0071153730219879075
-0.017591626975802806   -0.029908756825249093   0.0071153730219879075
-0.017591626975802806   -0.029908756825249093   0.0071153730219879075
-0.03367936056811329   -0.02246637419108643   0.0032017438489351712
-0.03367936056811329   -0.02246637419108643   0.0032017438489351712
-0.03367936056811329   -0.02246637419108643   0.0032017438489351712
-0.03367936056811329   -0.02246637419108643   0.0032017438489351712
-0.02257726003548951   -0.01956385545788187   0.005262279902316154
-0.02257726003548951   -0.01956385545788187   0.005262279902316154
-0.02257726003548951   -0.01956385545788187   0.005262279902316154
-0.02257726003548951   -0.01956385545788187   0.005262279902316154
-0.020853321849145866   -0.00384491306186504   0.011432254306533943
-0.020853321849145866   -0.00384491306186504   0.011432254306533943
-0.020853321849145866   -0.00384491306186504   0.011432254306533943
-0.020853321849145866   -0.00384491306186504   0.011432254306533943
-0.004385564168674386   0.002043831975957676   -0.00023151095569700177
-0.004385564168674386   0.002043831975957676   -0.00023151095569700177
-0.004385564168674386   0.002043831975957676   -0.00023151095569700177
-0.004385564168674386   0.002043831975957676   -0.00023151095569700177
0.00035417989389417866   -0.0013026286283644066   0.007162257881850114
0.00035417989389417866   -0.0013026286283644066   0.007162257881850114
0.00035417989389417866   -0.0013026286283644066   0.007162257881850114
0.00035417989389417866   -0.0013026286283644066   0.007162257881850114
-0.018213971987985956   0.0012748190585357847   -0.0006128949442784366
-0.018213971987985956   0.0012748190585357847   -0.0006128949442784366
-0.018213971987985956   0.0012748190585357847   -0.0006128949442784366
-0.018213971987985956   0.0012748190585357847   -0.0006128949442784366
-0.010914283926018129   -0.0009013913374593732   -0.0008065172395240923
-0.010914283926018129   -0.0009013913374593732   -0.0008065172395240923
-0.010914283926018129   -0.0009013913374593732   -0.0008065172395240923
-0.010914283926018129   -0.0009013913374593732   -0.0008065172395240923
-0.016716085375017377   -0.0037657181855812144   0.01191707536467763
-0.016716085375017377   -0.0037657181855812144   0.01191707536467763
-0.016716085375017377   -0.0037657181855812144   0.01191707536467763
-0.016716085375017377   -0.0037657181855812144   0.01191707536467763
-0.0005386670589088074   0.004342948275917548   -0.002947553786446771
-0.0005386670589088074   0.004342948275917548   -0.002947553786446771
-0.0005386670589088074   0.004342948275917548   -0.002947553786446771
-0.0005386670589088074   0.004342948275917548   -0.002947553786446771
0.002570799981493541   -0.0016431836131777125   0.00884392976109013
0.002570799981493541   -0.0016431836131777125   0.00884392976109013
0.002570799981493541   -0.0016431836131777125   0.00884392976109013
0.002570799981493541   -0.0016431836131777125   0.00884392976109013
-0.016292906074497335   0.0006234187873964971   -0.000870881332418554
-0.016292906074497335   0.0006234187873964971   -0.000870881332418554
-0.016292906074497335   0.0006234187873964971   -0.000870881332418554
-0.016292906074497335   0.0006234187873964971   -0.000870881332418554
-0.007591446728978692   -0.00038717470345271676   0.0010499649149816742
-0.007591446728978692   -0.00038717470345271676   0.0010499649149816742
-0.007591446728978692   -0.00038717470345271676   0.0010499649149816742
-0.007591446728978692   -0.00038717470345271676   0.0010499649149816742
-0.014523426122630172   -0.00425902278613208   0.012858960000445837
-0.014523426122630172   -0.00425902278613208   0.012858960000445837
-0.014523426122630172   -0.00425902278613208   0.012858960000445837
-0.014523426122630172   -0.00425902278613208   0.012858960000445837
0.001313639036033504   0.0037515769667573516   -0.00283663554614512
0.001313639036033504   0.0037515769667573516   -0.00283663554614512
0.001313639036033504   0.0037515769667573516   -0.00283663554614512
0.001313639036033504   0.0037515769667573516   -0.00283663554614512
0.004672556071106068   -0.002701863121195107   0.00865251378698921
0.004672556071106068   -0.002701863121195107   0.00865251378698921
0.004672556071106068   -0.002701863121195107   0.00865251378698921
0.004672556071106068   -0.002701863121195107   0.00865251378698921
-0.013193848775023113   0.00015214137177780316   -0.000956634171140526
-0.013193848775023113   0.00015214137177780316   -0.000956634171140526
-0.013193848775023113   0.00015214137177780316   -0.000956634171140526
-0.013193848775023113   0.00015214137177780316   -0.000956634171140526
-0.0046880465274187445   -0.0001788272332987416   0.0025944886608576675
-0.0046880465274187445   -0.0001788272332987416   0.0025944886608576675
-0.0046880465274187445   -0.0001788272332987416   0.0025944886608576675
-0.0046880465274187445   -0.0001788272332987416   0.0025944886608576675
              </DataArray>   
             <DataArray type="Float64" NumberOfComponents="3" Name="Displacements" format="ascii">   
0.0   0.0   0.0
-0.00190229742327109   -0.0012563070229923094   -0.0006377611466564501
0.0   0.0   0.0
0.0   0.0   0.0
-0.00190229742327109   -0.0012563070229923094   -0.0006377611466564501
-0.0012096945796596455   -0.0011304872240838458   -0.00046866224993265834
0.0   0.0   0.0
-0.001185238640179966   -0.001186736677790742   -0.00039281051594794865
0.0   0.0   0.0
0.0   0.0   0.0
-0.001185238640179966   -0.001186736677790742   -0.00039281051594794865
0.0   0.0   0.0
0.0   0.0   0.0
-0.001185238640179966   -0.001186736677790742   -0.00039281051594794865
-0.0019901862908301223   -0.0013380241105899057   -0.0005122917070120627
-0.00190229742327109   -0.0012563070229923094   -0.0006377611466564501
0.0   0.0   0.0
-0.001185238640179966   -0.001186736677790742   -0.00039281051594794865
-0.00190229742327109   -0.0012563070229923094   -0.0006377611466564501
0.0   0.0   0.0
0.0   0.0   0.0
-0.0019901862908301223   -0.0013380241105899057   -0.0005122917070120627
0.0   0.0   0.0
0.0   0.0   0.0
-0.0019901862908301223   -0.0013380241105899057   -0.0005122917070120627
-0.001185238640179966   -0.001186736677790742   -0.00039281051594794865
0.0   0.0   0.0
-0.0011880058530793906   -0.0012156289544589043   -0.00031713364311301286
0.0   0.0   0.0
0.0   0.0   0.0
-0.0011880058530793906   -0.0012156289544589043   -0.00031713364311301286
0.0   0.0   0.0
0.0   0.0   0.0
-0.0011880058530793906   -0.0012156289544589043   -0.00031713364311301286
-0.002051645640514674   -0.001377791600892262   -0.00039219698028855306
-0.0019901862908301223   -0.0013380241105899057   -0.0005122917070120627
0.0   0.0   0.0
-0.0011880058530793906   -0.0012156289544589043   -0.00031713364311301286
-0.0019901862908301223   -0.0013380241105899057   -0.0005122917070120627
0.0   0.0   0.0
0.0   0.0   0.0
-0.002051645640514674   -0.001377791600892262   -0.00039219698028855306
0.0   0.0   0.0
0.0   0.0   0.0
-0.002051645640514674   -0.001377791600892262   -0.00039219698028855306
-0.0011880058530793906   -0.0012156289544589043   -0.00031713364311301286
0.0   0.0   0.0
-0.0011867328085002375   -0.0012231438470449647   -0.00023896455260210523
0.0   0.0   0.0
0.0   0.0   0.0
-0.0011867328085002375   -0.0012231438470449647   -0.00023896455260210523
0.0   0.0   0.0
0.0   0.0   0.0
-0.0011867328085002375   -0.0012231438470449647   -0.00023896455260210523
-0.0021846170030031305   -0.001408133163170296   -0.00025295101868013883
-0.002051645640514674   -0.001377791600892262   -0.00039219698028855306
0.0   0.0   0.0
-0.0011867328085002375   -0.0012231438470449647   -0.00023896455260210523
-0.002051645640514674   -0.001377791600892262   -0.00039219698028855306
0.0   0.0   0.0
0.0   0.0   0.0
-0.0012096945796596455   -0.0011304872240838458   -0.00046866224993265834
0.0   0.0   0.0
0.0   0.0   0.0
-0.0012096945796596455   -0.0011304872240838458   -0.00046866224993265834
-0.0005515668263308211   -0.0010844616817685137   -0.0003567209578813989
0.0   0.0   0.0
-0.000529928392943203   -0.0011210053147437831   -0.0003208428072940384
0.0   0.0   0.0
0.0   0.0   0.0
-0.000529928392943203   -0.0011210053147437831   -0.0003208428072940384
0.0   0.0   0.0
0.0   0.0   0.0
-0.000529928392943203   -0.0011210053147437831   -0.0003208428072940384
-0.001185238640179966   -0.001186736677790742   -0.00039281051594794865
-0.0012096945796596455   -0.0011304872240838458   -0.00046866224993265834
0.0   0.0   0.0
-0.000529928392943203   -0.0011210053147437831   -0.0003208428072940384
-0.0012096945796596455   -0.0011304872240838458   -0.00046866224993265834
0.0   0.0   0.0
0.0   0.0   0.0
-0.001185238640179966   -0.001186736677790742   -0.00039281051594794865
0.0   0.0   0.0
0.0   0.0   0.0
-0.001185238640179966   -0.001186736677790742   -0.00039281051594794865
-0.000529928392943203   -0.0011210053147437831   -0.0003208428072940384
0.0   0.0   0.0
-0.0005175403858094462   -0.0011349579683847444   -0.0002859662159387178
0.0   0.0   0.0
0.0   0.0   0.0
-0.0005175403858094462   -0.0011349579683847444   -0.0002859662159387178
0.0   0.0   0.0
0.0   0.0   0.0
-0.0005175403858094462   -0.0011349579683847444   -0.0002859662159387178
-0.0011880058530793906   -0.0012156289544589043   -0.00031713364311301286
-0.001185238640179966   -0.001186736677790742   -0.00039281051594794865
0.0   0.0   0.0
-0.0005175403858094462   -0.0011349579683847444   -0.0002859662159387178
-0.001185238640179966   -0.001186736677790742   -0.00039281051594794865
0.0   0.0   0.0
0.0   0.0   0.0
-0.0011880058530793906   -0.0012156289544589043   -0.00031713364311301286
0.0   0.0   0.0
0.0   0.0   0.0
-0.0011880058530793906   -0.0012156289544589043   -0.00031713364311301286
-0.0005175403858094462   -0.0011349579683847444   -0.0002859662159387178
0.0   0.0   0.0
-0.0005061650871285166   -0.00112919185339213   -0.0002499775478898709
0.0   0.0   0.0
0.0   0.0   0.0
-0.0005061650871285166   -0.00112919185339213   -0.0002499775478898709
0.0   0.0   0.0
0.0   0.0   0.0
-0.0005061650871285166   -0.00112919185339213   -0.0002499775478898709
-0.0011867328085002375   -0.0012231438470449647   -0.00023896455260210523
-0.0011880058530793906   -0.0012156289544589043   -0.00031713364311301286
0.0   0.0   0.0
-0.0005061650871285166   -0.00112919185339213   -0.0002499775478898709
-0.0011880058530793906   -0.0012156289544589043   -0.00031713364311301286
0.0   0.0   0.0
0.0   0.0   0.0
-0.0005515668263308211   -0.0010844616817685137   -0.0003567209578813989
0.0   0.0   0.0
0.0   0.0   0.0
-0.0005515668263308211   -0.0010844616817685137   -0.0003567209578813989
6.97485373895728e-05   -0.0010904487079499165   -0.00028555879801288477
0.0   0.0   0.0
8.382702981739977e-05   -0.0011093123666596266   -0.00029035725482747047
0.0   0.0   0.0
0.0   0.0   0.0
8.382702981739977e-05   -0.0011093123666596266   -0.00029035725482747047
0.0   0.0   0.0
0.0   0.0   0.0
8.382702981739977e-05   -0.0011093123666596266   -0.00029035725482747047
-0.000529928392943203   -0.0011210053147437831   -0.0003208428072940384
-0.0005515668263308211   -0.0010844616817685137   -0.0003567209578813989
0.0   0.0   0.0
8.382702981739977e-05   -0.0011093123666596266   -0.00029035725482747047
-0.0005515668263308211   -0.0010844616817685137   -0.0003567209578813989
0.0   0.0   0.0
0.0   0.0   0.0
-0.000529928392943203   -0.0011210053147437831   -0.0003208428072940384
0.0   0.0   0.0
0.0   0.0   0.0
-0.000529928392943203   -0.0011210053147437831   -0.0003208428072940384
8.382702981739977e-05   -0.0011093123666596266   -0.00029035725482747047
0.0   0.0   0.0
9.501471758187318e-05   -0.0011076811434490247   -0.00029474739030489576
0.0   0.0   0.0
0.0   0.0   0.0
9.501471758187318e-05   -0.0011076811434490247   -0.00029474739030489576
0.0   0.0   0.0
0.0   0.0   0.0
9.501471758187318e-05   -0.0011076811434490247   -0.00029474739030489576
-0.0005175403858094462   -0.0011349579683847444   -0.0002859662159387178
-0.000529928392943203   -0.0011210053147437831   -0.0003208428072940384
0.0   0.0   0.0
9.501471758187318e-05   -0.0011076811434490247   -0.00029474739030489576
-0.000529928392943203   -0.0011210053147437831   -0.0003208428072940384
0.0   0.0   0.0
0.0   0.0   0.0
-0.0005175403858094462   -0.0011349579683847444   -0.0002859662159387178
0.0   0.0   0.0
0.0   0.0   0.0
-0.0005175403858094462   -0.0011349579683847444   -0.0002859662159387178
9.501471758187318e-05   -0.0011076811434490247   -0.00029474739030489576
0.0   0.0   0.0
0.00010987680740285003   -0.0010838854530024111   -0.0002993268336104855
0.0   0.0   0.0
0.0   0.0   0.0
0.00010987680740285003   -0.0010838854530024111   -0.0002993268336104855
0.0   0.0   0.0
0.0   0.0   0.0
0.00010987680740285003   -0.0010838854530024111   -0.0002993268336104855
-0.0005061650871285166   -0.00112919185339213   -0.0002499775478898709
-0.0005175403858094462   -0.0011349579683847444   -0.0002859662159387178
0.0   0.0   0.0
0.00010987680740285003   -0.0010838854530024111   -0.0002993268336104855
-0.0005175403858094462   -0.0011349579683847444   -0.0002859662159387178
0.0   0.0   0.0
0.0   0.0   0.0
6.97485373895728e-05   -0.0010904487079499165   -0.00028555879801288477
0.0   0.0   0.0
0.0   0.0   0.0
6.97485373895728e-05   -0.0010904487079499165   -0.00028555879801288477
0.0007446664740960429   -0.0011428555897183416   -0.0002505898161959721
0.0   0.0   0.0
0.0007467020103061419   -0.0011487229123623983   -0.00029819441021513736
0.0   0.0   0.0
0.0   0.0   0.0
0.0007467020103061419   -0.0011487229123623983   -0.00029819441021513736
0.0   0.0   0.0
0.0   0.0   0.0
0.0007467020103061419   -0.0011487229123623983   -0.00029819441021513736
8.382702981739977e-05   -0.0011093123666596266   -0.00029035725482747047
6.97485373895728e-05   -0.0010904487079499165   -0.00028555879801288477
0.0   0.0   0.0
0.0007467020103061419   -0.0011487229123623983   -0.00029819441021513736
6.97485373895728e-05   -0.0010904487079499165   -0.00028555879801288477
0.0   0.0   0.0
0.0   0.0   0.0
8.382702981739977e-05   -0.0011093123666596266   -0.00029035725482747047
0.0   0.0   0.0
0.0   0.0   0.0
8.382702981739977e-05   -0.0011093123666596266   -0.00029035725482747047
0.0007467020103061419   -0.0011487229123623983   -0.00029819441021513736
0.0   0.0   0.0
0.0007441170596650697   -0.0011323246794174358   -0.00034394405037702373
0.0   0.0   0.0
0.0   0.0   0.0
0.0007441170596650697   -0.0011323246794174358   -0.00034394405037702373
0.0   0.0   0.0
0.0   0.0   0.0
0.0007441170596650697   -0.0011323246794174358   -0.00034394405037702373
9.501471758187318e-05   -0.0011076811434490247   -0.00029474739030489576
8.382702981739977e-05   -0.0011093123666596266   -0.00029035725482747047
0.0   0.0   0.0
0.0007441170596650697   -0.0011323246794174358   -0.00034394405037702373
8.382702981739977e-05   -0.0011093123666596266   -0.00029035725482747047
0.0   0.0   0.0
0.0   0.0   0.0
9.501471758187318e-05   -0.0011076811434490247   -0.00029474739030489576
0.0   0.0   0.0
0.0   0.0   0.0
9.501471758187318e-05   -0.0011076811434490247   -0.00029474739030489576
0.0007441170596650697   -0.0011323246794174358   -0.00034394405037702373
0.0   0.0   0.0
0.0007591174428374988   -0.0010887078406397383   -0.00038888717720434086
0.0   0.0   0.0
0.0   0.0   0.0
0.0007591174428374988   -0.0010887078406397383   -0.00038888717720434086
0.0   0.0   0.0
0.0   0.0   0.0
0.0007591174428374988   -0.0010887078406397383   -0.00038888717720434086
0.00010987680740285003   -0.0010838854530024111   -0.0002993268336104855
9.501471758187318e-05   -0.0011076811434490247   -0.00029474739030489576
0.0   0.0   0.0
0.0007591174428374988   -0.0010887078406397383   -0.00038888717720434086
9.501471758187318e-05   -0.0011076811434490247   -0.00029474739030489576
0.0   0.0   0.0
0.0   0.0   0.0
0.0007446664740960429   -0.0011428555897183416   -0.0002505898161959721
0.0   0.0   0.0
0.0   0.0   0.0
0.0007446664740960429   -0.0011428555897183416   -0.0002505898161959721
0.0016849523177903279   -0.0012759939422862553   -0.0002370116753365931
0.0   0.0   0.0
0.0015833661906232293   -0.0012617770206526369   -0.0003451707385539951
0.0   0.0   0.0
0.0   0.0   0.0
0.0015833661906232293   -0.0012617770206526369   -0.0003451707385539951
0.0   0.0   0.0
0.0   0.0   0.0
0.0015833661906232293   -0.0012617770206526369   -0.0003451707385539951
0.0007467020103061419   -0.0011487229123623983   -0.00029819441021513736
0.0007446664740960429   -0.0011428555897183416   -0.0002505898161959721
0.0   0.0   0.0
0.0015833661906232293   -0.0012617770206526369   -0.0003451707385539951
0.0007446664740960429   -0.0011428555897183416   -0.0002505898161959721
0.0   0.0   0.0
0.0   0.0   0.0
0.0007467020103061419   -0.0011487229123623983   -0.00029819441021513736
0.0   0.0   0.0
0.0   0.0   0.0
0.0007467020103061419   -0.0011487229123623983   -0.00029819441021513736
0.0015833661906232293   -0.0012617770206526369   -0.0003451707385539951
0.0   0.0   0.0
0.0015367976811274469   -0.001235550706302865   -0.00043669773148272454
0.0   0.0   0.0
0.0   0.0   0.0
0.0015367976811274469   -0.001235550706302865   -0.00043669773148272454
0.0   0.0   0.0
0.0   0.0   0.0
0.0015367976811274469   -0.001235550706302865   -0.00043669773148272454
0.0007441170596650697   -0.0011323246794174358   -0.00034394405037702373
0.0007467020103061419   -0.0011487229123623983   -0.00029819441021513736
0.0   0.0   0.0
0.0015367976811274469   -0.001235550706302865   -0.00043669773148272454
0.0007467020103061419   -0.0011487229123623983   -0.00029819441021513736
0.0   0.0   0.0
0.0   0.0   0.0
0.0007441170596650697   -0.0011323246794174358   -0.00034394405037702373
0.0   0.0   0.0
0.0   0.0   0.0
0.0007441170596650697   -0.0011323246794174358   -0.00034394405037702373
0.0015367976811274469   -0.001235550706302865   -0.00043669773148272454
0.0   0.0   0.0
0.0014670417709340355   -0.0011686726098592978   -0.0005336960225101698
0.0   0.0   0.0
0.0   0.0   0.0
0.0014670417709340355   -0.0011686726098592978   -0.0005336960225101698
0.0   0.0   0.0
0.0   0.0   0.0
0.0014670417709340355   -0.0011686726098592978   -0.0005336960225101698
0.0007591174428374988   -0.0010887078406397383   -0.00038888717720434086
0.0007441170596650697   -0.0011323246794174358   -0.00034394405037702373
0.0   0.0   0.0
0.0014670417709340355   -0.0011686726098592978   -0.0005336960225101698
0.0007441170596650697   -0.0011323246794174358   -0.00034394405037702373
0.0   0.0   0.0
-0.00190229742327109   -0.0012563070229923094   -0.0006377611466564501
-0.0035470172693590875   -0.0034949983156656672   -0.0008595277100723399
-0.0012096945796596455   -0.0011304872240838458   -0.00046866224993265834
-0.0019901862908301223   -0.0013380241105899057   -0.0005122917070120627
-0.0035470172693590875   -0.0034949983156656672   -0.0008595277100723399
-0.0022636451661449015   -0.0033820611882667863   -0.0007081153572856295
-0.0012096945796596455   -0.0011304872240838458   -0.00046866224993265834
-0.0022654000182301993   -0.0034394925879961385   -0.0006381212682903733
-0.0019901862908301223   -0.0013380241105899057   -0.0005122917070120627
-0.001185238640179966   -0.001186736677790742   -0.00039281051594794865
-0.0022654000182301993   -0.0034394925879961385   -0.0006381212682903733
-0.0012096945796596455   -0.0011304872240838458   -0.00046866224993265834
-0.0019901862908301223   -0.0013380241105899057   -0.0005122917070120627
-0.0022654000182301993   -0.0034394925879961385   -0.0006381212682903733
-0.003652067347244446   -0.0035752343185307682   -0.0007460068835436908
-0.0035470172693590875   -0.0034949983156656672   -0.0008595277100723399
-0.0019901862908301223   -0.0013380241105899057   -0.0005122917070120627
-0.0022654000182301993   -0.0034394925879961385   -0.0006381212682903733
-0.0035470172693590875   -0.0034949983156656672   -0.0008595277100723399
-0.0012096945796596455   -0.0011304872240838458   -0.00046866224993265834
-0.0019901862908301223   -0.0013380241105899057   -0.0005122917070120627
-0.003652067347244446   -0.0035752343185307682   -0.0007460068835436908
-0.001185238640179966   -0.001186736677790742   -0.00039281051594794865
-0.002051645640514674   -0.001377791600892262   -0.00039219698028855306
-0.003652067347244446   -0.0035752343185307682   -0.0007460068835436908
-0.0022654000182301993   -0.0034394925879961385   -0.0006381212682903733
-0.001185238640179966   -0.001186736677790742   -0.00039281051594794865
-0.0022733339291004105   -0.0034745877414850295   -0.0005709197395834377
-0.002051645640514674   -0.001377791600892262   -0.00039219698028855306
-0.0011880058530793906   -0.0012156289544589043   -0.00031713364311301286
-0.0022733339291004105   -0.0034745877414850295   -0.0005709197395834377
-0.001185238640179966   -0.001186736677790742   -0.00039281051594794865
-0.002051645640514674   -0.001377791600892262   -0.00039219698028855306
-0.0022733339291004105   -0.0034745877414850295   -0.0005709197395834377
-0.0037246673383933998   -0.003620629223448881   -0.0006349333719102045
-0.003652067347244446   -0.0035752343185307682   -0.0007460068835436908
-0.002051645640514674   -0.001377791600892262   -0.00039219698028855306
-0.0022733339291004105   -0.0034745877414850295   -0.0005709197395834377
-0.003652067347244446   -0.0035752343185307682   -0.0007460068835436908
-0.001185238640179966   -0.001186736677790742   -0.00039281051594794865
-0.002051645640514674   -0.001377791600892262   -0.00039219698028855306
-0.0037246673383933998   -0.003620629223448881   -0.0006349333719102045
-0.0011880058530793906   -0.0012156289544589043   -0.00031713364311301286
-0.0021846170030031305   -0.001408133163170296   -0.00025295101868013883
-0.0037246673383933998   -0.003620629223448881   -0.0006349333719102045
-0.0022733339291004105   -0.0034745877414850295   -0.0005709197395834377
-0.0011880058530793906   -0.0012156289544589043   -0.00031713364311301286
-0.002265536004262919   -0.0034929402023558542   -0.0005080766639196794
-0.0021846170030031305   -0.001408133163170296   -0.00025295101868013883
-0.0011867328085002375   -0.0012231438470449647   -0.00023896455260210523
-0.002265536004262919   -0.0034929402023558542   -0.0005080766639196794
-0.0011880058530793906   -0.0012156289544589043   -0.00031713364311301286
-0.0021846170030031305   -0.001408133163170296   -0.00025295101868013883
-0.002265536004262919   -0.0034929402023558542   -0.0005080766639196794
-0.003810435507465577   -0.0036472745204428722   -0.0005340100416478986
-0.0037246673383933998   -0.003620629223448881   -0.0006349333719102045
-0.0021846170030031305   -0.001408133163170296   -0.00025295101868013883
-0.002265536004262919   -0.0034929402023558542   -0.0005080766639196794
-0.0037246673383933998   -0.003620629223448881   -0.0006349333719102045
-0.0011880058530793906   -0.0012156289544589043   -0.00031713364311301286
-0.0012096945796596455   -0.0011304872240838458   -0.00046866224993265834
-0.0022636451661449015   -0.0033820611882667863   -0.0007081153572856295
-0.0005515668263308211   -0.0010844616817685137   -0.0003567209578813989
-0.001185238640179966   -0.001186736677790742   -0.00039281051594794865
-0.0022636451661449015   -0.0033820611882667863   -0.0007081153572856295
-0.0010519180390803175   -0.0033295031987399344   -0.000604843962868267
-0.0005515668263308211   -0.0010844616817685137   -0.0003567209578813989
-0.0010419068757627542   -0.0033659687898686995   -0.0005688892446649387
-0.001185238640179966   -0.001186736677790742   -0.00039281051594794865
-0.000529928392943203   -0.0011210053147437831   -0.0003208428072940384
-0.0010419068757627542   -0.0033659687898686995   -0.0005688892446649387
-0.0005515668263308211   -0.0010844616817685137   -0.0003567209578813989
-0.001185238640179966   -0.001186736677790742   -0.00039281051594794865
-0.0010419068757627542   -0.0033659687898686995   -0.0005688892446649387
-0.0022654000182301993   -0.0034394925879961385   -0.0006381212682903733
-0.0022636451661449015   -0.0033820611882667863   -0.0007081153572856295
-0.001185238640179966   -0.001186736677790742   -0.00039281051594794865
-0.0010419068757627542   -0.0033659687898686995   -0.0005688892446649387
-0.0022636451661449015   -0.0033820611882667863   -0.0007081153572856295
-0.0005515668263308211   -0.0010844616817685137   -0.0003567209578813989
-0.001185238640179966   -0.001186736677790742   -0.00039281051594794865
-0.0022654000182301993   -0.0034394925879961385   -0.0006381212682903733
-0.000529928392943203   -0.0011210053147437831   -0.0003208428072940384
-0.0011880058530793906   -0.0012156289544589043   -0.00031713364311301286
-0.0022654000182301993   -0.0034394925879961385   -0.0006381212682903733
-0.0010419068757627542   -0.0033659687898686995   -0.0005688892446649387
-0.000529928392943203   -0.0011210053147437831   -0.0003208428072940384
-0.0010329299477663948   -0.0033836865518071346   -0.0005363357140878004
-0.0011880058530793906   -0.0012156289544589043   -0.00031713364311301286
-0.0005175403858094462   -0.0011349579683847444   -0.0002859662159387178
-0.0010329299477663948   -0.0033836865518071346   -0.0005363357140878004
-0.000529928392943203   -0.0011210053147437831   -0.0003208428072940384
-0.0011880058530793906   -0.0012156289544589043   -0.00031713364311301286
-0.0010329299477663948   -0.0033836865518071346   -0.0005363357140878004
-0.0022733339291004105   -0.0034745877414850295   -0.0005709197395834377
-0.0022654000182301993   -0.0034394925879961385   -0.0006381212682903733
-0.0011880058530793906   -0.0012156289544589043   -0.00031713364311301286
-0.0010329299477663948   -0.0033836865518071346   -0.0005363357140878004
-0.0022654000182301993   -0.0034394925879961385   -0.0006381212682903733
-0.000529928392943203   -0.0011210053147437831   -0.0003208428072940384
-0.0011880058530793906   -0.0012156289544589043   -0.00031713364311301286
-0.0022733339291004105   -0.0034745877414850295   -0.0005709197395834377
-0.0005175403858094462   -0.0011349579683847444   -0.0002859662159387178
-0.0011867328085002375   -0.0012231438470449647   -0.00023896455260210523
-0.0022733339291004105   -0.0034745877414850295   -0.0005709197395834377
-0.0010329299477663948   -0.0033836865518071346   -0.0005363357140878004
-0.0005175403858094462   -0.0011349579683847444   -0.0002859662159387178
-0.0010199703062339503   -0.003383321971206679   -0.0005080415876749876
-0.0011867328085002375   -0.0012231438470449647   -0.00023896455260210523
-0.0005061650871285166   -0.00112919185339213   -0.0002499775478898709
-0.0010199703062339503   -0.003383321971206679   -0.0005080415876749876
-0.0005175403858094462   -0.0011349579683847444   -0.0002859662159387178
-0.0011867328085002375   -0.0012231438470449647   -0.00023896455260210523
-0.0010199703062339503   -0.003383321971206679   -0.0005080415876749876
-0.002265536004262919   -0.0034929402023558542   -0.0005080766639196794
-0.0022733339291004105   -0.0034745877414850295   -0.0005709197395834377
-0.0011867328085002375   -0.0012231438470449647   -0.00023896455260210523
-0.0010199703062339503   -0.003383321971206679   -0.0005080415876749876
-0.0022733339291004105   -0.0034745877414850295   -0.0005709197395834377
-0.0005175403858094462   -0.0011349579683847444   -0.0002859662159387178
-0.0005515668263308211   -0.0010844616817685137   -0.0003567209578813989
-0.0010519180390803175   -0.0033295031987399344   -0.000604843962868267
6.97485373895728e-05   -0.0010904487079499165   -0.00028555879801288477
-0.000529928392943203   -0.0011210053147437831   -0.0003208428072940384
-0.0010519180390803175   -0.0033295031987399344   -0.000604843962868267
0.00011595739628405824   -0.0033311241961176278   -0.0005397664552401875
6.97485373895728e-05   -0.0010904487079499165   -0.00028555879801288477
0.00012809975523968032   -0.003348262130737794   -0.0005372125998742579
-0.000529928392943203   -0.0011210053147437831   -0.0003208428072940384
8.382702981739977e-05   -0.0011093123666596266   -0.00029035725482747047
0.00012809975523968032   -0.003348262130737794   -0.0005372125998742579
6.97485373895728e-05   -0.0010904487079499165   -0.00028555879801288477
-0.000529928392943203   -0.0011210053147437831   -0.0003208428072940384
0.00012809975523968032   -0.003348262130737794   -0.0005372125998742579
-0.0010419068757627542   -0.0033659687898686995   -0.0005688892446649387
-0.0010519180390803175   -0.0033295031987399344   -0.000604843962868267
-0.000529928392943203   -0.0011210053147437831   -0.0003208428072940384
0.00012809975523968032   -0.003348262130737794   -0.0005372125998742579
-0.0010519180390803175   -0.0033295031987399344   -0.000604843962868267
6.97485373895728e-05   -0.0010904487079499165   -0.00028555879801288477
-0.000529928392943203   -0.0011210053147437831   -0.0003208428072940384
-0.0010419068757627542   -0.0033659687898686995   -0.0005688892446649387
8.382702981739977e-05   -0.0011093123666596266   -0.00029035725482747047
-0.0005175403858094462   -0.0011349579683847444   -0.0002859662159387178
-0.0010419068757627542   -0.0033659687898686995   -0.0005688892446649387
0.00012809975523968032   -0.003348262130737794   -0.0005372125998742579
8.382702981739977e-05   -0.0011093123666596266   -0.00029035725482747047
0.0001365669509415353   -0.0033470884655001885   -0.0005385154738848282
-0.0005175403858094462   -0.0011349579683847444   -0.0002859662159387178
9.501471758187318e-05   -0.0011076811434490247   -0.00029474739030489576
0.0001365669509415353   -0.0033470884655001885   -0.0005385154738848282
8.382702981739977e-05   -0.0011093123666596266   -0.00029035725482747047
-0.0005175403858094462   -0.0011349579683847444   -0.0002859662159387178
0.0001365669509415353   -0.0033470884655001885   -0.0005385154738848282
-0.0010329299477663948   -0.0033836865518071346   -0.0005363357140878004
-0.0010419068757627542   -0.0033659687898686995   -0.0005688892446649387
-0.0005175403858094462   -0.0011349579683847444   -0.0002859662159387178
0.0001365669509415353   -0.0033470884655001885   -0.0005385154738848282
-0.0010419068757627542   -0.0033659687898686995   -0.0005688892446649387
8.382702981739977e-05   -0.0011093123666596266   -0.00029035725482747047
-0.0005175403858094462   -0.0011349579683847444   -0.0002859662159387178
-0.0010329299477663948   -0.0033836865518071346   -0.0005363357140878004
9.501471758187318e-05   -0.0011076811434490247   -0.00029474739030489576
-0.0005061650871285166   -0.00112919185339213   -0.0002499775478898709
-0.0010329299477663948   -0.0033836865518071346   -0.0005363357140878004
0.0001365669509415353   -0.0033470884655001885   -0.0005385154738848282
9.501471758187318e-05   -0.0011076811434490247   -0.00029474739030489576
0.00014558124670114943   -0.0033270489831616745   -0.0005437348811601858
-0.0005061650871285166   -0.00112919185339213   -0.0002499775478898709
0.00010987680740285003   -0.0010838854530024111   -0.0002993268336104855
0.00014558124670114943   -0.0033270489831616745   -0.0005437348811601858
9.501471758187318e-05   -0.0011076811434490247   -0.00029474739030489576
-0.0005061650871285166   -0.00112919185339213   -0.0002499775478898709
0.00014558124670114943   -0.0033270489831616745   -0.0005437348811601858
-0.0010199703062339503   -0.003383321971206679   -0.0005080415876749876
-0.0010329299477663948   -0.0033836865518071346   -0.0005363357140878004
-0.0005061650871285166   -0.00112919185339213   -0.0002499775478898709
0.00014558124670114943   -0.0033270489831616745   -0.0005437348811601858
-0.0010329299477663948   -0.0033836865518071346   -0.0005363357140878004
9.501471758187318e-05   -0.0011076811434490247   -0.00029474739030489576
6.97485373895728e-05   -0.0010904487079499165   -0.00028555879801288477
0.00011595739628405824   -0.0033311241961176278   -0.0005397664552401875
0.0007446664740960429   -0.0011428555897183416   -0.0002505898161959721
8.382702981739977e-05   -0.0011093123666596266   -0.00029035725482747047
0.00011595739628405824   -0.0033311241961176278   -0.0005397664552401875
0.00135409821019644   -0.0033849868255685553   -0.0005097493982576074
0.0007446664740960429   -0.0011428555897183416   -0.0002505898161959721
0.0013615070290641045   -0.0033845247921404824   -0.0005416730265173991
8.382702981739977e-05   -0.0011093123666596266   -0.00029035725482747047
0.0007467020103061419   -0.0011487229123623983   -0.00029819441021513736
0.0013615070290641045   -0.0033845247921404824   -0.0005416730265173991
0.0007446664740960429   -0.0011428555897183416   -0.0002505898161959721
8.382702981739977e-05   -0.0011093123666596266   -0.00029035725482747047
0.0013615070290641045   -0.0033845247921404824   -0.0005416730265173991
0.00012809975523968032   -0.003348262130737794   -0.0005372125998742579
0.00011595739628405824   -0.0033311241961176278   -0.0005397664552401875
8.382702981739977e-05   -0.0011093123666596266   -0.00029035725482747047
0.0013615070290641045   -0.0033845247921404824   -0.0005416730265173991
0.00011595739628405824   -0.0033311241961176278   -0.0005397664552401875
0.0007446664740960429   -0.0011428555897183416   -0.0002505898161959721
8.382702981739977e-05   -0.0011093123666596266   -0.00029035725482747047
0.00012809975523968032   -0.003348262130737794   -0.0005372125998742579
0.0007467020103061419   -0.0011487229123623983   -0.00029819441021513736
9.501471758187318e-05   -0.0011076811434490247   -0.00029474739030489576
0.00012809975523968032   -0.003348262130737794   -0.0005372125998742579
0.0013615070290641045   -0.0033845247921404824   -0.0005416730265173991
0.0007467020103061419   -0.0011487229123623983   -0.00029819441021513736
0.0013562795448303635   -0.0033661353967907523   -0.0005779593264358731
9.501471758187318e-05   -0.0011076811434490247   -0.00029474739030489576
0.0007441170596650697   -0.0011323246794174358   -0.00034394405037702373
0.0013562795448303635   -0.0033661353967907523   -0.0005779593264358731
0.0007467020103061419   -0.0011487229123623983   -0.00029819441021513736
9.501471758187318e-05   -0.0011076811434490247   -0.00029474739030489576
0.0013562795448303635   -0.0033661353967907523   -0.0005779593264358731
0.0001365669509415353   -0.0033470884655001885   -0.0005385154738848282
0.00012809975523968032   -0.003348262130737794   -0.0005372125998742579
9.501471758187318e-05   -0.0011076811434490247   -0.00029474739030489576
0.0013562795448303635   -0.0033661353967907523   -0.0005779593264358731
0.00012809975523968032   -0.003348262130737794   -0.0005372125998742579
0.0007467020103061419   -0.0011487229123623983   -0.00029819441021513736
9.501471758187318e-05   -0.0011076811434490247   -0.00029474739030489576
0.0001365669509415353   -0.0033470884655001885   -0.0005385154738848282
0.0007441170596650697   -0.0011323246794174358   -0.00034394405037702373
0.00010987680740285003   -0.0010838854530024111   -0.0002993268336104855
0.0001365669509415353   -0.0033470884655001885   -0.0005385154738848282
0.0013562795448303635   -0.0033661353967907523   -0.0005779593264358731
0.0007441170596650697   -0.0011323246794174358   -0.00034394405037702373
0.0013536698079905207   -0.003324832528760643   -0.0006172621234718328
0.00010987680740285003   -0.0010838854530024111   -0.0002993268336104855
0.0007591174428374988   -0.0010887078406397383   -0.00038888717720434086
0.0013536698079905207   -0.003324832528760643   -0.0006172621234718328
0.0007441170596650697   -0.0011323246794174358   -0.00034394405037702373
0.00010987680740285003   -0.0010838854530024111   -0.0002993268336104855
0.0013536698079905207   -0.003324832528760643   -0.0006172621234718328
0.00014558124670114943   -0.0033270489831616745   -0.0005437348811601858
0.0001365669509415353   -0.0033470884655001885   -0.0005385154738848282
0.00010987680740285003   -0.0010838854530024111   -0.0002993268336104855
0.0013536698079905207   -0.003324832528760643   -0.0006172621234718328
0.0001365669509415353   -0.0033470884655001885   -0.0005385154738848282
0.0007441170596650697   -0.0011323246794174358   -0.00034394405037702373
0.0007446664740960429   -0.0011428555897183416   -0.0002505898161959721
0.00135409821019644   -0.0033849868255685553   -0.0005097493982576074
0.0016849523177903279   -0.0012759939422862553   -0.0002370116753365931
0.0007467020103061419   -0.0011487229123623983   -0.00029819441021513736
0.00135409821019644   -0.0033849868255685553   -0.0005097493982576074
0.0028495618426501923   -0.003484915798367848   -0.0005023608792254421
0.0016849523177903279   -0.0012759939422862553   -0.0002370116753365931
0.0027931643881365788   -0.0034749979439111607   -0.000574324490692482
0.0007467020103061419   -0.0011487229123623983   -0.00029819441021513736
0.0015833661906232293   -0.0012617770206526369   -0.0003451707385539951
0.0027931643881365788   -0.0034749979439111607   -0.000574324490692482
0.0016849523177903279   -0.0012759939422862553   -0.0002370116753365931
0.0007467020103061419   -0.0011487229123623983   -0.00029819441021513736
0.0027931643881365788   -0.0034749979439111607   -0.000574324490692482
0.0013615070290641045   -0.0033845247921404824   -0.0005416730265173991
0.00135409821019644   -0.0033849868255685553   -0.0005097493982576074
0.0007467020103061419   -0.0011487229123623983   -0.00029819441021513736
0.0027931643881365788   -0.0034749979439111607   -0.000574324490692482
0.00135409821019644   -0.0033849868255685553   -0.0005097493982576074
0.0016849523177903279   -0.0012759939422862553   -0.0002370116753365931
0.0007467020103061419   -0.0011487229123623983   -0.00029819441021513736
0.0013615070290641045   -0.0033845247921404824   -0.0005416730265173991
0.0015833661906232293   -0.0012617770206526369   -0.0003451707385539951
0.0007441170596650697   -0.0011323246794174358   -0.00034394405037702373
0.0013615070290641045   -0.0033845247921404824   -0.0005416730265173991
0.0027931643881365788   -0.0034749979439111607   -0.000574324490692482
0.0015833661906232293   -0.0012617770206526369   -0.0003451707385539951
0.002742628491866656   -0.003446706333968904   -0.0006554547873103163
0.0007441170596650697   -0.0011323246794174358   -0.00034394405037702373
0.0015367976811274469   -0.001235550706302865   -0.00043669773148272454
0.002742628491866656   -0.003446706333968904   -0.0006554547873103163
0.0015833661906232293   -0.0012617770206526369   -0.0003451707385539951
0.0007441170596650697   -0.0011323246794174358   -0.00034394405037702373
0.002742628491866656   -0.003446706333968904   -0.0006554547873103163
0.0013562795448303635   -0.0033661353967907523   -0.0005779593264358731
0.0013615070290641045   -0.0033845247921404824   -0.0005416730265173991
0.0007441170596650697   -0.0011323246794174358   -0.00034394405037702373
0.002742628491866656   -0.003446706333968904   -0.0006554547873103163
0.0013615070290641045   -0.0033845247921404824   -0.0005416730265173991
0.0015833661906232293   -0.0012617770206526369   -0.0003451707385539951
0.0007441170596650697   -0.0011323246794174358   -0.00034394405037702373
0.0013562795448303635   -0.0033661353967907523   -0.0005779593264358731
0.0015367976811274469   -0.001235550706302865   -0.00043669773148272454
0.0007591174428374988   -0.0010887078406397383   -0.00038888717720434086
0.0013562795448303635   -0.0033661353967907523   -0.0005779593264358731
0.002742628491866656   -0.003446706333968904   -0.0006554547873103163
0.0015367976811274469   -0.001235550706302865   -0.00043669773148272454
0.002666231857520186   -0.0033841108710953942   -0.0007400135647266991
0.0007591174428374988   -0.0010887078406397383   -0.00038888717720434086
0.0014670417709340355   -0.0011686726098592978   -0.0005336960225101698
0.002666231857520186   -0.0033841108710953942   -0.0007400135647266991
0.0015367976811274469   -0.001235550706302865   -0.00043669773148272454
0.0007591174428374988   -0.0010887078406397383   -0.00038888717720434086
0.002666231857520186   -0.0033841108710953942   -0.0007400135647266991
0.0013536698079905207   -0.003324832528760643   -0.0006172621234718328
0.0013562795448303635   -0.0033661353967907523   -0.0005779593264358731
0.0007591174428374988   -0.0010887078406397383   -0.00038888717720434086
0.002666231857520186   -0.0033841108710953942   -0.0007400135647266991
0.0013562795448303635   -0.0033661353967907523   -0.0005779593264358731
0.0015367976811274469   -0.001235550706302865   -0.00043669773148272454
-0.0035470172693590875   -0.0034949983156656672   -0.0008595277100723399
-0.004852419979828755   -0.006538555260790454   -0.0009798935083490021
-0.0022636451661449015   -0.0033820611882667863   -0.0007081153572856295
-0.003652067347244446   -0.0035752343185307682   -0.0007460068835436908
-0.004852419979828755   -0.006538555260790454   -0.0009798935083490021
-0.0031206068341660285   -0.006452508046149004   -0.0008575579044454005
-0.0022636451661449015   -0.0033820611882667863   -0.0007081153572856295
-0.0031263236902561117   -0.006501913046982546   -0.000803409409646515
-0.003652067347244446   -0.0035752343185307682   -0.0007460068835436908
-0.0022654000182301993   -0.0034394925879961385   -0.0006381212682903733
-0.0031263236902561117   -0.006501913046982546   -0.000803409409646515
-0.0022636451661449015   -0.0033820611882667863   -0.0007081153572856295
-0.003652067347244446   -0.0035752343185307682   -0.0007460068835436908
-0.0031263236902561117   -0.006501913046982546   -0.000803409409646515
-0.004937160355235165   -0.006606139909923587   -0.0008955869684415985
-0.004852419979828755   -0.006538555260790454   -0.0009798935083490021
-0.003652067347244446   -0.0035752343185307682   -0.0007460068835436908
-0.0031263236902561117   -0.006501913046982546   -0.000803409409646515
-0.004852419979828755   -0.006538555260790454   -0.0009798935083490021
-0.0022636451661449015   -0.0033820611882667863   -0.0007081153572856295
-0.003652067347244446   -0.0035752343185307682   -0.0007460068835436908
-0.004937160355235165   -0.006606139909923587   -0.0008955869684415985
-0.0022654000182301993   -0.0034394925879961385   -0.0006381212682903733
-0.0037246673383933998   -0.003620629223448881   -0.0006349333719102045
-0.004937160355235165   -0.006606139909923587   -0.0008955869684415985
-0.0031263236902561117   -0.006501913046982546   -0.000803409409646515
-0.0022654000182301993   -0.0034394925879961385   -0.0006381212682903733
-0.0031331929788678417   -0.006536387591315544   -0.000753220582454265
-0.0037246673383933998   -0.003620629223448881   -0.0006349333719102045
-0.0022733339291004105   -0.0034745877414850295   -0.0005709197395834377
-0.0031331929788678417   -0.006536387591315544   -0.000753220582454265
-0.0022654000182301993   -0.0034394925879961385   -0.0006381212682903733
-0.0037246673383933998   -0.003620629223448881   -0.0006349333719102045
-0.0031331929788678417   -0.006536387591315544   -0.000753220582454265
-0.004990065417828146   -0.0066486252810279475   -0.0008170807576930806
-0.004937160355235165   -0.006606139909923587   -0.0008955869684415985
-0.0037246673383933998   -0.003620629223448881   -0.0006349333719102045
-0.0031331929788678417   -0.006536387591315544   -0.000753220582454265
-0.004937160355235165   -0.006606139909923587   -0.0008955869684415985
-0.0022654000182301993   -0.0034394925879961385   -0.0006381212682903733
-0.0037246673383933998   -0.003620629223448881   -0.0006349333719102045
-0.004990065417828146   -0.0066486252810279475   -0.0008170807576930806
-0.0022733339291004105   -0.0034745877414850295   -0.0005709197395834377
-0.003810435507465577   -0.0036472745204428722   -0.0005340100416478986
-0.004990065417828146   -0.0066486252810279475   -0.0008170807576930806
-0.0031331929788678417   -0.006536387591315544   -0.000753220582454265
-0.0022733339291004105   -0.0034745877414850295   -0.0005709197395834377
-0.0031261293689503603   -0.006559211215596933   -0.0007061450546148598
-0.003810435507465577   -0.0036472745204428722   -0.0005340100416478986
-0.002265536004262919   -0.0034929402023558542   -0.0005080766639196794
-0.0031261293689503603   -0.006559211215596933   -0.0007061450546148598
-0.0022733339291004105   -0.0034745877414850295   -0.0005709197395834377
-0.003810435507465577   -0.0036472745204428722   -0.0005340100416478986
-0.0031261293689503603   -0.006559211215596933   -0.0007061450546148598
-0.005050259760908138   -0.00667941108170809   -0.0007449183221922725
-0.004990065417828146   -0.0066486252810279475   -0.0008170807576930806
-0.003810435507465577   -0.0036472745204428722   -0.0005340100416478986
-0.0031261293689503603   -0.006559211215596933   -0.0007061450546148598
-0.004990065417828146   -0.0066486252810279475   -0.0008170807576930806
-0.0022733339291004105   -0.0034745877414850295   -0.0005709197395834377
-0.0022636451661449015   -0.0033820611882667863   -0.0007081153572856295
-0.0031206068341660285   -0.006452508046149004   -0.0008575579044454005
-0.0010519180390803175   -0.0033295031987399344   -0.000604843962868267
-0.0022654000182301993   -0.0034394925879961385   -0.0006381212682903733
-0.0031206068341660285   -0.006452508046149004   -0.0008575579044454005
-0.0014893316964712316   -0.006409508420496232   -0.0007726147056174681
-0.0010519180390803175   -0.0033295031987399344   -0.000604843962868267
-0.0014844850430314179   -0.006441013888091784   -0.0007419027507739698
-0.0022654000182301993   -0.0034394925879961385   -0.0006381212682903733
-0.0010419068757627542   -0.0033659687898686995   -0.0005688892446649387
-0.0014844850430314179   -0.006441013888091784   -0.0007419027507739698
-0.0010519180390803175   -0.0033295031987399344   -0.000604843962868267
-0.0022654000182301993   -0.0034394925879961385   -0.0006381212682903733
-0.0014844850430314179   -0.006441013888091784   -0.0007419027507739698
-0.0031263236902561117   -0.006501913046982546   -0.000803409409646515
-0.0031206068341660285   -0.006452508046149004   -0.0008575579044454005
-0.0022654000182301993   -0.0034394925879961385   -0.0006381212682903733
-0.0014844850430314179   -0.006441013888091784   -0.0007419027507739698
-0.0031206068341660285   -0.006452508046149004   -0.0008575579044454005
-0.0010519180390803175   -0.0033295031987399344   -0.000604843962868267
-0.0022654000182301993   -0.0034394925879961385   -0.0006381212682903733
-0.0031263236902561117   -0.006501913046982546   -0.000803409409646515
-0.0010419068757627542   -0.0033659687898686995   -0.0005688892446649387
-0.0022733339291004105   -0.0034745877414850295   -0.0005709197395834377
-0.0031263236902561117   -0.006501913046982546   -0.000803409409646515
-0.0014844850430314179   -0.006441013888091784   -0.0007419027507739698
-0.0010419068757627542   -0.0033659687898686995   -0.0005688892446649387
-0.0014788060845680896   -0.006459556450212768   -0.0007149543267893453
-0.0022733339291004105   -0.0034745877414850295   -0.0005709197395834377
-0.0010329299477663948   -0.0033836865518071346   -0.0005363357140878004
-0.0014788060845680896   -0.006459556450212768   -0.0007149543267893453
-0.0010419068757627542   -0.0033659687898686995   -0.0005688892446649387
-0.0022733339291004105   -0.0034745877414850295   -0.0005709197395834377
-0.0014788060845680896   -0.006459556450212768   -0.0007149543267893453
-0.0031331929788678417   -0.006536387591315544   -0.000753220582454265
-0.0031263236902561117   -0.006501913046982546   -0.000803409409646515
-0.0022733339291004105   -0.0034745877414850295   -0.0005709197395834377
-0.0014788060845680896   -0.006459556450212768   -0.0007149543267893453
-0.0031263236902561117   -0.006501913046982546   -0.000803409409646515
-0.0010419068757627542   -0.0033659687898686995   -0.0005688892446649387
-0.0022733339291004105   -0.0034745877414850295   -0.0005709197395834377
-0.0031331929788678417   -0.006536387591315544   -0.000753220582454265
-0.0010329299477663948   -0.0033836865518071346   -0.0005363357140878004
-0.002265536004262919   -0.0034929402023558542   -0.0005080766639196794
-0.0031331929788678417   -0.006536387591315544   -0.000753220582454265
-0.0014788060845680896   -0.006459556450212768   -0.0007149543267893453
-0.0010329299477663948   -0.0033836865518071346   -0.0005363357140878004
-0.0014701689596035412   -0.006465400950127371   -0.0006917614768341202
-0.002265536004262919   -0.0034929402023558542   -0.0005080766639196794
-0.0010199703062339503   -0.003383321971206679   -0.0005080415876749876
-0.0014701689596035412   -0.006465400950127371   -0.0006917614768341202
-0.0010329299477663948   -0.0033836865518071346   -0.0005363357140878004
-0.002265536004262919   -0.0034929402023558542   -0.0005080766639196794
-0.0014701689596035412   -0.006465400950127371   -0.0006917614768341202
-0.0031261293689503603   -0.006559211215596933   -0.0007061450546148598
-0.0031331929788678417   -0.006536387591315544   -0.000753220582454265
-0.002265536004262919   -0.0034929402023558542   -0.0005080766639196794
-0.0014701689596035412   -0.006465400950127371   -0.0006917614768341202
-0.0031331929788678417   -0.006536387591315544   -0.000753220582454265
-0.0010329299477663948   -0.0033836865518071346   -0.0005363357140878004
-0.0010519180390803175   -0.0033295031987399344   -0.000604843962868267
-0.0014893316964712316   -0.006409508420496232   -0.0007726147056174681
0.00011595739628405824   -0.0033311241961176278   -0.0005397664552401875
-0.0010419068757627542   -0.0033659687898686995   -0.0005688892446649387
-0.0014893316964712316   -0.006409508420496232   -0.0007726147056174681
9.355720315874292e-05   -0.006407200710334879   -0.000720177188487678
0.00011595739628405824   -0.0033311241961176278   -0.0005397664552401875
0.00010157445990438187   -0.006421059417251507   -0.0007127834302093616
-0.0010419068757627542   -0.0033659687898686995   -0.0005688892446649387
0.00012809975523968032   -0.003348262130737794   -0.0005372125998742579
0.00010157445990438187   -0.006421059417251507   -0.0007127834302093616
0.00011595739628405824   -0.0033311241961176278   -0.0005397664552401875
-0.0010419068757627542   -0.0033659687898686995   -0.0005688892446649387
0.00010157445990438187   -0.006421059417251507   -0.0007127834302093616
-0.0014844850430314179   -0.006441013888091784   -0.0007419027507739698
-0.0014893316964712316   -0.006409508420496232   -0.0007726147056174681
-0.0010419068757627542   -0.0033659687898686995   -0.0005688892446649387
0.00010157445990438187   -0.006421059417251507   -0.0007127834302093616
-0.0014893316964712316   -0.006409508420496232   -0.0007726147056174681
0.00011595739628405824   -0.0033311241961176278   -0.0005397664552401875
-0.0010419068757627542   -0.0033659687898686995   -0.0005688892446649387
-0.0014844850430314179   -0.006441013888091784   -0.0007419027507739698
0.00012809975523968032   -0.003348262130737794   -0.0005372125998742579
-0.0010329299477663948   -0.0033836865518071346   -0.0005363357140878004
-0.0014844850430314179   -0.006441013888091784   -0.0007419027507739698
0.00010157445990438187   -0.006421059417251507   -0.0007127834302093616
0.00012809975523968032   -0.003348262130737794   -0.0005372125998742579
0.00010711248819838717   -0.006422005013695622   -0.0007090586976877333
-0.0010329299477663948   -0.0033836865518071346   -0.0005363357140878004
0.0001365669509415353   -0.0033470884655001885   -0.0005385154738848282
0.00010711248819838717   -0.006422005013695622   -0.0007090586976877333
0.00012809975523968032   -0.003348262130737794   -0.0005372125998742579
-0.0010329299477663948   -0.0033836865518071346   -0.0005363357140878004
0.00010711248819838717   -0.006422005013695622   -0.0007090586976877333
-0.0014788060845680896   -0.006459556450212768   -0.0007149543267893453
-0.0014844850430314179   -0.006441013888091784   -0.0007419027507739698
-0.0010329299477663948   -0.0033836865518071346   -0.0005363357140878004
0.00010711248819838717   -0.006422005013695622   -0.0007090586976877333
-0.0014844850430314179   -0.006441013888091784   -0.0007419027507739698
0.00012809975523968032   -0.003348262130737794   -0.0005372125998742579
-0.0010329299477663948   -0.0033836865518071346   -0.0005363357140878004
-0.0014788060845680896   -0.006459556450212768   -0.0007149543267893453
0.0001365669509415353   -0.0033470884655001885   -0.0005385154738848282
-0.0010199703062339503   -0.003383321971206679   -0.0005080415876749876
-0.0014788060845680896   -0.006459556450212768   -0.0007149543267893453
0.00010711248819838717   -0.006422005013695622   -0.0007090586976877333
0.0001365669509415353   -0.0033470884655001885   -0.0005385154738848282
0.00011144000801766988   -0.0064098464960680715   -0.0007092217012280654
-0.0010199703062339503   -0.003383321971206679   -0.0005080415876749876
0.00014558124670114943   -0.0033270489831616745   -0.0005437348811601858
0.00011144000801766988   -0.0064098464960680715   -0.0007092217012280654
0.0001365669509415353   -0.0033470884655001885   -0.0005385154738848282
-0.0010199703062339503   -0.003383321971206679   -0.0005080415876749876
0.00011144000801766988   -0.0064098464960680715   -0.0007092217012280654
-0.0014701689596035412   -0.006465400950127371   -0.0006917614768341202
-0.0014788060845680896   -0.006459556450212768   -0.0007149543267893453
-0.0010199703062339503   -0.003383321971206679   -0.0005080415876749876
0.00011144000801766988   -0.0064098464960680715   -0.0007092217012280654
-0.0014788060845680896   -0.006459556450212768   -0.0007149543267893453
0.0001365669509415353   -0.0033470884655001885   -0.0005385154738848282
0.00011595739628405824   -0.0033311241961176278   -0.0005397664552401875
9.355720315874292e-05   -0.006407200710334879   -0.000720177188487678
0.00135409821019644   -0.0033849868255685553   -0.0005097493982576074
0.00012809975523968032   -0.003348262130737794   -0.0005372125998742579
9.355720315874292e-05   -0.006407200710334879   -0.000720177188487678
0.0017443212626116584   -0.006443156026562188   -0.0006993822402813615
0.00135409821019644   -0.0033849868255685553   -0.0005097493982576074
0.0017515780489368033   -0.006440800418442003   -0.0007157818451757316
0.00012809975523968032   -0.003348262130737794   -0.0005372125998742579
0.0013615070290641045   -0.0033845247921404824   -0.0005416730265173991
0.0017515780489368033   -0.006440800418442003   -0.0007157818451757316
0.00135409821019644   -0.0033849868255685553   -0.0005097493982576074
0.00012809975523968032   -0.003348262130737794   -0.0005372125998742579
0.0017515780489368033   -0.006440800418442003   -0.0007157818451757316
0.00010157445990438187   -0.006421059417251507   -0.0007127834302093616
9.355720315874292e-05   -0.006407200710334879   -0.000720177188487678
0.00012809975523968032   -0.003348262130737794   -0.0005372125998742579
0.0017515780489368033   -0.006440800418442003   -0.0007157818451757316
9.355720315874292e-05   -0.006407200710334879   -0.000720177188487678
0.00135409821019644   -0.0033849868255685553   -0.0005097493982576074
0.00012809975523968032   -0.003348262130737794   -0.0005372125998742579
0.00010157445990438187   -0.006421059417251507   -0.0007127834302093616
0.0013615070290641045   -0.0033845247921404824   -0.0005416730265173991
0.0001365669509415353   -0.0033470884655001885   -0.0005385154738848282
0.00010157445990438187   -0.006421059417251507   -0.0007127834302093616
0.0017515780489368033   -0.006440800418442003   -0.0007157818451757316
0.0013615070290641045   -0.0033845247921404824   -0.0005416730265173991
0.0017484157734016798   -0.006425846571833933   -0.0007355808941780022
0.0001365669509415353   -0.0033470884655001885   -0.0005385154738848282
0.0013562795448303635   -0.0033661353967907523   -0.0005779593264358731
0.0017484157734016798   -0.006425846571833933   -0.0007355808941780022
0.0013615070290641045   -0.0033845247921404824   -0.0005416730265173991
0.0001365669509415353   -0.0033470884655001885   -0.0005385154738848282
0.0017484157734016798   -0.006425846571833933   -0.0007355808941780022
0.00010711248819838717   -0.006422005013695622   -0.0007090586976877333
0.00010157445990438187   -0.006421059417251507   -0.0007127834302093616
0.0001365669509415353   -0.0033470884655001885   -0.0005385154738848282
0.0017484157734016798   -0.006425846571833933   -0.0007355808941780022
0.00010157445990438187   -0.006421059417251507   -0.0007127834302093616
0.0013615070290641045   -0.0033845247921404824   -0.0005416730265173991
0.0001365669509415353   -0.0033470884655001885   -0.0005385154738848282
0.00010711248819838717   -0.006422005013695622   -0.0007090586976877333
0.0013562795448303635   -0.0033661353967907523   -0.0005779593264358731
0.00014558124670114943   -0.0033270489831616745   -0.0005437348811601858
0.00010711248819838717   -0.006422005013695622   -0.0007090586976877333
0.0017484157734016798   -0.006425846571833933   -0.0007355808941780022
0.0013562795448303635   -0.0033661353967907523   -0.0005779593264358731
0.0017429641294939358   -0.006395132787822885   -0.0007591855719749949
0.00014558124670114943   -0.0033270489831616745   -0.0005437348811601858
0.0013536698079905207   -0.003324832528760643   -0.0006172621234718328
0.0017429641294939358   -0.006395132787822885   -0.0007591855719749949
0.0013562795448303635   -0.0033661353967907523   -0.0005779593264358731
0.00014558124670114943   -0.0033270489831616745   -0.0005437348811601858
0.0017429641294939358   -0.006395132787822885   -0.0007591855719749949
0.00011144000801766988   -0.0064098464960680715   -0.0007092217012280654
0.00010711248819838717   -0.006422005013695622   -0.0007090586976877333
0.00014558124670114943   -0.0033270489831616745   -0.0005437348811601858
0.0017429641294939358   -0.006395132787822885   -0.0007591855719749949
0.00010711248819838717   -0.006422005013695622   -0.0007090586976877333
0.0013562795448303635   -0.0033661353967907523   -0.0005779593264358731
0.00135409821019644   -0.0033849868255685553   -0.0005097493982576074
0.0017443212626116584   -0.006443156026562188   -0.0006993822402813615
0.0028495618426501923   -0.003484915798367848   -0.0005023608792254421
0.0013615070290641045   -0.0033845247921404824   -0.0005416730265173991
0.0017443212626116584   -0.006443156026562188   -0.0006993822402813615
0.0036249553152051927   -0.006508119132768907   -0.0007007138963408602
0.0028495618426501923   -0.003484915798367848   -0.0005023608792254421
0.0035952907727885464   -0.006496358641486269   -0.0007438455232982831
0.0013615070290641045   -0.0033845247921404824   -0.0005416730265173991
0.0027931643881365788   -0.0034749979439111607   -0.000574324490692482
0.0035952907727885464   -0.006496358641486269   -0.0007438455232982831
0.0028495618426501923   -0.003484915798367848   -0.0005023608792254421
0.0013615070290641045   -0.0033845247921404824   -0.0005416730265173991
0.0035952907727885464   -0.006496358641486269   -0.0007438455232982831
0.0017515780489368033   -0.006440800418442003   -0.0007157818451757316
0.0017443212626116584   -0.006443156026562188   -0.0006993822402813615
0.0013615070290641045   -0.0033845247921404824   -0.0005416730265173991
0.0035952907727885464   -0.006496358641486269   -0.0007438455232982831
0.0017443212626116584   -0.006443156026562188   -0.0006993822402813615
0.0028495618426501923   -0.003484915798367848   -0.0005023608792254421
0.0013615070290641045   -0.0033845247921404824   -0.0005416730265173991
0.0017515780489368033   -0.006440800418442003   -0.0007157818451757316
0.0027931643881365788   -0.0034749979439111607   -0.000574324490692482
0.0013562795448303635   -0.0033661353967907523   -0.0005779593264358731
0.0017515780489368033   -0.006440800418442003   -0.0007157818451757316
0.0035952907727885464   -0.006496358641486269   -0.0007438455232982831
0.0027931643881365788   -0.0034749979439111607   -0.000574324490692482
0.003565416479517374   -0.006473409226008525   -0.0007931081783702814
0.0013562795448303635   -0.0033661353967907523   -0.0005779593264358731
0.002742628491866656   -0.003446706333968904   -0.0006554547873103163
0.003565416479517374   -0.006473409226008525   -0.0007931081783702814
0.0027931643881365788   -0.0034749979439111607   -0.000574324490692482
0.0013562795448303635   -0.0033661353967907523   -0.0005779593264358731
0.003565416479517374   -0.006473409226008525   -0.0007931081783702814
0.0017484157734016798   -0.006425846571833933   -0.0007355808941780022
0.0017515780489368033   -0.006440800418442003   -0.0007157818451757316
0.0013562795448303635   -0.0033661353967907523   -0.0005779593264358731
0.003565416479517374   -0.006473409226008525   -0.0007931081783702814
0.0017515780489368033   -0.006440800418442003   -0.0007157818451757316
0.0027931643881365788   -0.0034749979439111607   -0.000574324490692482
0.0013562795448303635   -0.0033661353967907523   -0.0005779593264358731
0.0017484157734016798   -0.006425846571833933   -0.0007355808941780022
0.002742628491866656   -0.003446706333968904   -0.0006554547873103163
0.0013536698079905207   -0.003324832528760643   -0.0006172621234718328
0.0017484157734016798   -0.006425846571833933   -0.0007355808941780022
0.003565416479517374   -0.006473409226008525   -0.0007931081783702814
0.002742628491866656   -0.003446706333968904   -0.0006554547873103163
0.003511135006273818   -0.006425672621764791   -0.0008485088362789798
0.0013536698079905207   -0.003324832528760643   -0.0006172621234718328
0.002666231857520186   -0.0033841108710953942   -0.0007400135647266991
0.003511135006273818   -0.006425672621764791   -0.0008485088362789798
0.002742628491866656   -0.003446706333968904   -0.0006554547873103163
0.0013536698079905207   -0.003324832528760643   -0.0006172621234718328
0.003511135006273818   -0.006425672621764791   -0.0008485088362789798
0.0017429641294939358   -0.006395132787822885   -0.0007591855719749949
0.0017484157734016798   -0.006425846571833933   -0.0007355808941780022
0.0013536698079905207   -0.003324832528760643   -0.0006172621234718328
0.003511135006273818   -0.006425672621764791   -0.0008485088362789798
0.0017484157734016798   -0.006425846571833933   -0.0007355808941780022
0.002742628491866656   -0.003446706333968904   -0.0006554547873103163
-0.004852419979828755   -0.006538555260790454   -0.0009798935083490021
-0.005786416945033087   -0.010138143930754653   -0.0010462643969586074
-0.0031206068341660285   -0.006452508046149004   -0.0008575579044454005
-0.004937160355235165   -0.006606139909923587   -0.0008955869684415985
-0.005786416945033087   -0.010138143930754653   -0.0010462643969586074
-0.003758156192700359   -0.010083640551733325   -0.0009469407446275219
-0.0031206068341660285   -0.006452508046149004   -0.0008575579044454005
-0.0037615209620515764   -0.010125972254762094   -0.0009083056514082985
-0.004937160355235165   -0.006606139909923587   -0.0008955869684415985
-0.0031263236902561117   -0.006501913046982546   -0.000803409409646515
-0.0037615209620515764   -0.010125972254762094   -0.0009083056514082985
-0.0031206068341660285   -0.006452508046149004   -0.0008575579044454005
-0.004937160355235165   -0.006606139909923587   -0.0008955869684415985
-0.0037615209620515764   -0.010125972254762094   -0.0009083056514082985
-0.005842841243625184   -0.010195470387865549   -0.0009905791738071368
-0.005786416945033087   -0.010138143930754653   -0.0010462643969586074
-0.004937160355235165   -0.006606139909923587   -0.0008955869684415985
-0.0037615209620515764   -0.010125972254762094   -0.0009083056514082985
-0.005786416945033087   -0.010138143930754653   -0.0010462643969586074
-0.0031206068341660285   -0.006452508046149004   -0.0008575579044454005
-0.004937160355235165   -0.006606139909923587   -0.0008955869684415985
-0.005842841243625184   -0.010195470387865549   -0.0009905791738071368
-0.0031263236902561117   -0.006501913046982546   -0.000803409409646515
-0.004990065417828146   -0.0066486252810279475   -0.0008170807576930806
-0.005842841243625184   -0.010195470387865549   -0.0009905791738071368
-0.0037615209620515764   -0.010125972254762094   -0.0009083056514082985
-0.0031263236902561117   -0.006501913046982546   -0.000803409409646515
-0.003763551870057083   -0.010159631386558789   -0.0008735408754802953
-0.004990065417828146   -0.0066486252810279475   -0.0008170807576930806
-0.0031331929788678417   -0.006536387591315544   -0.000753220582454265
-0.003763551870057083   -0.010159631386558789   -0.0008735408754802953
-0.0031263236902561117   -0.006501913046982546   -0.000803409409646515
-0.004990065417828146   -0.0066486252810279475   -0.0008170807576930806
-0.003763551870057083   -0.010159631386558789   -0.0008735408754802953
-0.005874646434653365   -0.010236149150690318   -0.0009402867484986701
-0.005842841243625184   -0.010195470387865549   -0.0009905791738071368
-0.004990065417828146   -0.0066486252810279475   -0.0008170807576930806
-0.003763551870057083   -0.010159631386558789   -0.0008735408754802953
-0.005842841243625184   -0.010195470387865549   -0.0009905791738071368
-0.0031263236902561117   -0.006501913046982546   -0.000803409409646515
-0.004990065417828146   -0.0066486252810279475   -0.0008170807576930806
-0.005874646434653365   -0.010236149150690318   -0.0009402867484986701
-0.0031331929788678417   -0.006536387591315544   -0.000753220582454265
-0.005050259760908138   -0.00667941108170809   -0.0007449183221922725
-0.005874646434653365   -0.010236149150690318   -0.0009402867484986701
-0.003763551870057083   -0.010159631386558789   -0.0008735408754802953
-0.0031331929788678417   -0.006536387591315544   -0.000753220582454265
-0.003754595297165823   -0.010187420107308153   -0.0008421246313307462
-0.005050259760908138   -0.00667941108170809   -0.0007449183221922725
-0.0031261293689503603   -0.006559211215596933   -0.0007061450546148598
-0.003754595297165823   -0.010187420107308153   -0.0008421246313307462
-0.0031331929788678417   -0.006536387591315544   -0.000753220582454265
-0.005050259760908138   -0.00667941108170809   -0.0007449183221922725
-0.003754595297165823   -0.010187420107308153   -0.0008421246313307462
-0.005907311409189365   -0.010272815939599538   -0.0008960348508695899
-0.005874646434653365   -0.010236149150690318   -0.0009402867484986701
-0.005050259760908138   -0.00667941108170809   -0.0007449183221922725
-0.003754595297165823   -0.010187420107308153   -0.0008421246313307462
-0.005874646434653365   -0.010236149150690318   -0.0009402867484986701
-0.0031331929788678417   -0.006536387591315544   -0.000753220582454265
-0.0031206068341660285   -0.006452508046149004   -0.0008575579044454005
-0.003758156192700359   -0.010083640551733325   -0.0009469407446275219
-0.0014893316964712316   -0.006409508420496232   -0.0007726147056174681
-0.0031263236902561117   -0.006501913046982546   -0.000803409409646515
-0.003758156192700359   -0.010083640551733325   -0.0009469407446275219
-0.0018576828941849852   -0.010055304994085627   -0.0008782013477398588
-0.0014893316964712316   -0.006409508420496232   -0.0007726147056174681
-0.0018530305555643186   -0.010081783517875784   -0.0008525606229822116
-0.0031263236902561117   -0.006501913046982546   -0.000803409409646515
-0.0014844850430314179   -0.006441013888091784   -0.0007419027507739698
-0.0018530305555643186   -0.010081783517875784   -0.0008525606229822116
-0.0014893316964712316   -0.006409508420496232   -0.0007726147056174681
-0.0031263236902561117   -0.006501913046982546   -0.000803409409646515
-0.0018530305555643186   -0.010081783517875784   -0.0008525606229822116
-0.0037615209620515764   -0.010125972254762094   -0.0009083056514082985
-0.003758156192700359   -0.010083640551733325   -0.0009469407446275219
-0.0031263236902561117   -0.006501913046982546   -0.000803409409646515
-0.0018530305555643186   -0.010081783517875784   -0.0008525606229822116
-0.003758156192700359   -0.010083640551733325   -0.0009469407446275219
-0.0014893316964712316   -0.006409508420496232   -0.0007726147056174681
-0.0031263236902561117   -0.006501913046982546   -0.000803409409646515
-0.0037615209620515764   -0.010125972254762094   -0.0009083056514082985
-0.0014844850430314179   -0.006441013888091784   -0.0007419027507739698
-0.0031331929788678417   -0.006536387591315544   -0.000753220582454265
-0.0037615209620515764   -0.010125972254762094   -0.0009083056514082985
-0.0018530305555643186   -0.010081783517875784   -0.0008525606229822116
-0.0014844850430314179   -0.006441013888091784   -0.0007419027507739698
-0.001847101564402434   -0.01010098415435441   -0.0008307262031549175
-0.0031331929788678417   -0.006536387591315544   -0.000753220582454265
-0.0014788060845680896   -0.006459556450212768   -0.0007149543267893453
-0.001847101564402434   -0.01010098415435441   -0.0008307262031549175
-0.0014844850430314179   -0.006441013888091784   -0.0007419027507739698
-0.0031331929788678417   -0.006536387591315544   -0.000753220582454265
-0.001847101564402434   -0.01010098415435441   -0.0008307262031549175
-0.003763551870057083   -0.010159631386558789   -0.0008735408754802953
-0.0037615209620515764   -0.010125972254762094   -0.0009083056514082985
-0.0031331929788678417   -0.006536387591315544   -0.000753220582454265
-0.001847101564402434   -0.01010098415435441   -0.0008307262031549175
-0.0037615209620515764   -0.010125972254762094   -0.0009083056514082985
-0.0014844850430314179   -0.006441013888091784   -0.0007419027507739698
-0.0031331929788678417   -0.006536387591315544   -0.000753220582454265
-0.003763551870057083   -0.010159631386558789   -0.0008735408754802953
-0.0014788060845680896   -0.006459556450212768   -0.0007149543267893453
-0.0031261293689503603   -0.006559211215596933   -0.0007061450546148598
-0.003763551870057083   -0.010159631386558789   -0.0008735408754802953
-0.001847101564402434   -0.01010098415435441   -0.0008307262031549175
-0.0014788060845680896   -0.006459556450212768   -0.0007149543267893453
-0.0018387923350653805   -0.0101130339906882   -0.0008127653986957962
-0.0031261293689503603   -0.006559211215596933   -0.0007061450546148598
-0.0014701689596035412   -0.006465400950127371   -0.0006917614768341202
-0.0018387923350653805   -0.0101130339906882   -0.0008127653986957962
-0.0014788060845680896   -0.006459556450212768   -0.0007149543267893453
-0.0031261293689503603   -0.006559211215596933   -0.0007061450546148598
-0.0018387923350653805   -0.0101130339906882   -0.0008127653986957962
-0.003754595297165823   -0.010187420107308153   -0.0008421246313307462
-0.003763551870057083   -0.010159631386558789   -0.0008735408754802953
-0.0031261293689503603   -0.006559211215596933   -0.0007061450546148598
-0.0018387923350653805   -0.0101130339906882   -0.0008127653986957962
-0.003763551870057083   -0.010159631386558789   -0.0008735408754802953
-0.0014788060845680896   -0.006459556450212768   -0.0007149543267893453
-0.0014893316964712316   -0.006409508420496232   -0.0007726147056174681
-0.0018576828941849852   -0.010055304994085627   -0.0008782013477398588
9.355720315874292e-05   -0.006407200710334879   -0.000720177188487678
-0.0014844850430314179   -0.006441013888091784   -0.0007419027507739698
-0.0018576828941849852   -0.010055304994085627   -0.0008782013477398588
-9.095454877988815e-06   -0.010050328676857267   -0.0008384099303046566
9.355720315874292e-05   -0.006407200710334879   -0.000720177188487678
-1.2990575322089949e-06   -0.010060833324921787   -0.0008258783841544511
-0.0014844850430314179   -0.006441013888091784   -0.0007419027507739698
0.00010157445990438187   -0.006421059417251507   -0.0007127834302093616
-1.2990575322089949e-06   -0.010060833324921787   -0.0008258783841544511
9.355720315874292e-05   -0.006407200710334879   -0.000720177188487678
-0.0014844850430314179   -0.006441013888091784   -0.0007419027507739698
-1.2990575322089949e-06   -0.010060833324921787   -0.0008258783841544511
-0.0018530305555643186   -0.010081783517875784   -0.0008525606229822116
-0.0018576828941849852   -0.010055304994085627   -0.0008782013477398588
-0.0014844850430314179   -0.006441013888091784   -0.0007419027507739698
-1.2990575322089949e-06   -0.010060833324921787   -0.0008258783841544511
-0.0018576828941849852   -0.010055304994085627   -0.0008782013477398588
9.355720315874292e-05   -0.006407200710334879   -0.000720177188487678
-0.0014844850430314179   -0.006441013888091784   -0.0007419027507739698
-0.0018530305555643186   -0.010081783517875784   -0.0008525606229822116
0.00010157445990438187   -0.006421059417251507   -0.0007127834302093616
-0.0014788060845680896   -0.006459556450212768   -0.0007149543267893453
-0.0018530305555643186   -0.010081783517875784   -0.0008525606229822116
-1.2990575322089949e-06   -0.010060833324921787   -0.0008258783841544511
0.00010157445990438187   -0.006421059417251507   -0.0007127834302093616
4.5723548485463745e-06   -0.010064008473450957   -0.0008171089645285121
-0.0014788060845680896   -0.006459556450212768   -0.0007149543267893453
0.00010711248819838717   -0.006422005013695622   -0.0007090586976877333
4.5723548485463745e-06   -0.010064008473450957   -0.0008171089645285121
0.00010157445990438187   -0.006421059417251507   -0.0007127834302093616
-0.0014788060845680896   -0.006459556450212768   -0.0007149543267893453
4.5723548485463745e-06   -0.010064008473450957   -0.0008171089645285121
-0.001847101564402434   -0.01010098415435441   -0.0008307262031549175
-0.0018530305555643186   -0.010081783517875784   -0.0008525606229822116
-0.0014788060845680896   -0.006459556450212768   -0.0007149543267893453
4.5723548485463745e-06   -0.010064008473450957   -0.0008171089645285121
-0.0018530305555643186   -0.010081783517875784   -0.0008525606229822116
0.00010157445990438187   -0.006421059417251507   -0.0007127834302093616
-0.0014788060845680896   -0.006459556450212768   -0.0007149543267893453
-0.001847101564402434   -0.01010098415435441   -0.0008307262031549175
0.00010711248819838717   -0.006422005013695622   -0.0007090586976877333
-0.0014701689596035412   -0.006465400950127371   -0.0006917614768341202
-0.001847101564402434   -0.01010098415435441   -0.0008307262031549175
4.5723548485463745e-06   -0.010064008473450957   -0.0008171089645285121
0.00010711248819838717   -0.006422005013695622   -0.0007090586976877333
8.730051932808439e-06   -0.010059752651837383   -0.0008122647217692353
-0.0014701689596035412   -0.006465400950127371   -0.0006917614768341202
0.00011144000801766988   -0.0064098464960680715   -0.0007092217012280654
8.730051932808439e-06   -0.010059752651837383   -0.0008122647217692353
0.00010711248819838717   -0.006422005013695622   -0.0007090586976877333
-0.0014701689596035412   -0.006465400950127371   -0.0006917614768341202
8.730051932808439e-06   -0.010059752651837383   -0.0008122647217692353
-0.0018387923350653805   -0.0101130339906882   -0.0008127653986957962
-0.001847101564402434   -0.01010098415435441   -0.0008307262031549175
-0.0014701689596035412   -0.006465400950127371   -0.0006917614768341202
8.730051932808439e-06   -0.010059752651837383   -0.0008122647217692353
-0.001847101564402434   -0.01010098415435441   -0.0008307262031549175
0.00010711248819838717   -0.006422005013695622   -0.0007090586976877333
9.355720315874292e-05   -0.006407200710334879   -0.000720177188487678
-9.095454877988815e-06   -0.010050328676857267   -0.0008384099303046566
0.0017443212626116584   -0.006443156026562188   -0.0006993822402813615
0.00010157445990438187   -0.006421059417251507   -0.0007127834302093616
-9.095454877988815e-06   -0.010050328676857267   -0.0008384099303046566
0.0019031270569098441   -0.01006668796004639   -0.0008274483358849487
0.0017443212626116584   -0.006443156026562188   -0.0006993822402813615
0.0019125052334566844   -0.010062111785090616   -0.0008282932814802046
0.00010157445990438187   -0.006421059417251507   -0.0007127834302093616
0.0017515780489368033   -0.006440800418442003   -0.0007157818451757316
0.0019125052334566844   -0.010062111785090616   -0.0008282932814802046
0.0017443212626116584   -0.006443156026562188   -0.0006993822402813615
0.00010157445990438187   -0.006421059417251507   -0.0007127834302093616
0.0019125052334566844   -0.010062111785090616   -0.0008282932814802046
-1.2990575322089949e-06   -0.010060833324921787   -0.0008258783841544511
-9.095454877988815e-06   -0.010050328676857267   -0.0008384099303046566
0.00010157445990438187   -0.006421059417251507   -0.0007127834302093616
0.0019125052334566844   -0.010062111785090616   -0.0008282932814802046
-9.095454877988815e-06   -0.010050328676857267   -0.0008384099303046566
0.0017443212626116584   -0.006443156026562188   -0.0006993822402813615
0.00010157445990438187   -0.006421059417251507   -0.0007127834302093616
-1.2990575322089949e-06   -0.010060833324921787   -0.0008258783841544511
0.0017515780489368033   -0.006440800418442003   -0.0007157818451757316
0.00010711248819838717   -0.006422005013695622   -0.0007090586976877333
-1.2990575322089949e-06   -0.010060833324921787   -0.0008258783841544511
0.0019125052334566844   -0.010062111785090616   -0.0008282932814802046
0.0017515780489368033   -0.006440800418442003   -0.0007157818451757316
0.0019144367392763034   -0.01005081106666276   -0.0008326947934028737
0.00010711248819838717   -0.006422005013695622   -0.0007090586976877333
0.0017484157734016798   -0.006425846571833933   -0.0007355808941780022
0.0019144367392763034   -0.01005081106666276   -0.0008326947934028737
0.0017515780489368033   -0.006440800418442003   -0.0007157818451757316
0.00010711248819838717   -0.006422005013695622   -0.0007090586976877333
0.0019144367392763034   -0.01005081106666276   -0.0008326947934028737
4.5723548485463745e-06   -0.010064008473450957   -0.0008171089645285121
-1.2990575322089949e-06   -0.010060833324921787   -0.0008258783841544511
0.00010711248819838717   -0.006422005013695622   -0.0007090586976877333
0.0019144367392763034   -0.01005081106666276   -0.0008326947934028737
-1.2990575322089949e-06   -0.010060833324921787   -0.0008258783841544511
0.0017515780489368033   -0.006440800418442003   -0.0007157818451757316
0.00010711248819838717   -0.006422005013695622   -0.0007090586976877333
4.5723548485463745e-06   -0.010064008473450957   -0.0008171089645285121
0.0017484157734016798   -0.006425846571833933   -0.0007355808941780022
0.00011144000801766988   -0.0064098464960680715   -0.0007092217012280654
4.5723548485463745e-06   -0.010064008473450957   -0.0008171089645285121
0.0019144367392763034   -0.01005081106666276   -0.0008326947934028737
0.0017484157734016798   -0.006425846571833933   -0.0007355808941780022
0.0019115020006722715   -0.010030000142495948   -0.0008407923314279381
0.00011144000801766988   -0.0064098464960680715   -0.0007092217012280654
0.0017429641294939358   -0.006395132787822885   -0.0007591855719749949
0.0019115020006722715   -0.010030000142495948   -0.0008407923314279381
0.0017484157734016798   -0.006425846571833933   -0.0007355808941780022
0.00011144000801766988   -0.0064098464960680715   -0.0007092217012280654
0.0019115020006722715   -0.010030000142495948   -0.0008407923314279381
8.730051932808439e-06   -0.010059752651837383   -0.0008122647217692353
4.5723548485463745e-06   -0.010064008473450957   -0.0008171089645285121
0.00011144000801766988   -0.0064098464960680715   -0.0007092217012280654
0.0019115020006722715   -0.010030000142495948   -0.0008407923314279381
4.5723548485463745e-06   -0.010064008473450957   -0.0008171089645285121
0.0017484157734016798   -0.006425846571833933   -0.0007355808941780022
0.0017443212626116584   -0.006443156026562188   -0.0006993822402813615
0.0019031270569098441   -0.01006668796004639   -0.0008274483358849487
0.0036249553152051927   -0.006508119132768907   -0.0007007138963408602
0.0017515780489368033   -0.006440800418442003   -0.0007157818451757316
0.0019031270569098441   -0.01006668796004639   -0.0008274483358849487
0.004014571740911463   -0.010096548839073571   -0.000839227596294208
0.0036249553152051927   -0.006508119132768907   -0.0007007138963408602
0.0040128212740355666   -0.010081712794710077   -0.0008543731060748343
0.0017515780489368033   -0.006440800418442003   -0.0007157818451757316
0.0035952907727885464   -0.006496358641486269   -0.0007438455232982831
0.0040128212740355666   -0.010081712794710077   -0.0008543731060748343
0.0036249553152051927   -0.006508119132768907   -0.0007007138963408602
0.0017515780489368033   -0.006440800418442003   -0.0007157818451757316
0.0040128212740355666   -0.010081712794710077   -0.0008543731060748343
0.0019125052334566844   -0.010062111785090616   -0.0008282932814802046
0.0019031270569098441   -0.01006668796004639   -0.0008274483358849487
0.0017515780489368033   -0.006440800418442003   -0.0007157818451757316
0.0040128212740355666   -0.010081712794710077   -0.0008543731060748343
0.0019031270569098441   -0.01006668796004639   -0.0008274483358849487
0.0036249553152051927   -0.006508119132768907   -0.0007007138963408602
0.0017515780489368033   -0.006440800418442003   -0.0007157818451757316
0.0019125052334566844   -0.010062111785090616   -0.0008282932814802046
0.0035952907727885464   -0.006496358641486269   -0.0007438455232982831
0.0017484157734016798   -0.006425846571833933   -0.0007355808941780022
0.0019125052334566844   -0.010062111785090616   -0.0008282932814802046
0.0040128212740355666   -0.010081712794710077   -0.0008543731060748343
0.0035952907727885464   -0.006496358641486269   -0.0007438455232982831
0.00400449395225811   -0.010063369363199919   -0.0008752971297923757
0.0017484157734016798   -0.006425846571833933   -0.0007355808941780022
0.003565416479517374   -0.006473409226008525   -0.0007931081783702814
0.00400449395225811   -0.010063369363199919   -0.0008752971297923757
0.0035952907727885464   -0.006496358641486269   -0.0007438455232982831
0.0017484157734016798   -0.006425846571833933   -0.0007355808941780022
0.00400449395225811   -0.010063369363199919   -0.0008752971297923757
0.0019144367392763034   -0.01005081106666276   -0.0008326947934028737
0.0019125052334566844   -0.010062111785090616   -0.0008282932814802046
0.0017484157734016798   -0.006425846571833933   -0.0007355808941780022
0.00400449395225811   -0.010063369363199919   -0.0008752971297923757
0.0019125052334566844   -0.010062111785090616   -0.0008282932814802046
0.0035952907727885464   -0.006496358641486269   -0.0007438455232982831
0.0017484157734016798   -0.006425846571833933   -0.0007355808941780022
0.0019144367392763034   -0.01005081106666276   -0.0008326947934028737
0.003565416479517374   -0.006473409226008525   -0.0007931081783702814
0.0017429641294939358   -0.006395132787822885   -0.0007591855719749949
0.0019144367392763034   -0.01005081106666276   -0.0008326947934028737
0.00400449395225811   -0.010063369363199919   -0.0008752971297923757
0.003565416479517374   -0.006473409226008525   -0.0007931081783702814
0.003978933769633257   -0.010028790020008343   -0.0009019575916141798
0.0017429641294939358   -0.006395132787822885   -0.0007591855719749949
0.003511135006273818   -0.006425672621764791   -0.0008485088362789798
0.003978933769633257   -0.010028790020008343   -0.0009019575916141798
0.003565416479517374   -0.006473409226008525   -0.0007931081783702814
0.0017429641294939358   -0.006395132787822885   -0.0007591855719749949
0.003978933769633257   -0.010028790020008343   -0.0009019575916141798
0.0019115020006722715   -0.010030000142495948   -0.0008407923314279381
0.0019144367392763034   -0.01005081106666276   -0.0008326947934028737
0.0017429641294939358   -0.006395132787822885   -0.0007591855719749949
0.003978933769633257   -0.010028790020008343   -0.0009019575916141798
0.0019144367392763034   -0.01005081106666276   -0.0008326947934028737
0.003565416479517374   -0.006473409226008525   -0.0007931081783702814
-0.005786416945033087   -0.010138143930754653   -0.0010462643969586074
-0.0063481556462074125   -0.014047446871322847   -0.001066781322296547
-0.003758156192700359   -0.010083640551733325   -0.0009469407446275219
-0.005842841243625184   -0.010195470387865549   -0.0009905791738071368
-0.0063481556462074125   -0.014047446871322847   -0.001066781322296547
-0.00417508679311911   -0.014025456388525408   -0.0009880379584013116
-0.003758156192700359   -0.010083640551733325   -0.0009469407446275219
-0.004172438919705679   -0.014061410768025596   -0.000964427010201343
-0.005842841243625184   -0.010195470387865549   -0.0009905791738071368
-0.0037615209620515764   -0.010125972254762094   -0.0009083056514082985
-0.004172438919705679   -0.014061410768025596   -0.000964427010201343
-0.003758156192700359   -0.010083640551733325   -0.0009469407446275219
-0.005842841243625184   -0.010195470387865549   -0.0009905791738071368
-0.004172438919705679   -0.014061410768025596   -0.000964427010201343
-0.006373790876701236   -0.014095832192205547   -0.0010383353736588199
-0.0063481556462074125   -0.014047446871322847   -0.001066781322296547
-0.005842841243625184   -0.010195470387865549   -0.0009905791738071368
-0.004172438919705679   -0.014061410768025596   -0.000964427010201343
-0.0063481556462074125   -0.014047446871322847   -0.001066781322296547
-0.003758156192700359   -0.010083640551733325   -0.0009469407446275219
-0.005842841243625184   -0.010195470387865549   -0.0009905791738071368
-0.006373790876701236   -0.014095832192205547   -0.0010383353736588199
-0.0037615209620515764   -0.010125972254762094   -0.0009083056514082985
-0.005874646434653365   -0.010236149150690318   -0.0009402867484986701
-0.006373790876701236   -0.014095832192205547   -0.0010383353736588199
-0.004172438919705679   -0.014061410768025596   -0.000964427010201343
-0.0037615209620515764   -0.010125972254762094   -0.0009083056514082985
-0.004165851644141931   -0.014094694842308166   -0.0009447402249902288
-0.005874646434653365   -0.010236149150690318   -0.0009402867484986701
-0.003763551870057083   -0.010159631386558789   -0.0008735408754802953
-0.004165851644141931   -0.014094694842308166   -0.0009447402249902288
-0.0037615209620515764   -0.010125972254762094   -0.0009083056514082985
-0.005874646434653365   -0.010236149150690318   -0.0009402867484986701
-0.004165851644141931   -0.014094694842308166   -0.0009447402249902288
-0.006381143947904102   -0.014135437459041599   -0.0010155340697947483
-0.006373790876701236   -0.014095832192205547   -0.0010383353736588199
-0.005874646434653365   -0.010236149150690318   -0.0009402867484986701
-0.004165851644141931   -0.014094694842308166   -0.0009447402249902288
-0.006373790876701236   -0.014095832192205547   -0.0010383353736588199
-0.0037615209620515764   -0.010125972254762094   -0.0009083056514082985
-0.005874646434653365   -0.010236149150690318   -0.0009402867484986701
-0.006381143947904102   -0.014135437459041599   -0.0010155340697947483
-0.003763551870057083   -0.010159631386558789   -0.0008735408754802953
-0.005907311409189365   -0.010272815939599538   -0.0008960348508695899
-0.006381143947904102   -0.014135437459041599   -0.0010155340697947483
-0.004165851644141931   -0.014094694842308166   -0.0009447402249902288
-0.003763551870057083   -0.010159631386558789   -0.0008735408754802953
-0.004151119951247668   -0.01412785664052982   -0.0009286927022869964
-0.005907311409189365   -0.010272815939599538   -0.0008960348508695899
-0.003754595297165823   -0.010187420107308153   -0.0008421246313307462
-0.004151119951247668   -0.01412785664052982   -0.0009286927022869964
-0.003763551870057083   -0.010159631386558789   -0.0008735408754802953
-0.005907311409189365   -0.010272815939599538   -0.0008960348508695899
-0.004151119951247668   -0.01412785664052982   -0.0009286927022869964
-0.0063826988211090905   -0.014178632210648356   -0.0009988733689389347
-0.006381143947904102   -0.014135437459041599   -0.0010155340697947483
-0.005907311409189365   -0.010272815939599538   -0.0008960348508695899
-0.004151119951247668   -0.01412785664052982   -0.0009286927022869964
-0.006381143947904102   -0.014135437459041599   -0.0010155340697947483
-0.003763551870057083   -0.010159631386558789   -0.0008735408754802953
-0.003758156192700359   -0.010083640551733325   -0.0009469407446275219
-0.00417508679311911   -0.014025456388525408   -0.0009880379584013116
-0.0018576828941849852   -0.010055304994085627   -0.0008782013477398588
-0.0037615209620515764   -0.010125972254762094   -0.0009083056514082985
-0.00417508679311911   -0.014025456388525408   -0.0009880379584013116
-0.002156690484412813   -0.014012612997043435   -0.0009344644783537646
-0.0018576828941849852   -0.010055304994085627   -0.0008782013477398588
-0.0021481837208276   -0.014034291264903713   -0.0009137188450102353
-0.0037615209620515764   -0.010125972254762094   -0.0009083056514082985
-0.0018530305555643186   -0.010081783517875784   -0.0008525606229822116
-0.0021481837208276   -0.014034291264903713   -0.0009137188450102353
-0.0018576828941849852   -0.010055304994085627   -0.0008782013477398588
-0.0037615209620515764   -0.010125972254762094   -0.0009083056514082985
-0.0021481837208276   -0.014034291264903713   -0.0009137188450102353
-0.004172438919705679   -0.014061410768025596   -0.000964427010201343
-0.00417508679311911   -0.014025456388525408   -0.0009880379584013116
-0.0037615209620515764   -0.010125972254762094   -0.0009083056514082985
-0.0021481837208276   -0.014034291264903713   -0.0009137188450102353
-0.00417508679311911   -0.014025456388525408   -0.0009880379584013116
-0.0018576828941849852   -0.010055304994085627   -0.0008782013477398588
-0.0037615209620515764   -0.010125972254762094   -0.0009083056514082985
-0.004172438919705679   -0.014061410768025596   -0.000964427010201343
-0.0018530305555643186   -0.010081783517875784   -0.0008525606229822116
-0.003763551870057083   -0.010159631386558789   -0.0008735408754802953
-0.004172438919705679   -0.014061410768025596   -0.000964427010201343
-0.0021481837208276   -0.014034291264903713   -0.0009137188450102353
-0.0018530305555643186   -0.010081783517875784   -0.0008525606229822116
-0.0021379865991805773   -0.014054266821304623   -0.0008968953203843732
-0.003763551870057083   -0.010159631386558789   -0.0008735408754802953
-0.001847101564402434   -0.01010098415435441   -0.0008307262031549175
-0.0021379865991805773   -0.014054266821304623   -0.0008968953203843732
-0.0018530305555643186   -0.010081783517875784   -0.0008525606229822116
-0.003763551870057083   -0.010159631386558789   -0.0008735408754802953
-0.0021379865991805773   -0.014054266821304623   -0.0008968953203843732
-0.004165851644141931   -0.014094694842308166   -0.0009447402249902288
-0.004172438919705679   -0.014061410768025596   -0.000964427010201343
-0.003763551870057083   -0.010159631386558789   -0.0008735408754802953
-0.0021379865991805773   -0.014054266821304623   -0.0008968953203843732
-0.004172438919705679   -0.014061410768025596   -0.000964427010201343
-0.0018530305555643186   -0.010081783517875784   -0.0008525606229822116
-0.003763551870057083   -0.010159631386558789   -0.0008735408754802953
-0.004165851644141931   -0.014094694842308166   -0.0009447402249902288
-0.001847101564402434   -0.01010098415435441   -0.0008307262031549175
-0.003754595297165823   -0.010187420107308153   -0.0008421246313307462
-0.004165851644141931   -0.014094694842308166   -0.0009447402249902288
-0.0021379865991805773   -0.014054266821304623   -0.0008968953203843732
-0.001847101564402434   -0.01010098415435441   -0.0008307262031549175
-0.002125913767622116   -0.014072607311151845   -0.0008840932488388364
-0.003754595297165823   -0.010187420107308153   -0.0008421246313307462
-0.0018387923350653805   -0.0101130339906882   -0.0008127653986957962
-0.002125913767622116   -0.014072607311151845   -0.0008840932488388364
-0.001847101564402434   -0.01010098415435441   -0.0008307262031549175
-0.003754595297165823   -0.010187420107308153   -0.0008421246313307462
-0.002125913767622116   -0.014072607311151845   -0.0008840932488388364
-0.004151119951247668   -0.01412785664052982   -0.0009286927022869964
-0.004165851644141931   -0.014094694842308166   -0.0009447402249902288
-0.003754595297165823   -0.010187420107308153   -0.0008421246313307462
-0.002125913767622116   -0.014072607311151845   -0.0008840932488388364
-0.004165851644141931   -0.014094694842308166   -0.0009447402249902288
-0.001847101564402434   -0.01010098415435441   -0.0008307262031549175
-0.0018576828941849852   -0.010055304994085627   -0.0008782013477398588
-0.002156690484412813   -0.014012612997043435   -0.0009344644783537646
-9.095454877988815e-06   -0.010050328676857267   -0.0008384099303046566
-0.0018530305555643186   -0.010081783517875784   -0.0008525606229822116
-0.002156690484412813   -0.014012612997043435   -0.0009344644783537646
-0.00019296764500665426   -0.014005107459362027   -0.0009070197674950245
-9.095454877988815e-06   -0.010050328676857267   -0.0008384099303046566
-0.00018143456308937847   -0.014012207110417653   -0.0008893586627997162
-0.0018530305555643186   -0.010081783517875784   -0.0008525606229822116
-1.2990575322089949e-06   -0.010060833324921787   -0.0008258783841544511
-0.00018143456308937847   -0.014012207110417653   -0.0008893586627997162
-9.095454877988815e-06   -0.010050328676857267   -0.0008384099303046566
-0.0018530305555643186   -0.010081783517875784   -0.0008525606229822116
-0.00018143456308937847   -0.014012207110417653   -0.0008893586627997162
-0.0021481837208276   -0.014034291264903713   -0.0009137188450102353
-0.002156690484412813   -0.014012612997043435   -0.0009344644783537646
-0.0018530305555643186   -0.010081783517875784   -0.0008525606229822116
-0.00018143456308937847   -0.014012207110417653   -0.0008893586627997162
-0.002156690484412813   -0.014012612997043435   -0.0009344644783537646
-9.095454877988815e-06   -0.010050328676857267   -0.0008384099303046566
-0.0018530305555643186   -0.010081783517875784   -0.0008525606229822116
-0.0021481837208276   -0.014034291264903713   -0.0009137188450102353
-1.2990575322089949e-06   -0.010060833324921787   -0.0008258783841544511
-0.001847101564402434   -0.01010098415435441   -0.0008307262031549175
-0.0021481837208276   -0.014034291264903713   -0.0009137188450102353
-0.00018143456308937847   -0.014012207110417653   -0.0008893586627997162
-1.2990575322089949e-06   -0.010060833324921787   -0.0008258783841544511
-0.00017132320514622653   -0.014017478080059393   -0.0008755901700240207
-0.001847101564402434   -0.01010098415435441   -0.0008307262031549175
4.5723548485463745e-06   -0.010064008473450957   -0.0008171089645285121
-0.00017132320514622653   -0.014017478080059393   -0.0008755901700240207
-1.2990575322089949e-06   -0.010060833324921787   -0.0008258783841544511
-0.001847101564402434   -0.01010098415435441   -0.0008307262031549175
-0.00017132320514622653   -0.014017478080059393   -0.0008755901700240207
-0.0021379865991805773   -0.014054266821304623   -0.0008968953203843732
-0.0021481837208276   -0.014034291264903713   -0.0009137188450102353
-0.001847101564402434   -0.01010098415435441   -0.0008307262031549175
-0.00017132320514622653   -0.014017478080059393   -0.0008755901700240207
-0.0021481837208276   -0.014034291264903713   -0.0009137188450102353
-1.2990575322089949e-06   -0.010060833324921787   -0.0008258783841544511
-0.001847101564402434   -0.01010098415435441   -0.0008307262031549175
-0.0021379865991805773   -0.014054266821304623   -0.0008968953203843732
4.5723548485463745e-06   -0.010064008473450957   -0.0008171089645285121
-0.0018387923350653805   -0.0101130339906882   -0.0008127653986957962
-0.0021379865991805773   -0.014054266821304623   -0.0008968953203843732
-0.00017132320514622653   -0.014017478080059393   -0.0008755901700240207
4.5723548485463745e-06   -0.010064008473450957   -0.0008171089645285121
-0.0001633665864188247   -0.0140208900431057   -0.0008658534549874912
-0.0018387923350653805   -0.0101130339906882   -0.0008127653986957962
8.730051932808439e-06   -0.010059752651837383   -0.0008122647217692353
-0.0001633665864188247   -0.0140208900431057   -0.0008658534549874912
4.5723548485463745e-06   -0.010064008473450957   -0.0008171089645285121
-0.0018387923350653805   -0.0101130339906882   -0.0008127653986957962
-0.0001633665864188247   -0.0140208900431057   -0.0008658534549874912
-0.002125913767622116   -0.014072607311151845   -0.0008840932488388364
-0.0021379865991805773   -0.014054266821304623   -0.0008968953203843732
-0.0018387923350653805   -0.0101130339906882   -0.0008127653986957962
-0.0001633665864188247   -0.0140208900431057   -0.0008658534549874912
-0.0021379865991805773   -0.014054266821304623   -0.0008968953203843732
4.5723548485463745e-06   -0.010064008473450957   -0.0008171089645285121
-9.095454877988815e-06   -0.010050328676857267   -0.0008384099303046566
-0.00019296764500665426   -0.014005107459362027   -0.0009070197674950245
0.0019031270569098441   -0.01006668796004639   -0.0008274483358849487
-1.2990575322089949e-06   -0.010060833324921787   -0.0008258783841544511
-0.00019296764500665426   -0.014005107459362027   -0.0009070197674950245
0.0018304742848821946   -0.014001638974173102   -0.0009059885599401814
0.0019031270569098441   -0.01006668796004639   -0.0008274483358849487
0.0018455216885030629   -0.013994587364045906   -0.0008915616197208212
-1.2990575322089949e-06   -0.010060833324921787   -0.0008258783841544511
0.0019125052334566844   -0.010062111785090616   -0.0008282932814802046
0.0018455216885030629   -0.013994587364045906   -0.0008915616197208212
0.0019031270569098441   -0.01006668796004639   -0.0008274483358849487
-1.2990575322089949e-06   -0.010060833324921787   -0.0008258783841544511
0.0018455216885030629   -0.013994587364045906   -0.0008915616197208212
-0.00018143456308937847   -0.014012207110417653   -0.0008893586627997162
-0.00019296764500665426   -0.014005107459362027   -0.0009070197674950245
-1.2990575322089949e-06   -0.010060833324921787   -0.0008258783841544511
0.0018455216885030629   -0.013994587364045906   -0.0008915616197208212
-0.00019296764500665426   -0.014005107459362027   -0.0009070197674950245
0.0019031270569098441   -0.01006668796004639   -0.0008274483358849487
-1.2990575322089949e-06   -0.010060833324921787   -0.0008258783841544511
-0.00018143456308937847   -0.014012207110417653   -0.0008893586627997162
0.0019125052334566844   -0.010062111785090616   -0.0008282932814802046
4.5723548485463745e-06   -0.010064008473450957   -0.0008171089645285121
-0.00018143456308937847   -0.014012207110417653   -0.0008893586627997162
0.0018455216885030629   -0.013994587364045906   -0.0008915616197208212
0.0019125052334566844   -0.010062111785090616   -0.0008282932814802046
0.0018560101981629454   -0.013986552100738542   -0.0008809123188096057
4.5723548485463745e-06   -0.010064008473450957   -0.0008171089645285121
0.0019144367392763034   -0.01005081106666276   -0.0008326947934028737
0.0018560101981629454   -0.013986552100738542   -0.0008809123188096057
0.0019125052334566844   -0.010062111785090616   -0.0008282932814802046
4.5723548485463745e-06   -0.010064008473450957   -0.0008171089645285121
0.0018560101981629454   -0.013986552100738542   -0.0008809123188096057
-0.00017132320514622653   -0.014017478080059393   -0.0008755901700240207
-0.00018143456308937847   -0.014012207110417653   -0.0008893586627997162
4.5723548485463745e-06   -0.010064008473450957   -0.0008171089645285121
0.0018560101981629454   -0.013986552100738542   -0.0008809123188096057
-0.00018143456308937847   -0.014012207110417653   -0.0008893586627997162
0.0019125052334566844   -0.010062111785090616   -0.0008282932814802046
4.5723548485463745e-06   -0.010064008473450957   -0.0008171089645285121
-0.00017132320514622653   -0.014017478080059393   -0.0008755901700240207
0.0019144367392763034   -0.01005081106666276   -0.0008326947934028737
8.730051932808439e-06   -0.010059752651837383   -0.0008122647217692353
-0.00017132320514622653   -0.014017478080059393   -0.0008755901700240207
0.0018560101981629454   -0.013986552100738542   -0.0008809123188096057
0.0019144367392763034   -0.01005081106666276   -0.0008326947934028737
0.0018590262138664772   -0.013974955465059882   -0.0008739657151750466
8.730051932808439e-06   -0.010059752651837383   -0.0008122647217692353
0.0019115020006722715   -0.010030000142495948   -0.0008407923314279381
0.0018590262138664772   -0.013974955465059882   -0.0008739657151750466
0.0019144367392763034   -0.01005081106666276   -0.0008326947934028737
8.730051932808439e-06   -0.010059752651837383   -0.0008122647217692353
0.0018590262138664772   -0.013974955465059882   -0.0008739657151750466
-0.0001633665864188247   -0.0140208900431057   -0.0008658534549874912
-0.00017132320514622653   -0.014017478080059393   -0.0008755901700240207
8.730051932808439e-06   -0.010059752651837383   -0.0008122647217692353
0.0018590262138664772   -0.013974955465059882   -0.0008739657151750466
-0.00017132320514622653   -0.014017478080059393   -0.0008755901700240207
0.0019144367392763034   -0.01005081106666276   -0.0008326947934028737
0.0019031270569098441   -0.01006668796004639   -0.0008274483358849487
0.0018304742848821946   -0.014001638974173102   -0.0009059885599401814
0.004014571740911463   -0.010096548839073571   -0.000839227596294208
0.0019125052334566844   -0.010062111785090616   -0.0008282932814802046
0.0018304742848821946   -0.014001638974173102   -0.0009059885599401814
0.004022395116832965   -0.01399653845395439   -0.0009288938775533353
0.004014571740911463   -0.010096548839073571   -0.000839227596294208
0.004051465161823664   -0.013978265110508314   -0.0009166809807490196
0.0019125052334566844   -0.010062111785090616   -0.0008282932814802046
0.0040128212740355666   -0.010081712794710077   -0.0008543731060748343
0.004051465161823664   -0.013978265110508314   -0.0009166809807490196
0.004014571740911463   -0.010096548839073571   -0.000839227596294208
0.0019125052334566844   -0.010062111785090616   -0.0008282932814802046
0.004051465161823664   -0.013978265110508314   -0.0009166809807490196
0.0018455216885030629   -0.013994587364045906   -0.0008915616197208212
0.0018304742848821946   -0.014001638974173102   -0.0009059885599401814
0.0019125052334566844   -0.010062111785090616   -0.0008282932814802046
0.004051465161823664   -0.013978265110508314   -0.0009166809807490196
0.0018304742848821946   -0.014001638974173102   -0.0009059885599401814
0.004014571740911463   -0.010096548839073571   -0.000839227596294208
0.0019125052334566844   -0.010062111785090616   -0.0008282932814802046
0.0018455216885030629   -0.013994587364045906   -0.0008915616197208212
0.0040128212740355666   -0.010081712794710077   -0.0008543731060748343
0.0019144367392763034   -0.01005081106666276   -0.0008326947934028737
0.0018455216885030629   -0.013994587364045906   -0.0008915616197208212
0.004051465161823664   -0.013978265110508314   -0.0009166809807490196
0.0040128212740355666   -0.010081712794710077   -0.0008543731060748343
0.004067494591713745   -0.013963937740151896   -0.0009102199425976568
0.0019144367392763034   -0.01005081106666276   -0.0008326947934028737
0.00400449395225811   -0.010063369363199919   -0.0008752971297923757
0.004067494591713745   -0.013963937740151896   -0.0009102199425976568
0.0040128212740355666   -0.010081712794710077   -0.0008543731060748343
0.0019144367392763034   -0.01005081106666276   -0.0008326947934028737
0.004067494591713745   -0.013963937740151896   -0.0009102199425976568
0.0018560101981629454   -0.013986552100738542   -0.0008809123188096057
0.0018455216885030629   -0.013994587364045906   -0.0008915616197208212
0.0019144367392763034   -0.01005081106666276   -0.0008326947934028737
0.004067494591713745   -0.013963937740151896   -0.0009102199425976568
0.0018455216885030629   -0.013994587364045906   -0.0008915616197208212
0.0040128212740355666   -0.010081712794710077   -0.0008543731060748343
0.0019144367392763034   -0.01005081106666276   -0.0008326947934028737
0.0018560101981629454   -0.013986552100738542   -0.0008809123188096057
0.00400449395225811   -0.010063369363199919   -0.0008752971297923757
0.0019115020006722715   -0.010030000142495948   -0.0008407923314279381
0.0018560101981629454   -0.013986552100738542   -0.0008809123188096057
0.004067494591713745   -0.013963937740151896   -0.0009102199425976568
0.00400449395225811   -0.010063369363199919   -0.0008752971297923757
0.004072795811945753   -0.013941271433492483   -0.0009096093016886307
0.0019115020006722715   -0.010030000142495948   -0.0008407923314279381
0.003978933769633257   -0.010028790020008343   -0.0009019575916141798
0.004072795811945753   -0.013941271433492483   -0.0009096093016886307
0.00400449395225811   -0.010063369363199919   -0.0008752971297923757
0.0019115020006722715   -0.010030000142495948   -0.0008407923314279381
0.004072795811945753   -0.013941271433492483   -0.0009096093016886307
0.0018590262138664772   -0.013974955465059882   -0.0008739657151750466
0.0018560101981629454   -0.013986552100738542   -0.0008809123188096057
0.0019115020006722715   -0.010030000142495948   -0.0008407923314279381
0.004072795811945753   -0.013941271433492483   -0.0009096093016886307
0.0018560101981629454   -0.013986552100738542   -0.0008809123188096057
0.00400449395225811   -0.010063369363199919   -0.0008752971297923757
-0.0063481556462074125   -0.014047446871322847   -0.001066781322296547
-0.0065399566313407795   -0.018018766683859072   -0.001050057493125306
-0.00417508679311911   -0.014025456388525408   -0.0009880379584013116
-0.006373790876701236   -0.014095832192205547   -0.0010383353736588199
-0.0065399566313407795   -0.018018766683859072   -0.001050057493125306
-0.004373220212300603   -0.018029337148449006   -0.000992152257789543
-0.00417508679311911   -0.014025456388525408   -0.0009880379584013116
-0.004360866705989494   -0.018058839764556505   -0.0009832537505772845
-0.006373790876701236   -0.014095832192205547   -0.0010383353736588199
-0.004172438919705679   -0.014061410768025596   -0.000964427010201343
-0.004360866705989494   -0.018058839764556505   -0.0009832537505772845
-0.00417508679311911   -0.014025456388525408   -0.0009880379584013116
-0.006373790876701236   -0.014095832192205547   -0.0010383353736588199
-0.004360866705989494   -0.018058839764556505   -0.0009832537505772845
-0.006531423986266093   -0.018058281153155976   -0.001048575099043647
-0.0065399566313407795   -0.018018766683859072   -0.001050057493125306
-0.006373790876701236   -0.014095832192205547   -0.0010383353736588199
-0.004360866705989494   -0.018058839764556505   -0.0009832537505772845
-0.0065399566313407795   -0.018018766683859072   -0.001050057493125306
-0.00417508679311911   -0.014025456388525408   -0.0009880379584013116
-0.006373790876701236   -0.014095832192205547   -0.0010383353736588199
-0.006531423986266093   -0.018058281153155976   -0.001048575099043647
-0.004172438919705679   -0.014061410768025596   -0.000964427010201343
-0.006381143947904102   -0.014135437459041599   -0.0010155340697947483
-0.006531423986266093   -0.018058281153155976   -0.001048575099043647
-0.004360866705989494   -0.018058839764556505   -0.0009832537505772845
-0.004172438919705679   -0.014061410768025596   -0.000964427010201343
-0.004341990976108855   -0.018091673121252448   -0.000978369913301078
-0.006381143947904102   -0.014135437459041599   -0.0010155340697947483
-0.004165851644141931   -0.014094694842308166   -0.0009447402249902288
-0.004341990976108855   -0.018091673121252448   -0.000978369913301078
-0.004172438919705679   -0.014061410768025596   -0.000964427010201343
-0.006381143947904102   -0.014135437459041599   -0.0010155340697947483
-0.004341990976108855   -0.018091673121252448   -0.000978369913301078
-0.00651064910342069   -0.018096824714575094   -0.0010530886173398596
-0.006531423986266093   -0.018058281153155976   -0.001048575099043647
-0.006381143947904102   -0.014135437459041599   -0.0010155340697947483
-0.004341990976108855   -0.018091673121252448   -0.000978369913301078
-0.006531423986266093   -0.018058281153155976   -0.001048575099043647
-0.004172438919705679   -0.014061410768025596   -0.000964427010201343
-0.006381143947904102   -0.014135437459041599   -0.0010155340697947483
-0.00651064910342069   -0.018096824714575094   -0.0010530886173398596
-0.004165851644141931   -0.014094694842308166   -0.0009447402249902288
-0.0063826988211090905   -0.014178632210648356   -0.0009988733689389347
-0.00651064910342069   -0.018096824714575094   -0.0010530886173398596
-0.004341990976108855   -0.018091673121252448   -0.000978369913301078
-0.004165851644141931   -0.014094694842308166   -0.0009447402249902288
-0.004317780043193433   -0.018130108220619178   -0.0009774250653280163
-0.0063826988211090905   -0.014178632210648356   -0.0009988733689389347
-0.004151119951247668   -0.01412785664052982   -0.0009286927022869964
-0.004317780043193433   -0.018130108220619178   -0.0009774250653280163
-0.004165851644141931   -0.014094694842308166   -0.0009447402249902288
-0.0063826988211090905   -0.014178632210648356   -0.0009988733689389347
-0.004317780043193433   -0.018130108220619178   -0.0009774250653280163
-0.006477474816271531   -0.018146632270810155   -0.0010639145465659305
-0.00651064910342069   -0.018096824714575094   -0.0010530886173398596
-0.0063826988211090905   -0.014178632210648356   -0.0009988733689389347
-0.004317780043193433   -0.018130108220619178   -0.0009774250653280163
-0.00651064910342069   -0.018096824714575094   -0.0010530886173398596
-0.004165851644141931   -0.014094694842308166   -0.0009447402249902288
-0.00417508679311911   -0.014025456388525408   -0.0009880379584013116
-0.004373220212300603   -0.018029337148449006   -0.000992152257789543
-0.002156690484412813   -0.014012612997043435   -0.0009344644783537646
-0.004172438919705679   -0.014061410768025596   -0.000964427010201343
-0.004373220212300603   -0.018029337148449006   -0.000992152257789543
-0.002387888494562243   -0.018031474687837723   -0.0009537047841096419
-0.002156690484412813   -0.014012612997043435   -0.0009344644783537646
-0.002371623739639438   -0.018048314527300054   -0.0009376872679462224
-0.004172438919705679   -0.014061410768025596   -0.000964427010201343
-0.0021481837208276   -0.014034291264903713   -0.0009137188450102353
-0.002371623739639438   -0.018048314527300054   -0.0009376872679462224
-0.002156690484412813   -0.014012612997043435   -0.0009344644783537646
-0.004172438919705679   -0.014061410768025596   -0.000964427010201343
-0.002371623739639438   -0.018048314527300054   -0.0009376872679462224
-0.004360866705989494   -0.018058839764556505   -0.0009832537505772845
-0.004373220212300603   -0.018029337148449006   -0.000992152257789543
-0.004172438919705679   -0.014061410768025596   -0.000964427010201343
-0.002371623739639438   -0.018048314527300054   -0.0009376872679462224
-0.004373220212300603   -0.018029337148449006   -0.000992152257789543
-0.002156690484412813   -0.014012612997043435   -0.0009344644783537646
-0.004172438919705679   -0.014061410768025596   -0.000964427010201343
-0.004360866705989494   -0.018058839764556505   -0.0009832537505772845
-0.0021481837208276   -0.014034291264903713   -0.0009137188450102353
-0.004165851644141931   -0.014094694842308166   -0.0009447402249902288
-0.004360866705989494   -0.018058839764556505   -0.0009832537505772845
-0.002371623739639438   -0.018048314527300054   -0.0009376872679462224
-0.0021481837208276   -0.014034291264903713   -0.0009137188450102353
-0.0023533505466379915   -0.018068925703337513   -0.0009256955725835279
-0.004165851644141931   -0.014094694842308166   -0.0009447402249902288
-0.0021379865991805773   -0.014054266821304623   -0.0008968953203843732
-0.0023533505466379915   -0.018068925703337513   -0.0009256955725835279
-0.0021481837208276   -0.014034291264903713   -0.0009137188450102353
-0.004165851644141931   -0.014094694842308166   -0.0009447402249902288
-0.0023533505466379915   -0.018068925703337513   -0.0009256955725835279
-0.004341990976108855   -0.018091673121252448   -0.000978369913301078
-0.004360866705989494   -0.018058839764556505   -0.0009832537505772845
-0.004165851644141931   -0.014094694842308166   -0.0009447402249902288
-0.0023533505466379915   -0.018068925703337513   -0.0009256955725835279
-0.004360866705989494   -0.018058839764556505   -0.0009832537505772845
-0.0021481837208276   -0.014034291264903713   -0.0009137188450102353
-0.004165851644141931   -0.014094694842308166   -0.0009447402249902288
-0.004341990976108855   -0.018091673121252448   -0.000978369913301078
-0.0021379865991805773   -0.014054266821304623   -0.0008968953203843732
-0.004151119951247668   -0.01412785664052982   -0.0009286927022869964
-0.004341990976108855   -0.018091673121252448   -0.000978369913301078
-0.0023533505466379915   -0.018068925703337513   -0.0009256955725835279
-0.0021379865991805773   -0.014054266821304623   -0.0008968953203843732
-0.002333700857064974   -0.018093372784014704   -0.0009178658119523608
-0.004151119951247668   -0.01412785664052982   -0.0009286927022869964
-0.002125913767622116   -0.014072607311151845   -0.0008840932488388364
-0.002333700857064974   -0.018093372784014704   -0.0009178658119523608
-0.0021379865991805773   -0.014054266821304623   -0.0008968953203843732
-0.004151119951247668   -0.01412785664052982   -0.0009286927022869964
-0.002333700857064974   -0.018093372784014704   -0.0009178658119523608
-0.004317780043193433   -0.018130108220619178   -0.0009774250653280163
-0.004341990976108855   -0.018091673121252448   -0.000978369913301078
-0.004151119951247668   -0.01412785664052982   -0.0009286927022869964
-0.002333700857064974   -0.018093372784014704   -0.0009178658119523608
-0.004341990976108855   -0.018091673121252448   -0.000978369913301078
-0.0021379865991805773   -0.014054266821304623   -0.0008968953203843732
-0.002156690484412813   -0.014012612997043435   -0.0009344644783537646
-0.002387888494562243   -0.018031474687837723   -0.0009537047841096419
-0.00019296764500665426   -0.014005107459362027   -0.0009070197674950245
-0.0021481837208276   -0.014034291264903713   -0.0009137188450102353
-0.002387888494562243   -0.018031474687837723   -0.0009537047841096419
-0.0004585865781272286   -0.01802076214738977   -0.0009382970622716527
-0.00019296764500665426   -0.014005107459362027   -0.0009070197674950245
-0.00043944907733183095   -0.01802447427421071   -0.0009155168310110058
-0.0021481837208276   -0.014034291264903713   -0.0009137188450102353
-0.00018143456308937847   -0.014012207110417653   -0.0008893586627997162
-0.00043944907733183095   -0.01802447427421071   -0.0009155168310110058
-0.00019296764500665426   -0.014005107459362027   -0.0009070197674950245
-0.0021481837208276   -0.014034291264903713   -0.0009137188450102353
-0.00043944907733183095   -0.01802447427421071   -0.0009155168310110058
-0.002371623739639438   -0.018048314527300054   -0.0009376872679462224
-0.002387888494562243   -0.018031474687837723   -0.0009537047841096419
-0.0021481837208276   -0.014034291264903713   -0.0009137188450102353
-0.00043944907733183095   -0.01802447427421071   -0.0009155168310110058
-0.002387888494562243   -0.018031474687837723   -0.0009537047841096419
-0.00019296764500665426   -0.014005107459362027   -0.0009070197674950245
-0.0021481837208276   -0.014034291264903713   -0.0009137188450102353
-0.002371623739639438   -0.018048314527300054   -0.0009376872679462224
-0.00018143456308937847   -0.014012207110417653   -0.0008893586627997162
-0.0021379865991805773   -0.014054266821304623   -0.0008968953203843732
-0.002371623739639438   -0.018048314527300054   -0.0009376872679462224
-0.00043944907733183095   -0.01802447427421071   -0.0009155168310110058
-0.00018143456308937847   -0.014012207110417653   -0.0008893586627997162
-0.0004213096104897143   -0.018031675441355907   -0.0008967385427437249
-0.0021379865991805773   -0.014054266821304623   -0.0008968953203843732
-0.00017132320514622653   -0.014017478080059393   -0.0008755901700240207
-0.0004213096104897143   -0.018031675441355907   -0.0008967385427437249
-0.00018143456308937847   -0.014012207110417653   -0.0008893586627997162
-0.0021379865991805773   -0.014054266821304623   -0.0008968953203843732
-0.0004213096104897143   -0.018031675441355907   -0.0008967385427437249
-0.0023533505466379915   -0.018068925703337513   -0.0009256955725835279
-0.002371623739639438   -0.018048314527300054   -0.0009376872679462224
-0.0021379865991805773   -0.014054266821304623   -0.0008968953203843732
-0.0004213096104897143   -0.018031675441355907   -0.0008967385427437249
-0.002371623739639438   -0.018048314527300054   -0.0009376872679462224
-0.00018143456308937847   -0.014012207110417653   -0.0008893586627997162
-0.0021379865991805773   -0.014054266821304623   -0.0008968953203843732
-0.0023533505466379915   -0.018068925703337513   -0.0009256955725835279
-0.00017132320514622653   -0.014017478080059393   -0.0008755901700240207
-0.002125913767622116   -0.014072607311151845   -0.0008840932488388364
-0.0023533505466379915   -0.018068925703337513   -0.0009256955725835279
-0.0004213096104897143   -0.018031675441355907   -0.0008967385427437249
-0.00017132320514622653   -0.014017478080059393   -0.0008755901700240207
-0.0004057892203939708   -0.018042523872772654   -0.000882099470392116
-0.002125913767622116   -0.014072607311151845   -0.0008840932488388364
-0.0001633665864188247   -0.0140208900431057   -0.0008658534549874912
-0.0004057892203939708   -0.018042523872772654   -0.000882099470392116
-0.00017132320514622653   -0.014017478080059393   -0.0008755901700240207
-0.002125913767622116   -0.014072607311151845   -0.0008840932488388364
-0.0004057892203939708   -0.018042523872772654   -0.000882099470392116
-0.002333700857064974   -0.018093372784014704   -0.0009178658119523608
-0.0023533505466379915   -0.018068925703337513   -0.0009256955725835279
-0.002125913767622116   -0.014072607311151845   -0.0008840932488388364
-0.0004057892203939708   -0.018042523872772654   -0.000882099470392116
-0.0023533505466379915   -0.018068925703337513   -0.0009256955725835279
-0.00017132320514622653   -0.014017478080059393   -0.0008755901700240207
-0.00019296764500665426   -0.014005107459362027   -0.0009070197674950245
-0.0004585865781272286   -0.01802076214738977   -0.0009382970622716527
0.0018304742848821946   -0.014001638974173102   -0.0009059885599401814
-0.00018143456308937847   -0.014012207110417653   -0.0008893586627997162
-0.0004585865781272286   -0.01802076214738977   -0.0009382970622716527
0.0015282290159838983   -0.017997037058862984   -0.0009467133433642396
0.0018304742848821946   -0.014001638974173102   -0.0009059885599401814
0.0015525363516894358   -0.01798755616550897   -0.0009172720460941528
-0.00018143456308937847   -0.014012207110417653   -0.0008893586627997162
0.0018455216885030629   -0.013994587364045906   -0.0008915616197208212
0.0015525363516894358   -0.01798755616550897   -0.0009172720460941528
0.0018304742848821946   -0.014001638974173102   -0.0009059885599401814
-0.00018143456308937847   -0.014012207110417653   -0.0008893586627997162
0.0015525363516894358   -0.01798755616550897   -0.0009172720460941528
-0.00043944907733183095   -0.01802447427421071   -0.0009155168310110058
-0.0004585865781272286   -0.01802076214738977   -0.0009382970622716527
-0.00018143456308937847   -0.014012207110417653   -0.0008893586627997162
0.0015525363516894358   -0.01798755616550897   -0.0009172720460941528
-0.0004585865781272286   -0.01802076214738977   -0.0009382970622716527
0.0018304742848821946   -0.014001638974173102   -0.0009059885599401814
-0.00018143456308937847   -0.014012207110417653   -0.0008893586627997162
-0.00043944907733183095   -0.01802447427421071   -0.0009155168310110058
0.0018455216885030629   -0.013994587364045906   -0.0008915616197208212
-0.00017132320514622653   -0.014017478080059393   -0.0008755901700240207
-0.00043944907733183095   -0.01802447427421071   -0.0009155168310110058
0.0015525363516894358   -0.01798755616550897   -0.0009172720460941528
0.0018455216885030629   -0.013994587364045906   -0.0008915616197208212
0.0015751264806794804   -0.017982611984205275   -0.0008918177886014415
-0.00017132320514622653   -0.014017478080059393   -0.0008755901700240207
0.0018560101981629454   -0.013986552100738542   -0.0008809123188096057
0.0015751264806794804   -0.017982611984205275   -0.0008918177886014415
0.0018455216885030629   -0.013994587364045906   -0.0008915616197208212
-0.00017132320514622653   -0.014017478080059393   -0.0008755901700240207
0.0015751264806794804   -0.017982611984205275   -0.0008918177886014415
-0.0004213096104897143   -0.018031675441355907   -0.0008967385427437249
-0.00043944907733183095   -0.01802447427421071   -0.0009155168310110058
-0.00017132320514622653   -0.014017478080059393   -0.0008755901700240207
0.0015751264806794804   -0.017982611984205275   -0.0008918177886014415
-0.00043944907733183095   -0.01802447427421071   -0.0009155168310110058
0.0018455216885030629   -0.013994587364045906   -0.0008915616197208212
-0.00017132320514622653   -0.014017478080059393   -0.0008755901700240207
-0.0004213096104897143   -0.018031675441355907   -0.0008967385427437249
0.0018560101981629454   -0.013986552100738542   -0.0008809123188096057
-0.0001633665864188247   -0.0140208900431057   -0.0008658534549874912
-0.0004213096104897143   -0.018031675441355907   -0.0008967385427437249
0.0015751264806794804   -0.017982611984205275   -0.0008918177886014415
0.0018560101981629454   -0.013986552100738542   -0.0008809123188096057
0.0015876152475093484   -0.017979889184829848   -0.0008700902169729992
-0.0001633665864188247   -0.0140208900431057   -0.0008658534549874912
0.0018590262138664772   -0.013974955465059882   -0.0008739657151750466
0.0015876152475093484   -0.017979889184829848   -0.0008700902169729992
0.0018560101981629454   -0.013986552100738542   -0.0008809123188096057
-0.0001633665864188247   -0.0140208900431057   -0.0008658534549874912
0.0015876152475093484   -0.017979889184829848   -0.0008700902169729992
-0.0004057892203939708   -0.018042523872772654   -0.000882099470392116
-0.0004213096104897143   -0.018031675441355907   -0.0008967385427437249
-0.0001633665864188247   -0.0140208900431057   -0.0008658534549874912
0.0015876152475093484   -0.017979889184829848   -0.0008700902169729992
-0.0004213096104897143   -0.018031675441355907   -0.0008967385427437249
0.0018560101981629454   -0.013986552100738542   -0.0008809123188096057
0.0018304742848821946   -0.014001638974173102   -0.0009059885599401814
0.0015282290159838983   -0.017997037058862984   -0.0009467133433642396
0.004022395116832965   -0.01399653845395439   -0.0009288938775533353
0.0018455216885030629   -0.013994587364045906   -0.0008915616197208212
0.0015282290159838983   -0.017997037058862984   -0.0009467133433642396
0.0036538279857351768   -0.01795701187924685   -0.0009803225866958879
0.004022395116832965   -0.01399653845395439   -0.0009288938775533353
0.0037166539671410798   -0.01793553507305207   -0.000941497767423904
0.0018455216885030629   -0.013994587364045906   -0.0008915616197208212
0.004051465161823664   -0.013978265110508314   -0.0009166809807490196
0.0037166539671410798   -0.01793553507305207   -0.000941497767423904
0.004022395116832965   -0.01399653845395439   -0.0009288938775533353
0.0018455216885030629   -0.013994587364045906   -0.0008915616197208212
0.0037166539671410798   -0.01793553507305207   -0.000941497767423904
0.0015525363516894358   -0.01798755616550897   -0.0009172720460941528
0.0015282290159838983   -0.017997037058862984   -0.0009467133433642396
0.0018455216885030629   -0.013994587364045906   -0.0008915616197208212
0.0037166539671410798   -0.01793553507305207   -0.000941497767423904
0.0015282290159838983   -0.017997037058862984   -0.0009467133433642396
0.004022395116832965   -0.01399653845395439   -0.0009288938775533353
0.0018455216885030629   -0.013994587364045906   -0.0008915616197208212
0.0015525363516894358   -0.01798755616550897   -0.0009172720460941528
0.004051465161823664   -0.013978265110508314   -0.0009166809807490196
0.0018560101981629454   -0.013986552100738542   -0.0008809123188096057
0.0015525363516894358   -0.01798755616550897   -0.0009172720460941528
0.0037166539671410798   -0.01793553507305207   -0.000941497767423904
0.004051465161823664   -0.013978265110508314   -0.0009166809807490196
0.003760139034512274   -0.01792510151993141   -0.0009083640939188938
0.0018560101981629454   -0.013986552100738542   -0.0008809123188096057
0.004067494591713745   -0.013963937740151896   -0.0009102199425976568
0.003760139034512274   -0.01792510151993141   -0.0009083640939188938
0.004051465161823664   -0.013978265110508314   -0.0009166809807490196
0.0018560101981629454   -0.013986552100738542   -0.0008809123188096057
0.003760139034512274   -0.01792510151993141   -0.0009083640939188938
0.0015751264806794804   -0.017982611984205275   -0.0008918177886014415
0.0015525363516894358   -0.01798755616550897   -0.0009172720460941528
0.0018560101981629454   -0.013986552100738542   -0.0008809123188096057
0.003760139034512274   -0.01792510151993141   -0.0009083640939188938
0.0015525363516894358   -0.01798755616550897   -0.0009172720460941528
0.004051465161823664   -0.013978265110508314   -0.0009166809807490196
0.0018560101981629454   -0.013986552100738542   -0.0008809123188096057
0.0015751264806794804   -0.017982611984205275   -0.0008918177886014415
0.004067494591713745   -0.013963937740151896   -0.0009102199425976568
0.0018590262138664772   -0.013974955465059882   -0.0008739657151750466
0.0015751264806794804   -0.017982611984205275   -0.0008918177886014415
0.003760139034512274   -0.01792510151993141   -0.0009083640939188938
0.004067494591713745   -0.013963937740151896   -0.0009102199425976568
0.003799166257970662   -0.017913970471868403   -0.000881161056232942
0.0018590262138664772   -0.013974955465059882   -0.0008739657151750466
0.004072795811945753   -0.013941271433492483   -0.0009096093016886307
0.003799166257970662   -0.017913970471868403   -0.000881161056232942
0.004067494591713745   -0.013963937740151896   -0.0009102199425976568
0.0018590262138664772   -0.013974955465059882   -0.0008739657151750466
0.003799166257970662   -0.017913970471868403   -0.000881161056232942
0.0015876152475093484   -0.017979889184829848   -0.0008700902169729992
0.0015751264806794804   -0.017982611984205275   -0.0008918177886014415
0.0018590262138664772   -0.013974955465059882   -0.0008739657151750466
0.003799166257970662   -0.017913970471868403   -0.000881161056232942
0.0015751264806794804   -0.017982611984205275   -0.0008918177886014415
0.004067494591713745   -0.013963937740151896   -0.0009102199425976568
-0.0065399566313407795   -0.018018766683859072   -0.001050057493125306
-0.006361082069233472   -0.0218034775080163   -0.0010050317939956878
-0.004373220212300603   -0.018029337148449006   -0.000992152257789543
-0.006531423986266093   -0.018058281153155976   -0.001048575099043647
-0.006361082069233472   -0.0218034775080163   -0.0010050317939956878
-0.0043541747959875985   -0.02184698120630978   -0.0009703985341191556
-0.004373220212300603   -0.018029337148449006   -0.000992152257789543
-0.004328567183366376   -0.02186892092334251   -0.0009757463925552354
-0.006531423986266093   -0.018058281153155976   -0.001048575099043647
-0.004360866705989494   -0.018058839764556505   -0.0009832537505772845
-0.004328567183366376   -0.02186892092334251   -0.0009757463925552354
-0.004373220212300603   -0.018029337148449006   -0.000992152257789543
-0.006531423986266093   -0.018058281153155976   -0.001048575099043647
-0.004328567183366376   -0.02186892092334251   -0.0009757463925552354
-0.006314808070405048   -0.02183311473179619   -0.0010304065702970372
-0.006361082069233472   -0.0218034775080163   -0.0010050317939956878
-0.006531423986266093   -0.018058281153155976   -0.001048575099043647
-0.004328567183366376   -0.02186892092334251   -0.0009757463925552354
-0.006361082069233472   -0.0218034775080163   -0.0010050317939956878
-0.004373220212300603   -0.018029337148449006   -0.000992152257789543
-0.006531423986266093   -0.018058281153155976   -0.001048575099043647
-0.006314808070405048   -0.02183311473179619   -0.0010304065702970372
-0.004360866705989494   -0.018058839764556505   -0.0009832537505772845
-0.00651064910342069   -0.018096824714575094   -0.0010530886173398596
-0.006314808070405048   -0.02183311473179619   -0.0010304065702970372
-0.004328567183366376   -0.02186892092334251   -0.0009757463925552354
-0.004360866705989494   -0.018058839764556505   -0.0009832537505772845
-0.004294026870010178   -0.02190033830919964   -0.0009851829084618349
-0.00651064910342069   -0.018096824714575094   -0.0010530886173398596
-0.004341990976108855   -0.018091673121252448   -0.000978369913301078
-0.004294026870010178   -0.02190033830919964   -0.0009851829084618349
-0.004360866705989494   -0.018058839764556505   -0.0009832537505772845
-0.00651064910342069   -0.018096824714575094   -0.0010530886173398596
-0.004294026870010178   -0.02190033830919964   -0.0009851829084618349
-0.006262265976543917   -0.021869717982075154   -0.0010622068205599126
-0.006314808070405048   -0.02183311473179619   -0.0010304065702970372
-0.00651064910342069   -0.018096824714575094   -0.0010530886173398596
-0.004294026870010178   -0.02190033830919964   -0.0009851829084618349
-0.006314808070405048   -0.02183311473179619   -0.0010304065702970372
-0.004360866705989494   -0.018058839764556505   -0.0009832537505772845
-0.00651064910342069   -0.018096824714575094   -0.0010530886173398596
-0.006262265976543917   -0.021869717982075154   -0.0010622068205599126
-0.004341990976108855   -0.018091673121252448   -0.000978369913301078
-0.006477474816271531   -0.018146632270810155   -0.0010639145465659305
-0.006262265976543917   -0.021869717982075154   -0.0010622068205599126
-0.004294026870010178   -0.02190033830919964   -0.0009851829084618349
-0.004341990976108855   -0.018091673121252448   -0.000978369913301078
-0.004257024223577895   -0.021943158710289953   -0.0009988195458276335
-0.006477474816271531   -0.018146632270810155   -0.0010639145465659305
-0.004317780043193433   -0.018130108220619178   -0.0009774250653280163
-0.004257024223577895   -0.021943158710289953   -0.0009988195458276335
-0.004341990976108855   -0.018091673121252448   -0.000978369913301078
-0.006477474816271531   -0.018146632270810155   -0.0010639145465659305
-0.004257024223577895   -0.021943158710289953   -0.0009988195458276335
-0.006190919695920768   -0.0219255526877622   -0.0011005651739308708
-0.006262265976543917   -0.021869717982075154   -0.0010622068205599126
-0.006477474816271531   -0.018146632270810155   -0.0010639145465659305
-0.004257024223577895   -0.021943158710289953   -0.0009988195458276335
-0.006262265976543917   -0.021869717982075154   -0.0010622068205599126
-0.004341990976108855   -0.018091673121252448   -0.000978369913301078
-0.004373220212300603   -0.018029337148449006   -0.000992152257789543
-0.0043541747959875985   -0.02184698120630978   -0.0009703985341191556
-0.002387888494562243   -0.018031474687837723   -0.0009537047841096419
-0.004360866705989494   -0.018058839764556505   -0.0009832537505772845
-0.0043541747959875985   -0.02184698120630978   -0.0009703985341191556
-0.0025536944295838603   -0.021863966727142085   -0.0009482881198972569
-0.002387888494562243   -0.018031474687837723   -0.0009537047841096419
-0.002525881183358792   -0.02187529397165919   -0.0009366143082427142
-0.004360866705989494   -0.018058839764556505   -0.0009832537505772845
-0.002371623739639438   -0.018048314527300054   -0.0009376872679462224
-0.002525881183358792   -0.02187529397165919   -0.0009366143082427142
-0.002387888494562243   -0.018031474687837723   -0.0009537047841096419
-0.004360866705989494   -0.018058839764556505   -0.0009832537505772845
-0.002525881183358792   -0.02187529397165919   -0.0009366143082427142
-0.004328567183366376   -0.02186892092334251   -0.0009757463925552354
-0.0043541747959875985   -0.02184698120630978   -0.0009703985341191556
-0.004360866705989494   -0.018058839764556505   -0.0009832537505772845
-0.002525881183358792   -0.02187529397165919   -0.0009366143082427142
-0.0043541747959875985   -0.02184698120630978   -0.0009703985341191556
-0.002387888494562243   -0.018031474687837723   -0.0009537047841096419
-0.004360866705989494   -0.018058839764556505   -0.0009832537505772845
-0.004328567183366376   -0.02186892092334251   -0.0009757463925552354
-0.002371623739639438   -0.018048314527300054   -0.0009376872679462224
-0.004341990976108855   -0.018091673121252448   -0.000978369913301078
-0.004328567183366376   -0.02186892092334251   -0.0009757463925552354
-0.002525881183358792   -0.02187529397165919   -0.0009366143082427142
-0.002371623739639438   -0.018048314527300054   -0.0009376872679462224
-0.002495990366674521   -0.021895718822778663   -0.000928977616952989
-0.004341990976108855   -0.018091673121252448   -0.000978369913301078
-0.0023533505466379915   -0.018068925703337513   -0.0009256955725835279
-0.002495990366674521   -0.021895718822778663   -0.000928977616952989
-0.002371623739639438   -0.018048314527300054   -0.0009376872679462224
-0.004341990976108855   -0.018091673121252448   -0.000978369913301078
-0.002495990366674521   -0.021895718822778663   -0.000928977616952989
-0.004294026870010178   -0.02190033830919964   -0.0009851829084618349
-0.004328567183366376   -0.02186892092334251   -0.0009757463925552354
-0.004341990976108855   -0.018091673121252448   -0.000978369913301078
-0.002495990366674521   -0.021895718822778663   -0.000928977616952989
-0.004328567183366376   -0.02186892092334251   -0.0009757463925552354
-0.002371623739639438   -0.018048314527300054   -0.0009376872679462224
-0.004341990976108855   -0.018091673121252448   -0.000978369913301078
-0.004294026870010178   -0.02190033830919964   -0.0009851829084618349
-0.0023533505466379915   -0.018068925703337513   -0.0009256955725835279
-0.004317780043193433   -0.018130108220619178   -0.0009774250653280163
-0.004294026870010178   -0.02190033830919964   -0.0009851829084618349
-0.002495990366674521   -0.021895718822778663   -0.000928977616952989
-0.0023533505466379915   -0.018068925703337513   -0.0009256955725835279
-0.0024652676444540276   -0.021925492052650892   -0.0009255812947036767
-0.004317780043193433   -0.018130108220619178   -0.0009774250653280163
-0.002333700857064974   -0.018093372784014704   -0.0009178658119523608
-0.0024652676444540276   -0.021925492052650892   -0.0009255812947036767
-0.0023533505466379915   -0.018068925703337513   -0.0009256955725835279
-0.004317780043193433   -0.018130108220619178   -0.0009774250653280163
-0.0024652676444540276   -0.021925492052650892   -0.0009255812947036767
-0.004257024223577895   -0.021943158710289953   -0.0009988195458276335
-0.004294026870010178   -0.02190033830919964   -0.0009851829084618349
-0.004317780043193433   -0.018130108220619178   -0.0009774250653280163
-0.0024652676444540276   -0.021925492052650892   -0.0009255812947036767
-0.004294026870010178   -0.02190033830919964   -0.0009851829084618349
-0.0023533505466379915   -0.018068925703337513   -0.0009256955725835279
-0.002387888494562243   -0.018031474687837723   -0.0009537047841096419
-0.0025536944295838603   -0.021863966727142085   -0.0009482881198972569
-0.0004585865781272286   -0.01802076214738977   -0.0009382970622716527
-0.002371623739639438   -0.018048314527300054   -0.0009376872679462224
-0.0025536944295838603   -0.021863966727142085   -0.0009482881198972569
-0.0008074955203262717   -0.021850476405459358   -0.0009450239852079695
-0.0004585865781272286   -0.01802076214738977   -0.0009382970622716527
-0.0007767449287326237   -0.021850537427379742   -0.0009169123357816033
-0.002371623739639438   -0.018048314527300054   -0.0009376872679462224
-0.00043944907733183095   -0.01802447427421071   -0.0009155168310110058
-0.0007767449287326237   -0.021850537427379742   -0.0009169123357816033
-0.0004585865781272286   -0.01802076214738977   -0.0009382970622716527
-0.002371623739639438   -0.018048314527300054   -0.0009376872679462224
-0.0007767449287326237   -0.021850537427379742   -0.0009169123357816033
-0.002525881183358792   -0.02187529397165919   -0.0009366143082427142
-0.0025536944295838603   -0.021863966727142085   -0.0009482881198972569
-0.002371623739639438   -0.018048314527300054   -0.0009376872679462224
-0.0007767449287326237   -0.021850537427379742   -0.0009169123357816033
-0.0025536944295838603   -0.021863966727142085   -0.0009482881198972569
-0.0004585865781272286   -0.01802076214738977   -0.0009382970622716527
-0.002371623739639438   -0.018048314527300054   -0.0009376872679462224
-0.002525881183358792   -0.02187529397165919   -0.0009366143082427142
-0.00043944907733183095   -0.01802447427421071   -0.0009155168310110058
-0.0023533505466379915   -0.018068925703337513   -0.0009256955725835279
-0.002525881183358792   -0.02187529397165919   -0.0009366143082427142
-0.0007767449287326237   -0.021850537427379742   -0.0009169123357816033
-0.00043944907733183095   -0.01802447427421071   -0.0009155168310110058
-0.0007467809535047583   -0.021859051778256023   -0.0008928517186560448
-0.0023533505466379915   -0.018068925703337513   -0.0009256955725835279
-0.0004213096104897143   -0.018031675441355907   -0.0008967385427437249
-0.0007467809535047583   -0.021859051778256023   -0.0008928517186560448
-0.00043944907733183095   -0.01802447427421071   -0.0009155168310110058
-0.0023533505466379915   -0.018068925703337513   -0.0009256955725835279
-0.0007467809535047583   -0.021859051778256023   -0.0008928517186560448
-0.002495990366674521   -0.021895718822778663   -0.000928977616952989
-0.002525881183358792   -0.02187529397165919   -0.0009366143082427142
-0.0023533505466379915   -0.018068925703337513   -0.0009256955725835279
-0.0007467809535047583   -0.021859051778256023   -0.0008928517186560448
-0.002525881183358792   -0.02187529397165919   -0.0009366143082427142
-0.00043944907733183095   -0.01802447427421071   -0.0009155168310110058
-0.0023533505466379915   -0.018068925703337513   -0.0009256955725835279
-0.002495990366674521   -0.021895718822778663   -0.000928977616952989
-0.0004213096104897143   -0.018031675441355907   -0.0008967385427437249
-0.002333700857064974   -0.018093372784014704   -0.0009178658119523608
-0.002495990366674521   -0.021895718822778663   -0.000928977616952989
-0.0007467809535047583   -0.021859051778256023   -0.0008928517186560448
-0.0004213096104897143   -0.018031675441355907   -0.0008967385427437249
-0.0007199899212979771   -0.021876706698035046   -0.000872981185223737
-0.002333700857064974   -0.018093372784014704   -0.0009178658119523608
-0.0004057892203939708   -0.018042523872772654   -0.000882099470392116
-0.0007199899212979771   -0.021876706698035046   -0.000872981185223737
-0.0004213096104897143   -0.018031675441355907   -0.0008967385427437249
-0.002333700857064974   -0.018093372784014704   -0.0009178658119523608
-0.0007199899212979771   -0.021876706698035046   -0.000872981185223737
-0.0024652676444540276   -0.021925492052650892   -0.0009255812947036767
-0.002495990366674521   -0.021895718822778663   -0.000928977616952989
-0.002333700857064974   -0.018093372784014704   -0.0009178658119523608
-0.0007199899212979771   -0.021876706698035046   -0.000872981185223737
-0.002495990366674521   -0.021895718822778663   -0.000928977616952989
-0.0004213096104897143   -0.018031675441355907   -0.0008967385427437249
-0.0004585865781272286   -0.01802076214738977   -0.0009382970622716527
-0.0008074955203262717   -0.021850476405459358   -0.0009450239852079695
0.0015282290159838983   -0.017997037058862984   -0.0009467133433642396
-0.00043944907733183095   -0.01802447427421071   -0.0009155168310110058
-0.0008074955203262717   -0.021850476405459358   -0.0009450239852079695
0.0009978411043236617   -0.021807310042281147   -0.0009620780810825783
0.0015282290159838983   -0.017997037058862984   -0.0009467133433642396
0.0010354611937523357   -0.02179534243032536   -0.0009176631337936313
-0.00043944907733183095   -0.01802447427421071   -0.0009155168310110058
0.0015525363516894358   -0.01798755616550897   -0.0009172720460941528
0.0010354611937523357   -0.02179534243032536   -0.0009176631337936313
0.0015282290159838983   -0.017997037058862984   -0.0009467133433642396
-0.00043944907733183095   -0.01802447427421071   -0.0009155168310110058
0.0010354611937523357   -0.02179534243032536   -0.0009176631337936313
-0.0007767449287326237   -0.021850537427379742   -0.0009169123357816033
-0.0008074955203262717   -0.021850476405459358   -0.0009450239852079695
-0.00043944907733183095   -0.01802447427421071   -0.0009155168310110058
0.0010354611937523357   -0.02179534243032536   -0.0009176631337936313
-0.0008074955203262717   -0.021850476405459358   -0.0009450239852079695
0.0015282290159838983   -0.017997037058862984   -0.0009467133433642396
-0.00043944907733183095   -0.01802447427421071   -0.0009155168310110058
-0.0007767449287326237   -0.021850537427379742   -0.0009169123357816033
0.0015525363516894358   -0.01798755616550897   -0.0009172720460941528
-0.0004213096104897143   -0.018031675441355907   -0.0008967385427437249
-0.0007767449287326237   -0.021850537427379742   -0.0009169123357816033
0.0010354611937523357   -0.02179534243032536   -0.0009176631337936313
0.0015525363516894358   -0.01798755616550897   -0.0009172720460941528
0.001074113047040936   -0.021793042373576606   -0.0008775532959829484
-0.0004213096104897143   -0.018031675441355907   -0.0008967385427437249
0.0015751264806794804   -0.017982611984205275   -0.0008918177886014415
0.001074113047040936   -0.021793042373576606   -0.0008775532959829484
0.0015525363516894358   -0.01798755616550897   -0.0009172720460941528
-0.0004213096104897143   -0.018031675441355907   -0.0008967385427437249
0.001074113047040936   -0.021793042373576606   -0.0008775532959829484
-0.0007467809535047583   -0.021859051778256023   -0.0008928517186560448
-0.0007767449287326237   -0.021850537427379742   -0.0009169123357816033
-0.0004213096104897143   -0.018031675441355907   -0.0008967385427437249
0.001074113047040936   -0.021793042373576606   -0.0008775532959829484
-0.0007767449287326237   -0.021850537427379742   -0.0009169123357816033
0.0015525363516894358   -0.01798755616550897   -0.0009172720460941528
-0.0004213096104897143   -0.018031675441355907   -0.0008967385427437249
-0.0007467809535047583   -0.021859051778256023   -0.0008928517186560448
0.0015751264806794804   -0.017982611984205275   -0.0008918177886014415
-0.0004057892203939708   -0.018042523872772654   -0.000882099470392116
-0.0007467809535047583   -0.021859051778256023   -0.0008928517186560448
0.001074113047040936   -0.021793042373576606   -0.0008775532959829484
0.0015751264806794804   -0.017982611984205275   -0.0008918177886014415
0.0010999517929159435   -0.021798642191743597   -0.0008411791529056955
-0.0004057892203939708   -0.018042523872772654   -0.000882099470392116
0.0015876152475093484   -0.017979889184829848   -0.0008700902169729992
0.0010999517929159435   -0.021798642191743597   -0.0008411791529056955
0.0015751264806794804   -0.017982611984205275   -0.0008918177886014415
-0.0004057892203939708   -0.018042523872772654   -0.000882099470392116
0.0010999517929159435   -0.021798642191743597   -0.0008411791529056955
-0.0007199899212979771   -0.021876706698035046   -0.000872981185223737
-0.0007467809535047583   -0.021859051778256023   -0.0008928517186560448
-0.0004057892203939708   -0.018042523872772654   -0.000882099470392116
0.0010999517929159435   -0.021798642191743597   -0.0008411791529056955
-0.0007467809535047583   -0.021859051778256023   -0.0008928517186560448
0.0015751264806794804   -0.017982611984205275   -0.0008918177886014415
0.0015282290159838983   -0.017997037058862984   -0.0009467133433642396
0.0009978411043236617   -0.021807310042281147   -0.0009620780810825783
0.0036538279857351768   -0.01795701187924685   -0.0009803225866958879
0.0015525363516894358   -0.01798755616550897   -0.0009172720460941528
0.0009978411043236617   -0.021807310042281147   -0.0009620780810825783
0.002916003639443434   -0.021733032994562   -0.0010053798507347472
0.0036538279857351768   -0.01795701187924685   -0.0009803225866958879
0.003016178664394114   -0.021708540763548907   -0.0009406361054290036
0.0015525363516894358   -0.01798755616550897   -0.0009172720460941528
0.0037166539671410798   -0.01793553507305207   -0.000941497767423904
0.003016178664394114   -0.021708540763548907   -0.0009406361054290036
0.0036538279857351768   -0.01795701187924685   -0.0009803225866958879
0.0015525363516894358   -0.01798755616550897   -0.0009172720460941528
0.003016178664394114   -0.021708540763548907   -0.0009406361054290036
0.0010354611937523357   -0.02179534243032536   -0.0009176631337936313
0.0009978411043236617   -0.021807310042281147   -0.0009620780810825783
0.0015525363516894358   -0.01798755616550897   -0.0009172720460941528
0.003016178664394114   -0.021708540763548907   -0.0009406361054290036
0.0009978411043236617   -0.021807310042281147   -0.0009620780810825783
0.0036538279857351768   -0.01795701187924685   -0.0009803225866958879
0.0015525363516894358   -0.01798755616550897   -0.0009172720460941528
0.0010354611937523357   -0.02179534243032536   -0.0009176631337936313
0.0037166539671410798   -0.01793553507305207   -0.000941497767423904
0.0015751264806794804   -0.017982611984205275   -0.0008918177886014415
0.0010354611937523357   -0.02179534243032536   -0.0009176631337936313
0.003016178664394114   -0.021708540763548907   -0.0009406361054290036
0.0037166539671410798   -0.01793553507305207   -0.000941497767423904
0.003090527984625202   -0.021701741046805986   -0.0008816291130438067
0.0015751264806794804   -0.017982611984205275   -0.0008918177886014415
0.003760139034512274   -0.01792510151993141   -0.0009083640939188938
0.003090527984625202   -0.021701741046805986   -0.0008816291130438067
0.0037166539671410798   -0.01793553507305207   -0.000941497767423904
0.0015751264806794804   -0.017982611984205275   -0.0008918177886014415
0.003090527984625202   -0.021701741046805986   -0.0008816291130438067
0.001074113047040936   -0.021793042373576606   -0.0008775532959829484
0.0010354611937523357   -0.02179534243032536   -0.0009176631337936313
0.0015751264806794804   -0.017982611984205275   -0.0008918177886014415
0.003090527984625202   -0.021701741046805986   -0.0008816291130438067
0.0010354611937523357   -0.02179534243032536   -0.0009176631337936313
0.0037166539671410798   -0.01793553507305207   -0.000941497767423904
0.0015751264806794804   -0.017982611984205275   -0.0008918177886014415
0.001074113047040936   -0.021793042373576606   -0.0008775532959829484
0.003760139034512274   -0.01792510151993141   -0.0009083640939188938
0.0015876152475093484   -0.017979889184829848   -0.0008700902169729992
0.001074113047040936   -0.021793042373576606   -0.0008775532959829484
0.003090527984625202   -0.021701741046805986   -0.0008816291130438067
0.003760139034512274   -0.01792510151993141   -0.0009083640939188938
0.003166213987626416   -0.021701740096887755   -0.0008286287574863283
0.0015876152475093484   -0.017979889184829848   -0.0008700902169729992
0.003799166257970662   -0.017913970471868403   -0.000881161056232942
0.003166213987626416   -0.021701740096887755   -0.0008286287574863283
0.003760139034512274   -0.01792510151993141   -0.0009083640939188938
0.0015876152475093484   -0.017979889184829848   -0.0008700902169729992
0.003166213987626416   -0.021701740096887755   -0.0008286287574863283
0.0010999517929159435   -0.021798642191743597   -0.0008411791529056955
0.001074113047040936   -0.021793042373576606   -0.0008775532959829484
0.0015876152475093484   -0.017979889184829848   -0.0008700902169729992
0.003166213987626416   -0.021701740096887755   -0.0008286287574863283
0.001074113047040936   -0.021793042373576606   -0.0008775532959829484
0.003760139034512274   -0.01792510151993141   -0.0009083640939188938
-0.006361082069233472   -0.0218034775080163   -0.0010050317939956878
-0.005806445419693838   -0.0251465215246935   -0.0009380447603079127
-0.0043541747959875985   -0.02184698120630978   -0.0009703985341191556
-0.006314808070405048   -0.02183311473179619   -0.0010304065702970372
-0.005806445419693838   -0.0251465215246935   -0.0009380447603079127
-0.004118842803502272   -0.025224519521322302   -0.000932632134577031
-0.0043541747959875985   -0.02184698120630978   -0.0009703985341191556
-0.004077107657605317   -0.025235768890215688   -0.0009511454652409226
-0.006314808070405048   -0.02183311473179619   -0.0010304065702970372
-0.004328567183366376   -0.02186892092334251   -0.0009757463925552354
-0.004077107657605317   -0.025235768890215688   -0.0009511454652409226
-0.0043541747959875985   -0.02184698120630978   -0.0009703985341191556
-0.006314808070405048   -0.02183311473179619   -0.0010304065702970372
-0.004077107657605317   -0.025235768890215688   -0.0009511454652409226
-0.005719154537691119   -0.025163175633744796   -0.0009900406127177012
-0.005806445419693838   -0.0251465215246935   -0.0009380447603079127
-0.006314808070405048   -0.02183311473179619   -0.0010304065702970372
-0.004077107657605317   -0.025235768890215688   -0.0009511454652409226
-0.005806445419693838   -0.0251465215246935   -0.0009380447603079127
-0.0043541747959875985   -0.02184698120630978   -0.0009703985341191556
-0.006314808070405048   -0.02183311473179619   -0.0010304065702970372
-0.005719154537691119   -0.025163175633744796   -0.0009900406127177012
-0.004328567183366376   -0.02186892092334251   -0.0009757463925552354
-0.006262265976543917   -0.021869717982075154   -0.0010622068205599126
-0.005719154537691119   -0.025163175633744796   -0.0009900406127177012
-0.004077107657605317   -0.025235768890215688   -0.0009511454652409226
-0.004328567183366376   -0.02186892092334251   -0.0009757463925552354
-0.004024671946778137   -0.025262881778255482   -0.0009737818660382977
-0.006262265976543917   -0.021869717982075154   -0.0010622068205599126
-0.004294026870010178   -0.02190033830919964   -0.0009851829084618349
-0.004024671946778137   -0.025262881778255482   -0.0009737818660382977
-0.004328567183366376   -0.02186892092334251   -0.0009757463925552354
-0.006262265976543917   -0.021869717982075154   -0.0010622068205599126
-0.004024671946778137   -0.025262881778255482   -0.0009737818660382977
-0.005632275442657461   -0.0251950016366817   -0.0010487476530379653
-0.005719154537691119   -0.025163175633744796   -0.0009900406127177012
-0.006262265976543917   -0.021869717982075154   -0.0010622068205599126
-0.004024671946778137   -0.025262881778255482   -0.0009737818660382977
-0.005719154537691119   -0.025163175633744796   -0.0009900406127177012
-0.004328567183366376   -0.02186892092334251   -0.0009757463925552354
-0.006262265976543917   -0.021869717982075154   -0.0010622068205599126
-0.005632275442657461   -0.0251950016366817   -0.0010487476530379653
-0.004294026870010178   -0.02190033830919964   -0.0009851829084618349
-0.006190919695920768   -0.0219255526877622   -0.0011005651739308708
-0.005632275442657461   -0.0251950016366817   -0.0010487476530379653
-0.004024671946778137   -0.025262881778255482   -0.0009737818660382977
-0.004294026870010178   -0.02190033830919964   -0.0009851829084618349
-0.003972970808377721   -0.025307401443881168   -0.0010005020538575654
-0.006190919695920768   -0.0219255526877622   -0.0011005651739308708
-0.004257024223577895   -0.021943158710289953   -0.0009988195458276335
-0.003972970808377721   -0.025307401443881168   -0.0010005020538575654
-0.004294026870010178   -0.02190033830919964   -0.0009851829084618349
-0.006190919695920768   -0.0219255526877622   -0.0011005651739308708
-0.003972970808377721   -0.025307401443881168   -0.0010005020538575654
-0.005521043078105678   -0.025254349435569787   -0.0011140572481472169
-0.005632275442657461   -0.0251950016366817   -0.0010487476530379653
-0.006190919695920768   -0.0219255526877622   -0.0011005651739308708
-0.003972970808377721   -0.025307401443881168   -0.0010005020538575654
-0.005632275442657461   -0.0251950016366817   -0.0010487476530379653
-0.004294026870010178   -0.02190033830919964   -0.0009851829084618349
-0.0043541747959875985   -0.02184698120630978   -0.0009703985341191556
-0.004118842803502272   -0.025224519521322302   -0.000932632134577031
-0.0025536944295838603   -0.021863966727142085   -0.0009482881198972569
-0.004328567183366376   -0.02186892092334251   -0.0009757463925552354
-0.004118842803502272   -0.025224519521322302   -0.000932632134577031
-0.002655245979533956   -0.025260692045287834   -0.0009305953635967493
-0.0025536944295838603   -0.021863966727142085   -0.0009482881198972569
-0.0026124942926581763   -0.025264324767014432   -0.0009222215223706456
-0.004328567183366376   -0.02186892092334251   -0.0009757463925552354
-0.002525881183358792   -0.02187529397165919   -0.0009366143082427142
-0.0026124942926581763   -0.025264324767014432   -0.0009222215223706456
-0.0025536944295838603   -0.021863966727142085   -0.0009482881198972569
-0.004328567183366376   -0.02186892092334251   -0.0009757463925552354
-0.0026124942926581763   -0.025264324767014432   -0.0009222215223706456
-0.004077107657605317   -0.025235768890215688   -0.0009511454652409226
-0.004118842803502272   -0.025224519521322302   -0.000932632134577031
-0.004328567183366376   -0.02186892092334251   -0.0009757463925552354
-0.0026124942926581763   -0.025264324767014432   -0.0009222215223706456
-0.004118842803502272   -0.025224519521322302   -0.000932632134577031
-0.0025536944295838603   -0.021863966727142085   -0.0009482881198972569
-0.004328567183366376   -0.02186892092334251   -0.0009757463925552354
-0.004077107657605317   -0.025235768890215688   -0.0009511454652409226
-0.002525881183358792   -0.02187529397165919   -0.0009366143082427142
-0.004294026870010178   -0.02190033830919964   -0.0009851829084618349
-0.004077107657605317   -0.025235768890215688   -0.0009511454652409226
-0.0026124942926581763   -0.025264324767014432   -0.0009222215223706456
-0.002525881183358792   -0.02187529397165919   -0.0009366143082427142
-0.002568342776034098   -0.02528213757088397   -0.0009178482965226839
-0.004294026870010178   -0.02190033830919964   -0.0009851829084618349
-0.002495990366674521   -0.021895718822778663   -0.000928977616952989
-0.002568342776034098   -0.02528213757088397   -0.0009178482965226839
-0.002525881183358792   -0.02187529397165919   -0.0009366143082427142
-0.004294026870010178   -0.02190033830919964   -0.0009851829084618349
-0.002568342776034098   -0.02528213757088397   -0.0009178482965226839
-0.004024671946778137   -0.025262881778255482   -0.0009737818660382977
-0.004077107657605317   -0.025235768890215688   -0.0009511454652409226
-0.004294026870010178   -0.02190033830919964   -0.0009851829084618349
-0.002568342776034098   -0.02528213757088397   -0.0009178482965226839
-0.004077107657605317   -0.025235768890215688   -0.0009511454652409226
-0.002525881183358792   -0.02187529397165919   -0.0009366143082427142
-0.004294026870010178   -0.02190033830919964   -0.0009851829084618349
-0.004024671946778137   -0.025262881778255482   -0.0009737818660382977
-0.002495990366674521   -0.021895718822778663   -0.000928977616952989
-0.004257024223577895   -0.021943158710289953   -0.0009988195458276335
-0.004024671946778137   -0.025262881778255482   -0.0009737818660382977
-0.002568342776034098   -0.02528213757088397   -0.0009178482965226839
-0.002495990366674521   -0.021895718822778663   -0.000928977616952989
-0.002524249228306496   -0.025314932026153206   -0.0009174353488821114
-0.004257024223577895   -0.021943158710289953   -0.0009988195458276335
-0.0024652676444540276   -0.021925492052650892   -0.0009255812947036767
-0.002524249228306496   -0.025314932026153206   -0.0009174353488821114
-0.002495990366674521   -0.021895718822778663   -0.000928977616952989
-0.004257024223577895   -0.021943158710289953   -0.0009988195458276335
-0.002524249228306496   -0.025314932026153206   -0.0009174353488821114
-0.003972970808377721   -0.025307401443881168   -0.0010005020538575654
-0.004024671946778137   -0.025262881778255482   -0.0009737818660382977
-0.004257024223577895   -0.021943158710289953   -0.0009988195458276335
-0.002524249228306496   -0.025314932026153206   -0.0009174353488821114
-0.004024671946778137   -0.025262881778255482   -0.0009737818660382977
-0.002495990366674521   -0.021895718822778663   -0.000928977616952989
-0.0025536944295838603   -0.021863966727142085   -0.0009482881198972569
-0.002655245979533956   -0.025260692045287834   -0.0009305953635967493
-0.0008074955203262717   -0.021850476405459358   -0.0009450239852079695
-0.002525881183358792   -0.02187529397165919   -0.0009366143082427142
-0.002655245979533956   -0.025260692045287834   -0.0009305953635967493
-0.0012399922606334153   -0.025253407911652672   -0.0009413809884901305
-0.0008074955203262717   -0.021850476405459358   -0.0009450239852079695
-0.0011931714133770642   -0.025248459307978206   -0.0009070559811263091
-0.002525881183358792   -0.02187529397165919   -0.0009366143082427142
-0.0007767449287326237   -0.021850537427379742   -0.0009169123357816033
-0.0011931714133770642   -0.025248459307978206   -0.0009070559811263091
-0.0008074955203262717   -0.021850476405459358   -0.0009450239852079695
-0.002525881183358792   -0.02187529397165919   -0.0009366143082427142
-0.0011931714133770642   -0.025248459307978206   -0.0009070559811263091
-0.0026124942926581763   -0.025264324767014432   -0.0009222215223706456
-0.002655245979533956   -0.025260692045287834   -0.0009305953635967493
-0.002525881183358792   -0.02187529397165919   -0.0009366143082427142
-0.0011931714133770642   -0.025248459307978206   -0.0009070559811263091
-0.002655245979533956   -0.025260692045287834   -0.0009305953635967493
-0.0008074955203262717   -0.021850476405459358   -0.0009450239852079695
-0.002525881183358792   -0.02187529397165919   -0.0009366143082427142
-0.0026124942926581763   -0.025264324767014432   -0.0009222215223706456
-0.0007767449287326237   -0.021850537427379742   -0.0009169123357816033
-0.002495990366674521   -0.021895718822778663   -0.000928977616952989
-0.0026124942926581763   -0.025264324767014432   -0.0009222215223706456
-0.0011931714133770642   -0.025248459307978206   -0.0009070559811263091
-0.0007767449287326237   -0.021850537427379742   -0.0009169123357816033
-0.0011476918857134173   -0.02525637375213804   -0.0008769970058805246
-0.002495990366674521   -0.021895718822778663   -0.000928977616952989
-0.0007467809535047583   -0.021859051778256023   -0.0008928517186560448
-0.0011476918857134173   -0.02525637375213804   -0.0008769970058805246
-0.0007767449287326237   -0.021850537427379742   -0.0009169123357816033
-0.002495990366674521   -0.021895718822778663   -0.000928977616952989
-0.0011476918857134173   -0.02525637375213804   -0.0008769970058805246
-0.002568342776034098   -0.02528213757088397   -0.0009178482965226839
-0.0026124942926581763   -0.025264324767014432   -0.0009222215223706456
-0.002495990366674521   -0.021895718822778663   -0.000928977616952989
-0.0011476918857134173   -0.02525637375213804   -0.0008769970058805246
-0.0026124942926581763   -0.025264324767014432   -0.0009222215223706456
-0.0007767449287326237   -0.021850537427379742   -0.0009169123357816033
-0.002495990366674521   -0.021895718822778663   -0.000928977616952989
-0.002568342776034098   -0.02528213757088397   -0.0009178482965226839
-0.0007467809535047583   -0.021859051778256023   -0.0008928517186560448
-0.0024652676444540276   -0.021925492052650892   -0.0009255812947036767
-0.002568342776034098   -0.02528213757088397   -0.0009178482965226839
-0.0011476918857134173   -0.02525637375213804   -0.0008769970058805246
-0.0007467809535047583   -0.021859051778256023   -0.0008928517186560448
-0.0011065663059820082   -0.02527894596309997   -0.0008508403967024415
-0.0024652676444540276   -0.021925492052650892   -0.0009255812947036767
-0.0007199899212979771   -0.021876706698035046   -0.000872981185223737
-0.0011065663059820082   -0.02527894596309997   -0.0008508403967024415
-0.0007467809535047583   -0.021859051778256023   -0.0008928517186560448
-0.0024652676444540276   -0.021925492052650892   -0.0009255812947036767
-0.0011065663059820082   -0.02527894596309997   -0.0008508403967024415
-0.002524249228306496   -0.025314932026153206   -0.0009174353488821114
-0.002568342776034098   -0.02528213757088397   -0.0009178482965226839
-0.0024652676444540276   -0.021925492052650892   -0.0009255812947036767
-0.0011065663059820082   -0.02527894596309997   -0.0008508403967024415
-0.002568342776034098   -0.02528213757088397   -0.0009178482965226839
-0.0007467809535047583   -0.021859051778256023   -0.0008928517186560448
-0.0008074955203262717   -0.021850476405459358   -0.0009450239852079695
-0.0012399922606334153   -0.025253407911652672   -0.0009413809884901305
0.0009978411043236617   -0.021807310042281147   -0.0009620780810825783
-0.0007767449287326237   -0.021850537427379742   -0.0009169123357816033
-0.0012399922606334153   -0.025253407911652672   -0.0009413809884901305
0.00023985575955352928   -0.025201098142791915   -0.0009672448575032268
0.0009978411043236617   -0.021807310042281147   -0.0009620780810825783
0.0002968881221837201   -0.025185301062940927   -0.0009070364465588905
-0.0007767449287326237   -0.021850537427379742   -0.0009169123357816033
0.0010354611937523357   -0.02179534243032536   -0.0009176631337936313
0.0002968881221837201   -0.025185301062940927   -0.0009070364465588905
0.0009978411043236617   -0.021807310042281147   -0.0009620780810825783
-0.0007767449287326237   -0.021850537427379742   -0.0009169123357816033
0.0002968881221837201   -0.025185301062940927   -0.0009070364465588905
-0.0011931714133770642   -0.025248459307978206   -0.0009070559811263091
-0.0012399922606334153   -0.025253407911652672   -0.0009413809884901305
-0.0007767449287326237   -0.021850537427379742   -0.0009169123357816033
0.0002968881221837201   -0.025185301062940927   -0.0009070364465588905
-0.0012399922606334153   -0.025253407911652672   -0.0009413809884901305
0.0009978411043236617   -0.021807310042281147   -0.0009620780810825783
-0.0007767449287326237   -0.021850537427379742   -0.0009169123357816033
-0.0011931714133770642   -0.025248459307978206   -0.0009070559811263091
0.0010354611937523357   -0.02179534243032536   -0.0009176631337936313
-0.0007467809535047583   -0.021859051778256023   -0.0008928517186560448
-0.0011931714133770642   -0.025248459307978206   -0.0009070559811263091
0.0002968881221837201   -0.025185301062940927   -0.0009070364465588905
0.0010354611937523357   -0.02179534243032536   -0.0009176631337936313
0.00035711449810681703   -0.02518388022576297   -0.000852225655621516
-0.0007467809535047583   -0.021859051778256023   -0.0008928517186560448
0.001074113047040936   -0.021793042373576606   -0.0008775532959829484
0.00035711449810681703   -0.02518388022576297   -0.000852225655621516
0.0010354611937523357   -0.02179534243032536   -0.0009176631337936313
-0.0007467809535047583   -0.021859051778256023   -0.0008928517186560448
0.00035711449810681703   -0.02518388022576297   -0.000852225655621516
-0.0011476918857134173   -0.02525637375213804   -0.0008769970058805246
-0.0011931714133770642   -0.025248459307978206   -0.0009070559811263091
-0.0007467809535047583   -0.021859051778256023   -0.0008928517186560448
0.00035711449810681703   -0.02518388022576297   -0.000852225655621516
-0.0011931714133770642   -0.025248459307978206   -0.0009070559811263091
0.0010354611937523357   -0.02179534243032536   -0.0009176631337936313
-0.0007467809535047583   -0.021859051778256023   -0.0008928517186560448
-0.0011476918857134173   -0.02525637375213804   -0.0008769970058805246
0.001074113047040936   -0.021793042373576606   -0.0008775532959829484
-0.0007199899212979771   -0.021876706698035046   -0.000872981185223737
-0.0011476918857134173   -0.02525637375213804   -0.0008769970058805246
0.00035711449810681703   -0.02518388022576297   -0.000852225655621516
0.001074113047040936   -0.021793042373576606   -0.0008775532959829484
0.00040115897997658305   -0.025196163607016774   -0.000801126681358747
-0.0007199899212979771   -0.021876706698035046   -0.000872981185223737
0.0010999517929159435   -0.021798642191743597   -0.0008411791529056955
0.00040115897997658305   -0.025196163607016774   -0.000801126681358747
0.001074113047040936   -0.021793042373576606   -0.0008775532959829484
-0.0007199899212979771   -0.021876706698035046   -0.000872981185223737
0.00040115897997658305   -0.025196163607016774   -0.000801126681358747
-0.0011065663059820082   -0.02527894596309997   -0.0008508403967024415
-0.0011476918857134173   -0.02525637375213804   -0.0008769970058805246
-0.0007199899212979771   -0.021876706698035046   -0.000872981185223737
0.00040115897997658305   -0.025196163607016774   -0.000801126681358747
-0.0011476918857134173   -0.02525637375213804   -0.0008769970058805246
0.001074113047040936   -0.021793042373576606   -0.0008775532959829484
0.0009978411043236617   -0.021807310042281147   -0.0009620780810825783
0.00023985575955352928   -0.025201098142791915   -0.0009672448575032268
0.002916003639443434   -0.021733032994562   -0.0010053798507347472
0.0010354611937523357   -0.02179534243032536   -0.0009176631337936313
0.00023985575955352928   -0.025201098142791915   -0.0009672448575032268
0.0018142530947624677   -0.025098855283335202   -0.0010219509851143891
0.002916003639443434   -0.021733032994562   -0.0010053798507347472
0.0019596722477548153   -0.025068636789881256   -0.0009297481953702985
0.0010354611937523357   -0.02179534243032536   -0.0009176631337936313
0.003016178664394114   -0.021708540763548907   -0.0009406361054290036
0.0019596722477548153   -0.025068636789881256   -0.0009297481953702985
0.002916003639443434   -0.021733032994562   -0.0010053798507347472
0.0010354611937523357   -0.02179534243032536   -0.0009176631337936313
0.0019596722477548153   -0.025068636789881256   -0.0009297481953702985
0.0002968881221837201   -0.025185301062940927   -0.0009070364465588905
0.00023985575955352928   -0.025201098142791915   -0.0009672448575032268
0.0010354611937523357   -0.02179534243032536   -0.0009176631337936313
0.0019596722477548153   -0.025068636789881256   -0.0009297481953702985
0.00023985575955352928   -0.025201098142791915   -0.0009672448575032268
0.002916003639443434   -0.021733032994562   -0.0010053798507347472
0.0010354611937523357   -0.02179534243032536   -0.0009176631337936313
0.0002968881221837201   -0.025185301062940927   -0.0009070364465588905
0.003016178664394114   -0.021708540763548907   -0.0009406361054290036
0.001074113047040936   -0.021793042373576606   -0.0008775532959829484
0.0002968881221837201   -0.025185301062940927   -0.0009070364465588905
0.0019596722477548153   -0.025068636789881256   -0.0009297481953702985
0.003016178664394114   -0.021708540763548907   -0.0009406361054290036
0.0020712393853839065   -0.025063400487679677   -0.0008442429727698236
0.001074113047040936   -0.021793042373576606   -0.0008775532959829484
0.003090527984625202   -0.021701741046805986   -0.0008816291130438067
0.0020712393853839065   -0.025063400487679677   -0.0008442429727698236
0.003016178664394114   -0.021708540763548907   -0.0009406361054290036
0.001074113047040936   -0.021793042373576606   -0.0008775532959829484
0.0020712393853839065   -0.025063400487679677   -0.0008442429727698236
0.00035711449810681703   -0.02518388022576297   -0.000852225655621516
0.0002968881221837201   -0.025185301062940927   -0.0009070364465588905
0.001074113047040936   -0.021793042373576606   -0.0008775532959829484
0.0020712393853839065   -0.025063400487679677   -0.0008442429727698236
0.0002968881221837201   -0.025185301062940927   -0.0009070364465588905
0.003016178664394114   -0.021708540763548907   -0.0009406361054290036
0.001074113047040936   -0.021793042373576606   -0.0008775532959829484
0.00035711449810681703   -0.02518388022576297   -0.000852225655621516
0.003090527984625202   -0.021701741046805986   -0.0008816291130438067
0.0010999517929159435   -0.021798642191743597   -0.0008411791529056955
0.00035711449810681703   -0.02518388022576297   -0.000852225655621516
0.0020712393853839065   -0.025063400487679677   -0.0008442429727698236
0.003090527984625202   -0.021701741046805986   -0.0008816291130438067
0.0021872432972585305   -0.02507251610094012   -0.0007661264466285635
0.0010999517929159435   -0.021798642191743597   -0.0008411791529056955
0.003166213987626416   -0.021701740096887755   -0.0008286287574863283
0.0021872432972585305   -0.02507251610094012   -0.0007661264466285635
0.003090527984625202   -0.021701741046805986   -0.0008816291130438067
0.0010999517929159435   -0.021798642191743597   -0.0008411791529056955
0.0021872432972585305   -0.02507251610094012   -0.0007661264466285635
0.00040115897997658305   -0.025196163607016774   -0.000801126681358747
0.00035711449810681703   -0.02518388022576297   -0.000852225655621516
0.0010999517929159435   -0.021798642191743597   -0.0008411791529056955
0.0021872432972585305   -0.02507251610094012   -0.0007661264466285635
0.00035711449810681703   -0.02518388022576297   -0.000852225655621516
0.003090527984625202   -0.021701741046805986   -0.0008816291130438067
-0.005806445419693838   -0.0251465215246935   -0.0009380447603079127
-0.004871710927151718   -0.027767968106383913   -0.0008517665889603202
-0.004118842803502272   -0.025224519521322302   -0.000932632134577031
-0.005719154537691119   -0.025163175633744796   -0.0009900406127177012
-0.004871710927151718   -0.027767968106383913   -0.0008517665889603202
-0.0036697026461421528   -0.02788292414408078   -0.0008861326245026623
-0.004118842803502272   -0.025224519521322302   -0.000932632134577031
-0.0036101306567016315   -0.02787718800732055   -0.0009145944322224352
-0.005719154537691119   -0.025163175633744796   -0.0009900406127177012
-0.004077107657605317   -0.025235768890215688   -0.0009511454652409226
-0.0036101306567016315   -0.02787718800732055   -0.0009145944322224352
-0.004118842803502272   -0.025224519521322302   -0.000932632134577031
-0.005719154537691119   -0.025163175633744796   -0.0009900406127177012
-0.0036101306567016315   -0.02787718800732055   -0.0009145944322224352
-0.004742487248539817   -0.027764853433075165   -0.0009284716069162928
-0.004871710927151718   -0.027767968106383913   -0.0008517665889603202
-0.005719154537691119   -0.025163175633744796   -0.0009900406127177012
-0.0036101306567016315   -0.02787718800732055   -0.0009145944322224352
-0.004871710927151718   -0.027767968106383913   -0.0008517665889603202
-0.004118842803502272   -0.025224519521322302   -0.000932632134577031
-0.005719154537691119   -0.025163175633744796   -0.0009900406127177012
-0.004742487248539817   -0.027764853433075165   -0.0009284716069162928
-0.004077107657605317   -0.025235768890215688   -0.0009511454652409226
-0.005632275442657461   -0.0251950016366817   -0.0010487476530379653
-0.004742487248539817   -0.027764853433075165   -0.0009284716069162928
-0.0036101306567016315   -0.02787718800732055   -0.0009145944322224352
-0.004077107657605317   -0.025235768890215688   -0.0009511454652409226
-0.003539936923415579   -0.027894059208903536   -0.0009472447764966911
-0.005632275442657461   -0.0251950016366817   -0.0010487476530379653
-0.004024671946778137   -0.025262881778255482   -0.0009737818660382977
-0.003539936923415579   -0.027894059208903536   -0.0009472447764966911
-0.004077107657605317   -0.025235768890215688   -0.0009511454652409226
-0.005632275442657461   -0.0251950016366817   -0.0010487476530379653
-0.003539936923415579   -0.027894059208903536   -0.0009472447764966911
-0.004623501704599245   -0.027785645839768714   -0.0010110850512888908
-0.004742487248539817   -0.027764853433075165   -0.0009284716069162928
-0.005632275442657461   -0.0251950016366817   -0.0010487476530379653
-0.003539936923415579   -0.027894059208903536   -0.0009472447764966911
-0.004742487248539817   -0.027764853433075165   -0.0009284716069162928
-0.004077107657605317   -0.025235768890215688   -0.0009511454652409226
-0.005632275442657461   -0.0251950016366817   -0.0010487476530379653
-0.004623501704599245   -0.027785645839768714   -0.0010110850512888908
-0.004024671946778137   -0.025262881778255482   -0.0009737818660382977
-0.005521043078105678   -0.025254349435569787   -0.0011140572481472169
-0.004623501704599245   -0.027785645839768714   -0.0010110850512888908
-0.003539936923415579   -0.027894059208903536   -0.0009472447764966911
-0.004024671946778137   -0.025262881778255482   -0.0009737818660382977
-0.0034762644890531953   -0.02793394153181379   -0.000983818414255212
-0.005521043078105678   -0.025254349435569787   -0.0011140572481472169
-0.003972970808377721   -0.025307401443881168   -0.0010005020538575654
-0.0034762644890531953   -0.02793394153181379   -0.000983818414255212
-0.004024671946778137   -0.025262881778255482   -0.0009737818660382977
-0.005521043078105678   -0.025254349435569787   -0.0011140572481472169
-0.0034762644890531953   -0.02793394153181379   -0.000983818414255212
-0.004478289228718736   -0.02784074554900904   -0.0010992735376753827
-0.004623501704599245   -0.027785645839768714   -0.0010110850512888908
-0.005521043078105678   -0.025254349435569787   -0.0011140572481472169
-0.0034762644890531953   -0.02793394153181379   -0.000983818414255212
-0.004623501704599245   -0.027785645839768714   -0.0010110850512888908
-0.004024671946778137   -0.025262881778255482   -0.0009737818660382977
-0.004118842803502272   -0.025224519521322302   -0.000932632134577031
-0.0036697026461421528   -0.02788292414408078   -0.0008861326245026623
-0.002655245979533956   -0.025260692045287834   -0.0009305953635967493
-0.004077107657605317   -0.025235768890215688   -0.0009511454652409226
-0.0036697026461421528   -0.02788292414408078   -0.0008861326245026623
-0.002684798222043506   -0.027956566645563702   -0.0009130573056686585
-0.002655245979533956   -0.025260692045287834   -0.0009305953635967493
-0.0026237888041496273   -0.027947186044193672   -0.000904372632918715
-0.004077107657605317   -0.025235768890215688   -0.0009511454652409226
-0.0026124942926581763   -0.025264324767014432   -0.0009222215223706456
-0.0026237888041496273   -0.027947186044193672   -0.000904372632918715
-0.002655245979533956   -0.025260692045287834   -0.0009305953635967493
-0.004077107657605317   -0.025235768890215688   -0.0009511454652409226
-0.0026237888041496273   -0.027947186044193672   -0.000904372632918715
-0.0036101306567016315   -0.02787718800732055   -0.0009145944322224352
-0.0036697026461421528   -0.02788292414408078   -0.0008861326245026623
-0.004077107657605317   -0.025235768890215688   -0.0009511454652409226
-0.0026237888041496273   -0.027947186044193672   -0.000904372632918715
-0.0036697026461421528   -0.02788292414408078   -0.0008861326245026623
-0.002655245979533956   -0.025260692045287834   -0.0009305953635967493
-0.004077107657605317   -0.025235768890215688   -0.0009511454652409226
-0.0036101306567016315   -0.02787718800732055   -0.0009145944322224352
-0.0026124942926581763   -0.025264324767014432   -0.0009222215223706456
-0.004024671946778137   -0.025262881778255482   -0.0009737818660382977
-0.0036101306567016315   -0.02787718800732055   -0.0009145944322224352
-0.0026237888041496273   -0.027947186044193672   -0.000904372632918715
-0.0026124942926581763   -0.025264324767014432   -0.0009222215223706456
-0.002563564039325748   -0.027957359308123052   -0.0008997649048135549
-0.004024671946778137   -0.025262881778255482   -0.0009737818660382977
-0.002568342776034098   -0.02528213757088397   -0.0009178482965226839
-0.002563564039325748   -0.027957359308123052   -0.0008997649048135549
-0.0026124942926581763   -0.025264324767014432   -0.0009222215223706456
-0.004024671946778137   -0.025262881778255482   -0.0009737818660382977
-0.002563564039325748   -0.027957359308123052   -0.0008997649048135549
-0.003539936923415579   -0.027894059208903536   -0.0009472447764966911
-0.0036101306567016315   -0.02787718800732055   -0.0009145944322224352
-0.004024671946778137   -0.025262881778255482   -0.0009737818660382977
-0.002563564039325748   -0.027957359308123052   -0.0008997649048135549
-0.0036101306567016315   -0.02787718800732055   -0.0009145944322224352
-0.0026124942926581763   -0.025264324767014432   -0.0009222215223706456
-0.004024671946778137   -0.025262881778255482   -0.0009737818660382977
-0.003539936923415579   -0.027894059208903536   -0.0009472447764966911
-0.002568342776034098   -0.02528213757088397   -0.0009178482965226839
-0.003972970808377721   -0.025307401443881168   -0.0010005020538575654
-0.003539936923415579   -0.027894059208903536   -0.0009472447764966911
-0.002563564039325748   -0.027957359308123052   -0.0008997649048135549
-0.002568342776034098   -0.02528213757088397   -0.0009178482965226839
-0.002508071523801922   -0.02798770520102873   -0.0009000752006336873
-0.003972970808377721   -0.025307401443881168   -0.0010005020538575654
-0.002524249228306496   -0.025314932026153206   -0.0009174353488821114
-0.002508071523801922   -0.02798770520102873   -0.0009000752006336873
-0.002568342776034098   -0.02528213757088397   -0.0009178482965226839
-0.003972970808377721   -0.025307401443881168   -0.0010005020538575654
-0.002508071523801922   -0.02798770520102873   -0.0009000752006336873
-0.0034762644890531953   -0.02793394153181379   -0.000983818414255212
-0.003539936923415579   -0.027894059208903536   -0.0009472447764966911
-0.003972970808377721   -0.025307401443881168   -0.0010005020538575654
-0.002508071523801922   -0.02798770520102873   -0.0009000752006336873
-0.003539936923415579   -0.027894059208903536   -0.0009472447764966911
-0.002568342776034098   -0.02528213757088397   -0.0009178482965226839
-0.002655245979533956   -0.025260692045287834   -0.0009305953635967493
-0.002684798222043506   -0.027956566645563702   -0.0009130573056686585
-0.0012399922606334153   -0.025253407911652672   -0.0009413809884901305
-0.0026124942926581763   -0.025264324767014432   -0.0009222215223706456
-0.002684798222043506   -0.027956566645563702   -0.0009130573056686585
-0.0017411724071174034   -0.027993911818084163   -0.0009451692446589645
-0.0012399922606334153   -0.025253407911652672   -0.0009413809884901305
-0.001672426506906473   -0.02798019988446641   -0.000901400845779152
-0.0026124942926581763   -0.025264324767014432   -0.0009222215223706456
-0.0011931714133770642   -0.025248459307978206   -0.0009070559811263091
-0.001672426506906473   -0.02798019988446641   -0.000901400845779152
-0.0012399922606334153   -0.025253407911652672   -0.0009413809884901305
-0.0026124942926581763   -0.025264324767014432   -0.0009222215223706456
-0.001672426506906473   -0.02798019988446641   -0.000901400845779152
-0.0026237888041496273   -0.027947186044193672   -0.000904372632918715
-0.002684798222043506   -0.027956566645563702   -0.0009130573056686585
-0.0026124942926581763   -0.025264324767014432   -0.0009222215223706456
-0.001672426506906473   -0.02798019988446641   -0.000901400845779152
-0.002684798222043506   -0.027956566645563702   -0.0009130573056686585
-0.0012399922606334153   -0.025253407911652672   -0.0009413809884901305
-0.0026124942926581763   -0.025264324767014432   -0.0009222215223706456
-0.0026237888041496273   -0.027947186044193672   -0.000904372632918715
-0.0011931714133770642   -0.025248459307978206   -0.0009070559811263091
-0.002568342776034098   -0.02528213757088397   -0.0009178482965226839
-0.0026237888041496273   -0.027947186044193672   -0.000904372632918715
-0.001672426506906473   -0.02798019988446641   -0.000901400845779152
-0.0011931714133770642   -0.025248459307978206   -0.0009070559811263091
-0.0016068341905124154   -0.02798375592463938   -0.0008612678064656994
-0.002568342776034098   -0.02528213757088397   -0.0009178482965226839
-0.0011476918857134173   -0.02525637375213804   -0.0008769970058805246
-0.0016068341905124154   -0.02798375592463938   -0.0008612678064656994
-0.0011931714133770642   -0.025248459307978206   -0.0009070559811263091
-0.002568342776034098   -0.02528213757088397   -0.0009178482965226839
-0.0016068341905124154   -0.02798375592463938   -0.0008612678064656994
-0.002563564039325748   -0.027957359308123052   -0.0008997649048135549
-0.0026237888041496273   -0.027947186044193672   -0.000904372632918715
-0.002568342776034098   -0.02528213757088397   -0.0009178482965226839
-0.0016068341905124154   -0.02798375592463938   -0.0008612678064656994
-0.0026237888041496273   -0.027947186044193672   -0.000904372632918715
-0.0011931714133770642   -0.025248459307978206   -0.0009070559811263091
-0.002568342776034098   -0.02528213757088397   -0.0009178482965226839
-0.002563564039325748   -0.027957359308123052   -0.0008997649048135549
-0.0011476918857134173   -0.02525637375213804   -0.0008769970058805246
-0.002524249228306496   -0.025314932026153206   -0.0009174353488821114
-0.002563564039325748   -0.027957359308123052   -0.0008997649048135549
-0.0016068341905124154   -0.02798375592463938   -0.0008612678064656994
-0.0011476918857134173   -0.02525637375213804   -0.0008769970058805246
-0.0015521651903185117   -0.028007809025889036   -0.0008269687392819451
-0.002524249228306496   -0.025314932026153206   -0.0009174353488821114
-0.0011065663059820082   -0.02527894596309997   -0.0008508403967024415
-0.0015521651903185117   -0.028007809025889036   -0.0008269687392819451
-0.0011476918857134173   -0.02525637375213804   -0.0008769970058805246
-0.002524249228306496   -0.025314932026153206   -0.0009174353488821114
-0.0015521651903185117   -0.028007809025889036   -0.0008269687392819451
-0.002508071523801922   -0.02798770520102873   -0.0009000752006336873
-0.002563564039325748   -0.027957359308123052   -0.0008997649048135549
-0.002524249228306496   -0.025314932026153206   -0.0009174353488821114
-0.0015521651903185117   -0.028007809025889036   -0.0008269687392819451
-0.002563564039325748   -0.027957359308123052   -0.0008997649048135549
-0.0011476918857134173   -0.02525637375213804   -0.0008769970058805246
-0.0012399922606334153   -0.025253407911652672   -0.0009413809884901305
-0.0017411724071174034   -0.027993911818084163   -0.0009451692446589645
0.00023985575955352928   -0.025201098142791915   -0.0009672448575032268
-0.0011931714133770642   -0.025248459307978206   -0.0009070559811263091
-0.0017411724071174034   -0.027993911818084163   -0.0009451692446589645
-0.0007398202600845597   -0.027981592380125105   -0.0009832461123790842
0.00023985575955352928   -0.025201098142791915   -0.0009672448575032268
-0.0006515516729574983   -0.02796004751090382   -0.0009058403801773314
-0.0011931714133770642   -0.025248459307978206   -0.0009070559811263091
0.0002968881221837201   -0.025185301062940927   -0.0009070364465588905
-0.0006515516729574983   -0.02796004751090382   -0.0009058403801773314
0.00023985575955352928   -0.025201098142791915   -0.0009672448575032268
-0.0011931714133770642   -0.025248459307978206   -0.0009070559811263091
-0.0006515516729574983   -0.02796004751090382   -0.0009058403801773314
-0.001672426506906473   -0.02798019988446641   -0.000901400845779152
-0.0017411724071174034   -0.027993911818084163   -0.0009451692446589645
-0.0011931714133770642   -0.025248459307978206   -0.0009070559811263091
-0.0006515516729574983   -0.02796004751090382   -0.0009058403801773314
-0.0017411724071174034   -0.027993911818084163   -0.0009451692446589645
0.00023985575955352928   -0.025201098142791915   -0.0009672448575032268
-0.0011931714133770642   -0.025248459307978206   -0.0009070559811263091
-0.001672426506906473   -0.02798019988446641   -0.000901400845779152
0.0002968881221837201   -0.025185301062940927   -0.0009070364465588905
-0.0011476918857134173   -0.02525637375213804   -0.0008769970058805246
-0.001672426506906473   -0.02798019988446641   -0.000901400845779152
-0.0006515516729574983   -0.02796004751090382   -0.0009058403801773314
0.0002968881221837201   -0.025185301062940927   -0.0009070364465588905
-0.0005610306429091338   -0.02795641122129934   -0.0008323047792717319
-0.0011476918857134173   -0.02525637375213804   -0.0008769970058805246
0.00035711449810681703   -0.02518388022576297   -0.000852225655621516
-0.0005610306429091338   -0.02795641122129934   -0.0008323047792717319
0.0002968881221837201   -0.025185301062940927   -0.0009070364465588905
-0.0011476918857134173   -0.02525637375213804   -0.0008769970058805246
-0.0005610306429091338   -0.02795641122129934   -0.0008323047792717319
-0.0016068341905124154   -0.02798375592463938   -0.0008612678064656994
-0.001672426506906473   -0.02798019988446641   -0.000901400845779152
-0.0011476918857134173   -0.02525637375213804   -0.0008769970058805246
-0.0005610306429091338   -0.02795641122129934   -0.0008323047792717319
-0.001672426506906473   -0.02798019988446641   -0.000901400845779152
0.0002968881221837201   -0.025185301062940927   -0.0009070364465588905
-0.0011476918857134173   -0.02525637375213804   -0.0008769970058805246
-0.0016068341905124154   -0.02798375592463938   -0.0008612678064656994
0.00035711449810681703   -0.02518388022576297   -0.000852225655621516
-0.0011065663059820082   -0.02527894596309997   -0.0008508403967024415
-0.0016068341905124154   -0.02798375592463938   -0.0008612678064656994
-0.0005610306429091338   -0.02795641122129934   -0.0008323047792717319
0.00035711449810681703   -0.02518388022576297   -0.000852225655621516
-0.0004941491420498426   -0.027974419754758634   -0.0007653775890298388
-0.0011065663059820082   -0.02527894596309997   -0.0008508403967024415
0.00040115897997658305   -0.025196163607016774   -0.000801126681358747
-0.0004941491420498426   -0.027974419754758634   -0.0007653775890298388
0.00035711449810681703   -0.02518388022576297   -0.000852225655621516
-0.0011065663059820082   -0.02527894596309997   -0.0008508403967024415
-0.0004941491420498426   -0.027974419754758634   -0.0007653775890298388
-0.0015521651903185117   -0.028007809025889036   -0.0008269687392819451
-0.0016068341905124154   -0.02798375592463938   -0.0008612678064656994
-0.0011065663059820082   -0.02527894596309997   -0.0008508403967024415
-0.0004941491420498426   -0.027974419754758634   -0.0007653775890298388
-0.0016068341905124154   -0.02798375592463938   -0.0008612678064656994
0.00035711449810681703   -0.02518388022576297   -0.000852225655621516
0.00023985575955352928   -0.025201098142791915   -0.0009672448575032268
-0.0007398202600845597   -0.027981592380125105   -0.0009832461123790842
0.0018142530947624677   -0.025098855283335202   -0.0010219509851143891
0.0002968881221837201   -0.025185301062940927   -0.0009070364465588905
-0.0007398202600845597   -0.027981592380125105   -0.0009832461123790842
0.0003337992141410327   -0.027884515841737643   -0.001060407413561239
0.0018142530947624677   -0.025098855283335202   -0.0010219509851143891
0.0005416289122381568   -0.02783790997222317   -0.0009339353580876367
0.0002968881221837201   -0.025185301062940927   -0.0009070364465588905
0.0019596722477548153   -0.025068636789881256   -0.0009297481953702985
0.0005416289122381568   -0.02783790997222317   -0.0009339353580876367
0.0018142530947624677   -0.025098855283335202   -0.0010219509851143891
0.0002968881221837201   -0.025185301062940927   -0.0009070364465588905
0.0005416289122381568   -0.02783790997222317   -0.0009339353580876367
-0.0006515516729574983   -0.02796004751090382   -0.0009058403801773314
-0.0007398202600845597   -0.027981592380125105   -0.0009832461123790842
0.0002968881221837201   -0.025185301062940927   -0.0009070364465588905
0.0005416289122381568   -0.02783790997222317   -0.0009339353580876367
-0.0007398202600845597   -0.027981592380125105   -0.0009832461123790842
0.0018142530947624677   -0.025098855283335202   -0.0010219509851143891
0.0002968881221837201   -0.025185301062940927   -0.0009070364465588905
-0.0006515516729574983   -0.02796004751090382   -0.0009058403801773314
0.0019596722477548153   -0.025068636789881256   -0.0009297481953702985
0.00035711449810681703   -0.02518388022576297   -0.000852225655621516
-0.0006515516729574983   -0.02796004751090382   -0.0009058403801773314
0.0005416289122381568   -0.02783790997222317   -0.0009339353580876367
0.0019596722477548153   -0.025068636789881256   -0.0009297481953702985
0.0007048396630295585   -0.027828607285237342   -0.0008150090488500265
0.00035711449810681703   -0.02518388022576297   -0.000852225655621516
0.0020712393853839065   -0.025063400487679677   -0.0008442429727698236
0.0007048396630295585   -0.027828607285237342   -0.0008150090488500265
0.0019596722477548153   -0.025068636789881256   -0.0009297481953702985
0.00035711449810681703   -0.02518388022576297   -0.000852225655621516
0.0007048396630295585   -0.027828607285237342   -0.0008150090488500265
-0.0005610306429091338   -0.02795641122129934   -0.0008323047792717319
-0.0006515516729574983   -0.02796004751090382   -0.0009058403801773314
0.00035711449810681703   -0.02518388022576297   -0.000852225655621516
0.0007048396630295585   -0.027828607285237342   -0.0008150090488500265
-0.0006515516729574983   -0.02796004751090382   -0.0009058403801773314
0.0019596722477548153   -0.025068636789881256   -0.0009297481953702985
0.00035711449810681703   -0.02518388022576297   -0.000852225655621516
-0.0005610306429091338   -0.02795641122129934   -0.0008323047792717319
0.0020712393853839065   -0.025063400487679677   -0.0008442429727698236
0.00040115897997658305   -0.025196163607016774   -0.000801126681358747
-0.0005610306429091338   -0.02795641122129934   -0.0008323047792717319
0.0007048396630295585   -0.027828607285237342   -0.0008150090488500265
0.0020712393853839065   -0.025063400487679677   -0.0008442429727698236
0.0008749819976286799   -0.027837110164276892   -0.0007061831413118973
0.00040115897997658305   -0.025196163607016774   -0.000801126681358747
0.0021872432972585305   -0.02507251610094012   -0.0007661264466285635
0.0008749819976286799   -0.027837110164276892   -0.0007061831413118973
0.0020712393853839065   -0.025063400487679677   -0.0008442429727698236
0.00040115897997658305   -0.025196163607016774   -0.000801126681358747
0.0008749819976286799   -0.027837110164276892   -0.0007061831413118973
-0.0004941491420498426   -0.027974419754758634   -0.0007653775890298388
-0.0005610306429091338   -0.02795641122129934   -0.0008323047792717319
0.00040115897997658305   -0.025196163607016774   -0.000801126681358747
0.0008749819976286799   -0.027837110164276892   -0.0007061831413118973
-0.0005610306429091338   -0.02795641122129934   -0.0008323047792717319
0.0020712393853839065   -0.025063400487679677   -0.0008442429727698236
-0.004871710927151718   -0.027767968106383913   -0.0008517665889603202
-0.0035917444739474932   -0.029329990087625817   -0.000750181010591073
-0.0036697026461421528   -0.02788292414408078   -0.0008861326245026623
-0.004742487248539817   -0.027764853433075165   -0.0009284716069162928
-0.0035917444739474932   -0.029329990087625817   -0.000750181010591073
-0.0030277309545334967   -0.029474951788347522   -0.0008366972741884836
-0.0036697026461421528   -0.02788292414408078   -0.0008861326245026623
-0.0029529445156359323   -0.029446739907583307   -0.0008671345112195989
-0.004742487248539817   -0.027764853433075165   -0.0009284716069162928
-0.0036101306567016315   -0.02787718800732055   -0.0009145944322224352
-0.0029529445156359323   -0.029446739907583307   -0.0008671345112195989
-0.0036697026461421528   -0.02788292414408078   -0.0008861326245026623
-0.004742487248539817   -0.027764853433075165   -0.0009284716069162928
-0.0029529445156359323   -0.029446739907583307   -0.0008671345112195989
-0.003431236024910594   -0.029298148947252876   -0.0008420999353775656
-0.0035917444739474932   -0.029329990087625817   -0.000750181010591073
-0.004742487248539817   -0.027764853433075165   -0.0009284716069162928
-0.0029529445156359323   -0.029446739907583307   -0.0008671345112195989
-0.0035917444739474932   -0.029329990087625817   -0.000750181010591073
-0.0036697026461421528   -0.02788292414408078   -0.0008861326245026623
-0.004742487248539817   -0.027764853433075165   -0.0009284716069162928
-0.003431236024910594   -0.029298148947252876   -0.0008420999353775656
-0.0036101306567016315   -0.02787718800732055   -0.0009145944322224352
-0.004623501704599245   -0.027785645839768714   -0.0010110850512888908
-0.003431236024910594   -0.029298148947252876   -0.0008420999353775656
-0.0029529445156359323   -0.029446739907583307   -0.0008671345112195989
-0.0036101306567016315   -0.02787718800732055   -0.0009145944322224352
-0.002869901874010283   -0.029448708786570316   -0.0008978902130418206
-0.004623501704599245   -0.027785645839768714   -0.0010110850512888908
-0.003539936923415579   -0.027894059208903536   -0.0009472447764966911
-0.002869901874010283   -0.029448708786570316   -0.0008978902130418206
-0.0036101306567016315   -0.02787718800732055   -0.0009145944322224352
-0.004623501704599245   -0.027785645839768714   -0.0010110850512888908
-0.002869901874010283   -0.029448708786570316   -0.0008978902130418206
-0.0032928014204465666   -0.02930151909744822   -0.0009337155129402043
-0.003431236024910594   -0.029298148947252876   -0.0008420999353775656
-0.004623501704599245   -0.027785645839768714   -0.0010110850512888908
-0.002869901874010283   -0.029448708786570316   -0.0008978902130418206
-0.003431236024910594   -0.029298148947252876   -0.0008420999353775656
-0.0036101306567016315   -0.02787718800732055   -0.0009145944322224352
-0.004623501704599245   -0.027785645839768714   -0.0010110850512888908
-0.0032928014204465666   -0.02930151909744822   -0.0009337155129402043
-0.003539936923415579   -0.027894059208903536   -0.0009472447764966911
-0.004478289228718736   -0.02784074554900904   -0.0010992735376753827
-0.0032928014204465666   -0.02930151909744822   -0.0009337155129402043
-0.002869901874010283   -0.029448708786570316   -0.0008978902130418206
-0.003539936923415579   -0.027894059208903536   -0.0009472447764966911
-0.002792874492280615   -0.029481025478438477   -0.0009290918006036648
-0.004478289228718736   -0.02784074554900904   -0.0010992735376753827
-0.0034762644890531953   -0.02793394153181379   -0.000983818414255212
-0.002792874492280615   -0.029481025478438477   -0.0009290918006036648
-0.003539936923415579   -0.027894059208903536   -0.0009472447764966911
-0.004478289228718736   -0.02784074554900904   -0.0010992735376753827
-0.002792874492280615   -0.029481025478438477   -0.0009290918006036648
-0.003128432669342653   -0.029342184280488213   -0.0010272883569835119
-0.0032928014204465666   -0.02930151909744822   -0.0009337155129402043
-0.004478289228718736   -0.02784074554900904   -0.0010992735376753827
-0.002792874492280615   -0.029481025478438477   -0.0009290918006036648
-0.0032928014204465666   -0.02930151909744822   -0.0009337155129402043
-0.003539936923415579   -0.027894059208903536   -0.0009472447764966911
-0.0036697026461421528   -0.02788292414408078   -0.0008861326245026623
-0.0030277309545334967   -0.029474951788347522   -0.0008366972741884836
-0.002684798222043506   -0.027956566645563702   -0.0009130573056686585
-0.0036101306567016315   -0.02787718800732055   -0.0009145944322224352
-0.0030277309545334967   -0.029474951788347522   -0.0008366972741884836
-0.0026124180688890694   -0.02961833664817553   -0.0009130140434262763
-0.002684798222043506   -0.027956566645563702   -0.0009130573056686585
-0.0025337212052970372   -0.02958927876820903   -0.0008922957439249575
-0.0036101306567016315   -0.02787718800732055   -0.0009145944322224352
-0.0026237888041496273   -0.027947186044193672   -0.000904372632918715
-0.0025337212052970372   -0.02958927876820903   -0.0008922957439249575
-0.002684798222043506   -0.027956566645563702   -0.0009130573056686585
-0.0036101306567016315   -0.02787718800732055   -0.0009145944322224352
-0.0025337212052970372   -0.02958927876820903   -0.0008922957439249575
-0.0029529445156359323   -0.029446739907583307   -0.0008671345112195989
-0.0030277309545334967   -0.029474951788347522   -0.0008366972741884836
-0.0036101306567016315   -0.02787718800732055   -0.0009145944322224352
-0.0025337212052970372   -0.02958927876820903   -0.0008922957439249575
-0.0030277309545334967   -0.029474951788347522   -0.0008366972741884836
-0.002684798222043506   -0.027956566645563702   -0.0009130573056686585
-0.0036101306567016315   -0.02787718800732055   -0.0009145944322224352
-0.0029529445156359323   -0.029446739907583307   -0.0008671345112195989
-0.0026237888041496273   -0.027947186044193672   -0.000904372632918715
-0.003539936923415579   -0.027894059208903536   -0.0009472447764966911
-0.0029529445156359323   -0.029446739907583307   -0.0008671345112195989
-0.0025337212052970372   -0.02958927876820903   -0.0008922957439249575
-0.0026237888041496273   -0.027947186044193672   -0.000904372632918715
-0.002457536255448795   -0.02958918554691783   -0.0008713344747836442
-0.003539936923415579   -0.027894059208903536   -0.0009472447764966911
-0.002563564039325748   -0.027957359308123052   -0.0008997649048135549
-0.002457536255448795   -0.02958918554691783   -0.0008713344747836442
-0.0026237888041496273   -0.027947186044193672   -0.000904372632918715
-0.003539936923415579   -0.027894059208903536   -0.0009472447764966911
-0.002457536255448795   -0.02958918554691783   -0.0008713344747836442
-0.002869901874010283   -0.029448708786570316   -0.0008978902130418206
-0.0029529445156359323   -0.029446739907583307   -0.0008671345112195989
-0.003539936923415579   -0.027894059208903536   -0.0009472447764966911
-0.002457536255448795   -0.02958918554691783   -0.0008713344747836442
-0.0029529445156359323   -0.029446739907583307   -0.0008671345112195989
-0.0026237888041496273   -0.027947186044193672   -0.000904372632918715
-0.003539936923415579   -0.027894059208903536   -0.0009472447764966911
-0.002869901874010283   -0.029448708786570316   -0.0008978902130418206
-0.002563564039325748   -0.027957359308123052   -0.0008997649048135549
-0.0034762644890531953   -0.02793394153181379   -0.000983818414255212
-0.002869901874010283   -0.029448708786570316   -0.0008978902130418206
-0.002457536255448795   -0.02958918554691783   -0.0008713344747836442
-0.002563564039325748   -0.027957359308123052   -0.0008997649048135549
-0.002378185608600895   -0.02961747892828436   -0.000851236931601371
-0.0034762644890531953   -0.02793394153181379   -0.000983818414255212
-0.002508071523801922   -0.02798770520102873   -0.0009000752006336873
-0.002378185608600895   -0.02961747892828436   -0.000851236931601371
-0.002563564039325748   -0.027957359308123052   -0.0008997649048135549
-0.0034762644890531953   -0.02793394153181379   -0.000983818414255212
-0.002378185608600895   -0.02961747892828436   -0.000851236931601371
-0.002792874492280615   -0.029481025478438477   -0.0009290918006036648
-0.002869901874010283   -0.029448708786570316   -0.0008978902130418206
-0.0034762644890531953   -0.02793394153181379   -0.000983818414255212
-0.002378185608600895   -0.02961747892828436   -0.000851236931601371
-0.002869901874010283   -0.029448708786570316   -0.0008978902130418206
-0.002563564039325748   -0.027957359308123052   -0.0008997649048135549
-0.002684798222043506   -0.027956566645563702   -0.0009130573056686585
-0.0026124180688890694   -0.02961833664817553   -0.0009130140434262763
-0.0017411724071174034   -0.027993911818084163   -0.0009451692446589645
-0.0026237888041496273   -0.027947186044193672   -0.000904372632918715
-0.0026124180688890694   -0.02961833664817553   -0.0009130140434262763
-0.0022323362544517753   -0.029789143734377684   -0.0009973578692272793
-0.0017411724071174034   -0.027993911818084163   -0.0009451692446589645
-0.0021359975226852216   -0.029763694691488225   -0.0009226595338519712
-0.0026237888041496273   -0.027947186044193672   -0.000904372632918715
-0.001672426506906473   -0.02798019988446641   -0.000901400845779152
-0.0021359975226852216   -0.029763694691488225   -0.0009226595338519712
-0.0017411724071174034   -0.027993911818084163   -0.0009451692446589645
-0.0026237888041496273   -0.027947186044193672   -0.000904372632918715
-0.0021359975226852216   -0.029763694691488225   -0.0009226595338519712
-0.0025337212052970372   -0.02958927876820903   -0.0008922957439249575
-0.0026124180688890694   -0.02961833664817553   -0.0009130140434262763
-0.0026237888041496273   -0.027947186044193672   -0.000904372632918715
-0.0021359975226852216   -0.029763694691488225   -0.0009226595338519712
-0.0026124180688890694   -0.02961833664817553   -0.0009130140434262763
-0.0017411724071174034   -0.027993911818084163   -0.0009451692446589645
-0.0026237888041496273   -0.027947186044193672   -0.000904372632918715
-0.0025337212052970372   -0.02958927876820903   -0.0008922957439249575
-0.001672426506906473   -0.02798019988446641   -0.000901400845779152
-0.002563564039325748   -0.027957359308123052   -0.0008997649048135549
-0.0025337212052970372   -0.02958927876820903   -0.0008922957439249575
-0.0021359975226852216   -0.029763694691488225   -0.0009226595338519712
-0.001672426506906473   -0.02798019988446641   -0.000901400845779152
-0.002046580529290693   -0.029762582102576693   -0.0008481236022308625
-0.002563564039325748   -0.027957359308123052   -0.0008997649048135549
-0.0016068341905124154   -0.02798375592463938   -0.0008612678064656994
-0.002046580529290693   -0.029762582102576693   -0.0008481236022308625
-0.001672426506906473   -0.02798019988446641   -0.000901400845779152
-0.002563564039325748   -0.027957359308123052   -0.0008997649048135549
-0.002046580529290693   -0.029762582102576693   -0.0008481236022308625
-0.002457536255448795   -0.02958918554691783   -0.0008713344747836442
-0.0025337212052970372   -0.02958927876820903   -0.0008922957439249575
-0.002563564039325748   -0.027957359308123052   -0.0008997649048135549
-0.002046580529290693   -0.029762582102576693   -0.0008481236022308625
-0.0025337212052970372   -0.02958927876820903   -0.0008922957439249575
-0.001672426506906473   -0.02798019988446641   -0.000901400845779152
-0.002563564039325748   -0.027957359308123052   -0.0008997649048135549
-0.002457536255448795   -0.02958918554691783   -0.0008713344747836442
-0.0016068341905124154   -0.02798375592463938   -0.0008612678064656994
-0.002508071523801922   -0.02798770520102873   -0.0009000752006336873
-0.002457536255448795   -0.02958918554691783   -0.0008713344747836442
-0.002046580529290693   -0.029762582102576693   -0.0008481236022308625
-0.0016068341905124154   -0.02798375592463938   -0.0008612678064656994
-0.0019507755907559252   -0.02978455701824217   -0.0007735744593935739
-0.002508071523801922   -0.02798770520102873   -0.0009000752006336873
-0.0015521651903185117   -0.028007809025889036   -0.0008269687392819451
-0.0019507755907559252   -0.02978455701824217   -0.0007735744593935739
-0.0016068341905124154   -0.02798375592463938   -0.0008612678064656994
-0.002508071523801922   -0.02798770520102873   -0.0009000752006336873
-0.0019507755907559252   -0.02978455701824217   -0.0007735744593935739
-0.002378185608600895   -0.02961747892828436   -0.000851236931601371
-0.002457536255448795   -0.02958918554691783   -0.0008713344747836442
-0.002508071523801922   -0.02798770520102873   -0.0009000752006336873
-0.0019507755907559252   -0.02978455701824217   -0.0007735744593935739
-0.002457536255448795   -0.02958918554691783   -0.0008713344747836442
-0.0016068341905124154   -0.02798375592463938   -0.0008612678064656994
-0.0017411724071174034   -0.027993911818084163   -0.0009451692446589645
-0.0022323362544517753   -0.029789143734377684   -0.0009973578692272793
-0.0007398202600845597   -0.027981592380125105   -0.0009832461123790842
-0.001672426506906473   -0.02798019988446641   -0.000901400845779152
-0.0022323362544517753   -0.029789143734377684   -0.0009973578692272793
-0.0018582636036533627   -0.03   -0.0010633207408792082
-0.0007398202600845597   -0.027981592380125105   -0.0009832461123790842
-0.0017367639213305172   -0.03   -0.0009489471790366086
-0.001672426506906473   -0.02798019988446641   -0.000901400845779152
-0.0006515516729574983   -0.02796004751090382   -0.0009058403801773314
-0.0017367639213305172   -0.03   -0.0009489471790366086
-0.0007398202600845597   -0.027981592380125105   -0.0009832461123790842
-0.001672426506906473   -0.02798019988446641   -0.000901400845779152
-0.0017367639213305172   -0.03   -0.0009489471790366086
-0.0021359975226852216   -0.029763694691488225   -0.0009226595338519712
-0.0022323362544517753   -0.029789143734377684   -0.0009973578692272793
-0.001672426506906473   -0.02798019988446641   -0.000901400845779152
-0.0017367639213305172   -0.03   -0.0009489471790366086
-0.0022323362544517753   -0.029789143734377684   -0.0009973578692272793
-0.0007398202600845597   -0.027981592380125105   -0.0009832461123790842
-0.001672426506906473   -0.02798019988446641   -0.000901400845779152
-0.0021359975226852216   -0.029763694691488225   -0.0009226595338519712
-0.0006515516729574983   -0.02796004751090382   -0.0009058403801773314
-0.0016068341905124154   -0.02798375592463938   -0.0008612678064656994
-0.0021359975226852216   -0.029763694691488225   -0.0009226595338519712
-0.0017367639213305172   -0.03   -0.0009489471790366086
-0.0006515516729574983   -0.02796004751090382   -0.0009058403801773314
-0.0016144188701632486   -0.03   -0.0008332263441518213
-0.0016068341905124154   -0.02798375592463938   -0.0008612678064656994
-0.0005610306429091338   -0.02795641122129934   -0.0008323047792717319
-0.0016144188701632486   -0.03   -0.0008332263441518213
-0.0006515516729574983   -0.02796004751090382   -0.0009058403801773314
-0.0016068341905124154   -0.02798375592463938   -0.0008612678064656994
-0.0016144188701632486   -0.03   -0.0008332263441518213
-0.002046580529290693   -0.029762582102576693   -0.0008481236022308625
-0.0021359975226852216   -0.029763694691488225   -0.0009226595338519712
-0.0016068341905124154   -0.02798375592463938   -0.0008612678064656994
-0.0016144188701632486   -0.03   -0.0008332263441518213
-0.0021359975226852216   -0.029763694691488225   -0.0009226595338519712
-0.0006515516729574983   -0.02796004751090382   -0.0009058403801773314
-0.0016068341905124154   -0.02798375592463938   -0.0008612678064656994
-0.002046580529290693   -0.029762582102576693   -0.0008481236022308625
-0.0005610306429091338   -0.02795641122129934   -0.0008323047792717319
-0.0015521651903185117   -0.028007809025889036   -0.0008269687392819451
-0.002046580529290693   -0.029762582102576693   -0.0008481236022308625
-0.0016144188701632486   -0.03   -0.0008332263441518213
-0.0005610306429091338   -0.02795641122129934   -0.0008323047792717319
-0.0014951596573020143   -0.03   -0.0007190584349299738
-0.0015521651903185117   -0.028007809025889036   -0.0008269687392819451
-0.0004941491420498426   -0.027974419754758634   -0.0007653775890298388
-0.0014951596573020143   -0.03   -0.0007190584349299738
-0.0005610306429091338   -0.02795641122129934   -0.0008323047792717319
-0.0015521651903185117   -0.028007809025889036   -0.0008269687392819451
-0.0014951596573020143   -0.03   -0.0007190584349299738
-0.0019507755907559252   -0.02978455701824217   -0.0007735744593935739
-0.002046580529290693   -0.029762582102576693   -0.0008481236022308625
-0.0015521651903185117   -0.028007809025889036   -0.0008269687392819451
-0.0014951596573020143   -0.03   -0.0007190584349299738
-0.002046580529290693   -0.029762582102576693   -0.0008481236022308625
-0.0005610306429091338   -0.02795641122129934   -0.0008323047792717319
-0.0007398202600845597   -0.027981592380125105   -0.0009832461123790842
-0.0018582636036533627   -0.03   -0.0010633207408792082
0.0003337992141410327   -0.027884515841737643   -0.001060407413561239
-0.0006515516729574983   -0.02796004751090382   -0.0009058403801773314
-0.0018582636036533627   -0.03   -0.0010633207408792082
-0.0015839908634321255   -0.03   -0.0011431998637227575
0.0003337992141410327   -0.027884515841737643   -0.001060407413561239
-0.0013277938107394613   -0.03   -0.0009772517584314764
-0.0006515516729574983   -0.02796004751090382   -0.0009058403801773314
0.0005416289122381568   -0.02783790997222317   -0.0009339353580876367
-0.0013277938107394613   -0.03   -0.0009772517584314764
0.0003337992141410327   -0.027884515841737643   -0.001060407413561239
-0.0006515516729574983   -0.02796004751090382   -0.0009058403801773314
-0.0013277938107394613   -0.03   -0.0009772517584314764
-0.0017367639213305172   -0.03   -0.0009489471790366086
-0.0018582636036533627   -0.03   -0.0010633207408792082
-0.0006515516729574983   -0.02796004751090382   -0.0009058403801773314
-0.0013277938107394613   -0.03   -0.0009772517584314764
-0.0018582636036533627   -0.03   -0.0010633207408792082
0.0003337992141410327   -0.027884515841737643   -0.001060407413561239
-0.0006515516729574983   -0.02796004751090382   -0.0009058403801773314
-0.0017367639213305172   -0.03   -0.0009489471790366086
0.0005416289122381568   -0.02783790997222317   -0.0009339353580876367
-0.0005610306429091338   -0.02795641122129934   -0.0008323047792717319
-0.0017367639213305172   -0.03   -0.0009489471790366086
-0.0013277938107394613   -0.03   -0.0009772517584314764
0.0005416289122381568   -0.02783790997222317   -0.0009339353580876367
-0.0011235023061787902   -0.03   -0.0008185290345404651
-0.0005610306429091338   -0.02795641122129934   -0.0008323047792717319
0.0007048396630295585   -0.027828607285237342   -0.0008150090488500265
-0.0011235023061787902   -0.03   -0.0008185290345404651
0.0005416289122381568   -0.02783790997222317   -0.0009339353580876367
-0.0005610306429091338   -0.02795641122129934   -0.0008323047792717319
-0.0011235023061787902   -0.03   -0.0008185290345404651
-0.0016144188701632486   -0.03   -0.0008332263441518213
-0.0017367639213305172   -0.03   -0.0009489471790366086
-0.0005610306429091338   -0.02795641122129934   -0.0008323047792717319
-0.0011235023061787902   -0.03   -0.0008185290345404651
-0.0017367639213305172   -0.03   -0.0009489471790366086
0.0005416289122381568   -0.02783790997222317   -0.0009339353580876367
-0.0005610306429091338   -0.02795641122129934   -0.0008323047792717319
-0.0016144188701632486   -0.03   -0.0008332263441518213
0.0007048396630295585   -0.027828607285237342   -0.0008150090488500265
-0.0004941491420498426   -0.027974419754758634   -0.0007653775890298388
-0.0016144188701632486   -0.03   -0.0008332263441518213
-0.0011235023061787902   -0.03   -0.0008185290345404651
0.0007048396630295585   -0.027828607285237342   -0.0008150090488500265
-0.0008712276998312766   -0.03   -0.0006537332768072276
-0.0004941491420498426   -0.027974419754758634   -0.0007653775890298388
0.0008749819976286799   -0.027837110164276892   -0.0007061831413118973
-0.0008712276998312766   -0.03   -0.0006537332768072276
0.0007048396630295585   -0.027828607285237342   -0.0008150090488500265
-0.0004941491420498426   -0.027974419754758634   -0.0007653775890298388
-0.0008712276998312766   -0.03   -0.0006537332768072276
-0.0014951596573020143   -0.03   -0.0007190584349299738
-0.0016144188701632486   -0.03   -0.0008332263441518213
-0.0004941491420498426   -0.027974419754758634   -0.0007653775890298388
-0.0008712276998312766   -0.03   -0.0006537332768072276
-0.0016144188701632486   -0.03   -0.0008332263441518213
0.0007048396630295585   -0.027828607285237342   -0.0008150090488500265
-0.0035917444739474932   -0.029329990087625817   -0.000750181010591073
-0.002175786567837567   -0.02942761857162876   -0.0006424970604955382
-0.0030277309545334967   -0.029474951788347522   -0.0008366972741884836
-0.003431236024910594   -0.029298148947252876   -0.0008420999353775656
-0.002175786567837567   -0.02942761857162876   -0.0006424970604955382
-0.002294904672546262   -0.02954016726109894   -0.0007539522975611912
-0.0030277309545334967   -0.029474951788347522   -0.0008366972741884836
-0.0022381828627412344   -0.02950154367132924   -0.0007951899582648911
-0.003431236024910594   -0.029298148947252876   -0.0008420999353775656
-0.0029529445156359323   -0.029446739907583307   -0.0008671345112195989
-0.0022381828627412344   -0.02950154367132924   -0.0007951899582648911
-0.0030277309545334967   -0.029474951788347522   -0.0008366972741884836
-0.003431236024910594   -0.029298148947252876   -0.0008420999353775656
-0.0022381828627412344   -0.02950154367132924   -0.0007951899582648911
-0.0020299075393681375   -0.029377958373153466   -0.0007391342836938409
-0.002175786567837567   -0.02942761857162876   -0.0006424970604955382
-0.003431236024910594   -0.029298148947252876   -0.0008420999353775656
-0.0022381828627412344   -0.02950154367132924   -0.0007951899582648911
-0.002175786567837567   -0.02942761857162876   -0.0006424970604955382
-0.0030277309545334967   -0.029474951788347522   -0.0008366972741884836
-0.003431236024910594   -0.029298148947252876   -0.0008420999353775656
-0.0020299075393681375   -0.029377958373153466   -0.0007391342836938409
-0.0029529445156359323   -0.029446739907583307   -0.0008671345112195989
-0.0032928014204465666   -0.02930151909744822   -0.0009337155129402043
-0.0020299075393681375   -0.029377958373153466   -0.0007391342836938409
-0.0022381828627412344   -0.02950154367132924   -0.0007951899582648911
-0.0029529445156359323   -0.029446739907583307   -0.0008671345112195989
-0.002171516765146875   -0.02948786724349353   -0.0008333285568361267
-0.0032928014204465666   -0.02930151909744822   -0.0009337155129402043
-0.002869901874010283   -0.029448708786570316   -0.0008978902130418206
-0.002171516765146875   -0.02948786724349353   -0.0008333285568361267
-0.0029529445156359323   -0.029446739907583307   -0.0008671345112195989
-0.0032928014204465666   -0.02930151909744822   -0.0009337155129402043
-0.002171516765146875   -0.02948786724349353   -0.0008333285568361267
-0.001908526208261722   -0.029363330499872137   -0.0008319309587548557
-0.0020299075393681375   -0.029377958373153466   -0.0007391342836938409
-0.0032928014204465666   -0.02930151909744822   -0.0009337155129402043
-0.002171516765146875   -0.02948786724349353   -0.0008333285568361267
-0.0020299075393681375   -0.029377958373153466   -0.0007391342836938409
-0.0029529445156359323   -0.029446739907583307   -0.0008671345112195989
-0.0032928014204465666   -0.02930151909744822   -0.0009337155129402043
-0.001908526208261722   -0.029363330499872137   -0.0008319309587548557
-0.002869901874010283   -0.029448708786570316   -0.0008978902130418206
-0.003128432669342653   -0.029342184280488213   -0.0010272883569835119
-0.001908526208261722   -0.029363330499872137   -0.0008319309587548557
-0.002171516765146875   -0.02948786724349353   -0.0008333285568361267
-0.002869901874010283   -0.029448708786570316   -0.0008978902130418206
-0.002114488029365014   -0.02949936208653364   -0.0008681783865214385
-0.003128432669342653   -0.029342184280488213   -0.0010272883569835119
-0.002792874492280615   -0.029481025478438477   -0.0009290918006036648
-0.002114488029365014   -0.02949936208653364   -0.0008681783865214385
-0.002869901874010283   -0.029448708786570316   -0.0008978902130418206
-0.003128432669342653   -0.029342184280488213   -0.0010272883569835119
-0.002114488029365014   -0.02949936208653364   -0.0008681783865214385
-0.0017708892289929371   -0.029377641929669726   -0.00092049486208214
-0.001908526208261722   -0.029363330499872137   -0.0008319309587548557
-0.003128432669342653   -0.029342184280488213   -0.0010272883569835119
-0.002114488029365014   -0.02949936208653364   -0.0008681783865214385
-0.001908526208261722   -0.029363330499872137   -0.0008319309587548557
-0.002869901874010283   -0.029448708786570316   -0.0008978902130418206
-0.0030277309545334967   -0.029474951788347522   -0.0008366972741884836
-0.002294904672546262   -0.02954016726109894   -0.0007539522975611912
-0.0026124180688890694   -0.02961833664817553   -0.0009130140434262763
-0.0029529445156359323   -0.029446739907583307   -0.0008671345112195989
-0.002294904672546262   -0.02954016726109894   -0.0007539522975611912
-0.0024614737159110384   -0.029608790463341094   -0.0008429218956553574
-0.0026124180688890694   -0.02961833664817553   -0.0009130140434262763
-0.0024113583100438566   -0.02957426068962911   -0.0008438661810132595
-0.0029529445156359323   -0.029446739907583307   -0.0008671345112195989
-0.0025337212052970372   -0.02958927876820903   -0.0008922957439249575
-0.0024113583100438566   -0.02957426068962911   -0.0008438661810132595
-0.0026124180688890694   -0.02961833664817553   -0.0009130140434262763
-0.0029529445156359323   -0.029446739907583307   -0.0008671345112195989
-0.0024113583100438566   -0.02957426068962911   -0.0008438661810132595
-0.0022381828627412344   -0.02950154367132924   -0.0007951899582648911
-0.002294904672546262   -0.02954016726109894   -0.0007539522975611912
-0.0029529445156359323   -0.029446739907583307   -0.0008671345112195989
-0.0024113583100438566   -0.02957426068962911   -0.0008438661810132595
-0.002294904672546262   -0.02954016726109894   -0.0007539522975611912
-0.0026124180688890694   -0.02961833664817553   -0.0009130140434262763
-0.0029529445156359323   -0.029446739907583307   -0.0008671345112195989
-0.0022381828627412344   -0.02950154367132924   -0.0007951899582648911
-0.0025337212052970372   -0.02958927876820903   -0.0008922957439249575
-0.002869901874010283   -0.029448708786570316   -0.0008978902130418206
-0.0022381828627412344   -0.02950154367132924   -0.0007951899582648911
-0.0024113583100438566   -0.02957426068962911   -0.0008438661810132595
-0.0025337212052970372   -0.02958927876820903   -0.0008922957439249575
-0.0023556118913284382   -0.02956231900231133   -0.0008407938612494807
-0.002869901874010283   -0.029448708786570316   -0.0008978902130418206
-0.002457536255448795   -0.02958918554691783   -0.0008713344747836442
-0.0023556118913284382   -0.02956231900231133   -0.0008407938612494807
-0.0025337212052970372   -0.02958927876820903   -0.0008922957439249575
-0.002869901874010283   -0.029448708786570316   -0.0008978902130418206
-0.0023556118913284382   -0.02956231900231133   -0.0008407938612494807
-0.002171516765146875   -0.02948786724349353   -0.0008333285568361267
-0.0022381828627412344   -0.02950154367132924   -0.0007951899582648911
-0.002869901874010283   -0.029448708786570316   -0.0008978902130418206
-0.0023556118913284382   -0.02956231900231133   -0.0008407938612494807
-0.0022381828627412344   -0.02950154367132924   -0.0007951899582648911
-0.0025337212052970372   -0.02958927876820903   -0.0008922957439249575
-0.002869901874010283   -0.029448708786570316   -0.0008978902130418206
-0.002171516765146875   -0.02948786724349353   -0.0008333285568361267
-0.002457536255448795   -0.02958918554691783   -0.0008713344747836442
-0.002792874492280615   -0.029481025478438477   -0.0009290918006036648
-0.002171516765146875   -0.02948786724349353   -0.0008333285568361267
-0.0023556118913284382   -0.02956231900231133   -0.0008407938612494807
-0.002457536255448795   -0.02958918554691783   -0.0008713344747836442
-0.0022989737454987315   -0.029571982590922263   -0.000834567559978497
-0.002792874492280615   -0.029481025478438477   -0.0009290918006036648
-0.002378185608600895   -0.02961747892828436   -0.000851236931601371
-0.0022989737454987315   -0.029571982590922263   -0.000834567559978497
-0.002457536255448795   -0.02958918554691783   -0.0008713344747836442
-0.002792874492280615   -0.029481025478438477   -0.0009290918006036648
-0.0022989737454987315   -0.029571982590922263   -0.000834567559978497
-0.002114488029365014   -0.02949936208653364   -0.0008681783865214385
-0.002171516765146875   -0.02948786724349353   -0.0008333285568361267
-0.002792874492280615   -0.029481025478438477   -0.0009290918006036648
-0.0022989737454987315   -0.029571982590922263   -0.000834567559978497
-0.002171516765146875   -0.02948786724349353   -0.0008333285568361267
-0.002457536255448795   -0.02958918554691783   -0.0008713344747836442
-0.0026124180688890694   -0.02961833664817553   -0.0009130140434262763
-0.0024614737159110384   -0.029608790463341094   -0.0008429218956553574
-0.0022323362544517753   -0.029789143734377684   -0.0009973578692272793
-0.0025337212052970372   -0.02958927876820903   -0.0008922957439249575
-0.0024614737159110384   -0.029608790463341094   -0.0008429218956553574
-0.002640731803267948   -0.029636152137857908   -0.0009306426438847039
-0.0022323362544517753   -0.029789143734377684   -0.0009973578692272793
-0.002588812215579607   -0.029603105642083058   -0.000892829224287889
-0.0025337212052970372   -0.02958927876820903   -0.0008922957439249575
-0.0021359975226852216   -0.029763694691488225   -0.0009226595338519712
-0.002588812215579607   -0.029603105642083058   -0.000892829224287889
-0.0022323362544517753   -0.029789143734377684   -0.0009973578692272793
-0.0025337212052970372   -0.02958927876820903   -0.0008922957439249575
-0.002588812215579607   -0.029603105642083058   -0.000892829224287889
-0.0024113583100438566   -0.02957426068962911   -0.0008438661810132595
-0.0024614737159110384   -0.029608790463341094   -0.0008429218956553574
-0.0025337212052970372   -0.02958927876820903   -0.0008922957439249575
-0.002588812215579607   -0.029603105642083058   -0.000892829224287889
-0.0024614737159110384   -0.029608790463341094   -0.0008429218956553574
-0.0022323362544517753   -0.029789143734377684   -0.0009973578692272793
-0.0025337212052970372   -0.02958927876820903   -0.0008922957439249575
-0.0024113583100438566   -0.02957426068962911   -0.0008438661810132595
-0.0021359975226852216   -0.029763694691488225   -0.0009226595338519712
-0.002457536255448795   -0.02958918554691783   -0.0008713344747836442
-0.0024113583100438566   -0.02957426068962911   -0.0008438661810132595
-0.002588812215579607   -0.029603105642083058   -0.000892829224287889
-0.0021359975226852216   -0.029763694691488225   -0.0009226595338519712
-0.0025266387534324006   -0.0295930038131433   -0.0008501205121954992
-0.002457536255448795   -0.02958918554691783   -0.0008713344747836442
-0.002046580529290693   -0.029762582102576693   -0.0008481236022308625
-0.0025266387534324006   -0.0295930038131433   -0.0008501205121954992
-0.0021359975226852216   -0.029763694691488225   -0.0009226595338519712
-0.002457536255448795   -0.02958918554691783   -0.0008713344747836442
-0.0025266387534324006   -0.0295930038131433   -0.0008501205121954992
-0.0023556118913284382   -0.02956231900231133   -0.0008407938612494807
-0.0024113583100438566   -0.02957426068962911   -0.0008438661810132595
-0.002457536255448795   -0.02958918554691783   -0.0008713344747836442
-0.0025266387534324006   -0.0295930038131433   -0.0008501205121954992
-0.0024113583100438566   -0.02957426068962911   -0.0008438661810132595
-0.0021359975226852216   -0.029763694691488225   -0.0009226595338519712
-0.002457536255448795   -0.02958918554691783   -0.0008713344747836442
-0.0023556118913284382   -0.02956231900231133   -0.0008407938612494807
-0.002046580529290693   -0.029762582102576693   -0.0008481236022308625
-0.002378185608600895   -0.02961747892828436   -0.000851236931601371
-0.0023556118913284382   -0.02956231900231133   -0.0008407938612494807
-0.0025266387534324006   -0.0295930038131433   -0.0008501205121954992
-0.002046580529290693   -0.029762582102576693   -0.0008481236022308625
-0.0024627639705845916   -0.02960236364430829   -0.0008046921403274812
-0.002378185608600895   -0.02961747892828436   -0.000851236931601371
-0.0019507755907559252   -0.02978455701824217   -0.0007735744593935739
-0.0024627639705845916   -0.02960236364430829   -0.0008046921403274812
-0.002046580529290693   -0.029762582102576693   -0.0008481236022308625
-0.002378185608600895   -0.02961747892828436   -0.000851236931601371
-0.0024627639705845916   -0.02960236364430829   -0.0008046921403274812
-0.0022989737454987315   -0.029571982590922263   -0.000834567559978497
-0.0023556118913284382   -0.02956231900231133   -0.0008407938612494807
-0.002378185608600895   -0.02961747892828436   -0.000851236931601371
-0.0024627639705845916   -0.02960236364430829   -0.0008046921403274812
-0.0023556118913284382   -0.02956231900231133   -0.0008407938612494807
-0.002046580529290693   -0.029762582102576693   -0.0008481236022308625
-0.0022323362544517753   -0.029789143734377684   -0.0009973578692272793
-0.002640731803267948   -0.029636152137857908   -0.0009306426438847039
-0.0018582636036533627   -0.03   -0.0010633207408792082
-0.0021359975226852216   -0.029763694691488225   -0.0009226595338519712
-0.002640731803267948   -0.029636152137857908   -0.0009306426438847039
-0.0029008005787068657   -0.029602457496967417   -0.0010143886774764816
-0.0018582636036533627   -0.03   -0.0010633207408792082
-0.0028330298962819488   -0.029571034748240754   -0.0009395820235511746
-0.0021359975226852216   -0.029763694691488225   -0.0009226595338519712
-0.0017367639213305172   -0.03   -0.0009489471790366086
-0.0028330298962819488   -0.029571034748240754   -0.0009395820235511746
-0.0018582636036533627   -0.03   -0.0010633207408792082
-0.0021359975226852216   -0.029763694691488225   -0.0009226595338519712
-0.0028330298962819488   -0.029571034748240754   -0.0009395820235511746
-0.002588812215579607   -0.029603105642083058   -0.000892829224287889
-0.002640731803267948   -0.029636152137857908   -0.0009306426438847039
-0.0021359975226852216   -0.029763694691488225   -0.0009226595338519712
-0.0028330298962819488   -0.029571034748240754   -0.0009395820235511746
-0.002640731803267948   -0.029636152137857908   -0.0009306426438847039
-0.0018582636036533627   -0.03   -0.0010633207408792082
-0.0021359975226852216   -0.029763694691488225   -0.0009226595338519712
-0.002588812215579607   -0.029603105642083058   -0.000892829224287889
-0.0017367639213305172   -0.03   -0.0009489471790366086
-0.002046580529290693   -0.029762582102576693   -0.0008481236022308625
-0.002588812215579607   -0.029603105642083058   -0.000892829224287889
-0.0028330298962819488   -0.029571034748240754   -0.0009395820235511746
-0.0017367639213305172   -0.03   -0.0009489471790366086
-0.0027433633649843626   -0.029564195274072294   -0.0008592865427248954
-0.002046580529290693   -0.029762582102576693   -0.0008481236022308625
-0.0016144188701632486   -0.03   -0.0008332263441518213
-0.0027433633649843626   -0.029564195274072294   -0.0008592865427248954
-0.0017367639213305172   -0.03   -0.0009489471790366086
-0.002046580529290693   -0.029762582102576693   -0.0008481236022308625
-0.0027433633649843626   -0.029564195274072294   -0.0008592865427248954
-0.0025266387534324006   -0.0295930038131433   -0.0008501205121954992
-0.002588812215579607   -0.029603105642083058   -0.000892829224287889
-0.002046580529290693   -0.029762582102576693   -0.0008481236022308625
-0.0027433633649843626   -0.029564195274072294   -0.0008592865427248954
-0.002588812215579607   -0.029603105642083058   -0.000892829224287889
-0.0017367639213305172   -0.03   -0.0009489471790366086
-0.002046580529290693   -0.029762582102576693   -0.0008481236022308625
-0.0025266387534324006   -0.0295930038131433   -0.0008501205121954992
-0.0016144188701632486   -0.03   -0.0008332263441518213
-0.0019507755907559252   -0.02978455701824217   -0.0007735744593935739
-0.0025266387534324006   -0.0295930038131433   -0.0008501205121954992
-0.0027433633649843626   -0.029564195274072294   -0.0008592865427248954
-0.0016144188701632486   -0.03   -0.0008332263441518213
-0.0026593944462636188   -0.02957728377948542   -0.000775974269657123
-0.0019507755907559252   -0.02978455701824217   -0.0007735744593935739
-0.0014951596573020143   -0.03   -0.0007190584349299738
-0.0026593944462636188   -0.02957728377948542   -0.000775974269657123
-0.0016144188701632486   -0.03   -0.0008332263441518213
-0.0019507755907559252   -0.02978455701824217   -0.0007735744593935739
-0.0026593944462636188   -0.02957728377948542   -0.000775974269657123
-0.0024627639705845916   -0.02960236364430829   -0.0008046921403274812
-0.0025266387534324006   -0.0295930038131433   -0.0008501205121954992
-0.0019507755907559252   -0.02978455701824217   -0.0007735744593935739
-0.0026593944462636188   -0.02957728377948542   -0.000775974269657123
-0.0025266387534324006   -0.0295930038131433   -0.0008501205121954992
-0.0016144188701632486   -0.03   -0.0008332263441518213
-0.0018582636036533627   -0.03   -0.0010633207408792082
-0.0029008005787068657   -0.029602457496967417   -0.0010143886774764816
-0.0015839908634321255   -0.03   -0.0011431998637227575
-0.0017367639213305172   -0.03   -0.0009489471790366086
-0.0029008005787068657   -0.029602457496967417   -0.0010143886774764816
-0.003411807619390246   -0.029458085769613663   -0.0011039564122679848
-0.0015839908634321255   -0.03   -0.0011431998637227575
-0.0032290458761006892   -0.029431217580582338   -0.0009812795646357625
-0.0017367639213305172   -0.03   -0.0009489471790366086
-0.0013277938107394613   -0.03   -0.0009772517584314764
-0.0032290458761006892   -0.029431217580582338   -0.0009812795646357625
-0.0015839908634321255   -0.03   -0.0011431998637227575
-0.0017367639213305172   -0.03   -0.0009489471790366086
-0.0032290458761006892   -0.029431217580582338   -0.0009812795646357625
-0.0028330298962819488   -0.029571034748240754   -0.0009395820235511746
-0.0029008005787068657   -0.029602457496967417   -0.0010143886774764816
-0.0017367639213305172   -0.03   -0.0009489471790366086
-0.0032290458761006892   -0.029431217580582338   -0.0009812795646357625
-0.0029008005787068657   -0.029602457496967417   -0.0010143886774764816
-0.0015839908634321255   -0.03   -0.0011431998637227575
-0.0017367639213305172   -0.03   -0.0009489471790366086
-0.0028330298962819488   -0.029571034748240754   -0.0009395820235511746
-0.0013277938107394613   -0.03   -0.0009772517584314764
-0.0016144188701632486   -0.03   -0.0008332263441518213
-0.0028330298962819488   -0.029571034748240754   -0.0009395820235511746
-0.0032290458761006892   -0.029431217580582338   -0.0009812795646357625
-0.0013277938107394613   -0.03   -0.0009772517584314764
-0.003061657295398503   -0.029427787190786547   -0.0008505795380191398
-0.0016144188701632486   -0.03   -0.0008332263441518213
-0.0011235023061787902   -0.03   -0.0008185290345404651
-0.003061657295398503   -0.029427787190786547   -0.0008505795380191398
-0.0013277938107394613   -0.03   -0.0009772517584314764
-0.0016144188701632486   -0.03   -0.0008332263441518213
-0.003061657295398503   -0.029427787190786547   -0.0008505795380191398
-0.0027433633649843626   -0.029564195274072294   -0.0008592865427248954
-0.0028330298962819488   -0.029571034748240754   -0.0009395820235511746
-0.0016144188701632486   -0.03   -0.0008332263441518213
-0.003061657295398503   -0.029427787190786547   -0.0008505795380191398
-0.0028330298962819488   -0.029571034748240754   -0.0009395820235511746
-0.0013277938107394613   -0.03   -0.0009772517584314764
-0.0016144188701632486   -0.03   -0.0008332263441518213
-0.0027433633649843626   -0.029564195274072294   -0.0008592865427248954
-0.0011235023061787902   -0.03   -0.0008185290345404651
-0.0014951596573020143   -0.03   -0.0007190584349299738
-0.0027433633649843626   -0.029564195274072294   -0.0008592865427248954
-0.003061657295398503   -0.029427787190786547   -0.0008505795380191398
-0.0011235023061787902   -0.03   -0.0008185290345404651
-0.002850164480028647   -0.029462944773180864   -0.0007140965661788227
-0.0014951596573020143   -0.03   -0.0007190584349299738
-0.0008712276998312766   -0.03   -0.0006537332768072276
-0.002850164480028647   -0.029462944773180864   -0.0007140965661788227
-0.0011235023061787902   -0.03   -0.0008185290345404651
-0.0014951596573020143   -0.03   -0.0007190584349299738
-0.002850164480028647   -0.029462944773180864   -0.0007140965661788227
-0.0026593944462636188   -0.02957728377948542   -0.000775974269657123
-0.0027433633649843626   -0.029564195274072294   -0.0008592865427248954
-0.0014951596573020143   -0.03   -0.0007190584349299738
-0.002850164480028647   -0.029462944773180864   -0.0007140965661788227
-0.0027433633649843626   -0.029564195274072294   -0.0008592865427248954
-0.0011235023061787902   -0.03   -0.0008185290345404651
-0.002175786567837567   -0.02942761857162876   -0.0006424970604955382
-0.000924240697840679   -0.028345923346401278   -0.0005540892068682617
-0.002294904672546262   -0.02954016726109894   -0.0007539522975611912
-0.0020299075393681375   -0.029377958373153466   -0.0007391342836938409
-0.000924240697840679   -0.028345923346401278   -0.0005540892068682617
-0.0016632036127284262   -0.028431501038781847   -0.0006726511222108271
-0.002294904672546262   -0.02954016726109894   -0.0007539522975611912
-0.0016227941783757984   -0.028384719650980147   -0.0007095756741480598
-0.0020299075393681375   -0.029377958373153466   -0.0007391342836938409
-0.0022381828627412344   -0.02950154367132924   -0.0007951899582648911
-0.0016227941783757984   -0.028384719650980147   -0.0007095756741480598
-0.002294904672546262   -0.02954016726109894   -0.0007539522975611912
-0.0020299075393681375   -0.029377958373153466   -0.0007391342836938409
-0.0016227941783757984   -0.028384719650980147   -0.0007095756741480598
-0.0008073283857331089   -0.028287912762133032   -0.000638042747949171
-0.000924240697840679   -0.028345923346401278   -0.0005540892068682617
-0.0020299075393681375   -0.029377958373153466   -0.0007391342836938409
-0.0016227941783757984   -0.028384719650980147   -0.0007095756741480598
-0.000924240697840679   -0.028345923346401278   -0.0005540892068682617
-0.002294904672546262   -0.02954016726109894   -0.0007539522975611912
-0.0020299075393681375   -0.029377958373153466   -0.0007391342836938409
-0.0008073283857331089   -0.028287912762133032   -0.000638042747949171
-0.0022381828627412344   -0.02950154367132924   -0.0007951899582648911
-0.001908526208261722   -0.029363330499872137   -0.0008319309587548557
-0.0008073283857331089   -0.028287912762133032   -0.000638042747949171
-0.0016227941783757984   -0.028384719650980147   -0.0007095756741480598
-0.0022381828627412344   -0.02950154367132924   -0.0007951899582648911
-0.0015771405771349617   -0.02835939485811369   -0.0007432577193519427
-0.001908526208261722   -0.029363330499872137   -0.0008319309587548557
-0.002171516765146875   -0.02948786724349353   -0.0008333285568361267
-0.0015771405771349617   -0.02835939485811369   -0.0007432577193519427
-0.0022381828627412344   -0.02950154367132924   -0.0007951899582648911
-0.001908526208261722   -0.029363330499872137   -0.0008319309587548557
-0.0015771405771349617   -0.02835939485811369   -0.0007432577193519427
-0.0007153163316569322   -0.028260963461269863   -0.000717195226749503
-0.0008073283857331089   -0.028287912762133032   -0.000638042747949171
-0.001908526208261722   -0.029363330499872137   -0.0008319309587548557
-0.0015771405771349617   -0.02835939485811369   -0.0007432577193519427
-0.0008073283857331089   -0.028287912762133032   -0.000638042747949171
-0.0022381828627412344   -0.02950154367132924   -0.0007951899582648911
-0.001908526208261722   -0.029363330499872137   -0.0008319309587548557
-0.0007153163316569322   -0.028260963461269863   -0.000717195226749503
-0.002171516765146875   -0.02948786724349353   -0.0008333285568361267
-0.0017708892289929371   -0.029377641929669726   -0.00092049486208214
-0.0007153163316569322   -0.028260963461269863   -0.000717195226749503
-0.0015771405771349617   -0.02835939485811369   -0.0007432577193519427
-0.002171516765146875   -0.02948786724349353   -0.0008333285568361267
-0.0015421848123942682   -0.02835481163595371   -0.0007738062841196418
-0.0017708892289929371   -0.029377641929669726   -0.00092049486208214
-0.002114488029365014   -0.02949936208653364   -0.0008681783865214385
-0.0015421848123942682   -0.02835481163595371   -0.0007738062841196418
-0.002171516765146875   -0.02948786724349353   -0.0008333285568361267
-0.0017708892289929371   -0.029377641929669726   -0.00092049486208214
-0.0015421848123942682   -0.02835481163595371   -0.0007738062841196418
-0.000614465944156304   -0.028257201015071988   -0.000791350586310471
-0.0007153163316569322   -0.028260963461269863   -0.000717195226749503
-0.0017708892289929371   -0.029377641929669726   -0.00092049486208214
-0.0015421848123942682   -0.02835481163595371   -0.0007738062841196418
-0.0007153163316569322   -0.028260963461269863   -0.000717195226749503
-0.002171516765146875   -0.02948786724349353   -0.0008333285568361267
-0.002294904672546262   -0.02954016726109894   -0.0007539522975611912
-0.0016632036127284262   -0.028431501038781847   -0.0006726511222108271
-0.0024614737159110384   -0.029608790463341094   -0.0008429218956553574
-0.0022381828627412344   -0.02950154367132924   -0.0007951899582648911
-0.0016632036127284262   -0.028431501038781847   -0.0006726511222108271
-0.002395313762077156   -0.028461454688812764   -0.0007690991374428482
-0.0024614737159110384   -0.029608790463341094   -0.0008429218956553574
-0.002361439186458943   -0.028420664002695745   -0.0007709881712553148
-0.0022381828627412344   -0.02950154367132924   -0.0007951899582648911
-0.0024113583100438566   -0.02957426068962911   -0.0008438661810132595
-0.002361439186458943   -0.028420664002695745   -0.0007709881712553148
-0.0024614737159110384   -0.029608790463341094   -0.0008429218956553574
-0.0022381828627412344   -0.02950154367132924   -0.0007951899582648911
-0.002361439186458943   -0.028420664002695745   -0.0007709881712553148
-0.0016227941783757984   -0.028384719650980147   -0.0007095756741480598
-0.0016632036127284262   -0.028431501038781847   -0.0006726511222108271
-0.0022381828627412344   -0.02950154367132924   -0.0007951899582648911
-0.002361439186458943   -0.028420664002695745   -0.0007709881712553148
-0.0016632036127284262   -0.028431501038781847   -0.0006726511222108271
-0.0024614737159110384   -0.029608790463341094   -0.0008429218956553574
-0.0022381828627412344   -0.02950154367132924   -0.0007951899582648911
-0.0016227941783757984   -0.028384719650980147   -0.0007095756741480598
-0.0024113583100438566   -0.02957426068962911   -0.0008438661810132595
-0.002171516765146875   -0.02948786724349353   -0.0008333285568361267
-0.0016227941783757984   -0.028384719650980147   -0.0007095756741480598
-0.002361439186458943   -0.028420664002695745   -0.0007709881712553148
-0.0024113583100438566   -0.02957426068962911   -0.0008438661810132595
-0.0023263855837796156   -0.028399207589847594   -0.000769871915191551
-0.002171516765146875   -0.02948786724349353   -0.0008333285568361267
-0.0023556118913284382   -0.02956231900231133   -0.0008407938612494807
-0.0023263855837796156   -0.028399207589847594   -0.000769871915191551
-0.0024113583100438566   -0.02957426068962911   -0.0008438661810132595
-0.002171516765146875   -0.02948786724349353   -0.0008333285568361267
-0.0023263855837796156   -0.028399207589847594   -0.000769871915191551
-0.0015771405771349617   -0.02835939485811369   -0.0007432577193519427
-0.0016227941783757984   -0.028384719650980147   -0.0007095756741480598
-0.002171516765146875   -0.02948786724349353   -0.0008333285568361267
-0.0023263855837796156   -0.028399207589847594   -0.000769871915191551
-0.0016227941783757984   -0.028384719650980147   -0.0007095756741480598
-0.0024113583100438566   -0.02957426068962911   -0.0008438661810132595
-0.002171516765146875   -0.02948786724349353   -0.0008333285568361267
-0.0015771405771349617   -0.02835939485811369   -0.0007432577193519427
-0.0023556118913284382   -0.02956231900231133   -0.0008407938612494807
-0.002114488029365014   -0.02949936208653364   -0.0008681783865214385
-0.0015771405771349617   -0.02835939485811369   -0.0007432577193519427
-0.0023263855837796156   -0.028399207589847594   -0.000769871915191551
-0.0023556118913284382   -0.02956231900231133   -0.0008407938612494807
-0.0022926020781932873   -0.028396194270202634   -0.00076573294971254
-0.002114488029365014   -0.02949936208653364   -0.0008681783865214385
-0.0022989737454987315   -0.029571982590922263   -0.000834567559978497
-0.0022926020781932873   -0.028396194270202634   -0.00076573294971254
-0.0023556118913284382   -0.02956231900231133   -0.0008407938612494807
-0.002114488029365014   -0.02949936208653364   -0.0008681783865214385
-0.0022926020781932873   -0.028396194270202634   -0.00076573294971254
-0.0015421848123942682   -0.02835481163595371   -0.0007738062841196418
-0.0015771405771349617   -0.02835939485811369   -0.0007432577193519427
-0.002114488029365014   -0.02949936208653364   -0.0008681783865214385
-0.0022926020781932873   -0.028396194270202634   -0.00076573294971254
-0.0015771405771349617   -0.02835939485811369   -0.0007432577193519427
-0.0023556118913284382   -0.02956231900231133   -0.0008407938612494807
-0.0024614737159110384   -0.029608790463341094   -0.0008429218956553574
-0.002395313762077156   -0.028461454688812764   -0.0007690991374428482
-0.002640731803267948   -0.029636152137857908   -0.0009306426438847039
-0.0024113583100438566   -0.02957426068962911   -0.0008438661810132595
-0.002395313762077156   -0.028461454688812764   -0.0007690991374428482
-0.003122756399159438   -0.028434308200200632   -0.0008594298042420188
-0.002640731803267948   -0.029636152137857908   -0.0009306426438847039
-0.003089150469727349   -0.028398023160668872   -0.0008277009459608812
-0.0024113583100438566   -0.02957426068962911   -0.0008438661810132595
-0.002588812215579607   -0.029603105642083058   -0.000892829224287889
-0.003089150469727349   -0.028398023160668872   -0.0008277009459608812
-0.002640731803267948   -0.029636152137857908   -0.0009306426438847039
-0.0024113583100438566   -0.02957426068962911   -0.0008438661810132595
-0.003089150469727349   -0.028398023160668872   -0.0008277009459608812
-0.002361439186458943   -0.028420664002695745   -0.0007709881712553148
-0.002395313762077156   -0.028461454688812764   -0.0007690991374428482
-0.0024113583100438566   -0.02957426068962911   -0.0008438661810132595
-0.003089150469727349   -0.028398023160668872   -0.0008277009459608812
-0.002395313762077156   -0.028461454688812764   -0.0007690991374428482
-0.002640731803267948   -0.029636152137857908   -0.0009306426438847039
-0.0024113583100438566   -0.02957426068962911   -0.0008438661810132595
-0.002361439186458943   -0.028420664002695745   -0.0007709881712553148
-0.002588812215579607   -0.029603105642083058   -0.000892829224287889
-0.0023556118913284382   -0.02956231900231133   -0.0008407938612494807
-0.002361439186458943   -0.028420664002695745   -0.0007709881712553148
-0.003089150469727349   -0.028398023160668872   -0.0008277009459608812
-0.002588812215579607   -0.029603105642083058   -0.000892829224287889
-0.003051440639812953   -0.028380760340949728   -0.0007930161784880112
-0.0023556118913284382   -0.02956231900231133   -0.0008407938612494807
-0.0025266387534324006   -0.0295930038131433   -0.0008501205121954992
-0.003051440639812953   -0.028380760340949728   -0.0007930161784880112
-0.002588812215579607   -0.029603105642083058   -0.000892829224287889
-0.0023556118913284382   -0.02956231900231133   -0.0008407938612494807
-0.003051440639812953   -0.028380760340949728   -0.0007930161784880112
-0.0023263855837796156   -0.028399207589847594   -0.000769871915191551
-0.002361439186458943   -0.028420664002695745   -0.0007709881712553148
-0.0023556118913284382   -0.02956231900231133   -0.0008407938612494807
-0.003051440639812953   -0.028380760340949728   -0.0007930161784880112
-0.002361439186458943   -0.028420664002695745   -0.0007709881712553148
-0.002588812215579607   -0.029603105642083058   -0.000892829224287889
-0.0023556118913284382   -0.02956231900231133   -0.0008407938612494807
-0.0023263855837796156   -0.028399207589847594   -0.000769871915191551
-0.0025266387534324006   -0.0295930038131433   -0.0008501205121954992
-0.0022989737454987315   -0.029571982590922263   -0.000834567559978497
-0.0023263855837796156   -0.028399207589847594   -0.000769871915191551
-0.003051440639812953   -0.028380760340949728   -0.0007930161784880112
-0.0025266387534324006   -0.0295930038131433   -0.0008501205121954992
-0.003013627845985765   -0.028380747889561183   -0.000755016255534484
-0.0022989737454987315   -0.029571982590922263   -0.000834567559978497
-0.0024627639705845916   -0.02960236364430829   -0.0008046921403274812
-0.003013627845985765   -0.028380747889561183   -0.000755016255534484
-0.0025266387534324006   -0.0295930038131433   -0.0008501205121954992
-0.0022989737454987315   -0.029571982590922263   -0.000834567559978497
-0.003013627845985765   -0.028380747889561183   -0.000755016255534484
-0.0022926020781932873   -0.028396194270202634   -0.00076573294971254
-0.0023263855837796156   -0.028399207589847594   -0.000769871915191551
-0.0022989737454987315   -0.029571982590922263   -0.000834567559978497
-0.003013627845985765   -0.028380747889561183   -0.000755016255534484
-0.0023263855837796156   -0.028399207589847594   -0.000769871915191551
-0.0025266387534324006   -0.0295930038131433   -0.0008501205121954992
-0.002640731803267948   -0.029636152137857908   -0.0009306426438847039
-0.003122756399159438   -0.028434308200200632   -0.0008594298042420188
-0.0029008005787068657   -0.029602457496967417   -0.0010143886774764816
-0.002588812215579607   -0.029603105642083058   -0.000892829224287889
-0.003122756399159438   -0.028434308200200632   -0.0008594298042420188
-0.003920888486853963   -0.028346559105420648   -0.0009426096048293936
-0.0029008005787068657   -0.029602457496967417   -0.0010143886774764816
-0.003879601939489792   -0.028314746812766186   -0.0008779549692856672
-0.002588812215579607   -0.029603105642083058   -0.000892829224287889
-0.0028330298962819488   -0.029571034748240754   -0.0009395820235511746
-0.003879601939489792   -0.028314746812766186   -0.0008779549692856672
-0.0029008005787068657   -0.029602457496967417   -0.0010143886774764816
-0.002588812215579607   -0.029603105642083058   -0.000892829224287889
-0.003879601939489792   -0.028314746812766186   -0.0008779549692856672
-0.003089150469727349   -0.028398023160668872   -0.0008277009459608812
-0.003122756399159438   -0.028434308200200632   -0.0008594298042420188
-0.002588812215579607   -0.029603105642083058   -0.000892829224287889
-0.003879601939489792   -0.028314746812766186   -0.0008779549692856672
-0.003122756399159438   -0.028434308200200632   -0.0008594298042420188
-0.0029008005787068657   -0.029602457496967417   -0.0010143886774764816
-0.002588812215579607   -0.029603105642083058   -0.000892829224287889
-0.003089150469727349   -0.028398023160668872   -0.0008277009459608812
-0.0028330298962819488   -0.029571034748240754   -0.0009395820235511746
-0.0025266387534324006   -0.0295930038131433   -0.0008501205121954992
-0.003089150469727349   -0.028398023160668872   -0.0008277009459608812
-0.003879601939489792   -0.028314746812766186   -0.0008779549692856672
-0.0028330298962819488   -0.029571034748240754   -0.0009395820235511746
-0.0038224565489979067   -0.028301661246410512   -0.0008105763355460612
-0.0025266387534324006   -0.0295930038131433   -0.0008501205121954992
-0.0027433633649843626   -0.029564195274072294   -0.0008592865427248954
-0.0038224565489979067   -0.028301661246410512   -0.0008105763355460612
-0.0028330298962819488   -0.029571034748240754   -0.0009395820235511746
-0.0025266387534324006   -0.0295930038131433   -0.0008501205121954992
-0.0038224565489979067   -0.028301661246410512   -0.0008105763355460612
-0.003051440639812953   -0.028380760340949728   -0.0007930161784880112
-0.003089150469727349   -0.028398023160668872   -0.0008277009459608812
-0.0025266387534324006   -0.0295930038131433   -0.0008501205121954992
-0.0038224565489979067   -0.028301661246410512   -0.0008105763355460612
-0.003089150469727349   -0.028398023160668872   -0.0008277009459608812
-0.0028330298962819488   -0.029571034748240754   -0.0009395820235511746
-0.0025266387534324006   -0.0295930038131433   -0.0008501205121954992
-0.003051440639812953   -0.028380760340949728   -0.0007930161784880112
-0.0027433633649843626   -0.029564195274072294   -0.0008592865427248954
-0.0024627639705845916   -0.02960236364430829   -0.0008046921403274812
-0.003051440639812953   -0.028380760340949728   -0.0007930161784880112
-0.0038224565489979067   -0.028301661246410512   -0.0008105763355460612
-0.0027433633649843626   -0.029564195274072294   -0.0008592865427248954
-0.003772824946263318   -0.02830731068200826   -0.0007386358514346078
-0.0024627639705845916   -0.02960236364430829   -0.0008046921403274812
-0.0026593944462636188   -0.02957728377948542   -0.000775974269657123
-0.003772824946263318   -0.02830731068200826   -0.0007386358514346078
-0.0027433633649843626   -0.029564195274072294   -0.0008592865427248954
-0.0024627639705845916   -0.02960236364430829   -0.0008046921403274812
-0.003772824946263318   -0.02830731068200826   -0.0007386358514346078
-0.003013627845985765   -0.028380747889561183   -0.000755016255534484
-0.003051440639812953   -0.028380760340949728   -0.0007930161784880112
-0.0024627639705845916   -0.02960236364430829   -0.0008046921403274812
-0.003772824946263318   -0.02830731068200826   -0.0007386358514346078
-0.003051440639812953   -0.028380760340949728   -0.0007930161784880112
-0.0027433633649843626   -0.029564195274072294   -0.0008592865427248954
-0.0029008005787068657   -0.029602457496967417   -0.0010143886774764816
-0.003920888486853963   -0.028346559105420648   -0.0009426096048293936
-0.003411807619390246   -0.029458085769613663   -0.0011039564122679848
-0.0028330298962819488   -0.029571034748240754   -0.0009395820235511746
-0.003920888486853963   -0.028346559105420648   -0.0009426096048293936
-0.004948467425923113   -0.02820384873100259   -0.0010230745527257455
-0.003411807619390246   -0.029458085769613663   -0.0011039564122679848
-0.004813356067227499   -0.02816909344201347   -0.0009209288845440526
-0.0028330298962819488   -0.029571034748240754   -0.0009395820235511746
-0.0032290458761006892   -0.029431217580582338   -0.0009812795646357625
-0.004813356067227499   -0.02816909344201347   -0.0009209288845440526
-0.003411807619390246   -0.029458085769613663   -0.0011039564122679848
-0.0028330298962819488   -0.029571034748240754   -0.0009395820235511746
-0.004813356067227499   -0.02816909344201347   -0.0009209288845440526
-0.003879601939489792   -0.028314746812766186   -0.0008779549692856672
-0.003920888486853963   -0.028346559105420648   -0.0009426096048293936
-0.0028330298962819488   -0.029571034748240754   -0.0009395820235511746
-0.004813356067227499   -0.02816909344201347   -0.0009209288845440526
-0.003920888486853963   -0.028346559105420648   -0.0009426096048293936
-0.003411807619390246   -0.029458085769613663   -0.0011039564122679848
-0.0028330298962819488   -0.029571034748240754   -0.0009395820235511746
-0.003879601939489792   -0.028314746812766186   -0.0008779549692856672
-0.0032290458761006892   -0.029431217580582338   -0.0009812795646357625
-0.0027433633649843626   -0.029564195274072294   -0.0008592865427248954
-0.003879601939489792   -0.028314746812766186   -0.0008779549692856672
-0.004813356067227499   -0.02816909344201347   -0.0009209288845440526
-0.0032290458761006892   -0.029431217580582338   -0.0009812795646357625
-0.004692688160971844   -0.02815698980359227   -0.0008130377432605399
-0.0027433633649843626   -0.029564195274072294   -0.0008592865427248954
-0.003061657295398503   -0.029427787190786547   -0.0008505795380191398
-0.004692688160971844   -0.02815698980359227   -0.0008130377432605399
-0.0032290458761006892   -0.029431217580582338   -0.0009812795646357625
-0.0027433633649843626   -0.029564195274072294   -0.0008592865427248954
-0.004692688160971844   -0.02815698980359227   -0.0008130377432605399
-0.0038224565489979067   -0.028301661246410512   -0.0008105763355460612
-0.003879601939489792   -0.028314746812766186   -0.0008779549692856672
-0.0027433633649843626   -0.029564195274072294   -0.0008592865427248954
-0.004692688160971844   -0.02815698980359227   -0.0008130377432605399
-0.003879601939489792   -0.028314746812766186   -0.0008779549692856672
-0.0032290458761006892   -0.029431217580582338   -0.0009812795646357625
-0.0027433633649843626   -0.029564195274072294   -0.0008592865427248954
-0.0038224565489979067   -0.028301661246410512   -0.0008105763355460612
-0.003061657295398503   -0.029427787190786547   -0.0008505795380191398
-0.0026593944462636188   -0.02957728377948542   -0.000775974269657123
-0.0038224565489979067   -0.028301661246410512   -0.0008105763355460612
-0.004692688160971844   -0.02815698980359227   -0.0008130377432605399
-0.003061657295398503   -0.029427787190786547   -0.0008505795380191398
-0.004536353039561691   -0.02817392559348044   -0.0007004089844745078
-0.0026593944462636188   -0.02957728377948542   -0.000775974269657123
-0.002850164480028647   -0.029462944773180864   -0.0007140965661788227
-0.004536353039561691   -0.02817392559348044   -0.0007004089844745078
-0.003061657295398503   -0.029427787190786547   -0.0008505795380191398
-0.0026593944462636188   -0.02957728377948542   -0.000775974269657123
-0.004536353039561691   -0.02817392559348044   -0.0007004089844745078
-0.003772824946263318   -0.02830731068200826   -0.0007386358514346078
-0.0038224565489979067   -0.028301661246410512   -0.0008105763355460612
-0.0026593944462636188   -0.02957728377948542   -0.000775974269657123
-0.004536353039561691   -0.02817392559348044   -0.0007004089844745078
-0.0038224565489979067   -0.028301661246410512   -0.0008105763355460612
-0.003061657295398503   -0.029427787190786547   -0.0008505795380191398
-0.000924240697840679   -0.028345923346401278   -0.0005540892068682617
9.753768216533709e-05   -0.026331400549588917   -0.0004574286166332803
-0.0016632036127284262   -0.028431501038781847   -0.0006726511222108271
-0.0008073283857331089   -0.028287912762133032   -0.000638042747949171
9.753768216533709e-05   -0.026331400549588917   -0.0004574286166332803
-0.001158369649519956   -0.026394680493891074   -0.0005739886613538928
-0.0016632036127284262   -0.028431501038781847   -0.0006726511222108271
-0.0011367701332992942   -0.026345616478693892   -0.0006034739731089955
-0.0008073283857331089   -0.028287912762133032   -0.000638042747949171
-0.0016227941783757984   -0.028384719650980147   -0.0007095756741480598
-0.0011367701332992942   -0.026345616478693892   -0.0006034739731089955
-0.0016632036127284262   -0.028431501038781847   -0.0006726511222108271
-0.0008073283857331089   -0.028287912762133032   -0.000638042747949171
-0.0011367701332992942   -0.026345616478693892   -0.0006034739731089955
0.00017990621524570304   -0.026272360671971168   -0.0005247538853222372
9.753768216533709e-05   -0.026331400549588917   -0.0004574286166332803
-0.0008073283857331089   -0.028287912762133032   -0.000638042747949171
-0.0011367701332992942   -0.026345616478693892   -0.0006034739731089955
9.753768216533709e-05   -0.026331400549588917   -0.0004574286166332803
-0.0016632036127284262   -0.028431501038781847   -0.0006726511222108271
-0.0008073283857331089   -0.028287912762133032   -0.000638042747949171
0.00017990621524570304   -0.026272360671971168   -0.0005247538853222372
-0.0016227941783757984   -0.028384719650980147   -0.0007095756741480598
-0.0007153163316569322   -0.028260963461269863   -0.000717195226749503
0.00017990621524570304   -0.026272360671971168   -0.0005247538853222372
-0.0011367701332992942   -0.026345616478693892   -0.0006034739731089955
-0.0016227941783757984   -0.028384719650980147   -0.0007095756741480598
-0.0011120481304502015   -0.026314168612529488   -0.0006296156073121816
-0.0007153163316569322   -0.028260963461269863   -0.000717195226749503
-0.0015771405771349617   -0.02835939485811369   -0.0007432577193519427
-0.0011120481304502015   -0.026314168612529488   -0.0006296156073121816
-0.0016227941783757984   -0.028384719650980147   -0.0007095756741480598
-0.0007153163316569322   -0.028260963461269863   -0.000717195226749503
-0.0011120481304502015   -0.026314168612529488   -0.0006296156073121816
0.00024057477424791612   -0.026238938955226464   -0.0005873984157195194
0.00017990621524570304   -0.026272360671971168   -0.0005247538853222372
-0.0007153163316569322   -0.028260963461269863   -0.000717195226749503
-0.0011120481304502015   -0.026314168612529488   -0.0006296156073121816
0.00017990621524570304   -0.026272360671971168   -0.0005247538853222372
-0.0016227941783757984   -0.028384719650980147   -0.0007095756741480598
-0.0007153163316569322   -0.028260963461269863   -0.000717195226749503
0.00024057477424791612   -0.026238938955226464   -0.0005873984157195194
-0.0015771405771349617   -0.02835939485811369   -0.0007432577193519427
-0.000614465944156304   -0.028257201015071988   -0.000791350586310471
0.00024057477424791612   -0.026238938955226464   -0.0005873984157195194
-0.0011120481304502015   -0.026314168612529488   -0.0006296156073121816
-0.0015771405771349617   -0.02835939485811369   -0.0007432577193519427
-0.001097252571621559   -0.026299385486346576   -0.0006527445619444879
-0.000614465944156304   -0.028257201015071988   -0.000791350586310471
-0.0015421848123942682   -0.02835481163595371   -0.0007738062841196418
-0.001097252571621559   -0.026299385486346576   -0.0006527445619444879
-0.0015771405771349617   -0.02835939485811369   -0.0007432577193519427
-0.000614465944156304   -0.028257201015071988   -0.000791350586310471
-0.001097252571621559   -0.026299385486346576   -0.0006527445619444879
0.00030586663373263247   -0.026223512149713503   -0.0006453449947979703
0.00024057477424791612   -0.026238938955226464   -0.0005873984157195194
-0.000614465944156304   -0.028257201015071988   -0.000791350586310471
-0.001097252571621559   -0.026299385486346576   -0.0006527445619444879
0.00024057477424791612   -0.026238938955226464   -0.0005873984157195194
-0.0015771405771349617   -0.02835939485811369   -0.0007432577193519427
-0.0016632036127284262   -0.028431501038781847   -0.0006726511222108271
-0.001158369649519956   -0.026394680493891074   -0.0005739886613538928
-0.002395313762077156   -0.028461454688812764   -0.0007690991374428482
-0.0016227941783757984   -0.028384719650980147   -0.0007095756741480598
-0.001158369649519956   -0.026394680493891074   -0.0005739886613538928
-0.0023757620429061092   -0.026406844854537388   -0.0006696569300448164
-0.002395313762077156   -0.028461454688812764   -0.0007690991374428482
-0.002359976335755602   -0.026364815913126033   -0.0006703093531037844
-0.0016227941783757984   -0.028384719650980147   -0.0007095756741480598
-0.002361439186458943   -0.028420664002695745   -0.0007709881712553148
-0.002359976335755602   -0.026364815913126033   -0.0006703093531037844
-0.002395313762077156   -0.028461454688812764   -0.0007690991374428482
-0.0016227941783757984   -0.028384719650980147   -0.0007095756741480598
-0.002359976335755602   -0.026364815913126033   -0.0006703093531037844
-0.0011367701332992942   -0.026345616478693892   -0.0006034739731089955
-0.001158369649519956   -0.026394680493891074   -0.0005739886613538928
-0.0016227941783757984   -0.028384719650980147   -0.0007095756741480598
-0.002359976335755602   -0.026364815913126033   -0.0006703093531037844
-0.001158369649519956   -0.026394680493891074   -0.0005739886613538928
-0.002395313762077156   -0.028461454688812764   -0.0007690991374428482
-0.0016227941783757984   -0.028384719650980147   -0.0007095756741480598
-0.0011367701332992942   -0.026345616478693892   -0.0006034739731089955
-0.002361439186458943   -0.028420664002695745   -0.0007709881712553148
-0.0015771405771349617   -0.02835939485811369   -0.0007432577193519427
-0.0011367701332992942   -0.026345616478693892   -0.0006034739731089955
-0.002359976335755602   -0.026364815913126033   -0.0006703093531037844
-0.002361439186458943   -0.028420664002695745   -0.0007709881712553148
-0.0023437273243481632   -0.026338545148534825   -0.0006677531016920136
-0.0015771405771349617   -0.02835939485811369   -0.0007432577193519427
-0.0023263855837796156   -0.028399207589847594   -0.000769871915191551
-0.0023437273243481632   -0.026338545148534825   -0.0006677531016920136
-0.002361439186458943   -0.028420664002695745   -0.0007709881712553148
-0.0015771405771349617   -0.02835939485811369   -0.0007432577193519427
-0.0023437273243481632   -0.026338545148534825   -0.0006677531016920136
-0.0011120481304502015   -0.026314168612529488   -0.0006296156073121816
-0.0011367701332992942   -0.026345616478693892   -0.0006034739731089955
-0.0015771405771349617   -0.02835939485811369   -0.0007432577193519427
-0.0023437273243481632   -0.026338545148534825   -0.0006677531016920136
-0.0011367701332992942   -0.026345616478693892   -0.0006034739731089955
-0.002361439186458943   -0.028420664002695745   -0.0007709881712553148
-0.0015771405771349617   -0.02835939485811369   -0.0007432577193519427
-0.0011120481304502015   -0.026314168612529488   -0.0006296156073121816
-0.0023263855837796156   -0.028399207589847594   -0.000769871915191551
-0.0015421848123942682   -0.02835481163595371   -0.0007738062841196418
-0.0011120481304502015   -0.026314168612529488   -0.0006296156073121816
-0.0023437273243481632   -0.026338545148534825   -0.0006677531016920136
-0.0023263855837796156   -0.028399207589847594   -0.000769871915191551
-0.002329521613878048   -0.026327787195567446   -0.0006622097591513563
-0.0015421848123942682   -0.02835481163595371   -0.0007738062841196418
-0.0022926020781932873   -0.028396194270202634   -0.00076573294971254
-0.002329521613878048   -0.026327787195567446   -0.0006622097591513563
-0.0023263855837796156   -0.028399207589847594   -0.000769871915191551
-0.0015421848123942682   -0.02835481163595371   -0.0007738062841196418
-0.002329521613878048   -0.026327787195567446   -0.0006622097591513563
-0.001097252571621559   -0.026299385486346576   -0.0006527445619444879
-0.0011120481304502015   -0.026314168612529488   -0.0006296156073121816
-0.0015421848123942682   -0.02835481163595371   -0.0007738062841196418
-0.002329521613878048   -0.026327787195567446   -0.0006622097591513563
-0.0011120481304502015   -0.026314168612529488   -0.0006296156073121816
-0.0023263855837796156   -0.028399207589847594   -0.000769871915191551
-0.002395313762077156   -0.028461454688812764   -0.0007690991374428482
-0.0023757620429061092   -0.026406844854537388   -0.0006696569300448164
-0.003122756399159438   -0.028434308200200632   -0.0008594298042420188
-0.002361439186458943   -0.028420664002695745   -0.0007709881712553148
-0.0023757620429061092   -0.026406844854537388   -0.0006696569300448164
-0.003574533894718326   -0.026367834936223612   -0.0007559758971807507
-0.003122756399159438   -0.028434308200200632   -0.0008594298042420188
-0.0035598467352409595   -0.02633160362535011   -0.0007284841822479631
-0.002361439186458943   -0.028420664002695745   -0.0007709881712553148
-0.003089150469727349   -0.028398023160668872   -0.0008277009459608812
-0.0035598467352409595   -0.02633160362535011   -0.0007284841822479631
-0.003122756399159438   -0.028434308200200632   -0.0008594298042420188
-0.002361439186458943   -0.028420664002695745   -0.0007709881712553148
-0.0035598467352409595   -0.02633160362535011   -0.0007284841822479631
-0.002359976335755602   -0.026364815913126033   -0.0006703093531037844
-0.0023757620429061092   -0.026406844854537388   -0.0006696569300448164
-0.002361439186458943   -0.028420664002695745   -0.0007709881712553148
-0.0035598467352409595   -0.02633160362535011   -0.0007284841822479631
-0.0023757620429061092   -0.026406844854537388   -0.0006696569300448164
-0.003122756399159438   -0.028434308200200632   -0.0008594298042420188
-0.002361439186458943   -0.028420664002695745   -0.0007709881712553148
-0.002359976335755602   -0.026364815913126033   -0.0006703093531037844
-0.003089150469727349   -0.028398023160668872   -0.0008277009459608812
-0.0023263855837796156   -0.028399207589847594   -0.000769871915191551
-0.002359976335755602   -0.026364815913126033   -0.0006703093531037844
-0.0035598467352409595   -0.02633160362535011   -0.0007284841822479631
-0.003089150469727349   -0.028398023160668872   -0.0008277009459608812
-0.00354208967993502   -0.026310959802831584   -0.0006978578220348029
-0.0023263855837796156   -0.028399207589847594   -0.000769871915191551
-0.003051440639812953   -0.028380760340949728   -0.0007930161784880112
-0.00354208967993502   -0.026310959802831584   -0.0006978578220348029
-0.003089150469727349   -0.028398023160668872   -0.0008277009459608812
-0.0023263855837796156   -0.028399207589847594   -0.000769871915191551
-0.00354208967993502   -0.026310959802831584   -0.0006978578220348029
-0.0023437273243481632   -0.026338545148534825   -0.0006677531016920136
-0.002359976335755602   -0.026364815913126033   -0.0006703093531037844
-0.0023263855837796156   -0.028399207589847594   -0.000769871915191551
-0.00354208967993502   -0.026310959802831584   -0.0006978578220348029
-0.002359976335755602   -0.026364815913126033   -0.0006703093531037844
-0.003089150469727349   -0.028398023160668872   -0.0008277009459608812
-0.0023263855837796156   -0.028399207589847594   -0.000769871915191551
-0.0023437273243481632   -0.026338545148534825   -0.0006677531016920136
-0.003051440639812953   -0.028380760340949728   -0.0007930161784880112
-0.0022926020781932873   -0.028396194270202634   -0.00076573294971254
-0.0023437273243481632   -0.026338545148534825   -0.0006677531016920136
-0.00354208967993502   -0.026310959802831584   -0.0006978578220348029
-0.003051440639812953   -0.028380760340949728   -0.0007930161784880112
-0.003524852245073258   -0.026305206953126468   -0.0006641922719236193
-0.0022926020781932873   -0.028396194270202634   -0.00076573294971254
-0.003013627845985765   -0.028380747889561183   -0.000755016255534484
-0.003524852245073258   -0.026305206953126468   -0.0006641922719236193
-0.003051440639812953   -0.028380760340949728   -0.0007930161784880112
-0.0022926020781932873   -0.028396194270202634   -0.00076573294971254
-0.003524852245073258   -0.026305206953126468   -0.0006641922719236193
-0.002329521613878048   -0.026327787195567446   -0.0006622097591513563
-0.0023437273243481632   -0.026338545148534825   -0.0006677531016920136
-0.0022926020781932873   -0.028396194270202634   -0.00076573294971254
-0.003524852245073258   -0.026305206953126468   -0.0006641922719236193
-0.0023437273243481632   -0.026338545148534825   -0.0006677531016920136
-0.003051440639812953   -0.028380760340949728   -0.0007930161784880112
-0.003122756399159438   -0.028434308200200632   -0.0008594298042420188
-0.003574533894718326   -0.026367834936223612   -0.0007559758971807507
-0.003920888486853963   -0.028346559105420648   -0.0009426096048293936
-0.003089150469727349   -0.028398023160668872   -0.0008277009459608812
-0.003574533894718326   -0.026367834936223612   -0.0007559758971807507
-0.004830110748635455   -0.026278961731311563   -0.0008327070983947152
-0.003920888486853963   -0.028346559105420648   -0.0009426096048293936
-0.004810775351055067   -0.02624821652939667   -0.0007770116090575857
-0.003089150469727349   -0.028398023160668872   -0.0008277009459608812
-0.003879601939489792   -0.028314746812766186   -0.0008779549692856672
-0.004810775351055067   -0.02624821652939667   -0.0007770116090575857
-0.003920888486853963   -0.028346559105420648   -0.0009426096048293936
-0.003089150469727349   -0.028398023160668872   -0.0008277009459608812
-0.004810775351055067   -0.02624821652939667   -0.0007770116090575857
-0.0035598467352409595   -0.02633160362535011   -0.0007284841822479631
-0.003574533894718326   -0.026367834936223612   -0.0007559758971807507
-0.003089150469727349   -0.028398023160668872   -0.0008277009459608812
-0.004810775351055067   -0.02624821652939667   -0.0007770116090575857
-0.003574533894718326   -0.026367834936223612   -0.0007559758971807507
-0.003920888486853963   -0.028346559105420648   -0.0009426096048293936
-0.003089150469727349   -0.028398023160668872   -0.0008277009459608812
-0.0035598467352409595   -0.02633160362535011   -0.0007284841822479631
-0.003879601939489792   -0.028314746812766186   -0.0008779549692856672
-0.003051440639812953   -0.028380760340949728   -0.0007930161784880112
-0.0035598467352409595   -0.02633160362535011   -0.0007284841822479631
-0.004810775351055067   -0.02624821652939667   -0.0007770116090575857
-0.003879601939489792   -0.028314746812766186   -0.0008779549692856672
-0.004777912319690712   -0.02623267345609175   -0.0007186702121941833
-0.003051440639812953   -0.028380760340949728   -0.0007930161784880112
-0.0038224565489979067   -0.028301661246410512   -0.0008105763355460612
-0.004777912319690712   -0.02623267345609175   -0.0007186702121941833
-0.003879601939489792   -0.028314746812766186   -0.0008779549692856672
-0.003051440639812953   -0.028380760340949728   -0.0007930161784880112
-0.004777912319690712   -0.02623267345609175   -0.0007186702121941833
-0.00354208967993502   -0.026310959802831584   -0.0006978578220348029
-0.0035598467352409595   -0.02633160362535011   -0.0007284841822479631
-0.003051440639812953   -0.028380760340949728   -0.0007930161784880112
-0.004777912319690712   -0.02623267345609175   -0.0007186702121941833
-0.0035598467352409595   -0.02633160362535011   -0.0007284841822479631
-0.003879601939489792   -0.028314746812766186   -0.0008779549692856672
-0.003051440639812953   -0.028380760340949728   -0.0007930161784880112
-0.00354208967993502   -0.026310959802831584   -0.0006978578220348029
-0.0038224565489979067   -0.028301661246410512   -0.0008105763355460612
-0.003013627845985765   -0.028380747889561183   -0.000755016255534484
-0.00354208967993502   -0.026310959802831584   -0.0006978578220348029
-0.004777912319690712   -0.02623267345609175   -0.0007186702121941833
-0.0038224565489979067   -0.028301661246410512   -0.0008105763355460612
-0.004751395109425614   -0.026233188985661612   -0.0006568431033105923
-0.003013627845985765   -0.028380747889561183   -0.000755016255534484
-0.003772824946263318   -0.02830731068200826   -0.0007386358514346078
-0.004751395109425614   -0.026233188985661612   -0.0006568431033105923
-0.0038224565489979067   -0.028301661246410512   -0.0008105763355460612
-0.003013627845985765   -0.028380747889561183   -0.000755016255534484
-0.004751395109425614   -0.026233188985661612   -0.0006568431033105923
-0.003524852245073258   -0.026305206953126468   -0.0006641922719236193
-0.00354208967993502   -0.026310959802831584   -0.0006978578220348029
-0.003013627845985765   -0.028380747889561183   -0.000755016255534484
-0.004751395109425614   -0.026233188985661612   -0.0006568431033105923
-0.00354208967993502   -0.026310959802831584   -0.0006978578220348029
-0.0038224565489979067   -0.028301661246410512   -0.0008105763355460612
-0.003920888486853963   -0.028346559105420648   -0.0009426096048293936
-0.004830110748635455   -0.026278961731311563   -0.0008327070983947152
-0.004948467425923113   -0.02820384873100259   -0.0010230745527257455
-0.003879601939489792   -0.028314746812766186   -0.0008779549692856672
-0.004830110748635455   -0.026278961731311563   -0.0008327070983947152
-0.006294052226229407   -0.02615051446419687   -0.0009046881154230916
-0.004948467425923113   -0.02820384873100259   -0.0010230745527257455
-0.006193528991997422   -0.02611824887030281   -0.0008174084452689975
-0.003879601939489792   -0.028314746812766186   -0.0008779549692856672
-0.004813356067227499   -0.02816909344201347   -0.0009209288845440526
-0.006193528991997422   -0.02611824887030281   -0.0008174084452689975
-0.004948467425923113   -0.02820384873100259   -0.0010230745527257455
-0.003879601939489792   -0.028314746812766186   -0.0008779549692856672
-0.006193528991997422   -0.02611824887030281   -0.0008174084452689975
-0.004810775351055067   -0.02624821652939667   -0.0007770116090575857
-0.004830110748635455   -0.026278961731311563   -0.0008327070983947152
-0.003879601939489792   -0.028314746812766186   -0.0008779549692856672
-0.006193528991997422   -0.02611824887030281   -0.0008174084452689975
-0.004830110748635455   -0.026278961731311563   -0.0008327070983947152
-0.004948467425923113   -0.02820384873100259   -0.0010230745527257455
-0.003879601939489792   -0.028314746812766186   -0.0008779549692856672
-0.004810775351055067   -0.02624821652939667   -0.0007770116090575857
-0.004813356067227499   -0.02816909344201347   -0.0009209288845440526
-0.0038224565489979067   -0.028301661246410512   -0.0008105763355460612
-0.004810775351055067   -0.02624821652939667   -0.0007770116090575857
-0.006193528991997422   -0.02611824887030281   -0.0008174084452689975
-0.004813356067227499   -0.02816909344201347   -0.0009209288845440526
-0.006106565466528482   -0.026104091951922963   -0.0007257454802465789
-0.0038224565489979067   -0.028301661246410512   -0.0008105763355460612
-0.004692688160971844   -0.02815698980359227   -0.0008130377432605399
-0.006106565466528482   -0.026104091951922963   -0.0007257454802465789
-0.004813356067227499   -0.02816909344201347   -0.0009209288845440526
-0.0038224565489979067   -0.028301661246410512   -0.0008105763355460612
-0.006106565466528482   -0.026104091951922963   -0.0007257454802465789
-0.004777912319690712   -0.02623267345609175   -0.0007186702121941833
-0.004810775351055067   -0.02624821652939667   -0.0007770116090575857
-0.0038224565489979067   -0.028301661246410512   -0.0008105763355460612
-0.006106565466528482   -0.026104091951922963   -0.0007257454802465789
-0.004810775351055067   -0.02624821652939667   -0.0007770116090575857
-0.004813356067227499   -0.02816909344201347   -0.0009209288845440526
-0.0038224565489979067   -0.028301661246410512   -0.0008105763355460612
-0.004777912319690712   -0.02623267345609175   -0.0007186702121941833
-0.004692688160971844   -0.02815698980359227   -0.0008130377432605399
-0.003772824946263318   -0.02830731068200826   -0.0007386358514346078
-0.004777912319690712   -0.02623267345609175   -0.0007186702121941833
-0.006106565466528482   -0.026104091951922963   -0.0007257454802465789
-0.004692688160971844   -0.02815698980359227   -0.0008130377432605399
-0.00598952342164213   -0.026114409575905915   -0.0006302793881429654
-0.003772824946263318   -0.02830731068200826   -0.0007386358514346078
-0.004536353039561691   -0.02817392559348044   -0.0007004089844745078
-0.00598952342164213   -0.026114409575905915   -0.0006302793881429654
-0.004692688160971844   -0.02815698980359227   -0.0008130377432605399
-0.003772824946263318   -0.02830731068200826   -0.0007386358514346078
-0.00598952342164213   -0.026114409575905915   -0.0006302793881429654
-0.004751395109425614   -0.026233188985661612   -0.0006568431033105923
-0.004777912319690712   -0.02623267345609175   -0.0007186702121941833
-0.003772824946263318   -0.02830731068200826   -0.0007386358514346078
-0.00598952342164213   -0.026114409575905915   -0.0006302793881429654
-0.004777912319690712   -0.02623267345609175   -0.0007186702121941833
-0.004692688160971844   -0.02815698980359227   -0.0008130377432605399
9.753768216533709e-05   -0.026331400549588917   -0.0004574286166332803
0.0008795857559967591   -0.02357996748262792   -0.0003482585350219828
-0.001158369649519956   -0.026394680493891074   -0.0005739886613538928
0.00017990621524570304   -0.026272360671971168   -0.0005247538853222372
0.0008795857559967591   -0.02357996748262792   -0.0003482585350219828
-0.0007907713150992614   -0.02362225924403748   -0.00045958944298663977
-0.001158369649519956   -0.026394680493891074   -0.0005739886613538928
-0.0007860254317229581   -0.023573450203103963   -0.0004802385804100793
0.00017990621524570304   -0.026272360671971168   -0.0005247538853222372
-0.0011367701332992942   -0.026345616478693892   -0.0006034739731089955
-0.0007860254317229581   -0.023573450203103963   -0.0004802385804100793
-0.001158369649519956   -0.026394680493891074   -0.0005739886613538928
0.00017990621524570304   -0.026272360671971168   -0.0005247538853222372
-0.0007860254317229581   -0.023573450203103963   -0.0004802385804100793
0.0009293020358627788   -0.023522291578736476   -0.00039851111347290825
0.0008795857559967591   -0.02357996748262792   -0.0003482585350219828
0.00017990621524570304   -0.026272360671971168   -0.0005247538853222372
-0.0007860254317229581   -0.023573450203103963   -0.0004802385804100793
0.0008795857559967591   -0.02357996748262792   -0.0003482585350219828
-0.001158369649519956   -0.026394680493891074   -0.0005739886613538928
0.00017990621524570304   -0.026272360671971168   -0.0005247538853222372
0.0009293020358627788   -0.023522291578736476   -0.00039851111347290825
-0.0011367701332992942   -0.026345616478693892   -0.0006034739731089955
0.00024057477424791612   -0.026238938955226464   -0.0005873984157195194
0.0009293020358627788   -0.023522291578736476   -0.00039851111347290825
-0.0007860254317229581   -0.023573450203103963   -0.0004802385804100793
-0.0011367701332992942   -0.026345616478693892   -0.0006034739731089955
-0.0007799483360800971   -0.023538640242388335   -0.0004978097857393047
0.00024057477424791612   -0.026238938955226464   -0.0005873984157195194
-0.0011120481304502015   -0.026314168612529488   -0.0006296156073121816
-0.0007799483360800971   -0.023538640242388335   -0.0004978097857393047
-0.0011367701332992942   -0.026345616478693892   -0.0006034739731089955
0.00024057477424791612   -0.026238938955226464   -0.0005873984157195194
-0.0007799483360800971   -0.023538640242388335   -0.0004978097857393047
0.0009613002607818704   -0.02348513848023026   -0.0004444089393258305
0.0009293020358627788   -0.023522291578736476   -0.00039851111347290825
0.00024057477424791612   -0.026238938955226464   -0.0005873984157195194
-0.0007799483360800971   -0.023538640242388335   -0.0004978097857393047
0.0009293020358627788   -0.023522291578736476   -0.00039851111347290825
-0.0011367701332992942   -0.026345616478693892   -0.0006034739731089955
0.00024057477424791612   -0.026238938955226464   -0.0005873984157195194
0.0009613002607818704   -0.02348513848023026   -0.0004444089393258305
-0.0011120481304502015   -0.026314168612529488   -0.0006296156073121816
0.00030586663373263247   -0.026223512149713503   -0.0006453449947979703
0.0009613002607818704   -0.02348513848023026   -0.0004444089393258305
-0.0007799483360800971   -0.023538640242388335   -0.0004978097857393047
-0.0011120481304502015   -0.026314168612529488   -0.0006296156073121816
-0.0007823928658857298   -0.023516683303226378   -0.0005125267111794976
0.00030586663373263247   -0.026223512149713503   -0.0006453449947979703
-0.001097252571621559   -0.026299385486346576   -0.0006527445619444879
-0.0007823928658857298   -0.023516683303226378   -0.0005125267111794976
-0.0011120481304502015   -0.026314168612529488   -0.0006296156073121816
0.00030586663373263247   -0.026223512149713503   -0.0006453449947979703
-0.0007823928658857298   -0.023516683303226378   -0.0005125267111794976
0.0009944798538496105   -0.023461110671023428   -0.0004860480863341822
0.0009613002607818704   -0.02348513848023026   -0.0004444089393258305
0.00030586663373263247   -0.026223512149713503   -0.0006453449947979703
-0.0007823928658857298   -0.023516683303226378   -0.0005125267111794976
0.0009613002607818704   -0.02348513848023026   -0.0004444089393258305
-0.0011120481304502015   -0.026314168612529488   -0.0006296156073121816
-0.001158369649519956   -0.026394680493891074   -0.0005739886613538928
-0.0007907713150992614   -0.02362225924403748   -0.00045958944298663977
-0.0023757620429061092   -0.026406844854537388   -0.0006696569300448164
-0.0011367701332992942   -0.026345616478693892   -0.0006034739731089955
-0.0007907713150992614   -0.02362225924403748   -0.00045958944298663977
-0.002400124240224188   -0.02362272393693415   -0.0005509345271236492
-0.0023757620429061092   -0.026406844854537388   -0.0006696569300448164
-0.0024002071218399566   -0.023581582606652787   -0.0005489722576892767
-0.0011367701332992942   -0.026345616478693892   -0.0006034739731089955
-0.002359976335755602   -0.026364815913126033   -0.0006703093531037844
-0.0024002071218399566   -0.023581582606652787   -0.0005489722576892767
-0.0023757620429061092   -0.026406844854537388   -0.0006696569300448164
-0.0011367701332992942   -0.026345616478693892   -0.0006034739731089955
-0.0024002071218399566   -0.023581582606652787   -0.0005489722576892767
-0.0007860254317229581   -0.023573450203103963   -0.0004802385804100793
-0.0007907713150992614   -0.02362225924403748   -0.00045958944298663977
-0.0011367701332992942   -0.026345616478693892   -0.0006034739731089955
-0.0024002071218399566   -0.023581582606652787   -0.0005489722576892767
-0.0007907713150992614   -0.02362225924403748   -0.00045958944298663977
-0.0023757620429061092   -0.026406844854537388   -0.0006696569300448164
-0.0011367701332992942   -0.026345616478693892   -0.0006034739731089955
-0.0007860254317229581   -0.023573450203103963   -0.0004802385804100793
-0.002359976335755602   -0.026364815913126033   -0.0006703093531037844
-0.0011120481304502015   -0.026314168612529488   -0.0006296156073121816
-0.0007860254317229581   -0.023573450203103963   -0.0004802385804100793
-0.0024002071218399566   -0.023581582606652787   -0.0005489722576892767
-0.002359976335755602   -0.026364815913126033   -0.0006703093531037844
-0.002400174062141599   -0.023552773898272827   -0.000543938455806973
-0.0011120481304502015   -0.026314168612529488   -0.0006296156073121816
-0.0023437273243481632   -0.026338545148534825   -0.0006677531016920136
-0.002400174062141599   -0.023552773898272827   -0.000543938455806973
-0.002359976335755602   -0.026364815913126033   -0.0006703093531037844
-0.0011120481304502015   -0.026314168612529488   -0.0006296156073121816
-0.002400174062141599   -0.023552773898272827   -0.000543938455806973
-0.0007799483360800971   -0.023538640242388335   -0.0004978097857393047
-0.0007860254317229581   -0.023573450203103963   -0.0004802385804100793
-0.0011120481304502015   -0.026314168612529488   -0.0006296156073121816
-0.002400174062141599   -0.023552773898272827   -0.000543938455806973
-0.0007860254317229581   -0.023573450203103963   -0.0004802385804100793
-0.002359976335755602   -0.026364815913126033   -0.0006703093531037844
-0.0011120481304502015   -0.026314168612529488   -0.0006296156073121816
-0.0007799483360800971   -0.023538640242388335   -0.0004978097857393047
-0.0023437273243481632   -0.026338545148534825   -0.0006677531016920136
-0.001097252571621559   -0.026299385486346576   -0.0006527445619444879
-0.0007799483360800971   -0.023538640242388335   -0.0004978097857393047
-0.002400174062141599   -0.023552773898272827   -0.000543938455806973
-0.0023437273243481632   -0.026338545148534825   -0.0006677531016920136
-0.0024022782416366953   -0.02353632195971602   -0.0005359997512700284
-0.001097252571621559   -0.026299385486346576   -0.0006527445619444879
-0.002329521613878048   -0.026327787195567446   -0.0006622097591513563
-0.0024022782416366953   -0.02353632195971602   -0.0005359997512700284
-0.0023437273243481632   -0.026338545148534825   -0.0006677531016920136
-0.001097252571621559   -0.026299385486346576   -0.0006527445619444879
-0.0024022782416366953   -0.02353632195971602   -0.0005359997512700284
-0.0007823928658857298   -0.023516683303226378   -0.0005125267111794976
-0.0007799483360800971   -0.023538640242388335   -0.0004978097857393047
-0.001097252571621559   -0.026299385486346576   -0.0006527445619444879
-0.0024022782416366953   -0.02353632195971602   -0.0005359997512700284
-0.0007799483360800971   -0.023538640242388335   -0.0004978097857393047
-0.0023437273243481632   -0.026338545148534825   -0.0006677531016920136
-0.0023757620429061092   -0.026406844854537388   -0.0006696569300448164
-0.002400124240224188   -0.02362272393693415   -0.0005509345271236492
-0.003574533894718326   -0.026367834936223612   -0.0007559758971807507
-0.002359976335755602   -0.026364815913126033   -0.0006703093531037844
-0.002400124240224188   -0.02362272393693415   -0.0005509345271236492
-0.003982623493460668   -0.023582475082807548   -0.0006308016354657938
-0.003574533894718326   -0.026367834936223612   -0.0007559758971807507
-0.00398391436864071   -0.023548023316070563   -0.0006065070635929997
-0.002359976335755602   -0.026364815913126033   -0.0006703093531037844
-0.0035598467352409595   -0.02633160362535011   -0.0007284841822479631
-0.00398391436864071   -0.023548023316070563   -0.0006065070635929997
-0.003574533894718326   -0.026367834936223612   -0.0007559758971807507
-0.002359976335755602   -0.026364815913126033   -0.0006703093531037844
-0.00398391436864071   -0.023548023316070563   -0.0006065070635929997
-0.0024002071218399566   -0.023581582606652787   -0.0005489722576892767
-0.002400124240224188   -0.02362272393693415   -0.0005509345271236492
-0.002359976335755602   -0.026364815913126033   -0.0006703093531037844
-0.00398391436864071   -0.023548023316070563   -0.0006065070635929997
-0.002400124240224188   -0.02362272393693415   -0.0005509345271236492
-0.003574533894718326   -0.026367834936223612   -0.0007559758971807507
-0.002359976335755602   -0.026364815913126033   -0.0006703093531037844
-0.0024002071218399566   -0.023581582606652787   -0.0005489722576892767
-0.0035598467352409595   -0.02633160362535011   -0.0007284841822479631
-0.0023437273243481632   -0.026338545148534825   -0.0006677531016920136
-0.0024002071218399566   -0.023581582606652787   -0.0005489722576892767
-0.00398391436864071   -0.023548023316070563   -0.0006065070635929997
-0.0035598467352409595   -0.02633160362535011   -0.0007284841822479631
-0.003982521286228201   -0.02352579576136598   -0.0005792044191965808
-0.0023437273243481632   -0.026338545148534825   -0.0006677531016920136
-0.00354208967993502   -0.026310959802831584   -0.0006978578220348029
-0.003982521286228201   -0.02352579576136598   -0.0005792044191965808
-0.0035598467352409595   -0.02633160362535011   -0.0007284841822479631
-0.0023437273243481632   -0.026338545148534825   -0.0006677531016920136
-0.003982521286228201   -0.02352579576136598   -0.0005792044191965808
-0.002400174062141599   -0.023552773898272827   -0.000543938455806973
-0.0024002071218399566   -0.023581582606652787   -0.0005489722576892767
-0.0023437273243481632   -0.026338545148534825   -0.0006677531016920136
-0.003982521286228201   -0.02352579576136598   -0.0005792044191965808
-0.0024002071218399566   -0.023581582606652787   -0.0005489722576892767
-0.0035598467352409595   -0.02633160362535011   -0.0007284841822479631
-0.0023437273243481632   -0.026338545148534825   -0.0006677531016920136
-0.002400174062141599   -0.023552773898272827   -0.000543938455806973
-0.00354208967993502   -0.026310959802831584   -0.0006978578220348029
-0.002329521613878048   -0.026327787195567446   -0.0006622097591513563
-0.002400174062141599   -0.023552773898272827   -0.000543938455806973
-0.003982521286228201   -0.02352579576136598   -0.0005792044191965808
-0.00354208967993502   -0.026310959802831584   -0.0006978578220348029
-0.003981629367987759   -0.023515585086690695   -0.0005489795346385463
-0.002329521613878048   -0.026327787195567446   -0.0006622097591513563
-0.003524852245073258   -0.026305206953126468   -0.0006641922719236193
-0.003981629367987759   -0.023515585086690695   -0.0005489795346385463
-0.00354208967993502   -0.026310959802831584   -0.0006978578220348029
-0.002329521613878048   -0.026327787195567446   -0.0006622097591513563
-0.003981629367987759   -0.023515585086690695   -0.0005489795346385463
-0.0024022782416366953   -0.02353632195971602   -0.0005359997512700284
-0.002400174062141599   -0.023552773898272827   -0.000543938455806973
-0.002329521613878048   -0.026327787195567446   -0.0006622097591513563
-0.003981629367987759   -0.023515585086690695   -0.0005489795346385463
-0.002400174062141599   -0.023552773898272827   -0.000543938455806973
-0.00354208967993502   -0.026310959802831584   -0.0006978578220348029
-0.003574533894718326   -0.026367834936223612   -0.0007559758971807507
-0.003982623493460668   -0.023582475082807548   -0.0006308016354657938
-0.004830110748635455   -0.026278961731311563   -0.0008327070983947152
-0.0035598467352409595   -0.02633160362535011   -0.0007284841822479631
-0.003982623493460668   -0.023582475082807548   -0.0006308016354657938
-0.0056141323275613044   -0.023502978146103876   -0.0006994110571433185
-0.004830110748635455   -0.026278961731311563   -0.0008327070983947152
-0.005612009966486727   -0.023474891545035213   -0.0006525087754613244
-0.0035598467352409595   -0.02633160362535011   -0.0007284841822479631
-0.004810775351055067   -0.02624821652939667   -0.0007770116090575857
-0.005612009966486727   -0.023474891545035213   -0.0006525087754613244
-0.004830110748635455   -0.026278961731311563   -0.0008327070983947152
-0.0035598467352409595   -0.02633160362535011   -0.0007284841822479631
-0.005612009966486727   -0.023474891545035213   -0.0006525087754613244
-0.00398391436864071   -0.023548023316070563   -0.0006065070635929997
-0.003982623493460668   -0.023582475082807548   -0.0006308016354657938
-0.0035598467352409595   -0.02633160362535011   -0.0007284841822479631
-0.005612009966486727   -0.023474891545035213   -0.0006525087754613244
-0.003982623493460668   -0.023582475082807548   -0.0006308016354657938
-0.004830110748635455   -0.026278961731311563   -0.0008327070983947152
-0.0035598467352409595   -0.02633160362535011   -0.0007284841822479631
-0.00398391436864071   -0.023548023316070563   -0.0006065070635929997
-0.004810775351055067   -0.02624821652939667   -0.0007770116090575857
-0.00354208967993502   -0.026310959802831584   -0.0006978578220348029
-0.00398391436864071   -0.023548023316070563   -0.0006065070635929997
-0.005612009966486727   -0.023474891545035213   -0.0006525087754613244
-0.004810775351055067   -0.02624821652939667   -0.0007770116090575857
-0.005598063280107425   -0.02345863341375829   -0.0006030544188945552
-0.00354208967993502   -0.026310959802831584   -0.0006978578220348029
-0.004777912319690712   -0.02623267345609175   -0.0007186702121941833
-0.005598063280107425   -0.02345863341375829   -0.0006030544188945552
-0.004810775351055067   -0.02624821652939667   -0.0007770116090575857
-0.00354208967993502   -0.026310959802831584   -0.0006978578220348029
-0.005598063280107425   -0.02345863341375829   -0.0006030544188945552
-0.003982521286228201   -0.02352579576136598   -0.0005792044191965808
-0.00398391436864071   -0.023548023316070563   -0.0006065070635929997
-0.00354208967993502   -0.026310959802831584   -0.0006978578220348029
-0.005598063280107425   -0.02345863341375829   -0.0006030544188945552
-0.00398391436864071   -0.023548023316070563   -0.0006065070635929997
-0.004810775351055067   -0.02624821652939667   -0.0007770116090575857
-0.00354208967993502   -0.026310959802831584   -0.0006978578220348029
-0.003982521286228201   -0.02352579576136598   -0.0005792044191965808
-0.004777912319690712   -0.02623267345609175   -0.0007186702121941833
-0.003524852245073258   -0.026305206953126468   -0.0006641922719236193
-0.003982521286228201   -0.02352579576136598   -0.0005792044191965808
-0.005598063280107425   -0.02345863341375829   -0.0006030544188945552
-0.004777912319690712   -0.02623267345609175   -0.0007186702121941833
-0.005588803806128479   -0.02345540970664866   -0.0005504388919594984
-0.003524852245073258   -0.026305206953126468   -0.0006641922719236193
-0.004751395109425614   -0.026233188985661612   -0.0006568431033105923
-0.005588803806128479   -0.02345540970664866   -0.0005504388919594984
-0.004777912319690712   -0.02623267345609175   -0.0007186702121941833
-0.003524852245073258   -0.026305206953126468   -0.0006641922719236193
-0.005588803806128479   -0.02345540970664866   -0.0005504388919594984
-0.003981629367987759   -0.023515585086690695   -0.0005489795346385463
-0.003982521286228201   -0.02352579576136598   -0.0005792044191965808
-0.003524852245073258   -0.026305206953126468   -0.0006641922719236193
-0.005588803806128479   -0.02345540970664866   -0.0005504388919594984
-0.003982521286228201   -0.02352579576136598   -0.0005792044191965808
-0.004777912319690712   -0.02623267345609175   -0.0007186702121941833
-0.004830110748635455   -0.026278961731311563   -0.0008327070983947152
-0.0056141323275613044   -0.023502978146103876   -0.0006994110571433185
-0.006294052226229407   -0.02615051446419687   -0.0009046881154230916
-0.004810775351055067   -0.02624821652939667   -0.0007770116090575857
-0.0056141323275613044   -0.023502978146103876   -0.0006994110571433185
-0.007436622459516206   -0.023392911727278944   -0.000761522616213896
-0.006294052226229407   -0.02615051446419687   -0.0009046881154230916
-0.007367110964175943   -0.023365226504601485   -0.0006896257193665161
-0.004810775351055067   -0.02624821652939667   -0.0007770116090575857
-0.006193528991997422   -0.02611824887030281   -0.0008174084452689975
-0.007367110964175943   -0.023365226504601485   -0.0006896257193665161
-0.006294052226229407   -0.02615051446419687   -0.0009046881154230916
-0.004810775351055067   -0.02624821652939667   -0.0007770116090575857
-0.007367110964175943   -0.023365226504601485   -0.0006896257193665161
-0.005612009966486727   -0.023474891545035213   -0.0006525087754613244
-0.0056141323275613044   -0.023502978146103876   -0.0006994110571433185
-0.004810775351055067   -0.02624821652939667   -0.0007770116090575857
-0.007367110964175943   -0.023365226504601485   -0.0006896257193665161
-0.0056141323275613044   -0.023502978146103876   -0.0006994110571433185
-0.006294052226229407   -0.02615051446419687   -0.0009046881154230916
-0.004810775351055067   -0.02624821652939667   -0.0007770116090575857
-0.005612009966486727   -0.023474891545035213   -0.0006525087754613244
-0.006193528991997422   -0.02611824887030281   -0.0008174084452689975
-0.004777912319690712   -0.02623267345609175   -0.0007186702121941833
-0.005612009966486727   -0.023474891545035213   -0.0006525087754613244
-0.007367110964175943   -0.023365226504601485   -0.0006896257193665161
-0.006193528991997422   -0.02611824887030281   -0.0008174084452689975
-0.007307842473302514   -0.02335115360974461   -0.0006134224892317244
-0.004777912319690712   -0.02623267345609175   -0.0007186702121941833
-0.006106565466528482   -0.026104091951922963   -0.0007257454802465789
-0.007307842473302514   -0.02335115360974461   -0.0006134224892317244
-0.006193528991997422   -0.02611824887030281   -0.0008174084452689975
-0.004777912319690712   -0.02623267345609175   -0.0007186702121941833
-0.007307842473302514   -0.02335115360974461   -0.0006134224892317244
-0.005598063280107425   -0.02345863341375829   -0.0006030544188945552
-0.005612009966486727   -0.023474891545035213   -0.0006525087754613244
-0.004777912319690712   -0.02623267345609175   -0.0007186702121941833
-0.007307842473302514   -0.02335115360974461   -0.0006134224892317244
-0.005612009966486727   -0.023474891545035213   -0.0006525087754613244
-0.006193528991997422   -0.02611824887030281   -0.0008174084452689975
-0.004777912319690712   -0.02623267345609175   -0.0007186702121941833
-0.005598063280107425   -0.02345863341375829   -0.0006030544188945552
-0.006106565466528482   -0.026104091951922963   -0.0007257454802465789
-0.004751395109425614   -0.026233188985661612   -0.0006568431033105923
-0.005598063280107425   -0.02345863341375829   -0.0006030544188945552
-0.007307842473302514   -0.02335115360974461   -0.0006134224892317244
-0.006106565466528482   -0.026104091951922963   -0.0007257454802465789
-0.007222554997791432   -0.02335768834892687   -0.0005335111332793099
-0.004751395109425614   -0.026233188985661612   -0.0006568431033105923
-0.00598952342164213   -0.026114409575905915   -0.0006302793881429654
-0.007222554997791432   -0.02335768834892687   -0.0005335111332793099
-0.006106565466528482   -0.026104091951922963   -0.0007257454802465789
-0.004751395109425614   -0.026233188985661612   -0.0006568431033105923
-0.007222554997791432   -0.02335768834892687   -0.0005335111332793099
-0.005588803806128479   -0.02345540970664866   -0.0005504388919594984
-0.005598063280107425   -0.02345863341375829   -0.0006030544188945552
-0.004751395109425614   -0.026233188985661612   -0.0006568431033105923
-0.007222554997791432   -0.02335768834892687   -0.0005335111332793099
-0.005598063280107425   -0.02345863341375829   -0.0006030544188945552
-0.006106565466528482   -0.026104091951922963   -0.0007257454802465789
0.0008795857559967591   -0.02357996748262792   -0.0003482585350219828
0.0014244354986118857   -0.020256045957784817   -0.0002322795079320985
-0.0007907713150992614   -0.02362225924403748   -0.00045958944298663977
0.0009293020358627788   -0.023522291578736476   -0.00039851111347290825
0.0014244354986118857   -0.020256045957784817   -0.0002322795079320985
-0.0005643126635147029   -0.02027735531675211   -0.00033697764109959065
-0.0007907713150992614   -0.02362225924403748   -0.00045958944298663977
-0.0005731984537300539   -0.02022976930678831   -0.0003483409307780144
0.0009293020358627788   -0.023522291578736476   -0.00039851111347290825
-0.0007860254317229581   -0.023573450203103963   -0.0004802385804100793
-0.0005731984537300539   -0.02022976930678831   -0.0003483409307780144
-0.0007907713150992614   -0.02362225924403748   -0.00045958944298663977
0.0009293020358627788   -0.023522291578736476   -0.00039851111347290825
-0.0005731984537300539   -0.02022976930678831   -0.0003483409307780144
0.0014450368048320671   -0.020200472109559803   -0.00026565548598572817
0.0014244354986118857   -0.020256045957784817   -0.0002322795079320985
0.0009293020358627788   -0.023522291578736476   -0.00039851111347290825
-0.0005731984537300539   -0.02022976930678831   -0.0003483409307780144
0.0014244354986118857   -0.020256045957784817   -0.0002322795079320985
-0.0007907713150992614   -0.02362225924403748   -0.00045958944298663977
0.0009293020358627788   -0.023522291578736476   -0.00039851111347290825
0.0014450368048320671   -0.020200472109559803   -0.00026565548598572817
-0.0007860254317229581   -0.023573450203103963   -0.0004802385804100793
0.0009613002607818704   -0.02348513848023026   -0.0004444089393258305
0.0014450368048320671   -0.020200472109559803   -0.00026565548598572817
-0.0005731984537300539   -0.02022976930678831   -0.0003483409307780144
-0.0007860254317229581   -0.023573450203103963   -0.0004802385804100793
-0.0005824800755241826   -0.020192649253080175   -0.00035693341240010824
0.0009613002607818704   -0.02348513848023026   -0.0004444089393258305
-0.0007799483360800971   -0.023538640242388335   -0.0004978097857393047
-0.0005824800755241826   -0.020192649253080175   -0.00035693341240010824
-0.0007860254317229581   -0.023573450203103963   -0.0004802385804100793
0.0009613002607818704   -0.02348513848023026   -0.0004444089393258305
-0.0005824800755241826   -0.020192649253080175   -0.00035693341240010824
0.00145199221320059   -0.020160632557513266   -0.00029493802598537755
0.0014450368048320671   -0.020200472109559803   -0.00026565548598572817
0.0009613002607818704   -0.02348513848023026   -0.0004444089393258305
-0.0005824800755241826   -0.020192649253080175   -0.00035693341240010824
0.0014450368048320671   -0.020200472109559803   -0.00026565548598572817
-0.0007860254317229581   -0.023573450203103963   -0.0004802385804100793
0.0009613002607818704   -0.02348513848023026   -0.0004444089393258305
0.00145199221320059   -0.020160632557513266   -0.00029493802598537755
-0.0007799483360800971   -0.023538640242388335   -0.0004978097857393047
0.0009944798538496105   -0.023461110671023428   -0.0004860480863341822
0.00145199221320059   -0.020160632557513266   -0.00029493802598537755
-0.0005824800755241826   -0.020192649253080175   -0.00035693341240010824
-0.0007799483360800971   -0.023538640242388335   -0.0004978097857393047
-0.0005987125594923342   -0.020164790643014473   -0.0003628474887842188
0.0009944798538496105   -0.023461110671023428   -0.0004860480863341822
-0.0007823928658857298   -0.023516683303226378   -0.0005125267111794976
-0.0005987125594923342   -0.020164790643014473   -0.0003628474887842188
-0.0007799483360800971   -0.023538640242388335   -0.0004978097857393047
0.0009944798538496105   -0.023461110671023428   -0.0004860480863341822
-0.0005987125594923342   -0.020164790643014473   -0.0003628474887842188
0.0014566836484553147   -0.020129276376292003   -0.0003203237475578454
0.00145199221320059   -0.020160632557513266   -0.00029493802598537755
0.0009944798538496105   -0.023461110671023428   -0.0004860480863341822
-0.0005987125594923342   -0.020164790643014473   -0.0003628474887842188
0.00145199221320059   -0.020160632557513266   -0.00029493802598537755
-0.0007799483360800971   -0.023538640242388335   -0.0004978097857393047
-0.0007907713150992614   -0.02362225924403748   -0.00045958944298663977
-0.0005643126635147029   -0.02027735531675211   -0.00033697764109959065
-0.002400124240224188   -0.02362272393693415   -0.0005509345271236492
-0.0007860254317229581   -0.023573450203103963   -0.0004802385804100793
-0.0005643126635147029   -0.02027735531675211   -0.00033697764109959065
-0.00247199115244717   -0.020267084434257655   -0.00042262967243720867
-0.002400124240224188   -0.02362272393693415   -0.0005509345271236492
-0.0024846207706501664   -0.02022753132727864   -0.00041750549893692756
-0.0007860254317229581   -0.023573450203103963   -0.0004802385804100793
-0.0024002071218399566   -0.023581582606652787   -0.0005489722576892767
-0.0024846207706501664   -0.02022753132727864   -0.00041750549893692756
-0.002400124240224188   -0.02362272393693415   -0.0005509345271236492
-0.0007860254317229581   -0.023573450203103963   -0.0004802385804100793
-0.0024846207706501664   -0.02022753132727864   -0.00041750549893692756
-0.0005731984537300539   -0.02022976930678831   -0.0003483409307780144
-0.0005643126635147029   -0.02027735531675211   -0.00033697764109959065
-0.0007860254317229581   -0.023573450203103963   -0.0004802385804100793
-0.0024846207706501664   -0.02022753132727864   -0.00041750549893692756
-0.0005643126635147029   -0.02027735531675211   -0.00033697764109959065
-0.002400124240224188   -0.02362272393693415   -0.0005509345271236492
-0.0007860254317229581   -0.023573450203103963   -0.0004802385804100793
-0.0005731984537300539   -0.02022976930678831   -0.0003483409307780144
-0.0024002071218399566   -0.023581582606652787   -0.0005489722576892767
-0.0007799483360800971   -0.023538640242388335   -0.0004978097857393047
-0.0005731984537300539   -0.02022976930678831   -0.0003483409307780144
-0.0024846207706501664   -0.02022753132727864   -0.00041750549893692756
-0.0024002071218399566   -0.023581582606652787   -0.0005489722576892767
-0.002497426701069842   -0.020196943999542995   -0.0004095234764778986
-0.0007799483360800971   -0.023538640242388335   -0.0004978097857393047
-0.002400174062141599   -0.023552773898272827   -0.000543938455806973
-0.002497426701069842   -0.020196943999542995   -0.0004095234764778986
-0.0024002071218399566   -0.023581582606652787   -0.0005489722576892767
-0.0007799483360800971   -0.023538640242388335   -0.0004978097857393047
-0.002497426701069842   -0.020196943999542995   -0.0004095234764778986
-0.0005824800755241826   -0.020192649253080175   -0.00035693341240010824
-0.0005731984537300539   -0.02022976930678831   -0.0003483409307780144
-0.0007799483360800971   -0.023538640242388335   -0.0004978097857393047
-0.002497426701069842   -0.020196943999542995   -0.0004095234764778986
-0.0005731984537300539   -0.02022976930678831   -0.0003483409307780144
-0.0024002071218399566   -0.023581582606652787   -0.0005489722576892767
-0.0007799483360800971   -0.023538640242388335   -0.0004978097857393047
-0.0005824800755241826   -0.020192649253080175   -0.00035693341240010824
-0.002400174062141599   -0.023552773898272827   -0.000543938455806973
-0.0007823928658857298   -0.023516683303226378   -0.0005125267111794976
-0.0005824800755241826   -0.020192649253080175   -0.00035693341240010824
-0.002497426701069842   -0.020196943999542995   -0.0004095234764778986
-0.002400174062141599   -0.023552773898272827   -0.000543938455806973
-0.002512270264173415   -0.020175471919534605   -0.00039882816960030217
-0.0007823928658857298   -0.023516683303226378   -0.0005125267111794976
-0.0024022782416366953   -0.02353632195971602   -0.0005359997512700284
-0.002512270264173415   -0.020175471919534605   -0.00039882816960030217
-0.002400174062141599   -0.023552773898272827   -0.000543938455806973
-0.0007823928658857298   -0.023516683303226378   -0.0005125267111794976
-0.002512270264173415   -0.020175471919534605   -0.00039882816960030217
-0.0005987125594923342   -0.020164790643014473   -0.0003628474887842188
-0.0005824800755241826   -0.020192649253080175   -0.00035693341240010824
-0.0007823928658857298   -0.023516683303226378   -0.0005125267111794976
-0.002512270264173415   -0.020175471919534605   -0.00039882816960030217
-0.0005824800755241826   -0.020192649253080175   -0.00035693341240010824
-0.002400174062141599   -0.023552773898272827   -0.000543938455806973
-0.002400124240224188   -0.02362272393693415   -0.0005509345271236492
-0.00247199115244717   -0.020267084434257655   -0.00042262967243720867
-0.003982623493460668   -0.023582475082807548   -0.0006308016354657938
-0.0024002071218399566   -0.023581582606652787   -0.0005489722576892767
-0.00247199115244717   -0.020267084434257655   -0.00042262967243720867
-0.004347732161644419   -0.020227338635613504   -0.0004956575125915588
-0.003982623493460668   -0.023582475082807548   -0.0006308016354657938
-0.0043614251015004265   -0.02019504005623979   -0.0004741391870106241
-0.0024002071218399566   -0.023581582606652787   -0.0005489722576892767
-0.00398391436864071   -0.023548023316070563   -0.0006065070635929997
-0.0043614251015004265   -0.02019504005623979   -0.0004741391870106241
-0.003982623493460668   -0.023582475082807548   -0.0006308016354657938
-0.0024002071218399566   -0.023581582606652787   -0.0005489722576892767
-0.0043614251015004265   -0.02019504005623979   -0.0004741391870106241
-0.0024846207706501664   -0.02022753132727864   -0.00041750549893692756
-0.00247199115244717   -0.020267084434257655   -0.00042262967243720867
-0.0024002071218399566   -0.023581582606652787   -0.0005489722576892767
-0.0043614251015004265   -0.02019504005623979   -0.0004741391870106241
-0.00247199115244717   -0.020267084434257655   -0.00042262967243720867
-0.003982623493460668   -0.023582475082807548   -0.0006308016354657938
-0.0024002071218399566   -0.023581582606652787   -0.0005489722576892767
-0.0024846207706501664   -0.02022753132727864   -0.00041750549893692756
-0.00398391436864071   -0.023548023316070563   -0.0006065070635929997
-0.002400174062141599   -0.023552773898272827   -0.000543938455806973
-0.0024846207706501664   -0.02022753132727864   -0.00041750549893692756
-0.0043614251015004265   -0.02019504005623979   -0.0004741391870106241
-0.00398391436864071   -0.023548023316070563   -0.0006065070635929997
-0.004372722806327577   -0.020171622618677006   -0.0004498167898235175
-0.002400174062141599   -0.023552773898272827   -0.000543938455806973
-0.003982521286228201   -0.02352579576136598   -0.0005792044191965808
-0.004372722806327577   -0.020171622618677006   -0.0004498167898235175
-0.00398391436864071   -0.023548023316070563   -0.0006065070635929997
-0.002400174062141599   -0.023552773898272827   -0.000543938455806973
-0.004372722806327577   -0.020171622618677006   -0.0004498167898235175
-0.002497426701069842   -0.020196943999542995   -0.0004095234764778986
-0.0024846207706501664   -0.02022753132727864   -0.00041750549893692756
-0.002400174062141599   -0.023552773898272827   -0.000543938455806973
-0.004372722806327577   -0.020171622618677006   -0.0004498167898235175
-0.0024846207706501664   -0.02022753132727864   -0.00041750549893692756
-0.00398391436864071   -0.023548023316070563   -0.0006065070635929997
-0.002400174062141599   -0.023552773898272827   -0.000543938455806973
-0.002497426701069842   -0.020196943999542995   -0.0004095234764778986
-0.003982521286228201   -0.02352579576136598   -0.0005792044191965808
-0.0024022782416366953   -0.02353632195971602   -0.0005359997512700284
-0.002497426701069842   -0.020196943999542995   -0.0004095234764778986
-0.004372722806327577   -0.020171622618677006   -0.0004498167898235175
-0.003982521286228201   -0.02352579576136598   -0.0005792044191965808
-0.00438436439667723   -0.020157046745615543   -0.00042277072506255415
-0.0024022782416366953   -0.02353632195971602   -0.0005359997512700284
-0.003981629367987759   -0.023515585086690695   -0.0005489795346385463
-0.00438436439667723   -0.020157046745615543   -0.00042277072506255415
-0.003982521286228201   -0.02352579576136598   -0.0005792044191965808
-0.0024022782416366953   -0.02353632195971602   -0.0005359997512700284
-0.00438436439667723   -0.020157046745615543   -0.00042277072506255415
-0.002512270264173415   -0.020175471919534605   -0.00039882816960030217
-0.002497426701069842   -0.020196943999542995   -0.0004095234764778986
-0.0024022782416366953   -0.02353632195971602   -0.0005359997512700284
-0.00438436439667723   -0.020157046745615543   -0.00042277072506255415
-0.002497426701069842   -0.020196943999542995   -0.0004095234764778986
-0.003982521286228201   -0.02352579576136598   -0.0005792044191965808
-0.003982623493460668   -0.023582475082807548   -0.0006308016354657938
-0.004347732161644419   -0.020227338635613504   -0.0004956575125915588
-0.0056141323275613044   -0.023502978146103876   -0.0006994110571433185
-0.00398391436864071   -0.023548023316070563   -0.0006065070635929997
-0.004347732161644419   -0.020227338635613504   -0.0004956575125915588
-0.006268050656413433   -0.020158884043986584   -0.0005563966373991723
-0.0056141323275613044   -0.023502978146103876   -0.0006994110571433185
-0.006279259778403129   -0.02013364104346662   -0.0005182544626308743
-0.00398391436864071   -0.023548023316070563   -0.0006065070635929997
-0.005612009966486727   -0.023474891545035213   -0.0006525087754613244
-0.006279259778403129   -0.02013364104346662   -0.0005182544626308743
-0.0056141323275613044   -0.023502978146103876   -0.0006994110571433185
-0.00398391436864071   -0.023548023316070563   -0.0006065070635929997
-0.006279259778403129   -0.02013364104346662   -0.0005182544626308743
-0.0043614251015004265   -0.02019504005623979   -0.0004741391870106241
-0.004347732161644419   -0.020227338635613504   -0.0004956575125915588
-0.00398391436864071   -0.023548023316070563   -0.0006065070635929997
-0.006279259778403129   -0.02013364104346662   -0.0005182544626308743
-0.004347732161644419   -0.020227338635613504   -0.0004956575125915588
-0.0056141323275613044   -0.023502978146103876   -0.0006994110571433185
-0.00398391436864071   -0.023548023316070563   -0.0006065070635929997
-0.0043614251015004265   -0.02019504005623979   -0.0004741391870106241
-0.005612009966486727   -0.023474891545035213   -0.0006525087754613244
-0.003982521286228201   -0.02352579576136598   -0.0005792044191965808
-0.0043614251015004265   -0.02019504005623979   -0.0004741391870106241
-0.006279259778403129   -0.02013364104346662   -0.0005182544626308743
-0.005612009966486727   -0.023474891545035213   -0.0006525087754613244
-0.006280290868994206   -0.020116785311238745   -0.0004776951211664771
-0.003982521286228201   -0.02352579576136598   -0.0005792044191965808
-0.005598063280107425   -0.02345863341375829   -0.0006030544188945552
-0.006280290868994206   -0.020116785311238745   -0.0004776951211664771
-0.005612009966486727   -0.023474891545035213   -0.0006525087754613244
-0.003982521286228201   -0.02352579576136598   -0.0005792044191965808
-0.006280290868994206   -0.020116785311238745   -0.0004776951211664771
-0.004372722806327577   -0.020171622618677006   -0.0004498167898235175
-0.0043614251015004265   -0.02019504005623979   -0.0004741391870106241
-0.003982521286228201   -0.02352579576136598   -0.0005792044191965808
-0.006280290868994206   -0.020116785311238745   -0.0004776951211664771
-0.0043614251015004265   -0.02019504005623979   -0.0004741391870106241
-0.005612009966486727   -0.023474891545035213   -0.0006525087754613244
-0.003982521286228201   -0.02352579576136598   -0.0005792044191965808
-0.004372722806327577   -0.020171622618677006   -0.0004498167898235175
-0.005598063280107425   -0.02345863341375829   -0.0006030544188945552
-0.003981629367987759   -0.023515585086690695   -0.0005489795346385463
-0.004372722806327577   -0.020171622618677006   -0.0004498167898235175
-0.006280290868994206   -0.020116785311238745   -0.0004776951211664771
-0.005598063280107425   -0.02345863341375829   -0.0006030544188945552
-0.0062843067698614054   -0.020109577317896345   -0.00043420322118511935
-0.003981629367987759   -0.023515585086690695   -0.0005489795346385463
-0.005588803806128479   -0.02345540970664866   -0.0005504388919594984
-0.0062843067698614054   -0.020109577317896345   -0.00043420322118511935
-0.005598063280107425   -0.02345863341375829   -0.0006030544188945552
-0.003981629367987759   -0.023515585086690695   -0.0005489795346385463
-0.0062843067698614054   -0.020109577317896345   -0.00043420322118511935
-0.00438436439667723   -0.020157046745615543   -0.00042277072506255415
-0.004372722806327577   -0.020171622618677006   -0.0004498167898235175
-0.003981629367987759   -0.023515585086690695   -0.0005489795346385463
-0.0062843067698614054   -0.020109577317896345   -0.00043420322118511935
-0.004372722806327577   -0.020171622618677006   -0.0004498167898235175
-0.005598063280107425   -0.02345863341375829   -0.0006030544188945552
-0.0056141323275613044   -0.023502978146103876   -0.0006994110571433185
-0.006268050656413433   -0.020158884043986584   -0.0005563966373991723
-0.007436622459516206   -0.023392911727278944   -0.000761522616213896
-0.005612009966486727   -0.023474891545035213   -0.0006525087754613244
-0.006268050656413433   -0.020158884043986584   -0.0005563966373991723
-0.008362812394138122   -0.02006860734188072   -0.0006083090975711026
-0.007436622459516206   -0.023392911727278944   -0.000761522616213896
-0.008321281272548485   -0.02004554326490206   -0.0005524383164526743
-0.005612009966486727   -0.023474891545035213   -0.0006525087754613244
-0.007367110964175943   -0.023365226504601485   -0.0006896257193665161
-0.008321281272548485   -0.02004554326490206   -0.0005524383164526743
-0.007436622459516206   -0.023392911727278944   -0.000761522616213896
-0.005612009966486727   -0.023474891545035213   -0.0006525087754613244
-0.008321281272548485   -0.02004554326490206   -0.0005524383164526743
-0.006279259778403129   -0.02013364104346662   -0.0005182544626308743
-0.006268050656413433   -0.020158884043986584   -0.0005563966373991723
-0.005612009966486727   -0.023474891545035213   -0.0006525087754613244
-0.008321281272548485   -0.02004554326490206   -0.0005524383164526743
-0.006268050656413433   -0.020158884043986584   -0.0005563966373991723
-0.007436622459516206   -0.023392911727278944   -0.000761522616213896
-0.005612009966486727   -0.023474891545035213   -0.0006525087754613244
-0.006279259778403129   -0.02013364104346662   -0.0005182544626308743
-0.007367110964175943   -0.023365226504601485   -0.0006896257193665161
-0.005598063280107425   -0.02345863341375829   -0.0006030544188945552
-0.006279259778403129   -0.02013364104346662   -0.0005182544626308743
-0.008321281272548485   -0.02004554326490206   -0.0005524383164526743
-0.007367110964175943   -0.023365226504601485   -0.0006896257193665161
-0.008286354561193077   -0.02003147664591993   -0.0004923373870549341
-0.005598063280107425   -0.02345863341375829   -0.0006030544188945552
-0.007307842473302514   -0.02335115360974461   -0.0006134224892317244
-0.008286354561193077   -0.02003147664591993   -0.0004923373870549341
-0.007367110964175943   -0.023365226504601485   -0.0006896257193665161
-0.005598063280107425   -0.02345863341375829   -0.0006030544188945552
-0.008286354561193077   -0.02003147664591993   -0.0004923373870549341
-0.006280290868994206   -0.020116785311238745   -0.0004776951211664771
-0.006279259778403129   -0.02013364104346662   -0.0005182544626308743
-0.005598063280107425   -0.02345863341375829   -0.0006030544188945552
-0.008286354561193077   -0.02003147664591993   -0.0004923373870549341
-0.006279259778403129   -0.02013364104346662   -0.0005182544626308743
-0.007367110964175943   -0.023365226504601485   -0.0006896257193665161
-0.005598063280107425   -0.02345863341375829   -0.0006030544188945552
-0.006280290868994206   -0.020116785311238745   -0.0004776951211664771
-0.007307842473302514   -0.02335115360974461   -0.0006134224892317244
-0.005588803806128479   -0.02345540970664866   -0.0005504388919594984
-0.006280290868994206   -0.020116785311238745   -0.0004776951211664771
-0.008286354561193077   -0.02003147664591993   -0.0004923373870549341
-0.007307842473302514   -0.02335115360974461   -0.0006134224892317244
-0.008229241911956248   -0.020033726266398922   -0.00042853666080222395
-0.005588803806128479   -0.02345540970664866   -0.0005504388919594984
-0.007222554997791432   -0.02335768834892687   -0.0005335111332793099
-0.008229241911956248   -0.020033726266398922   -0.00042853666080222395
-0.007307842473302514   -0.02335115360974461   -0.0006134224892317244
-0.005588803806128479   -0.02345540970664866   -0.0005504388919594984
-0.008229241911956248   -0.020033726266398922   -0.00042853666080222395
-0.0062843067698614054   -0.020109577317896345   -0.00043420322118511935
-0.006280290868994206   -0.020116785311238745   -0.0004776951211664771
-0.005588803806128479   -0.02345540970664866   -0.0005504388919594984
-0.008229241911956248   -0.020033726266398922   -0.00042853666080222395
-0.006280290868994206   -0.020116785311238745   -0.0004776951211664771
-0.007307842473302514   -0.02335115360974461   -0.0006134224892317244
0.0014244354986118857   -0.020256045957784817   -0.0002322795079320985
0.0017334722164186985   -0.01651292535877421   -0.00011918110886312074
-0.0005643126635147029   -0.02027735531675211   -0.00033697764109959065
0.0014450368048320671   -0.020200472109559803   -0.00026565548598572817
0.0017334722164186985   -0.01651292535877421   -0.00011918110886312074
-0.00048099807218998734   -0.016513297811070582   -0.00021608054284595786
-0.0005643126635147029   -0.02027735531675211   -0.00033697764109959065
-0.0005001834845644142   -0.01646735057719264   -0.00021795763578976829
0.0014450368048320671   -0.020200472109559803   -0.00026565548598572817
-0.0005731984537300539   -0.02022976930678831   -0.0003483409307780144
-0.0005001834845644142   -0.01646735057719264   -0.00021795763578976829
-0.0005643126635147029   -0.02027735531675211   -0.00033697764109959065
0.0014450368048320671   -0.020200472109559803   -0.00026565548598572817
-0.0005001834845644142   -0.01646735057719264   -0.00021795763578976829
0.0017285408428002493   -0.016459783067349364   -0.00013572475859444802
0.0017334722164186985   -0.01651292535877421   -0.00011918110886312074
0.0014450368048320671   -0.020200472109559803   -0.00026565548598572817
-0.0005001834845644142   -0.01646735057719264   -0.00021795763578976829
0.0017334722164186985   -0.01651292535877421   -0.00011918110886312074
-0.0005643126635147029   -0.02027735531675211   -0.00033697764109959065
0.0014450368048320671   -0.020200472109559803   -0.00026565548598572817
0.0017285408428002493   -0.016459783067349364   -0.00013572475859444802
-0.0005731984537300539   -0.02022976930678831   -0.0003483409307780144
0.00145199221320059   -0.020160632557513266   -0.00029493802598537755
0.0017285408428002493   -0.016459783067349364   -0.00013572475859444802
-0.0005001834845644142   -0.01646735057719264   -0.00021795763578976829
-0.0005731984537300539   -0.02022976930678831   -0.0003483409307780144
-0.0005215135048172248   -0.01642824454231235   -0.00021735498407802944
0.00145199221320059   -0.020160632557513266   -0.00029493802598537755
-0.0005824800755241826   -0.020192649253080175   -0.00035693341240010824
-0.0005215135048172248   -0.01642824454231235   -0.00021735498407802944
-0.0005731984537300539   -0.02022976930678831   -0.0003483409307780144
0.00145199221320059   -0.020160632557513266   -0.00029493802598537755
-0.0005215135048172248   -0.01642824454231235   -0.00021735498407802944
0.0017138261825023445   -0.016417617768360517   -0.00014829365189993616
0.0017285408428002493   -0.016459783067349364   -0.00013572475859444802
0.00145199221320059   -0.020160632557513266   -0.00029493802598537755
-0.0005215135048172248   -0.01642824454231235   -0.00021735498407802944
0.0017285408428002493   -0.016459783067349364   -0.00013572475859444802
-0.0005731984537300539   -0.02022976930678831   -0.0003483409307780144
0.00145199221320059   -0.020160632557513266   -0.00029493802598537755
0.0017138261825023445   -0.016417617768360517   -0.00014829365189993616
-0.0005824800755241826   -0.020192649253080175   -0.00035693341240010824
0.0014566836484553147   -0.020129276376292003   -0.0003203237475578454
0.0017138261825023445   -0.016417617768360517   -0.00014829365189993616
-0.0005215135048172248   -0.01642824454231235   -0.00021735498407802944
-0.0005824800755241826   -0.020192649253080175   -0.00035693341240010824
-0.000548208351077648   -0.01639493090412929   -0.00021417482494066574
0.0014566836484553147   -0.020129276376292003   -0.0003203237475578454
-0.0005987125594923342   -0.020164790643014473   -0.0003628474887842188
-0.000548208351077648   -0.01639493090412929   -0.00021417482494066574
-0.0005824800755241826   -0.020192649253080175   -0.00035693341240010824
0.0014566836484553147   -0.020129276376292003   -0.0003203237475578454
-0.000548208351077648   -0.01639493090412929   -0.00021417482494066574
0.0016930676079103188   -0.016379289513480607   -0.00015716559873167648
0.0017138261825023445   -0.016417617768360517   -0.00014829365189993616
0.0014566836484553147   -0.020129276376292003   -0.0003203237475578454
-0.000548208351077648   -0.01639493090412929   -0.00021417482494066574
0.0017138261825023445   -0.016417617768360517   -0.00014829365189993616
-0.0005824800755241826   -0.020192649253080175   -0.00035693341240010824
-0.0005643126635147029   -0.02027735531675211   -0.00033697764109959065
-0.00048099807218998734   -0.016513297811070582   -0.00021608054284595786
-0.00247199115244717   -0.020267084434257655   -0.00042262967243720867
-0.0005731984537300539   -0.02022976930678831   -0.0003483409307780144
-0.00048099807218998734   -0.016513297811070582   -0.00021608054284595786
-0.0025938968841804394   -0.016493458706842552   -0.00029541213801250214
-0.00247199115244717   -0.020267084434257655   -0.00042262967243720867
-0.0026155990319989297   -0.016455584760569002   -0.0002868304214311143
-0.0005731984537300539   -0.02022976930678831   -0.0003483409307780144
-0.0024846207706501664   -0.02022753132727864   -0.00041750549893692756
-0.0026155990319989297   -0.016455584760569002   -0.0002868304214311143
-0.00247199115244717   -0.020267084434257655   -0.00042262967243720867
-0.0005731984537300539   -0.02022976930678831   -0.0003483409307780144
-0.0026155990319989297   -0.016455584760569002   -0.0002868304214311143
-0.0005001834845644142   -0.01646735057719264   -0.00021795763578976829
-0.00048099807218998734   -0.016513297811070582   -0.00021608054284595786
-0.0005731984537300539   -0.02022976930678831   -0.0003483409307780144
-0.0026155990319989297   -0.016455584760569002   -0.0002868304214311143
-0.00048099807218998734   -0.016513297811070582   -0.00021608054284595786
-0.00247199115244717   -0.020267084434257655   -0.00042262967243720867
-0.0005731984537300539   -0.02022976930678831   -0.0003483409307780144
-0.0005001834845644142   -0.01646735057719264   -0.00021795763578976829
-0.0024846207706501664   -0.02022753132727864   -0.00041750549893692756
-0.0005824800755241826   -0.020192649253080175   -0.00035693341240010824
-0.0005001834845644142   -0.01646735057719264   -0.00021795763578976829
-0.0026155990319989297   -0.016455584760569002   -0.0002868304214311143
-0.0024846207706501664   -0.02022753132727864   -0.00041750549893692756
-0.0026377527353442366   -0.01642327843712983   -0.0002756599135896565
-0.0005824800755241826   -0.020192649253080175   -0.00035693341240010824
-0.002497426701069842   -0.020196943999542995   -0.0004095234764778986
-0.0026377527353442366   -0.01642327843712983   -0.0002756599135896565
-0.0024846207706501664   -0.02022753132727864   -0.00041750549893692756
-0.0005824800755241826   -0.020192649253080175   -0.00035693341240010824
-0.0026377527353442366   -0.01642327843712983   -0.0002756599135896565
-0.0005215135048172248   -0.01642824454231235   -0.00021735498407802944
-0.0005001834845644142   -0.01646735057719264   -0.00021795763578976829
-0.0005824800755241826   -0.020192649253080175   -0.00035693341240010824
-0.0026377527353442366   -0.01642327843712983   -0.0002756599135896565
-0.0005001834845644142   -0.01646735057719264   -0.00021795763578976829
-0.0024846207706501664   -0.02022753132727864   -0.00041750549893692756
-0.0005824800755241826   -0.020192649253080175   -0.00035693341240010824
-0.0005215135048172248   -0.01642824454231235   -0.00021735498407802944
-0.002497426701069842   -0.020196943999542995   -0.0004095234764778986
-0.0005987125594923342   -0.020164790643014473   -0.0003628474887842188
-0.0005215135048172248   -0.01642824454231235   -0.00021735498407802944
-0.0026377527353442366   -0.01642327843712983   -0.0002756599135896565
-0.002497426701069842   -0.020196943999542995   -0.0004095234764778986
-0.0026618163905871156   -0.016396861715971243   -0.0002620285848708329
-0.0005987125594923342   -0.020164790643014473   -0.0003628474887842188
-0.002512270264173415   -0.020175471919534605   -0.00039882816960030217
-0.0026618163905871156   -0.016396861715971243   -0.0002620285848708329
-0.002497426701069842   -0.020196943999542995   -0.0004095234764778986
-0.0005987125594923342   -0.020164790643014473   -0.0003628474887842188
-0.0026618163905871156   -0.016396861715971243   -0.0002620285848708329
-0.000548208351077648   -0.01639493090412929   -0.00021417482494066574
-0.0005215135048172248   -0.01642824454231235   -0.00021735498407802944
-0.0005987125594923342   -0.020164790643014473   -0.0003628474887842188
-0.0026618163905871156   -0.016396861715971243   -0.0002620285848708329
-0.0005215135048172248   -0.01642824454231235   -0.00021735498407802944
-0.002497426701069842   -0.020196943999542995   -0.0004095234764778986
-0.00247199115244717   -0.020267084434257655   -0.00042262967243720867
-0.0025938968841804394   -0.016493458706842552   -0.00029541213801250214
-0.004347732161644419   -0.020227338635613504   -0.0004956575125915588
-0.0024846207706501664   -0.02022753132727864   -0.00041750549893692756
-0.0025938968841804394   -0.016493458706842552   -0.00029541213801250214
-0.004671104092492013   -0.016455856524177203   -0.0003619819371073616
-0.004347732161644419   -0.020227338635613504   -0.0004956575125915588
-0.004693523931883238   -0.01642538228901166   -0.0003429799730054109
-0.0024846207706501664   -0.02022753132727864   -0.00041750549893692756
-0.0043614251015004265   -0.02019504005623979   -0.0004741391870106241
-0.004693523931883238   -0.01642538228901166   -0.0003429799730054109
-0.004347732161644419   -0.020227338635613504   -0.0004956575125915588
-0.0024846207706501664   -0.02022753132727864   -0.00041750549893692756
-0.004693523931883238   -0.01642538228901166   -0.0003429799730054109
-0.0026155990319989297   -0.016455584760569002   -0.0002868304214311143
-0.0025938968841804394   -0.016493458706842552   -0.00029541213801250214
-0.0024846207706501664   -0.02022753132727864   -0.00041750549893692756
-0.004693523931883238   -0.01642538228901166   -0.0003429799730054109
-0.0025938968841804394   -0.016493458706842552   -0.00029541213801250214
-0.004347732161644419   -0.020227338635613504   -0.0004956575125915588
-0.0024846207706501664   -0.02022753132727864   -0.00041750549893692756
-0.0026155990319989297   -0.016455584760569002   -0.0002868304214311143
-0.0043614251015004265   -0.02019504005623979   -0.0004741391870106241
-0.002497426701069842   -0.020196943999542995   -0.0004095234764778986
-0.0026155990319989297   -0.016455584760569002   -0.0002868304214311143
-0.004693523931883238   -0.01642538228901166   -0.0003429799730054109
-0.0043614251015004265   -0.02019504005623979   -0.0004741391870106241
-0.004713826203892162   -0.01640043651220054   -0.0003214516580108554
-0.002497426701069842   -0.020196943999542995   -0.0004095234764778986
-0.004372722806327577   -0.020171622618677006   -0.0004498167898235175
-0.004713826203892162   -0.01640043651220054   -0.0003214516580108554
-0.0043614251015004265   -0.02019504005623979   -0.0004741391870106241
-0.002497426701069842   -0.020196943999542995   -0.0004095234764778986
-0.004713826203892162   -0.01640043651220054   -0.0003214516580108554
-0.0026377527353442366   -0.01642327843712983   -0.0002756599135896565
-0.0026155990319989297   -0.016455584760569002   -0.0002868304214311143
-0.002497426701069842   -0.020196943999542995   -0.0004095234764778986
-0.004713826203892162   -0.01640043651220054   -0.0003214516580108554
-0.0026155990319989297   -0.016455584760569002   -0.0002868304214311143
-0.0043614251015004265   -0.02019504005623979   -0.0004741391870106241
-0.002497426701069842   -0.020196943999542995   -0.0004095234764778986
-0.0026377527353442366   -0.01642327843712983   -0.0002756599135896565
-0.004372722806327577   -0.020171622618677006   -0.0004498167898235175
-0.002512270264173415   -0.020175471919534605   -0.00039882816960030217
-0.0026377527353442366   -0.01642327843712983   -0.0002756599135896565
-0.004713826203892162   -0.01640043651220054   -0.0003214516580108554
-0.004372722806327577   -0.020171622618677006   -0.0004498167898235175
-0.004734325956870081   -0.016381056433889173   -0.00029749081283272395
-0.002512270264173415   -0.020175471919534605   -0.00039882816960030217
-0.00438436439667723   -0.020157046745615543   -0.00042277072506255415
-0.004734325956870081   -0.016381056433889173   -0.00029749081283272395
-0.004372722806327577   -0.020171622618677006   -0.0004498167898235175
-0.002512270264173415   -0.020175471919534605   -0.00039882816960030217
-0.004734325956870081   -0.016381056433889173   -0.00029749081283272395
-0.0026618163905871156   -0.016396861715971243   -0.0002620285848708329
-0.0026377527353442366   -0.01642327843712983   -0.0002756599135896565
-0.002512270264173415   -0.020175471919534605   -0.00039882816960030217
-0.004734325956870081   -0.016381056433889173   -0.00029749081283272395
-0.0026377527353442366   -0.01642327843712983   -0.0002756599135896565
-0.004372722806327577   -0.020171622618677006   -0.0004498167898235175
-0.004347732161644419   -0.020227338635613504   -0.0004956575125915588
-0.004671104092492013   -0.016455856524177203   -0.0003619819371073616
-0.006268050656413433   -0.020158884043986584   -0.0005563966373991723
-0.0043614251015004265   -0.02019504005623979   -0.0004741391870106241
-0.004671104092492013   -0.016455856524177203   -0.0003619819371073616
-0.006789613453852403   -0.016399703257790128   -0.0004159812760749714
-0.006268050656413433   -0.020158884043986584   -0.0005563966373991723
-0.006810358814228407   -0.016376671784695054   -0.00038647583406567216
-0.0043614251015004265   -0.02019504005623979   -0.0004741391870106241
-0.006279259778403129   -0.02013364104346662   -0.0005182544626308743
-0.006810358814228407   -0.016376671784695054   -0.00038647583406567216
-0.006268050656413433   -0.020158884043986584   -0.0005563966373991723
-0.0043614251015004265   -0.02019504005623979   -0.0004741391870106241
-0.006810358814228407   -0.016376671784695054   -0.00038647583406567216
-0.004693523931883238   -0.01642538228901166   -0.0003429799730054109
-0.004671104092492013   -0.016455856524177203   -0.0003619819371073616
-0.0043614251015004265   -0.02019504005623979   -0.0004741391870106241
-0.006810358814228407   -0.016376671784695054   -0.00038647583406567216
-0.004671104092492013   -0.016455856524177203   -0.0003619819371073616
-0.006268050656413433   -0.020158884043986584   -0.0005563966373991723
-0.0043614251015004265   -0.02019504005623979   -0.0004741391870106241
-0.004693523931883238   -0.01642538228901166   -0.0003429799730054109
-0.006279259778403129   -0.02013364104346662   -0.0005182544626308743
-0.004372722806327577   -0.020171622618677006   -0.0004498167898235175
-0.004693523931883238   -0.01642538228901166   -0.0003429799730054109
-0.006810358814228407   -0.016376671784695054   -0.00038647583406567216
-0.006279259778403129   -0.02013364104346662   -0.0005182544626308743
-0.006822654625684436   -0.016358520698747717   -0.00035477933507376653
-0.004372722806327577   -0.020171622618677006   -0.0004498167898235175
-0.006280290868994206   -0.020116785311238745   -0.0004776951211664771
-0.006822654625684436   -0.016358520698747717   -0.00035477933507376653
-0.006279259778403129   -0.02013364104346662   -0.0005182544626308743
-0.004372722806327577   -0.020171622618677006   -0.0004498167898235175
-0.006822654625684436   -0.016358520698747717   -0.00035477933507376653
-0.004713826203892162   -0.01640043651220054   -0.0003214516580108554
-0.004693523931883238   -0.01642538228901166   -0.0003429799730054109
-0.004372722806327577   -0.020171622618677006   -0.0004498167898235175
-0.006822654625684436   -0.016358520698747717   -0.00035477933507376653
-0.004693523931883238   -0.01642538228901166   -0.0003429799730054109
-0.006279259778403129   -0.02013364104346662   -0.0005182544626308743
-0.004372722806327577   -0.020171622618677006   -0.0004498167898235175
-0.004713826203892162   -0.01640043651220054   -0.0003214516580108554
-0.006280290868994206   -0.020116785311238745   -0.0004776951211664771
-0.00438436439667723   -0.020157046745615543   -0.00042277072506255415
-0.004713826203892162   -0.01640043651220054   -0.0003214516580108554
-0.006822654625684436   -0.016358520698747717   -0.00035477933507376653
-0.006280290868994206   -0.020116785311238745   -0.0004776951211664771
-0.0068363006237831285   -0.016346431411325846   -0.0003204414455174895
-0.00438436439667723   -0.020157046745615543   -0.00042277072506255415
-0.0062843067698614054   -0.020109577317896345   -0.00043420322118511935
-0.0068363006237831285   -0.016346431411325846   -0.0003204414455174895
-0.006280290868994206   -0.020116785311238745   -0.0004776951211664771
-0.00438436439667723   -0.020157046745615543   -0.00042277072506255415
-0.0068363006237831285   -0.016346431411325846   -0.0003204414455174895
-0.004734325956870081   -0.016381056433889173   -0.00029749081283272395
-0.004713826203892162   -0.01640043651220054   -0.0003214516580108554
-0.00438436439667723   -0.020157046745615543   -0.00042277072506255415
-0.0068363006237831285   -0.016346431411325846   -0.0003204414455174895
-0.004713826203892162   -0.01640043651220054   -0.0003214516580108554
-0.006280290868994206   -0.020116785311238745   -0.0004776951211664771
-0.006268050656413433   -0.020158884043986584   -0.0005563966373991723
-0.006789613453852403   -0.016399703257790128   -0.0004159812760749714
-0.008362812394138122   -0.02006860734188072   -0.0006083090975711026
-0.006279259778403129   -0.02013364104346662   -0.0005182544626308743
-0.006789613453852403   -0.016399703257790128   -0.0004159812760749714
-0.009064603293986595   -0.01633015852472529   -0.0004586693862054802
-0.008362812394138122   -0.02006860734188072   -0.0006083090975711026
-0.009047583802382634   -0.016310896248409774   -0.0004190773549628376
-0.006279259778403129   -0.02013364104346662   -0.0005182544626308743
-0.008321281272548485   -0.02004554326490206   -0.0005524383164526743
-0.009047583802382634   -0.016310896248409774   -0.0004190773549628376
-0.008362812394138122   -0.02006860734188072   -0.0006083090975711026
-0.006279259778403129   -0.02013364104346662   -0.0005182544626308743
-0.009047583802382634   -0.016310896248409774   -0.0004190773549628376
-0.006810358814228407   -0.016376671784695054   -0.00038647583406567216
-0.006789613453852403   -0.016399703257790128   -0.0004159812760749714
-0.006279259778403129   -0.02013364104346662   -0.0005182544626308743
-0.009047583802382634   -0.016310896248409774   -0.0004190773549628376
-0.006789613453852403   -0.016399703257790128   -0.0004159812760749714
-0.008362812394138122   -0.02006860734188072   -0.0006083090975711026
-0.006279259778403129   -0.02013364104346662   -0.0005182544626308743
-0.006810358814228407   -0.016376671784695054   -0.00038647583406567216
-0.008321281272548485   -0.02004554326490206   -0.0005524383164526743
-0.006280290868994206   -0.020116785311238745   -0.0004776951211664771
-0.006810358814228407   -0.016376671784695054   -0.00038647583406567216
-0.009047583802382634   -0.016310896248409774   -0.0004190773549628376
-0.008321281272548485   -0.02004554326490206   -0.0005524383164526743
-0.009033695163415597   -0.016295951529755635   -0.00037546388627257766
-0.006280290868994206   -0.020116785311238745   -0.0004776951211664771
-0.008286354561193077   -0.02003147664591993   -0.0004923373870549341
-0.009033695163415597   -0.016295951529755635   -0.00037546388627257766
-0.008321281272548485   -0.02004554326490206   -0.0005524383164526743
-0.006280290868994206   -0.020116785311238745   -0.0004776951211664771
-0.009033695163415597   -0.016295951529755635   -0.00037546388627257766
-0.006822654625684436   -0.016358520698747717   -0.00035477933507376653
-0.006810358814228407   -0.016376671784695054   -0.00038647583406567216
-0.006280290868994206   -0.020116785311238745   -0.0004776951211664771
-0.009033695163415597   -0.016295951529755635   -0.00037546388627257766
-0.006810358814228407   -0.016376671784695054   -0.00038647583406567216
-0.008321281272548485   -0.02004554326490206   -0.0005524383164526743
-0.006280290868994206   -0.020116785311238745   -0.0004776951211664771
-0.006822654625684436   -0.016358520698747717   -0.00035477933507376653
-0.008286354561193077   -0.02003147664591993   -0.0004923373870549341
-0.0062843067698614054   -0.020109577317896345   -0.00043420322118511935
-0.006822654625684436   -0.016358520698747717   -0.00035477933507376653
-0.009033695163415597   -0.016295951529755635   -0.00037546388627257766
-0.008286354561193077   -0.02003147664591993   -0.0004923373870549341
-0.009001688317957042   -0.01629267623207626   -0.000328285906013088
-0.0062843067698614054   -0.020109577317896345   -0.00043420322118511935
-0.008229241911956248   -0.020033726266398922   -0.00042853666080222395
-0.009001688317957042   -0.01629267623207626   -0.000328285906013088
-0.008286354561193077   -0.02003147664591993   -0.0004923373870549341
-0.0062843067698614054   -0.020109577317896345   -0.00043420322118511935
-0.009001688317957042   -0.01629267623207626   -0.000328285906013088
-0.0068363006237831285   -0.016346431411325846   -0.0003204414455174895
-0.006822654625684436   -0.016358520698747717   -0.00035477933507376653
-0.0062843067698614054   -0.020109577317896345   -0.00043420322118511935
-0.009001688317957042   -0.01629267623207626   -0.000328285906013088
-0.006822654625684436   -0.016358520698747717   -0.00035477933507376653
-0.008286354561193077   -0.02003147664591993   -0.0004923373870549341
0.0017334722164186985   -0.01651292535877421   -0.00011918110886312074
0.0018048311691159786   -0.012498991191737693   -2.0306741364974962e-05
-0.00048099807218998734   -0.016513297811070582   -0.00021608054284595786
0.0017285408428002493   -0.016459783067349364   -0.00013572475859444802
0.0018048311691159786   -0.012498991191737693   -2.0306741364974962e-05
-0.0005416251333361296   -0.012479120960327435   -0.00010704424084736351
-0.00048099807218998734   -0.016513297811070582   -0.00021608054284595786
-0.0005682492369741189   -0.012435277450964661   -9.935078194511925e-05
0.0017285408428002493   -0.016459783067349364   -0.00013572475859444802
-0.0005001834845644142   -0.01646735057719264   -0.00021795763578976829
-0.0005682492369741189   -0.012435277450964661   -9.935078194511925e-05
-0.00048099807218998734   -0.016513297811070582   -0.00021608054284595786
0.0017285408428002493   -0.016459783067349364   -0.00013572475859444802
-0.0005682492369741189   -0.012435277450964661   -9.935078194511925e-05
0.0017773792350235615   -0.012448429701182354   -1.9596863004838826e-05
0.0018048311691159786   -0.012498991191737693   -2.0306741364974962e-05
0.0017285408428002493   -0.016459783067349364   -0.00013572475859444802
-0.0005682492369741189   -0.012435277450964661   -9.935078194511925e-05
0.0018048311691159786   -0.012498991191737693   -2.0306741364974962e-05
-0.00048099807218998734   -0.016513297811070582   -0.00021608054284595786
0.0017285408428002493   -0.016459783067349364   -0.00013572475859444802
0.0017773792350235615   -0.012448429701182354   -1.9596863004838826e-05
-0.0005001834845644142   -0.01646735057719264   -0.00021795763578976829
0.0017138261825023445   -0.016417617768360517   -0.00014829365189993616
0.0017773792350235615   -0.012448429701182354   -1.9596863004838826e-05
-0.0005682492369741189   -0.012435277450964661   -9.935078194511925e-05
-0.0005001834845644142   -0.01646735057719264   -0.00021795763578976829
-0.0005987926074033864   -0.012394213726859962   -8.938866406738293e-05
0.0017138261825023445   -0.016417617768360517   -0.00014829365189993616
-0.0005215135048172248   -0.01642824454231235   -0.00021735498407802944
-0.0005987926074033864   -0.012394213726859962   -8.938866406738293e-05
-0.0005001834845644142   -0.01646735057719264   -0.00021795763578976829
0.0017138261825023445   -0.016417617768360517   -0.00014829365189993616
-0.0005987926074033864   -0.012394213726859962   -8.938866406738293e-05
0.0017430592516092353   -0.012403728866175242   -1.4265141179276394e-05
0.0017773792350235615   -0.012448429701182354   -1.9596863004838826e-05
0.0017138261825023445   -0.016417617768360517   -0.00014829365189993616
-0.0005987926074033864   -0.012394213726859962   -8.938866406738293e-05
0.0017773792350235615   -0.012448429701182354   -1.9596863004838826e-05
-0.0005001834845644142   -0.01646735057719264   -0.00021795763578976829
0.0017138261825023445   -0.016417617768360517   -0.00014829365189993616
0.0017430592516092353   -0.012403728866175242   -1.4265141179276394e-05
-0.0005215135048172248   -0.01642824454231235   -0.00021735498407802944
0.0016930676079103188   -0.016379289513480607   -0.00015716559873167648
0.0017430592516092353   -0.012403728866175242   -1.4265141179276394e-05
-0.0005987926074033864   -0.012394213726859962   -8.938866406738293e-05
-0.0005215135048172248   -0.01642824454231235   -0.00021735498407802944
-0.0006332285251095949   -0.012355351555828127   -7.659186188009526e-05
0.0016930676079103188   -0.016379289513480607   -0.00015716559873167648
-0.000548208351077648   -0.01639493090412929   -0.00021417482494066574
-0.0006332285251095949   -0.012355351555828127   -7.659186188009526e-05
-0.0005215135048172248   -0.01642824454231235   -0.00021735498407802944
0.0016930676079103188   -0.016379289513480607   -0.00015716559873167648
-0.0006332285251095949   -0.012355351555828127   -7.659186188009526e-05
0.001697654645975186   -0.01235721148757663   -4.516486603655155e-06
0.0017430592516092353   -0.012403728866175242   -1.4265141179276394e-05
0.0016930676079103188   -0.016379289513480607   -0.00015716559873167648
-0.0006332285251095949   -0.012355351555828127   -7.659186188009526e-05
0.0017430592516092353   -0.012403728866175242   -1.4265141179276394e-05
-0.0005215135048172248   -0.01642824454231235   -0.00021735498407802944
-0.00048099807218998734   -0.016513297811070582   -0.00021608054284595786
-0.0005416251333361296   -0.012479120960327435   -0.00010704424084736351
-0.0025938968841804394   -0.016493458706842552   -0.00029541213801250214
-0.0005001834845644142   -0.01646735057719264   -0.00021795763578976829
-0.0005416251333361296   -0.012479120960327435   -0.00010704424084736351
-0.0027647970632036028   -0.012455171907929703   -0.00017978495860997796
-0.0025938968841804394   -0.016493458706842552   -0.00029541213801250214
-0.0027921599060661763   -0.012418797803477072   -0.0001674850428650675
-0.0005001834845644142   -0.01646735057719264   -0.00021795763578976829
-0.0026155990319989297   -0.016455584760569002   -0.0002868304214311143
-0.0027921599060661763   -0.012418797803477072   -0.0001674850428650675
-0.0025938968841804394   -0.016493458706842552   -0.00029541213801250214
-0.0005001834845644142   -0.01646735057719264   -0.00021795763578976829
-0.0027921599060661763   -0.012418797803477072   -0.0001674850428650675
-0.0005682492369741189   -0.012435277450964661   -9.935078194511925e-05
-0.0005416251333361296   -0.012479120960327435   -0.00010704424084736351
-0.0005001834845644142   -0.01646735057719264   -0.00021795763578976829
-0.0027921599060661763   -0.012418797803477072   -0.0001674850428650675
-0.0005416251333361296   -0.012479120960327435   -0.00010704424084736351
-0.0025938968841804394   -0.016493458706842552   -0.00029541213801250214
-0.0005001834845644142   -0.01646735057719264   -0.00021795763578976829
-0.0005682492369741189   -0.012435277450964661   -9.935078194511925e-05
-0.0026155990319989297   -0.016455584760569002   -0.0002868304214311143
-0.0005215135048172248   -0.01642824454231235   -0.00021735498407802944
-0.0005682492369741189   -0.012435277450964661   -9.935078194511925e-05
-0.0027921599060661763   -0.012418797803477072   -0.0001674850428650675
-0.0026155990319989297   -0.016455584760569002   -0.0002868304214311143
-0.0028201595772626977   -0.012384574351775682   -0.0001530123260737052
-0.0005215135048172248   -0.01642824454231235   -0.00021735498407802944
-0.0026377527353442366   -0.01642327843712983   -0.0002756599135896565
-0.0028201595772626977   -0.012384574351775682   -0.0001530123260737052
-0.0026155990319989297   -0.016455584760569002   -0.0002868304214311143
-0.0005215135048172248   -0.01642824454231235   -0.00021735498407802944
-0.0028201595772626977   -0.012384574351775682   -0.0001530123260737052
-0.0005987926074033864   -0.012394213726859962   -8.938866406738293e-05
-0.0005682492369741189   -0.012435277450964661   -9.935078194511925e-05
-0.0005215135048172248   -0.01642824454231235   -0.00021735498407802944
-0.0028201595772626977   -0.012384574351775682   -0.0001530123260737052
-0.0005682492369741189   -0.012435277450964661   -9.935078194511925e-05
-0.0026155990319989297   -0.016455584760569002   -0.0002868304214311143
-0.0005215135048172248   -0.01642824454231235   -0.00021735498407802944
-0.0005987926074033864   -0.012394213726859962   -8.938866406738293e-05
-0.0026377527353442366   -0.01642327843712983   -0.0002756599135896565
-0.000548208351077648   -0.01639493090412929   -0.00021417482494066574
-0.0005987926074033864   -0.012394213726859962   -8.938866406738293e-05
-0.0028201595772626977   -0.012384574351775682   -0.0001530123260737052
-0.0026377527353442366   -0.01642327843712983   -0.0002756599135896565
-0.0028499770168985026   -0.012353064744095086   -0.00013635170806510047
-0.000548208351077648   -0.01639493090412929   -0.00021417482494066574
-0.0026618163905871156   -0.016396861715971243   -0.0002620285848708329
-0.0028499770168985026   -0.012353064744095086   -0.00013635170806510047
-0.0026377527353442366   -0.01642327843712983   -0.0002756599135896565
-0.000548208351077648   -0.01639493090412929   -0.00021417482494066574
-0.0028499770168985026   -0.012353064744095086   -0.00013635170806510047
-0.0006332285251095949   -0.012355351555828127   -7.659186188009526e-05
-0.0005987926074033864   -0.012394213726859962   -8.938866406738293e-05
-0.000548208351077648   -0.01639493090412929   -0.00021417482494066574
-0.0028499770168985026   -0.012353064744095086   -0.00013635170806510047
-0.0005987926074033864   -0.012394213726859962   -8.938866406738293e-05
-0.0026377527353442366   -0.01642327843712983   -0.0002756599135896565
-0.0025938968841804394   -0.016493458706842552   -0.00029541213801250214
-0.0027647970632036028   -0.012455171907929703   -0.00017978495860997796
-0.004671104092492013   -0.016455856524177203   -0.0003619819371073616
-0.0026155990319989297   -0.016455584760569002   -0.0002868304214311143
-0.0027647970632036028   -0.012455171907929703   -0.00017978495860997796
-0.0049513903818965725   -0.012426090788096636   -0.00024116461529971204
-0.004671104092492013   -0.016455856524177203   -0.0003619819371073616
-0.004978634650980677   -0.012396595220568811   -0.00022429276645122517
-0.0026155990319989297   -0.016455584760569002   -0.0002868304214311143
-0.004693523931883238   -0.01642538228901166   -0.0003429799730054109
-0.004978634650980677   -0.012396595220568811   -0.00022429276645122517
-0.004671104092492013   -0.016455856524177203   -0.0003619819371073616
-0.0026155990319989297   -0.016455584760569002   -0.0002868304214311143
-0.004978634650980677   -0.012396595220568811   -0.00022429276645122517
-0.0027921599060661763   -0.012418797803477072   -0.0001674850428650675
-0.0027647970632036028   -0.012455171907929703   -0.00017978495860997796
-0.0026155990319989297   -0.016455584760569002   -0.0002868304214311143
-0.004978634650980677   -0.012396595220568811   -0.00022429276645122517
-0.0027647970632036028   -0.012455171907929703   -0.00017978495860997796
-0.004671104092492013   -0.016455856524177203   -0.0003619819371073616
-0.0026155990319989297   -0.016455584760569002   -0.0002868304214311143
-0.0027921599060661763   -0.012418797803477072   -0.0001674850428650675
-0.004693523931883238   -0.01642538228901166   -0.0003429799730054109
-0.0026377527353442366   -0.01642327843712983   -0.0002756599135896565
-0.0027921599060661763   -0.012418797803477072   -0.0001674850428650675
-0.004978634650980677   -0.012396595220568811   -0.00022429276645122517
-0.004693523931883238   -0.01642538228901166   -0.0003429799730054109
-0.005004093632619936   -0.012369358230509303   -0.00020532189586700402
-0.0026377527353442366   -0.01642327843712983   -0.0002756599135896565
-0.004713826203892162   -0.01640043651220054   -0.0003214516580108554
-0.005004093632619936   -0.012369358230509303   -0.00020532189586700402
-0.004693523931883238   -0.01642538228901166   -0.0003429799730054109
-0.0026377527353442366   -0.01642327843712983   -0.0002756599135896565
-0.005004093632619936   -0.012369358230509303   -0.00020532189586700402
-0.0028201595772626977   -0.012384574351775682   -0.0001530123260737052
-0.0027921599060661763   -0.012418797803477072   -0.0001674850428650675
-0.0026377527353442366   -0.01642327843712983   -0.0002756599135896565
-0.005004093632619936   -0.012369358230509303   -0.00020532189586700402
-0.0027921599060661763   -0.012418797803477072   -0.0001674850428650675
-0.004693523931883238   -0.01642538228901166   -0.0003429799730054109
-0.0026377527353442366   -0.01642327843712983   -0.0002756599135896565
-0.0028201595772626977   -0.012384574351775682   -0.0001530123260737052
-0.004713826203892162   -0.01640043651220054   -0.0003214516580108554
-0.0026618163905871156   -0.016396861715971243   -0.0002620285848708329
-0.0028201595772626977   -0.012384574351775682   -0.0001530123260737052
-0.005004093632619936   -0.012369358230509303   -0.00020532189586700402
-0.004713826203892162   -0.01640043651220054   -0.0003214516580108554
-0.005029644424358045   -0.012344450164701176   -0.00018435347450687284
-0.0026618163905871156   -0.016396861715971243   -0.0002620285848708329
-0.004734325956870081   -0.016381056433889173   -0.00029749081283272395
-0.005029644424358045   -0.012344450164701176   -0.00018435347450687284
-0.004713826203892162   -0.01640043651220054   -0.0003214516580108554
-0.0026618163905871156   -0.016396861715971243   -0.0002620285848708329
-0.005029644424358045   -0.012344450164701176   -0.00018435347450687284
-0.0028499770168985026   -0.012353064744095086   -0.00013635170806510047
-0.0028201595772626977   -0.012384574351775682   -0.0001530123260737052
-0.0026618163905871156   -0.016396861715971243   -0.0002620285848708329
-0.005029644424358045   -0.012344450164701176   -0.00018435347450687284
-0.0028201595772626977   -0.012384574351775682   -0.0001530123260737052
-0.004713826203892162   -0.01640043651220054   -0.0003214516580108554
-0.004671104092492013   -0.016455856524177203   -0.0003619819371073616
-0.0049513903818965725   -0.012426090788096636   -0.00024116461529971204
-0.006789613453852403   -0.016399703257790128   -0.0004159812760749714
-0.004693523931883238   -0.01642538228901166   -0.0003429799730054109
-0.0049513903818965725   -0.012426090788096636   -0.00024116461529971204
-0.007177725755940647   -0.01238654155641799   -0.0002906525526337261
-0.006789613453852403   -0.016399703257790128   -0.0004159812760749714
-0.007203783540926095   -0.012364277515680113   -0.00026926483997100515
-0.004693523931883238   -0.01642538228901166   -0.0003429799730054109
-0.006810358814228407   -0.016376671784695054   -0.00038647583406567216
-0.007203783540926095   -0.012364277515680113   -0.00026926483997100515
-0.006789613453852403   -0.016399703257790128   -0.0004159812760749714
-0.004693523931883238   -0.01642538228901166   -0.0003429799730054109
-0.007203783540926095   -0.012364277515680113   -0.00026926483997100515
-0.004978634650980677   -0.012396595220568811   -0.00022429276645122517
-0.0049513903818965725   -0.012426090788096636   -0.00024116461529971204
-0.004693523931883238   -0.01642538228901166   -0.0003429799730054109
-0.007203783540926095   -0.012364277515680113   -0.00026926483997100515
-0.0049513903818965725   -0.012426090788096636   -0.00024116461529971204
-0.006789613453852403   -0.016399703257790128   -0.0004159812760749714
-0.004693523931883238   -0.01642538228901166   -0.0003429799730054109
-0.004978634650980677   -0.012396595220568811   -0.00022429276645122517
-0.006810358814228407   -0.016376671784695054   -0.00038647583406567216
-0.004713826203892162   -0.01640043651220054   -0.0003214516580108554
-0.004978634650980677   -0.012396595220568811   -0.00022429276645122517
-0.007203783540926095   -0.012364277515680113   -0.00026926483997100515
-0.006810358814228407   -0.016376671784695054   -0.00038647583406567216
-0.007223352010045852   -0.012343495582268766   -0.0002461127650554537
-0.004713826203892162   -0.01640043651220054   -0.0003214516580108554
-0.006822654625684436   -0.016358520698747717   -0.00035477933507376653
-0.007223352010045852   -0.012343495582268766   -0.0002461127650554537
-0.006810358814228407   -0.016376671784695054   -0.00038647583406567216
-0.004713826203892162   -0.01640043651220054   -0.0003214516580108554
-0.007223352010045852   -0.012343495582268766   -0.0002461127650554537
-0.005004093632619936   -0.012369358230509303   -0.00020532189586700402
-0.004978634650980677   -0.012396595220568811   -0.00022429276645122517
-0.004713826203892162   -0.01640043651220054   -0.0003214516580108554
-0.007223352010045852   -0.012343495582268766   -0.0002461127650554537
-0.004978634650980677   -0.012396595220568811   -0.00022429276645122517
-0.006810358814228407   -0.016376671784695054   -0.00038647583406567216
-0.004713826203892162   -0.01640043651220054   -0.0003214516580108554
-0.005004093632619936   -0.012369358230509303   -0.00020532189586700402
-0.006822654625684436   -0.016358520698747717   -0.00035477933507376653
-0.004734325956870081   -0.016381056433889173   -0.00029749081283272395
-0.005004093632619936   -0.012369358230509303   -0.00020532189586700402
-0.007223352010045852   -0.012343495582268766   -0.0002461127650554537
-0.006822654625684436   -0.016358520698747717   -0.00035477933507376653
-0.007242812278289319   -0.012325186441917609   -0.00022074631243234783
-0.004734325956870081   -0.016381056433889173   -0.00029749081283272395
-0.0068363006237831285   -0.016346431411325846   -0.0003204414455174895
-0.007242812278289319   -0.012325186441917609   -0.00022074631243234783
-0.006822654625684436   -0.016358520698747717   -0.00035477933507376653
-0.004734325956870081   -0.016381056433889173   -0.00029749081283272395
-0.007242812278289319   -0.012325186441917609   -0.00022074631243234783
-0.005029644424358045   -0.012344450164701176   -0.00018435347450687284
-0.005004093632619936   -0.012369358230509303   -0.00020532189586700402
-0.004734325956870081   -0.016381056433889173   -0.00029749081283272395
-0.007242812278289319   -0.012325186441917609   -0.00022074631243234783
-0.005004093632619936   -0.012369358230509303   -0.00020532189586700402
-0.006822654625684436   -0.016358520698747717   -0.00035477933507376653
-0.006789613453852403   -0.016399703257790128   -0.0004159812760749714
-0.007177725755940647   -0.01238654155641799   -0.0002906525526337261
-0.009064603293986595   -0.01633015852472529   -0.0004586693862054802
-0.006810358814228407   -0.016376671784695054   -0.00038647583406567216
-0.007177725755940647   -0.01238654155641799   -0.0002906525526337261
-0.009539150149049977   -0.012339408487992096   -0.0003268246387585728
-0.009064603293986595   -0.01633015852472529   -0.0004586693862054802
-0.009542059619001064   -0.012321950382161816   -0.000302855710072747
-0.006810358814228407   -0.016376671784695054   -0.00038647583406567216
-0.009047583802382634   -0.016310896248409774   -0.0004190773549628376
-0.009542059619001064   -0.012321950382161816   -0.000302855710072747
-0.009064603293986595   -0.01633015852472529   -0.0004586693862054802
-0.006810358814228407   -0.016376671784695054   -0.00038647583406567216
-0.009542059619001064   -0.012321950382161816   -0.000302855710072747
-0.007203783540926095   -0.012364277515680113   -0.00026926483997100515
-0.007177725755940647   -0.01238654155641799   -0.0002906525526337261
-0.006810358814228407   -0.016376671784695054   -0.00038647583406567216
-0.009542059619001064   -0.012321950382161816   -0.000302855710072747
-0.007177725755940647   -0.01238654155641799   -0.0002906525526337261
-0.009064603293986595   -0.01633015852472529   -0.0004586693862054802
-0.006810358814228407   -0.016376671784695054   -0.00038647583406567216
-0.007203783540926095   -0.012364277515680113   -0.00026926483997100515
-0.009047583802382634   -0.016310896248409774   -0.0004190773549628376
-0.006822654625684436   -0.016358520698747717   -0.00035477933507376653
-0.007203783540926095   -0.012364277515680113   -0.00026926483997100515
-0.009542059619001064   -0.012321950382161816   -0.000302855710072747
-0.009047583802382634   -0.016310896248409774   -0.0004190773549628376
-0.0095452288141199   -0.012304488631562131   -0.00027534759926861184
-0.006822654625684436   -0.016358520698747717   -0.00035477933507376653
-0.009033695163415597   -0.016295951529755635   -0.00037546388627257766
-0.0095452288141199   -0.012304488631562131   -0.00027534759926861184
-0.009047583802382634   -0.016310896248409774   -0.0004190773549628376
-0.006822654625684436   -0.016358520698747717   -0.00035477933507376653
-0.0095452288141199   -0.012304488631562131   -0.00027534759926861184
-0.007223352010045852   -0.012343495582268766   -0.0002461127650554537
-0.007203783540926095   -0.012364277515680113   -0.00026926483997100515
-0.006822654625684436   -0.016358520698747717   -0.00035477933507376653
-0.0095452288141199   -0.012304488631562131   -0.00027534759926861184
-0.007203783540926095   -0.012364277515680113   -0.00026926483997100515
-0.009047583802382634   -0.016310896248409774   -0.0004190773549628376
-0.006822654625684436   -0.016358520698747717   -0.00035477933507376653
-0.007223352010045852   -0.012343495582268766   -0.0002461127650554537
-0.009033695163415597   -0.016295951529755635   -0.00037546388627257766
-0.0068363006237831285   -0.016346431411325846   -0.0003204414455174895
-0.007223352010045852   -0.012343495582268766   -0.0002461127650554537
-0.0095452288141199   -0.012304488631562131   -0.00027534759926861184
-0.009033695163415597   -0.016295951529755635   -0.00037546388627257766
-0.00953482736496219   -0.012293900219636318   -0.00024471262689271966
-0.0068363006237831285   -0.016346431411325846   -0.0003204414455174895
-0.009001688317957042   -0.01629267623207626   -0.000328285906013088
-0.00953482736496219   -0.012293900219636318   -0.00024471262689271966
-0.009033695163415597   -0.016295951529755635   -0.00037546388627257766
-0.0068363006237831285   -0.016346431411325846   -0.0003204414455174895
-0.00953482736496219   -0.012293900219636318   -0.00024471262689271966
-0.007242812278289319   -0.012325186441917609   -0.00022074631243234783
-0.007223352010045852   -0.012343495582268766   -0.0002461127650554537
-0.0068363006237831285   -0.016346431411325846   -0.0003204414455174895
-0.00953482736496219   -0.012293900219636318   -0.00024471262689271966
-0.007223352010045852   -0.012343495582268766   -0.0002461127650554537
-0.009033695163415597   -0.016295951529755635   -0.00037546388627257766
0.0018048311691159786   -0.012498991191737693   -2.0306741364974962e-05
0.0016265302055731106   -0.00835450243650048   4.8056020453200035e-05
-0.0005416251333361296   -0.012479120960327435   -0.00010704424084736351
0.0017773792350235615   -0.012448429701182354   -1.9596863004838826e-05
0.0016265302055731106   -0.00835450243650048   4.8056020453200035e-05
-0.0007435827500166293   -0.008316210787291431   -2.0058746797063408e-05
-0.0005416251333361296   -0.012479120960327435   -0.00010704424084736351
-0.000775751323750477   -0.00827672921222817   -3.455234957590493e-06
0.0017773792350235615   -0.012448429701182354   -1.9596863004838826e-05
-0.0005682492369741189   -0.012435277450964661   -9.935078194511925e-05
-0.000775751323750477   -0.00827672921222817   -3.455234957590493e-06
-0.0005416251333361296   -0.012479120960327435   -0.00010704424084736351
0.0017773792350235615   -0.012448429701182354   -1.9596863004838826e-05
-0.000775751323750477   -0.00827672921222817   -3.455234957590493e-06
0.0015764344266592394   -0.00830649344531992   6.823365828752934e-05
0.0016265302055731106   -0.00835450243650048   4.8056020453200035e-05
0.0017773792350235615   -0.012448429701182354   -1.9596863004838826e-05
-0.000775751323750477   -0.00827672921222817   -3.455234957590493e-06
0.0016265302055731106   -0.00835450243650048   4.8056020453200035e-05
-0.0005416251333361296   -0.012479120960327435   -0.00010704424084736351
0.0017773792350235615   -0.012448429701182354   -1.9596863004838826e-05
0.0015764344266592394   -0.00830649344531992   6.823365828752934e-05
-0.0005682492369741189   -0.012435277450964661   -9.935078194511925e-05
0.0017430592516092353   -0.012403728866175242   -1.4265141179276394e-05
0.0015764344266592394   -0.00830649344531992   6.823365828752934e-05
-0.000775751323750477   -0.00827672921222817   -3.455234957590493e-06
-0.0005682492369741189   -0.012435277450964661   -9.935078194511925e-05
-0.0008134773965059357   -0.00823518322407904   1.6177240657605797e-05
0.0017430592516092353   -0.012403728866175242   -1.4265141179276394e-05
-0.0005987926074033864   -0.012394213726859962   -8.938866406738293e-05
-0.0008134773965059357   -0.00823518322407904   1.6177240657605797e-05
-0.0005682492369741189   -0.012435277450964661   -9.935078194511925e-05
0.0017430592516092353   -0.012403728866175242   -1.4265141179276394e-05
-0.0008134773965059357   -0.00823518322407904   1.6177240657605797e-05
0.0015200102687068233   -0.008259112422423312   9.76572680657691e-05
0.0015764344266592394   -0.00830649344531992   6.823365828752934e-05
0.0017430592516092353   -0.012403728866175242   -1.4265141179276394e-05
-0.0008134773965059357   -0.00823518322407904   1.6177240657605797e-05
0.0015764344266592394   -0.00830649344531992   6.823365828752934e-05
-0.0005682492369741189   -0.012435277450964661   -9.935078194511925e-05
0.0017430592516092353   -0.012403728866175242   -1.4265141179276394e-05
0.0015200102687068233   -0.008259112422423312   9.76572680657691e-05
-0.0005987926074033864   -0.012394213726859962   -8.938866406738293e-05
0.001697654645975186   -0.01235721148757663   -4.516486603655155e-06
0.0015200102687068233   -0.008259112422423312   9.76572680657691e-05
-0.0008134773965059357   -0.00823518322407904   1.6177240657605797e-05
-0.0005987926074033864   -0.012394213726859962   -8.938866406738293e-05
-0.0008526120106909114   -0.008191181740679104   3.881333994361489e-05
0.001697654645975186   -0.01235721148757663   -4.516486603655155e-06
-0.0006332285251095949   -0.012355351555828127   -7.659186188009526e-05
-0.0008526120106909114   -0.008191181740679104   3.881333994361489e-05
-0.0005987926074033864   -0.012394213726859962   -8.938866406738293e-05
0.001697654645975186   -0.01235721148757663   -4.516486603655155e-06
-0.0008526120106909114   -0.008191181740679104   3.881333994361489e-05
0.0014510196362369635   -0.008200792303340625   0.00013011081788271412
0.0015200102687068233   -0.008259112422423312   9.76572680657691e-05
0.001697654645975186   -0.01235721148757663   -4.516486603655155e-06
-0.0008526120106909114   -0.008191181740679104   3.881333994361489e-05
0.0015200102687068233   -0.008259112422423312   9.76572680657691e-05
-0.0005987926074033864   -0.012394213726859962   -8.938866406738293e-05
-0.0005416251333361296   -0.012479120960327435   -0.00010704424084736351
-0.0007435827500166293   -0.008316210787291431   -2.0058746797063408e-05
-0.0027647970632036028   -0.012455171907929703   -0.00017978495860997796
-0.0005682492369741189   -0.012435277450964661   -9.935078194511925e-05
-0.0007435827500166293   -0.008316210787291431   -2.0058746797063408e-05
-0.0029737728830233246   -0.00830626062171595   -8.535407164866584e-05
-0.0027647970632036028   -0.012455171907929703   -0.00017978495860997796
-0.0030030379434356695   -0.008272075881504448   -6.966865683241438e-05
-0.0005682492369741189   -0.012435277450964661   -9.935078194511925e-05
-0.0027921599060661763   -0.012418797803477072   -0.0001674850428650675
-0.0030030379434356695   -0.008272075881504448   -6.966865683241438e-05
-0.0027647970632036028   -0.012455171907929703   -0.00017978495860997796
-0.0005682492369741189   -0.012435277450964661   -9.935078194511925e-05
-0.0030030379434356695   -0.008272075881504448   -6.966865683241438e-05
-0.000775751323750477   -0.00827672921222817   -3.455234957590493e-06
-0.0007435827500166293   -0.008316210787291431   -2.0058746797063408e-05
-0.0005682492369741189   -0.012435277450964661   -9.935078194511925e-05
-0.0030030379434356695   -0.008272075881504448   -6.966865683241438e-05
-0.0007435827500166293   -0.008316210787291431   -2.0058746797063408e-05
-0.0027647970632036028   -0.012455171907929703   -0.00017978495860997796
-0.0005682492369741189   -0.012435277450964661   -9.935078194511925e-05
-0.000775751323750477   -0.00827672921222817   -3.455234957590493e-06
-0.0027921599060661763   -0.012418797803477072   -0.0001674850428650675
-0.0005987926074033864   -0.012394213726859962   -8.938866406738293e-05
-0.000775751323750477   -0.00827672921222817   -3.455234957590493e-06
-0.0030030379434356695   -0.008272075881504448   -6.966865683241438e-05
-0.0027921599060661763   -0.012418797803477072   -0.0001674850428650675
-0.0030333578236946164   -0.008236565302896253   -5.2381810719067764e-05
-0.0005987926074033864   -0.012394213726859962   -8.938866406738293e-05
-0.0028201595772626977   -0.012384574351775682   -0.0001530123260737052
-0.0030333578236946164   -0.008236565302896253   -5.2381810719067764e-05
-0.0027921599060661763   -0.012418797803477072   -0.0001674850428650675
-0.0005987926074033864   -0.012394213726859962   -8.938866406738293e-05
-0.0030333578236946164   -0.008236565302896253   -5.2381810719067764e-05
-0.0008134773965059357   -0.00823518322407904   1.6177240657605797e-05
-0.000775751323750477   -0.00827672921222817   -3.455234957590493e-06
-0.0005987926074033864   -0.012394213726859962   -8.938866406738293e-05
-0.0030333578236946164   -0.008236565302896253   -5.2381810719067764e-05
-0.000775751323750477   -0.00827672921222817   -3.455234957590493e-06
-0.0027921599060661763   -0.012418797803477072   -0.0001674850428650675
-0.0005987926074033864   -0.012394213726859962   -8.938866406738293e-05
-0.0008134773965059357   -0.00823518322407904   1.6177240657605797e-05
-0.0028201595772626977   -0.012384574351775682   -0.0001530123260737052
-0.0006332285251095949   -0.012355351555828127   -7.659186188009526e-05
-0.0008134773965059357   -0.00823518322407904   1.6177240657605797e-05
-0.0030333578236946164   -0.008236565302896253   -5.2381810719067764e-05
-0.0028201595772626977   -0.012384574351775682   -0.0001530123260737052
-0.003064970053833871   -0.008200429236834622   -3.3183851114064606e-05
-0.0006332285251095949   -0.012355351555828127   -7.659186188009526e-05
-0.0028499770168985026   -0.012353064744095086   -0.00013635170806510047
-0.003064970053833871   -0.008200429236834622   -3.3183851114064606e-05
-0.0028201595772626977   -0.012384574351775682   -0.0001530123260737052
-0.0006332285251095949   -0.012355351555828127   -7.659186188009526e-05
-0.003064970053833871   -0.008200429236834622   -3.3183851114064606e-05
-0.0008526120106909114   -0.008191181740679104   3.881333994361489e-05
-0.0008134773965059357   -0.00823518322407904   1.6177240657605797e-05
-0.0006332285251095949   -0.012355351555828127   -7.659186188009526e-05
-0.003064970053833871   -0.008200429236834622   -3.3183851114064606e-05
-0.0008134773965059357   -0.00823518322407904   1.6177240657605797e-05
-0.0028201595772626977   -0.012384574351775682   -0.0001530123260737052
-0.0027647970632036028   -0.012455171907929703   -0.00017978495860997796
-0.0029737728830233246   -0.00830626062171595   -8.535407164866584e-05
-0.0049513903818965725   -0.012426090788096636   -0.00024116461529971204
-0.0027921599060661763   -0.012418797803477072   -0.0001674850428650675
-0.0029737728830233246   -0.00830626062171595   -8.535407164866584e-05
-0.005179880320110538   -0.008303437020756251   -0.00014415007765265675
-0.0049513903818965725   -0.012426090788096636   -0.00024116461529971204
-0.00520794947565965   -0.008273660515885002   -0.00012898369224627167
-0.0027921599060661763   -0.012418797803477072   -0.0001674850428650675
-0.004978634650980677   -0.012396595220568811   -0.00022429276645122517
-0.00520794947565965   -0.008273660515885002   -0.00012898369224627167
-0.0049513903818965725   -0.012426090788096636   -0.00024116461529971204
-0.0027921599060661763   -0.012418797803477072   -0.0001674850428650675
-0.00520794947565965   -0.008273660515885002   -0.00012898369224627167
-0.0030030379434356695   -0.008272075881504448   -6.966865683241438e-05
-0.0029737728830233246   -0.00830626062171595   -8.535407164866584e-05
-0.0027921599060661763   -0.012418797803477072   -0.0001674850428650675
-0.00520794947565965   -0.008273660515885002   -0.00012898369224627167
-0.0029737728830233246   -0.00830626062171595   -8.535407164866584e-05
-0.0049513903818965725   -0.012426090788096636   -0.00024116461529971204
-0.0027921599060661763   -0.012418797803477072   -0.0001674850428650675
-0.0030030379434356695   -0.008272075881504448   -6.966865683241438e-05
-0.004978634650980677   -0.012396595220568811   -0.00022429276645122517
-0.0028201595772626977   -0.012384574351775682   -0.0001530123260737052
-0.0030030379434356695   -0.008272075881504448   -6.966865683241438e-05
-0.00520794947565965   -0.008273660515885002   -0.00012898369224627167
-0.004978634650980677   -0.012396595220568811   -0.00022429276645122517
-0.005234693727150624   -0.008243423674225635   -0.00011240935298220058
-0.0028201595772626977   -0.012384574351775682   -0.0001530123260737052
-0.005004093632619936   -0.012369358230509303   -0.00020532189586700402
-0.005234693727150624   -0.008243423674225635   -0.00011240935298220058
-0.004978634650980677   -0.012396595220568811   -0.00022429276645122517
-0.0028201595772626977   -0.012384574351775682   -0.0001530123260737052
-0.005234693727150624   -0.008243423674225635   -0.00011240935298220058
-0.0030333578236946164   -0.008236565302896253   -5.2381810719067764e-05
-0.0030030379434356695   -0.008272075881504448   -6.966865683241438e-05
-0.0028201595772626977   -0.012384574351775682   -0.0001530123260737052
-0.005234693727150624   -0.008243423674225635   -0.00011240935298220058
-0.0030030379434356695   -0.008272075881504448   -6.966865683241438e-05
-0.004978634650980677   -0.012396595220568811   -0.00022429276645122517
-0.0028201595772626977   -0.012384574351775682   -0.0001530123260737052
-0.0030333578236946164   -0.008236565302896253   -5.2381810719067764e-05
-0.005004093632619936   -0.012369358230509303   -0.00020532189586700402
-0.0028499770168985026   -0.012353064744095086   -0.00013635170806510047
-0.0030333578236946164   -0.008236565302896253   -5.2381810719067764e-05
-0.005234693727150624   -0.008243423674225635   -0.00011240935298220058
-0.005004093632619936   -0.012369358230509303   -0.00020532189586700402
-0.0052611740277554876   -0.00821254183828911   -9.449974779872539e-05
-0.0028499770168985026   -0.012353064744095086   -0.00013635170806510047
-0.005029644424358045   -0.012344450164701176   -0.00018435347450687284
-0.0052611740277554876   -0.00821254183828911   -9.449974779872539e-05
-0.005004093632619936   -0.012369358230509303   -0.00020532189586700402
-0.0028499770168985026   -0.012353064744095086   -0.00013635170806510047
-0.0052611740277554876   -0.00821254183828911   -9.449974779872539e-05
-0.003064970053833871   -0.008200429236834622   -3.3183851114064606e-05
-0.0030333578236946164   -0.008236565302896253   -5.2381810719067764e-05
-0.0028499770168985026   -0.012353064744095086   -0.00013635170806510047
-0.0052611740277554876   -0.00821254183828911   -9.449974779872539e-05
-0.0030333578236946164   -0.008236565302896253   -5.2381810719067764e-05
-0.005004093632619936   -0.012369358230509303   -0.00020532189586700402
-0.0049513903818965725   -0.012426090788096636   -0.00024116461529971204
-0.005179880320110538   -0.008303437020756251   -0.00014415007765265675
-0.007177725755940647   -0.01238654155641799   -0.0002906525526337261
-0.004978634650980677   -0.012396595220568811   -0.00022429276645122517
-0.005179880320110538   -0.008303437020756251   -0.00014415007765265675
-0.007432902140648181   -0.008290336628656577   -0.00019309074967512648
-0.007177725755940647   -0.01238654155641799   -0.0002906525526337261
-0.007459657781296893   -0.008266390412998993   -0.0001785456210748993
-0.004978634650980677   -0.012396595220568811   -0.00022429276645122517
-0.007203783540926095   -0.012364277515680113   -0.00026926483997100515
-0.007459657781296893   -0.008266390412998993   -0.0001785456210748993
-0.007177725755940647   -0.01238654155641799   -0.0002906525526337261
-0.004978634650980677   -0.012396595220568811   -0.00022429276645122517
-0.007459657781296893   -0.008266390412998993   -0.0001785456210748993
-0.00520794947565965   -0.008273660515885002   -0.00012898369224627167
-0.005179880320110538   -0.008303437020756251   -0.00014415007765265675
-0.004978634650980677   -0.012396595220568811   -0.00022429276645122517
-0.007459657781296893   -0.008266390412998993   -0.0001785456210748993
-0.005179880320110538   -0.008303437020756251   -0.00014415007765265675
-0.007177725755940647   -0.01238654155641799   -0.0002906525526337261
-0.004978634650980677   -0.012396595220568811   -0.00022429276645122517
-0.00520794947565965   -0.008273660515885002   -0.00012898369224627167
-0.007203783540926095   -0.012364277515680113   -0.00026926483997100515
-0.005004093632619936   -0.012369358230509303   -0.00020532189586700402
-0.00520794947565965   -0.008273660515885002   -0.00012898369224627167
-0.007459657781296893   -0.008266390412998993   -0.0001785456210748993
-0.007203783540926095   -0.012364277515680113   -0.00026926483997100515
-0.007482226952443853   -0.008241158505576168   -0.00016297843214155608
-0.005004093632619936   -0.012369358230509303   -0.00020532189586700402
-0.007223352010045852   -0.012343495582268766   -0.0002461127650554537
-0.007482226952443853   -0.008241158505576168   -0.00016297843214155608
-0.007203783540926095   -0.012364277515680113   -0.00026926483997100515
-0.005004093632619936   -0.012369358230509303   -0.00020532189586700402
-0.007482226952443853   -0.008241158505576168   -0.00016297843214155608
-0.005234693727150624   -0.008243423674225635   -0.00011240935298220058
-0.00520794947565965   -0.008273660515885002   -0.00012898369224627167
-0.005004093632619936   -0.012369358230509303   -0.00020532189586700402
-0.007482226952443853   -0.008241158505576168   -0.00016297843214155608
-0.00520794947565965   -0.008273660515885002   -0.00012898369224627167
-0.007203783540926095   -0.012364277515680113   -0.00026926483997100515
-0.005004093632619936   -0.012369358230509303   -0.00020532189586700402
-0.005234693727150624   -0.008243423674225635   -0.00011240935298220058
-0.007223352010045852   -0.012343495582268766   -0.0002461127650554537
-0.005029644424358045   -0.012344450164701176   -0.00018435347450687284
-0.005234693727150624   -0.008243423674225635   -0.00011240935298220058
-0.007482226952443853   -0.008241158505576168   -0.00016297843214155608
-0.007223352010045852   -0.012343495582268766   -0.0002461127650554537
-0.007503552356674094   -0.008215330199959089   -0.00014596521020062586
-0.005029644424358045   -0.012344450164701176   -0.00018435347450687284
-0.007242812278289319   -0.012325186441917609   -0.00022074631243234783
-0.007503552356674094   -0.008215330199959089   -0.00014596521020062586
-0.007223352010045852   -0.012343495582268766   -0.0002461127650554537
-0.005029644424358045   -0.012344450164701176   -0.00018435347450687284
-0.007503552356674094   -0.008215330199959089   -0.00014596521020062586
-0.0052611740277554876   -0.00821254183828911   -9.449974779872539e-05
-0.005234693727150624   -0.008243423674225635   -0.00011240935298220058
-0.005029644424358045   -0.012344450164701176   -0.00018435347450687284
-0.007503552356674094   -0.008215330199959089   -0.00014596521020062586
-0.005234693727150624   -0.008243423674225635   -0.00011240935298220058
-0.007223352010045852   -0.012343495582268766   -0.0002461127650554537
-0.007177725755940647   -0.01238654155641799   -0.0002906525526337261
-0.007432902140648181   -0.008290336628656577   -0.00019309074967512648
-0.009539150149049977   -0.012339408487992096   -0.0003268246387585728
-0.007203783540926095   -0.012364277515680113   -0.00026926483997100515
-0.007432902140648181   -0.008290336628656577   -0.00019309074967512648
-0.009795112271043984   -0.00826846414699707   -0.00022857666498785192
-0.009539150149049977   -0.012339408487992096   -0.0003268246387585728
-0.009811203365598193   -0.00824867955786344   -0.00021734398766407395
-0.007203783540926095   -0.012364277515680113   -0.00026926483997100515
-0.009542059619001064   -0.012321950382161816   -0.000302855710072747
-0.009811203365598193   -0.00824867955786344   -0.00021734398766407395
-0.009539150149049977   -0.012339408487992096   -0.0003268246387585728
-0.007203783540926095   -0.012364277515680113   -0.00026926483997100515
-0.009811203365598193   -0.00824867955786344   -0.00021734398766407395
-0.007459657781296893   -0.008266390412998993   -0.0001785456210748993
-0.007432902140648181   -0.008290336628656577   -0.00019309074967512648
-0.007203783540926095   -0.012364277515680113   -0.00026926483997100515
-0.009811203365598193   -0.00824867955786344   -0.00021734398766407395
-0.007432902140648181   -0.008290336628656577   -0.00019309074967512648
-0.009539150149049977   -0.012339408487992096   -0.0003268246387585728
-0.007203783540926095   -0.012364277515680113   -0.00026926483997100515
-0.007459657781296893   -0.008266390412998993   -0.0001785456210748993
-0.009542059619001064   -0.012321950382161816   -0.000302855710072747
-0.007223352010045852   -0.012343495582268766   -0.0002461127650554537
-0.007459657781296893   -0.008266390412998993   -0.0001785456210748993
-0.009811203365598193   -0.00824867955786344   -0.00021734398766407395
-0.009542059619001064   -0.012321950382161816   -0.000302855710072747
-0.009825917176785147   -0.008226159893102911   -0.00020364936158984948
-0.007223352010045852   -0.012343495582268766   -0.0002461127650554537
-0.0095452288141199   -0.012304488631562131   -0.00027534759926861184
-0.009825917176785147   -0.008226159893102911   -0.00020364936158984948
-0.009542059619001064   -0.012321950382161816   -0.000302855710072747
-0.007223352010045852   -0.012343495582268766   -0.0002461127650554537
-0.009825917176785147   -0.008226159893102911   -0.00020364936158984948
-0.007482226952443853   -0.008241158505576168   -0.00016297843214155608
-0.007459657781296893   -0.008266390412998993   -0.0001785456210748993
-0.007223352010045852   -0.012343495582268766   -0.0002461127650554537
-0.009825917176785147   -0.008226159893102911   -0.00020364936158984948
-0.007459657781296893   -0.008266390412998993   -0.0001785456210748993
-0.009542059619001064   -0.012321950382161816   -0.000302855710072747
-0.007223352010045852   -0.012343495582268766   -0.0002461127650554537
-0.007482226952443853   -0.008241158505576168   -0.00016297843214155608
-0.0095452288141199   -0.012304488631562131   -0.00027534759926861184
-0.007242812278289319   -0.012325186441917609   -0.00022074631243234783
-0.007482226952443853   -0.008241158505576168   -0.00016297843214155608
-0.009825917176785147   -0.008226159893102911   -0.00020364936158984948
-0.0095452288141199   -0.012304488631562131   -0.00027534759926861184
-0.009832444754137781   -0.008205890364484087   -0.0001880829557627828
-0.007242812278289319   -0.012325186441917609   -0.00022074631243234783
-0.00953482736496219   -0.012293900219636318   -0.00024471262689271966
-0.009832444754137781   -0.008205890364484087   -0.0001880829557627828
-0.0095452288141199   -0.012304488631562131   -0.00027534759926861184
-0.007242812278289319   -0.012325186441917609   -0.00022074631243234783
-0.009832444754137781   -0.008205890364484087   -0.0001880829557627828
-0.007503552356674094   -0.008215330199959089   -0.00014596521020062586
-0.007482226952443853   -0.008241158505576168   -0.00016297843214155608
-0.007242812278289319   -0.012325186441917609   -0.00022074631243234783
-0.009832444754137781   -0.008205890364484087   -0.0001880829557627828
-0.007482226952443853   -0.008241158505576168   -0.00016297843214155608
-0.0095452288141199   -0.012304488631562131   -0.00027534759926861184
0.0016265302055731106   -0.00835450243650048   4.8056020453200035e-05
0.0011452036131400884   -0.004206267518037957   5.229000890399932e-05
-0.0007435827500166293   -0.008316210787291431   -2.0058746797063408e-05
0.0015764344266592394   -0.00830649344531992   6.823365828752934e-05
0.0011452036131400884   -0.004206267518037957   5.229000890399932e-05
-0.0010717177268017757   -0.004153480137153338   2.9474319659535982e-05
-0.0007435827500166293   -0.008316210787291431   -2.0058746797063408e-05
-0.001103950301930995   -0.0041344267549202765   5.290162760848207e-05
0.0015764344266592394   -0.00830649344531992   6.823365828752934e-05
-0.000775751323750477   -0.00827672921222817   -3.455234957590493e-06
-0.001103950301930995   -0.0041344267549202765   5.290162760848207e-05
-0.0007435827500166293   -0.008316210787291431   -2.0058746797063408e-05
0.0015764344266592394   -0.00830649344531992   6.823365828752934e-05
-0.001103950301930995   -0.0041344267549202765   5.290162760848207e-05
0.0010444754937601719   -0.00415486684480249   0.00010993659224338122
0.0011452036131400884   -0.004206267518037957   5.229000890399932e-05
0.0015764344266592394   -0.00830649344531992   6.823365828752934e-05
-0.001103950301930995   -0.0041344267549202765   5.290162760848207e-05
0.0011452036131400884   -0.004206267518037957   5.229000890399932e-05
-0.0007435827500166293   -0.008316210787291431   -2.0058746797063408e-05
0.0015764344266592394   -0.00830649344531992   6.823365828752934e-05
0.0010444754937601719   -0.00415486684480249   0.00010993659224338122
-0.000775751323750477   -0.00827672921222817   -3.455234957590493e-06
0.0015200102687068233   -0.008259112422423312   9.76572680657691e-05
0.0010444754937601719   -0.00415486684480249   0.00010993659224338122
-0.001103950301930995   -0.0041344267549202765   5.290162760848207e-05
-0.000775751323750477   -0.00827672921222817   -3.455234957590493e-06
-0.001146713970541066   -0.004099133858517182   8.146482028017384e-05
0.0015200102687068233   -0.008259112422423312   9.76572680657691e-05
-0.0008134773965059357   -0.00823518322407904   1.6177240657605797e-05
-0.001146713970541066   -0.004099133858517182   8.146482028017384e-05
-0.000775751323750477   -0.00827672921222817   -3.455234957590493e-06
0.0015200102687068233   -0.008259112422423312   9.76572680657691e-05
-0.001146713970541066   -0.004099133858517182   8.146482028017384e-05
0.000985670852976754   -0.004113465989451527   0.00015273227985720917
0.0010444754937601719   -0.00415486684480249   0.00010993659224338122
0.0015200102687068233   -0.008259112422423312   9.76572680657691e-05
-0.001146713970541066   -0.004099133858517182   8.146482028017384e-05
0.0010444754937601719   -0.00415486684480249   0.00010993659224338122
-0.000775751323750477   -0.00827672921222817   -3.455234957590493e-06
0.0015200102687068233   -0.008259112422423312   9.76572680657691e-05
0.000985670852976754   -0.004113465989451527   0.00015273227985720917
-0.0008134773965059357   -0.00823518322407904   1.6177240657605797e-05
0.0014510196362369635   -0.008200792303340625   0.00013011081788271412
0.000985670852976754   -0.004113465989451527   0.00015273227985720917
-0.001146713970541066   -0.004099133858517182   8.146482028017384e-05
-0.0008134773965059357   -0.00823518322407904   1.6177240657605797e-05
-0.0011828436110925887   -0.004061430550635858   0.00010658438233151215
0.0014510196362369635   -0.008200792303340625   0.00013011081788271412
-0.0008526120106909114   -0.008191181740679104   3.881333994361489e-05
-0.0011828436110925887   -0.004061430550635858   0.00010658438233151215
-0.0008134773965059357   -0.00823518322407904   1.6177240657605797e-05
0.0014510196362369635   -0.008200792303340625   0.00013011081788271412
-0.0011828436110925887   -0.004061430550635858   0.00010658438233151215
0.000910020557863757   -0.004049589703897456   0.00020184006884093014
0.000985670852976754   -0.004113465989451527   0.00015273227985720917
0.0014510196362369635   -0.008200792303340625   0.00013011081788271412
-0.0011828436110925887   -0.004061430550635858   0.00010658438233151215
0.000985670852976754   -0.004113465989451527   0.00015273227985720917
-0.0008134773965059357   -0.00823518322407904   1.6177240657605797e-05
-0.0007435827500166293   -0.008316210787291431   -2.0058746797063408e-05
-0.0010717177268017757   -0.004153480137153338   2.9474319659535982e-05
-0.0029737728830233246   -0.00830626062171595   -8.535407164866584e-05
-0.000775751323750477   -0.00827672921222817   -3.455234957590493e-06
-0.0010717177268017757   -0.004153480137153338   2.9474319659535982e-05
-0.003176643717675373   -0.0042161257595900855   -2.1559809602404077e-05
-0.0029737728830233246   -0.00830626062171595   -8.535407164866584e-05
-0.0032066794343235815   -0.004186031465000389   -4.819907210332026e-06
-0.000775751323750477   -0.00827672921222817   -3.455234957590493e-06
-0.0030030379434356695   -0.008272075881504448   -6.966865683241438e-05
-0.0032066794343235815   -0.004186031465000389   -4.819907210332026e-06
-0.0029737728830233246   -0.00830626062171595   -8.535407164866584e-05
-0.000775751323750477   -0.00827672921222817   -3.455234957590493e-06
-0.0032066794343235815   -0.004186031465000389   -4.819907210332026e-06
-0.001103950301930995   -0.0041344267549202765   5.290162760848207e-05
-0.0010717177268017757   -0.004153480137153338   2.9474319659535982e-05
-0.000775751323750477   -0.00827672921222817   -3.455234957590493e-06
-0.0032066794343235815   -0.004186031465000389   -4.819907210332026e-06
-0.0010717177268017757   -0.004153480137153338   2.9474319659535982e-05
-0.0029737728830233246   -0.00830626062171595   -8.535407164866584e-05
-0.000775751323750477   -0.00827672921222817   -3.455234957590493e-06
-0.001103950301930995   -0.0041344267549202765   5.290162760848207e-05
-0.0030030379434356695   -0.008272075881504448   -6.966865683241438e-05
-0.0008134773965059357   -0.00823518322407904   1.6177240657605797e-05
-0.001103950301930995   -0.0041344267549202765   5.290162760848207e-05
-0.0032066794343235815   -0.004186031465000389   -4.819907210332026e-06
-0.0030030379434356695   -0.008272075881504448   -6.966865683241438e-05
-0.0032383119600302187   -0.004151805248879475   1.299342861842748e-05
-0.0008134773965059357   -0.00823518322407904   1.6177240657605797e-05
-0.0030333578236946164   -0.008236565302896253   -5.2381810719067764e-05
-0.0032383119600302187   -0.004151805248879475   1.299342861842748e-05
-0.0030030379434356695   -0.008272075881504448   -6.966865683241438e-05
-0.0008134773965059357   -0.00823518322407904   1.6177240657605797e-05
-0.0032383119600302187   -0.004151805248879475   1.299342861842748e-05
-0.001146713970541066   -0.004099133858517182   8.146482028017384e-05
-0.001103950301930995   -0.0041344267549202765   5.290162760848207e-05
-0.0008134773965059357   -0.00823518322407904   1.6177240657605797e-05
-0.0032383119600302187   -0.004151805248879475   1.299342861842748e-05
-0.001103950301930995   -0.0041344267549202765   5.290162760848207e-05
-0.0030030379434356695   -0.008272075881504448   -6.966865683241438e-05
-0.0008134773965059357   -0.00823518322407904   1.6177240657605797e-05
-0.001146713970541066   -0.004099133858517182   8.146482028017384e-05
-0.0030333578236946164   -0.008236565302896253   -5.2381810719067764e-05
-0.0008526120106909114   -0.008191181740679104   3.881333994361489e-05
-0.001146713970541066   -0.004099133858517182   8.146482028017384e-05
-0.0032383119600302187   -0.004151805248879475   1.299342861842748e-05
-0.0030333578236946164   -0.008236565302896253   -5.2381810719067764e-05
-0.0032685387270474527   -0.00411429041564756   3.269659574157992e-05
-0.0008526120106909114   -0.008191181740679104   3.881333994361489e-05
-0.003064970053833871   -0.008200429236834622   -3.3183851114064606e-05
-0.0032685387270474527   -0.00411429041564756   3.269659574157992e-05
-0.0030333578236946164   -0.008236565302896253   -5.2381810719067764e-05
-0.0008526120106909114   -0.008191181740679104   3.881333994361489e-05
-0.0032685387270474527   -0.00411429041564756   3.269659574157992e-05
-0.0011828436110925887   -0.004061430550635858   0.00010658438233151215
-0.001146713970541066   -0.004099133858517182   8.146482028017384e-05
-0.0008526120106909114   -0.008191181740679104   3.881333994361489e-05
-0.0032685387270474527   -0.00411429041564756   3.269659574157992e-05
-0.001146713970541066   -0.004099133858517182   8.146482028017384e-05
-0.0030333578236946164   -0.008236565302896253   -5.2381810719067764e-05
-0.0029737728830233246   -0.00830626062171595   -8.535407164866584e-05
-0.003176643717675373   -0.0042161257595900855   -2.1559809602404077e-05
-0.005179880320110538   -0.008303437020756251   -0.00014415007765265675
-0.0030030379434356695   -0.008272075881504448   -6.966865683241438e-05
-0.003176643717675373   -0.0042161257595900855   -2.1559809602404077e-05
-0.005330997804445882   -0.004265098152068606   -7.874231543596279e-05
-0.005179880320110538   -0.008303437020756251   -0.00014415007765265675
-0.005358130644793653   -0.004234129503318469   -6.565101453281149e-05
-0.0030030379434356695   -0.008272075881504448   -6.966865683241438e-05
-0.00520794947565965   -0.008273660515885002   -0.00012898369224627167
-0.005358130644793653   -0.004234129503318469   -6.565101453281149e-05
-0.005179880320110538   -0.008303437020756251   -0.00014415007765265675
-0.0030030379434356695   -0.008272075881504448   -6.966865683241438e-05
-0.005358130644793653   -0.004234129503318469   -6.565101453281149e-05
-0.0032066794343235815   -0.004186031465000389   -4.819907210332026e-06
-0.003176643717675373   -0.0042161257595900855   -2.1559809602404077e-05
-0.0030030379434356695   -0.008272075881504448   -6.966865683241438e-05
-0.005358130644793653   -0.004234129503318469   -6.565101453281149e-05
-0.003176643717675373   -0.0042161257595900855   -2.1559809602404077e-05
-0.005179880320110538   -0.008303437020756251   -0.00014415007765265675
-0.0030030379434356695   -0.008272075881504448   -6.966865683241438e-05
-0.0032066794343235815   -0.004186031465000389   -4.819907210332026e-06
-0.00520794947565965   -0.008273660515885002   -0.00012898369224627167
-0.0030333578236946164   -0.008236565302896253   -5.2381810719067764e-05
-0.0032066794343235815   -0.004186031465000389   -4.819907210332026e-06
-0.005358130644793653   -0.004234129503318469   -6.565101453281149e-05
-0.00520794947565965   -0.008273660515885002   -0.00012898369224627167
-0.005384211226369466   -0.004201312088116055   -5.253277395912677e-05
-0.0030333578236946164   -0.008236565302896253   -5.2381810719067764e-05
-0.005234693727150624   -0.008243423674225635   -0.00011240935298220058
-0.005384211226369466   -0.004201312088116055   -5.253277395912677e-05
-0.00520794947565965   -0.008273660515885002   -0.00012898369224627167
-0.0030333578236946164   -0.008236565302896253   -5.2381810719067764e-05
-0.005384211226369466   -0.004201312088116055   -5.253277395912677e-05
-0.0032383119600302187   -0.004151805248879475   1.299342861842748e-05
-0.0032066794343235815   -0.004186031465000389   -4.819907210332026e-06
-0.0030333578236946164   -0.008236565302896253   -5.2381810719067764e-05
-0.005384211226369466   -0.004201312088116055   -5.253277395912677e-05
-0.0032066794343235815   -0.004186031465000389   -4.819907210332026e-06
-0.00520794947565965   -0.008273660515885002   -0.00012898369224627167
-0.0030333578236946164   -0.008236565302896253   -5.2381810719067764e-05
-0.0032383119600302187   -0.004151805248879475   1.299342861842748e-05
-0.005234693727150624   -0.008243423674225635   -0.00011240935298220058
-0.003064970053833871   -0.008200429236834622   -3.3183851114064606e-05
-0.0032383119600302187   -0.004151805248879475   1.299342861842748e-05
-0.005384211226369466   -0.004201312088116055   -5.253277395912677e-05
-0.005234693727150624   -0.008243423674225635   -0.00011240935298220058
-0.005408340917008009   -0.004165695204849123   -3.8177325489849405e-05
-0.003064970053833871   -0.008200429236834622   -3.3183851114064606e-05
-0.0052611740277554876   -0.00821254183828911   -9.449974779872539e-05
-0.005408340917008009   -0.004165695204849123   -3.8177325489849405e-05
-0.005234693727150624   -0.008243423674225635   -0.00011240935298220058
-0.003064970053833871   -0.008200429236834622   -3.3183851114064606e-05
-0.005408340917008009   -0.004165695204849123   -3.8177325489849405e-05
-0.0032685387270474527   -0.00411429041564756   3.269659574157992e-05
-0.0032383119600302187   -0.004151805248879475   1.299342861842748e-05
-0.003064970053833871   -0.008200429236834622   -3.3183851114064606e-05
-0.005408340917008009   -0.004165695204849123   -3.8177325489849405e-05
-0.0032383119600302187   -0.004151805248879475   1.299342861842748e-05
-0.005234693727150624   -0.008243423674225635   -0.00011240935298220058
-0.005179880320110538   -0.008303437020756251   -0.00014415007765265675
-0.005330997804445882   -0.004265098152068606   -7.874231543596279e-05
-0.007432902140648181   -0.008290336628656577   -0.00019309074967512648
-0.00520794947565965   -0.008273660515885002   -0.00012898369224627167
-0.005330997804445882   -0.004265098152068606   -7.874231543596279e-05
-0.007561090302356586   -0.0042853061816852354   -0.00013138595642413827
-0.007432902140648181   -0.008290336628656577   -0.00019309074967512648
-0.007585569055245099   -0.004257679153887397   -0.00012174408287364584
-0.00520794947565965   -0.008273660515885002   -0.00012898369224627167
-0.007459657781296893   -0.008266390412998993   -0.0001785456210748993
-0.007585569055245099   -0.004257679153887397   -0.00012174408287364584
-0.007432902140648181   -0.008290336628656577   -0.00019309074967512648
-0.00520794947565965   -0.008273660515885002   -0.00012898369224627167
-0.007585569055245099   -0.004257679153887397   -0.00012174408287364584
-0.005358130644793653   -0.004234129503318469   -6.565101453281149e-05
-0.005330997804445882   -0.004265098152068606   -7.874231543596279e-05
-0.00520794947565965   -0.008273660515885002   -0.00012898369224627167
-0.007585569055245099   -0.004257679153887397   -0.00012174408287364584
-0.005330997804445882   -0.004265098152068606   -7.874231543596279e-05
-0.007432902140648181   -0.008290336628656577   -0.00019309074967512648
-0.00520794947565965   -0.008273660515885002   -0.00012898369224627167
-0.005358130644793653   -0.004234129503318469   -6.565101453281149e-05
-0.007459657781296893   -0.008266390412998993   -0.0001785456210748993
-0.005234693727150624   -0.008243423674225635   -0.00011240935298220058
-0.005358130644793653   -0.004234129503318469   -6.565101453281149e-05
-0.007585569055245099   -0.004257679153887397   -0.00012174408287364584
-0.007459657781296893   -0.008266390412998993   -0.0001785456210748993
-0.00760738917691435   -0.004227440642571416   -0.00011231331957753435
-0.005234693727150624   -0.008243423674225635   -0.00011240935298220058
-0.007482226952443853   -0.008241158505576168   -0.00016297843214155608
-0.00760738917691435   -0.004227440642571416   -0.00011231331957753435
-0.007459657781296893   -0.008266390412998993   -0.0001785456210748993
-0.005234693727150624   -0.008243423674225635   -0.00011240935298220058
-0.00760738917691435   -0.004227440642571416   -0.00011231331957753435
-0.005384211226369466   -0.004201312088116055   -5.253277395912677e-05
-0.005358130644793653   -0.004234129503318469   -6.565101453281149e-05
-0.005234693727150624   -0.008243423674225635   -0.00011240935298220058
-0.00760738917691435   -0.004227440642571416   -0.00011231331957753435
-0.005358130644793653   -0.004234129503318469   -6.565101453281149e-05
-0.007459657781296893   -0.008266390412998993   -0.0001785456210748993
-0.005234693727150624   -0.008243423674225635   -0.00011240935298220058
-0.005384211226369466   -0.004201312088116055   -5.253277395912677e-05
-0.007482226952443853   -0.008241158505576168   -0.00016297843214155608
-0.0052611740277554876   -0.00821254183828911   -9.449974779872539e-05
-0.005384211226369466   -0.004201312088116055   -5.253277395912677e-05
-0.00760738917691435   -0.004227440642571416   -0.00011231331957753435
-0.007482226952443853   -0.008241158505576168   -0.00016297843214155608
-0.00762717485028873   -0.0041951794868644796   -0.00010252801346316551
-0.0052611740277554876   -0.00821254183828911   -9.449974779872539e-05
-0.007503552356674094   -0.008215330199959089   -0.00014596521020062586
-0.00762717485028873   -0.0041951794868644796   -0.00010252801346316551
-0.007482226952443853   -0.008241158505576168   -0.00016297843214155608
-0.0052611740277554876   -0.00821254183828911   -9.449974779872539e-05
-0.00762717485028873   -0.0041951794868644796   -0.00010252801346316551
-0.005408340917008009   -0.004165695204849123   -3.8177325489849405e-05
-0.005384211226369466   -0.004201312088116055   -5.253277395912677e-05
-0.0052611740277554876   -0.00821254183828911   -9.449974779872539e-05
-0.00762717485028873   -0.0041951794868644796   -0.00010252801346316551
-0.005384211226369466   -0.004201312088116055   -5.253277395912677e-05
-0.007482226952443853   -0.008241158505576168   -0.00016297843214155608
-0.007432902140648181   -0.008290336628656577   -0.00019309074967512648
-0.007561090302356586   -0.0042853061816852354   -0.00013138595642413827
-0.009795112271043984   -0.00826846414699707   -0.00022857666498785192
-0.007459657781296893   -0.008266390412998993   -0.0001785456210748993
-0.007561090302356586   -0.0042853061816852354   -0.00013138595642413827
-0.009872644994448536   -0.0042873846617771175   -0.00017459735090808712
-0.009795112271043984   -0.00826846414699707   -0.00022857666498785192
-0.009893513974132738   -0.004260653623339885   -0.00017026758198656524
-0.007459657781296893   -0.008266390412998993   -0.0001785456210748993
-0.009811203365598193   -0.00824867955786344   -0.00021734398766407395
-0.009893513974132738   -0.004260653623339885   -0.00017026758198656524
-0.009795112271043984   -0.00826846414699707   -0.00022857666498785192
-0.007459657781296893   -0.008266390412998993   -0.0001785456210748993
-0.009893513974132738   -0.004260653623339885   -0.00017026758198656524
-0.007585569055245099   -0.004257679153887397   -0.00012174408287364584
-0.007561090302356586   -0.0042853061816852354   -0.00013138595642413827
-0.007459657781296893   -0.008266390412998993   -0.0001785456210748993
-0.009893513974132738   -0.004260653623339885   -0.00017026758198656524
-0.007561090302356586   -0.0042853061816852354   -0.00013138595642413827
-0.009795112271043984   -0.00826846414699707   -0.00022857666498785192
-0.007459657781296893   -0.008266390412998993   -0.0001785456210748993
-0.007585569055245099   -0.004257679153887397   -0.00012174408287364584
-0.009811203365598193   -0.00824867955786344   -0.00021734398766407395
-0.007482226952443853   -0.008241158505576168   -0.00016297843214155608
-0.007585569055245099   -0.004257679153887397   -0.00012174408287364584
-0.009893513974132738   -0.004260653623339885   -0.00017026758198656524
-0.009811203365598193   -0.00824867955786344   -0.00021734398766407395
-0.009912210957080518   -0.0042316026173718   -0.00016516840266534794
-0.007482226952443853   -0.008241158505576168   -0.00016297843214155608
-0.009825917176785147   -0.008226159893102911   -0.00020364936158984948
-0.009912210957080518   -0.0042316026173718   -0.00016516840266534794
-0.009811203365598193   -0.00824867955786344   -0.00021734398766407395
-0.007482226952443853   -0.008241158505576168   -0.00016297843214155608
-0.009912210957080518   -0.0042316026173718   -0.00016516840266534794
-0.00760738917691435   -0.004227440642571416   -0.00011231331957753435
-0.007585569055245099   -0.004257679153887397   -0.00012174408287364584
-0.007482226952443853   -0.008241158505576168   -0.00016297843214155608
-0.009912210957080518   -0.0042316026173718   -0.00016516840266534794
-0.007585569055245099   -0.004257679153887397   -0.00012174408287364584
-0.009811203365598193   -0.00824867955786344   -0.00021734398766407395
-0.007482226952443853   -0.008241158505576168   -0.00016297843214155608
-0.00760738917691435   -0.004227440642571416   -0.00011231331957753435
-0.009825917176785147   -0.008226159893102911   -0.00020364936158984948
-0.007503552356674094   -0.008215330199959089   -0.00014596521020062586
-0.00760738917691435   -0.004227440642571416   -0.00011231331957753435
-0.009912210957080518   -0.0042316026173718   -0.00016516840266534794
-0.009825917176785147   -0.008226159893102911   -0.00020364936158984948
-0.009927723432572063   -0.004200868755867463   -0.00016030481303224602
-0.007503552356674094   -0.008215330199959089   -0.00014596521020062586
-0.009832444754137781   -0.008205890364484087   -0.0001880829557627828
-0.009927723432572063   -0.004200868755867463   -0.00016030481303224602
-0.009825917176785147   -0.008226159893102911   -0.00020364936158984948
-0.007503552356674094   -0.008215330199959089   -0.00014596521020062586
-0.009927723432572063   -0.004200868755867463   -0.00016030481303224602
-0.00762717485028873   -0.0041951794868644796   -0.00010252801346316551
-0.00760738917691435   -0.004227440642571416   -0.00011231331957753435
-0.007503552356674094   -0.008215330199959089   -0.00014596521020062586
-0.009927723432572063   -0.004200868755867463   -0.00016030481303224602
-0.00760738917691435   -0.004227440642571416   -0.00011231331957753435
-0.009825917176785147   -0.008226159893102911   -0.00020364936158984948
0.0011452036131400884   -0.004206267518037957   5.229000890399932e-05
0.0   0.0   0.0
-0.0010717177268017757   -0.004153480137153338   2.9474319659535982e-05
0.0010444754937601719   -0.00415486684480249   0.00010993659224338122
0.0   0.0   0.0
-0.0013385644337478395   -0.00035095102961802793   -8.540776332029166e-06
-0.0010717177268017757   -0.004153480137153338   2.9474319659535982e-05
-0.0014187874200176451   -0.00027507026121388427   3.874458044232119e-05
0.0010444754937601719   -0.00415486684480249   0.00010993659224338122
-0.001103950301930995   -0.0041344267549202765   5.290162760848207e-05
-0.0014187874200176451   -0.00027507026121388427   3.874458044232119e-05
-0.0010717177268017757   -0.004153480137153338   2.9474319659535982e-05
0.0010444754937601719   -0.00415486684480249   0.00010993659224338122
-0.0014187874200176451   -0.00027507026121388427   3.874458044232119e-05
0.0   0.0   0.0
0.0   0.0   0.0
0.0010444754937601719   -0.00415486684480249   0.00010993659224338122
-0.0014187874200176451   -0.00027507026121388427   3.874458044232119e-05
0.0   0.0   0.0
-0.0010717177268017757   -0.004153480137153338   2.9474319659535982e-05
0.0010444754937601719   -0.00415486684480249   0.00010993659224338122
0.0   0.0   0.0
-0.001103950301930995   -0.0041344267549202765   5.290162760848207e-05
0.000985670852976754   -0.004113465989451527   0.00015273227985720917
0.0   0.0   0.0
-0.0014187874200176451   -0.00027507026121388427   3.874458044232119e-05
-0.001103950301930995   -0.0041344267549202765   5.290162760848207e-05
-0.0014694835423226939   -0.0002388126964542603   6.642743305600869e-05
0.000985670852976754   -0.004113465989451527   0.00015273227985720917
-0.001146713970541066   -0.004099133858517182   8.146482028017384e-05
-0.0014694835423226939   -0.0002388126964542603   6.642743305600869e-05
-0.001103950301930995   -0.0041344267549202765   5.290162760848207e-05
0.000985670852976754   -0.004113465989451527   0.00015273227985720917
-0.0014694835423226939   -0.0002388126964542603   6.642743305600869e-05
0.0   0.0   0.0
0.0   0.0   0.0
0.000985670852976754   -0.004113465989451527   0.00015273227985720917
-0.0014694835423226939   -0.0002388126964542603   6.642743305600869e-05
0.0   0.0   0.0
-0.001103950301930995   -0.0041344267549202765   5.290162760848207e-05
0.000985670852976754   -0.004113465989451527   0.00015273227985720917
0.0   0.0   0.0
-0.001146713970541066   -0.004099133858517182   8.146482028017384e-05
0.000910020557863757   -0.004049589703897456   0.00020184006884093014
0.0   0.0   0.0
-0.0014694835423226939   -0.0002388126964542603   6.642743305600869e-05
-0.001146713970541066   -0.004099133858517182   8.146482028017384e-05
-0.0015380615257984142   -0.00019046665194363677   9.82769436896379e-05
0.000910020557863757   -0.004049589703897456   0.00020184006884093014
-0.0011828436110925887   -0.004061430550635858   0.00010658438233151215
-0.0015380615257984142   -0.00019046665194363677   9.82769436896379e-05
-0.001146713970541066   -0.004099133858517182   8.146482028017384e-05
0.000910020557863757   -0.004049589703897456   0.00020184006884093014
-0.0015380615257984142   -0.00019046665194363677   9.82769436896379e-05
0.0   0.0   0.0
0.0   0.0   0.0
0.000910020557863757   -0.004049589703897456   0.00020184006884093014
-0.0015380615257984142   -0.00019046665194363677   9.82769436896379e-05
0.0   0.0   0.0
-0.001146713970541066   -0.004099133858517182   8.146482028017384e-05
-0.0010717177268017757   -0.004153480137153338   2.9474319659535982e-05
-0.0013385644337478395   -0.00035095102961802793   -8.540776332029166e-06
-0.003176643717675373   -0.0042161257595900855   -2.1559809602404077e-05
-0.001103950301930995   -0.0041344267549202765   5.290162760848207e-05
-0.0013385644337478395   -0.00035095102961802793   -8.540776332029166e-06
-0.0032689016630706226   -0.0004639403741527339   -4.0721905625531295e-06
-0.003176643717675373   -0.0042161257595900855   -2.1559809602404077e-05
-0.0033106976811888484   -0.00042312154161719076   8.574219995517234e-06
-0.001103950301930995   -0.0041344267549202765   5.290162760848207e-05
-0.0032066794343235815   -0.004186031465000389   -4.819907210332026e-06
-0.0033106976811888484   -0.00042312154161719076   8.574219995517234e-06
-0.003176643717675373   -0.0042161257595900855   -2.1559809602404077e-05
-0.001103950301930995   -0.0041344267549202765   5.290162760848207e-05
-0.0033106976811888484   -0.00042312154161719076   8.574219995517234e-06
-0.0014187874200176451   -0.00027507026121388427   3.874458044232119e-05
-0.0013385644337478395   -0.00035095102961802793   -8.540776332029166e-06
-0.001103950301930995   -0.0041344267549202765   5.290162760848207e-05
-0.0033106976811888484   -0.00042312154161719076   8.574219995517234e-06
-0.0013385644337478395   -0.00035095102961802793   -8.540776332029166e-06
-0.003176643717675373   -0.0042161257595900855   -2.1559809602404077e-05
-0.001103950301930995   -0.0041344267549202765   5.290162760848207e-05
-0.0014187874200176451   -0.00027507026121388427   3.874458044232119e-05
-0.0032066794343235815   -0.004186031465000389   -4.819907210332026e-06
-0.001146713970541066   -0.004099133858517182   8.146482028017384e-05
-0.0014187874200176451   -0.00027507026121388427   3.874458044232119e-05
-0.0033106976811888484   -0.00042312154161719076   8.574219995517234e-06
-0.0032066794343235815   -0.004186031465000389   -4.819907210332026e-06
-0.003352479318880515   -0.0003751881980715058   3.082897285964299e-05
-0.001146713970541066   -0.004099133858517182   8.146482028017384e-05
-0.0032383119600302187   -0.004151805248879475   1.299342861842748e-05
-0.003352479318880515   -0.0003751881980715058   3.082897285964299e-05
-0.0032066794343235815   -0.004186031465000389   -4.819907210332026e-06
-0.001146713970541066   -0.004099133858517182   8.146482028017384e-05
-0.003352479318880515   -0.0003751881980715058   3.082897285964299e-05
-0.0014694835423226939   -0.0002388126964542603   6.642743305600869e-05
-0.0014187874200176451   -0.00027507026121388427   3.874458044232119e-05
-0.001146713970541066   -0.004099133858517182   8.146482028017384e-05
-0.003352479318880515   -0.0003751881980715058   3.082897285964299e-05
-0.0014187874200176451   -0.00027507026121388427   3.874458044232119e-05
-0.0032066794343235815   -0.004186031465000389   -4.819907210332026e-06
-0.001146713970541066   -0.004099133858517182   8.146482028017384e-05
-0.0014694835423226939   -0.0002388126964542603   6.642743305600869e-05
-0.0032383119600302187   -0.004151805248879475   1.299342861842748e-05
-0.0011828436110925887   -0.004061430550635858   0.00010658438233151215
-0.0014694835423226939   -0.0002388126964542603   6.642743305600869e-05
-0.003352479318880515   -0.0003751881980715058   3.082897285964299e-05
-0.0032383119600302187   -0.004151805248879475   1.299342861842748e-05
-0.003399375385905377   -0.0003193747102054971   5.238652237018838e-05
-0.0011828436110925887   -0.004061430550635858   0.00010658438233151215
-0.0032685387270474527   -0.00411429041564756   3.269659574157992e-05
-0.003399375385905377   -0.0003193747102054971   5.238652237018838e-05
-0.0032383119600302187   -0.004151805248879475   1.299342861842748e-05
-0.0011828436110925887   -0.004061430550635858   0.00010658438233151215
-0.003399375385905377   -0.0003193747102054971   5.238652237018838e-05
-0.0015380615257984142   -0.00019046665194363677   9.82769436896379e-05
-0.0014694835423226939   -0.0002388126964542603   6.642743305600869e-05
-0.0011828436110925887   -0.004061430550635858   0.00010658438233151215
-0.003399375385905377   -0.0003193747102054971   5.238652237018838e-05
-0.0014694835423226939   -0.0002388126964542603   6.642743305600869e-05
-0.0032383119600302187   -0.004151805248879475   1.299342861842748e-05
-0.003176643717675373   -0.0042161257595900855   -2.1559809602404077e-05
-0.0032689016630706226   -0.0004639403741527339   -4.0721905625531295e-06
-0.005330997804445882   -0.004265098152068606   -7.874231543596279e-05
-0.0032066794343235815   -0.004186031465000389   -4.819907210332026e-06
-0.0032689016630706226   -0.0004639403741527339   -4.0721905625531295e-06
-0.005382901311815651   -0.0004978799553398213   -3.8800299964809605e-05
-0.005330997804445882   -0.004265098152068606   -7.874231543596279e-05
-0.005408517725703223   -0.00046676793185275234   -3.506510180051592e-05
-0.0032066794343235815   -0.004186031465000389   -4.819907210332026e-06
-0.005358130644793653   -0.004234129503318469   -6.565101453281149e-05
-0.005408517725703223   -0.00046676793185275234   -3.506510180051592e-05
-0.005330997804445882   -0.004265098152068606   -7.874231543596279e-05
-0.0032066794343235815   -0.004186031465000389   -4.819907210332026e-06
-0.005408517725703223   -0.00046676793185275234   -3.506510180051592e-05
-0.0033106976811888484   -0.00042312154161719076   8.574219995517234e-06
-0.0032689016630706226   -0.0004639403741527339   -4.0721905625531295e-06
-0.0032066794343235815   -0.004186031465000389   -4.819907210332026e-06
-0.005408517725703223   -0.00046676793185275234   -3.506510180051592e-05
-0.0032689016630706226   -0.0004639403741527339   -4.0721905625531295e-06
-0.005330997804445882   -0.004265098152068606   -7.874231543596279e-05
-0.0032066794343235815   -0.004186031465000389   -4.819907210332026e-06
-0.0033106976811888484   -0.00042312154161719076   8.574219995517234e-06
-0.005358130644793653   -0.004234129503318469   -6.565101453281149e-05
-0.0032383119600302187   -0.004151805248879475   1.299342861842748e-05
-0.0033106976811888484   -0.00042312154161719076   8.574219995517234e-06
-0.005408517725703223   -0.00046676793185275234   -3.506510180051592e-05
-0.005358130644793653   -0.004234129503318469   -6.565101453281149e-05
-0.005435200013304311   -0.0004303002761397303   -2.864311521617498e-05
-0.0032383119600302187   -0.004151805248879475   1.299342861842748e-05
-0.005384211226369466   -0.004201312088116055   -5.253277395912677e-05
-0.005435200013304311   -0.0004303002761397303   -2.864311521617498e-05
-0.005358130644793653   -0.004234129503318469   -6.565101453281149e-05
-0.0032383119600302187   -0.004151805248879475   1.299342861842748e-05
-0.005435200013304311   -0.0004303002761397303   -2.864311521617498e-05
-0.003352479318880515   -0.0003751881980715058   3.082897285964299e-05
-0.0033106976811888484   -0.00042312154161719076   8.574219995517234e-06
-0.0032383119600302187   -0.004151805248879475   1.299342861842748e-05
-0.005435200013304311   -0.0004303002761397303   -2.864311521617498e-05
-0.0033106976811888484   -0.00042312154161719076   8.574219995517234e-06
-0.005358130644793653   -0.004234129503318469   -6.565101453281149e-05
-0.0032383119600302187   -0.004151805248879475   1.299342861842748e-05
-0.003352479318880515   -0.0003751881980715058   3.082897285964299e-05
-0.005384211226369466   -0.004201312088116055   -5.253277395912677e-05
-0.0032685387270474527   -0.00411429041564756   3.269659574157992e-05
-0.003352479318880515   -0.0003751881980715058   3.082897285964299e-05
-0.005435200013304311   -0.0004303002761397303   -2.864311521617498e-05
-0.005384211226369466   -0.004201312088116055   -5.253277395912677e-05
-0.005461037797749499   -0.0003853366773028546   -2.01443573829741e-05
-0.0032685387270474527   -0.00411429041564756   3.269659574157992e-05
-0.005408340917008009   -0.004165695204849123   -3.8177325489849405e-05
-0.005461037797749499   -0.0003853366773028546   -2.01443573829741e-05
-0.005384211226369466   -0.004201312088116055   -5.253277395912677e-05
-0.0032685387270474527   -0.00411429041564756   3.269659574157992e-05
-0.005461037797749499   -0.0003853366773028546   -2.01443573829741e-05
-0.003399375385905377   -0.0003193747102054971   5.238652237018838e-05
-0.003352479318880515   -0.0003751881980715058   3.082897285964299e-05
-0.0032685387270474527   -0.00411429041564756   3.269659574157992e-05
-0.005461037797749499   -0.0003853366773028546   -2.01443573829741e-05
-0.003352479318880515   -0.0003751881980715058   3.082897285964299e-05
-0.005384211226369466   -0.004201312088116055   -5.253277395912677e-05
-0.005330997804445882   -0.004265098152068606   -7.874231543596279e-05
-0.005382901311815651   -0.0004978799553398213   -3.8800299964809605e-05
-0.007561090302356586   -0.0042853061816852354   -0.00013138595642413827
-0.005358130644793653   -0.004234129503318469   -6.565101453281149e-05
-0.005382901311815651   -0.0004978799553398213   -3.8800299964809605e-05
-0.00760061466648747   -0.0004947487494321349   -9.05933926219642e-05
-0.007561090302356586   -0.0042853061816852354   -0.00013138595642413827
-0.007617983113214775   -0.0004673273277477401   -8.895915490605631e-05
-0.005358130644793653   -0.004234129503318469   -6.565101453281149e-05
-0.007585569055245099   -0.004257679153887397   -0.00012174408287364584
-0.007617983113214775   -0.0004673273277477401   -8.895915490605631e-05
-0.007561090302356586   -0.0042853061816852354   -0.00013138595642413827
-0.005358130644793653   -0.004234129503318469   -6.565101453281149e-05
-0.007617983113214775   -0.0004673273277477401   -8.895915490605631e-05
-0.005408517725703223   -0.00046676793185275234   -3.506510180051592e-05
-0.005382901311815651   -0.0004978799553398213   -3.8800299964809605e-05
-0.005358130644793653   -0.004234129503318469   -6.565101453281149e-05
-0.007617983113214775   -0.0004673273277477401   -8.895915490605631e-05
-0.005382901311815651   -0.0004978799553398213   -3.8800299964809605e-05
-0.007561090302356586   -0.0042853061816852354   -0.00013138595642413827
-0.005358130644793653   -0.004234129503318469   -6.565101453281149e-05
-0.005408517725703223   -0.00046676793185275234   -3.506510180051592e-05
-0.007585569055245099   -0.004257679153887397   -0.00012174408287364584
-0.005384211226369466   -0.004201312088116055   -5.253277395912677e-05
-0.005408517725703223   -0.00046676793185275234   -3.506510180051592e-05
-0.007617983113214775   -0.0004673273277477401   -8.895915490605631e-05
-0.007585569055245099   -0.004257679153887397   -0.00012174408287364584
-0.00763608778745409   -0.00043646127236805614   -8.762640100440636e-05
-0.005384211226369466   -0.004201312088116055   -5.253277395912677e-05
-0.00760738917691435   -0.004227440642571416   -0.00011231331957753435
-0.00763608778745409   -0.00043646127236805614   -8.762640100440636e-05
-0.007585569055245099   -0.004257679153887397   -0.00012174408287364584
-0.005384211226369466   -0.004201312088116055   -5.253277395912677e-05
-0.00763608778745409   -0.00043646127236805614   -8.762640100440636e-05
-0.005435200013304311   -0.0004303002761397303   -2.864311521617498e-05
-0.005408517725703223   -0.00046676793185275234   -3.506510180051592e-05
-0.005384211226369466   -0.004201312088116055   -5.253277395912677e-05
-0.00763608778745409   -0.00043646127236805614   -8.762640100440636e-05
-0.005408517725703223   -0.00046676793185275234   -3.506510180051592e-05
-0.007585569055245099   -0.004257679153887397   -0.00012174408287364584
-0.005384211226369466   -0.004201312088116055   -5.253277395912677e-05
-0.005435200013304311   -0.0004303002761397303   -2.864311521617498e-05
-0.00760738917691435   -0.004227440642571416   -0.00011231331957753435
-0.005408340917008009   -0.004165695204849123   -3.8177325489849405e-05
-0.005435200013304311   -0.0004303002761397303   -2.864311521617498e-05
-0.00763608778745409   -0.00043646127236805614   -8.762640100440636e-05
-0.00760738917691435   -0.004227440642571416   -0.00011231331957753435
-0.007650201264096416   -0.0004026909361515303   -8.665366407301146e-05
-0.005408340917008009   -0.004165695204849123   -3.8177325489849405e-05
-0.00762717485028873   -0.0041951794868644796   -0.00010252801346316551
-0.007650201264096416   -0.0004026909361515303   -8.665366407301146e-05
-0.00760738917691435   -0.004227440642571416   -0.00011231331957753435
-0.005408340917008009   -0.004165695204849123   -3.8177325489849405e-05
-0.007650201264096416   -0.0004026909361515303   -8.665366407301146e-05
-0.005461037797749499   -0.0003853366773028546   -2.01443573829741e-05
-0.005435200013304311   -0.0004303002761397303   -2.864311521617498e-05
-0.005408340917008009   -0.004165695204849123   -3.8177325489849405e-05
-0.007650201264096416   -0.0004026909361515303   -8.665366407301146e-05
-0.005435200013304311   -0.0004303002761397303   -2.864311521617498e-05
-0.00760738917691435   -0.004227440642571416   -0.00011231331957753435
-0.007561090302356586   -0.0042853061816852354   -0.00013138595642413827
-0.00760061466648747   -0.0004947487494321349   -9.05933926219642e-05
-0.009872644994448536   -0.0042873846617771175   -0.00017459735090808712
-0.007585569055245099   -0.004257679153887397   -0.00012174408287364584
-0.00760061466648747   -0.0004947487494321349   -9.05933926219642e-05
-0.009881033737156533   -0.0004916032579118184   -0.0001417526676390343
-0.009872644994448536   -0.0042873846617771175   -0.00017459735090808712
-0.009894958754975145   -0.00046198436755870626   -0.0001416131885560859
-0.007585569055245099   -0.004257679153887397   -0.00012174408287364584
-0.009893513974132738   -0.004260653623339885   -0.00017026758198656524
-0.009894958754975145   -0.00046198436755870626   -0.0001416131885560859
-0.009872644994448536   -0.0042873846617771175   -0.00017459735090808712
-0.007585569055245099   -0.004257679153887397   -0.00012174408287364584
-0.009894958754975145   -0.00046198436755870626   -0.0001416131885560859
-0.007617983113214775   -0.0004673273277477401   -8.895915490605631e-05
-0.00760061466648747   -0.0004947487494321349   -9.05933926219642e-05
-0.007585569055245099   -0.004257679153887397   -0.00012174408287364584
-0.009894958754975145   -0.00046198436755870626   -0.0001416131885560859
-0.00760061466648747   -0.0004947487494321349   -9.05933926219642e-05
-0.009872644994448536   -0.0042873846617771175   -0.00017459735090808712
-0.007585569055245099   -0.004257679153887397   -0.00012174408287364584
-0.007617983113214775   -0.0004673273277477401   -8.895915490605631e-05
-0.009893513974132738   -0.004260653623339885   -0.00017026758198656524
-0.00760738917691435   -0.004227440642571416   -0.00011231331957753435
-0.007617983113214775   -0.0004673273277477401   -8.895915490605631e-05
-0.009894958754975145   -0.00046198436755870626   -0.0001416131885560859
-0.009893513974132738   -0.004260653623339885   -0.00017026758198656524
-0.009910213340911064   -0.000432161438867583   -0.00014379717561724523
-0.00760738917691435   -0.004227440642571416   -0.00011231331957753435
-0.009912210957080518   -0.0042316026173718   -0.00016516840266534794
-0.009910213340911064   -0.000432161438867583   -0.00014379717561724523
-0.009893513974132738   -0.004260653623339885   -0.00017026758198656524
-0.00760738917691435   -0.004227440642571416   -0.00011231331957753435
-0.009910213340911064   -0.000432161438867583   -0.00014379717561724523
-0.00763608778745409   -0.00043646127236805614   -8.762640100440636e-05
-0.007617983113214775   -0.0004673273277477401   -8.895915490605631e-05
-0.00760738917691435   -0.004227440642571416   -0.00011231331957753435
-0.009910213340911064   -0.000432161438867583   -0.00014379717561724523
-0.007617983113214775   -0.0004673273277477401   -8.895915490605631e-05
-0.009893513974132738   -0.004260653623339885   -0.00017026758198656524
-0.00760738917691435   -0.004227440642571416   -0.00011231331957753435
-0.00763608778745409   -0.00043646127236805614   -8.762640100440636e-05
-0.009912210957080518   -0.0042316026173718   -0.00016516840266534794
-0.00762717485028873   -0.0041951794868644796   -0.00010252801346316551
-0.00763608778745409   -0.00043646127236805614   -8.762640100440636e-05
-0.009910213340911064   -0.000432161438867583   -0.00014379717561724523
-0.009912210957080518   -0.0042316026173718   -0.00016516840266534794
-0.009921570736568623   -0.00039952955315399264   -0.00014606435980258283
-0.00762717485028873   -0.0041951794868644796   -0.00010252801346316551
-0.009927723432572063   -0.004200868755867463   -0.00016030481303224602
-0.009921570736568623   -0.00039952955315399264   -0.00014606435980258283
-0.009912210957080518   -0.0042316026173718   -0.00016516840266534794
-0.00762717485028873   -0.0041951794868644796   -0.00010252801346316551
-0.009921570736568623   -0.00039952955315399264   -0.00014606435980258283
-0.007650201264096416   -0.0004026909361515303   -8.665366407301146e-05
-0.00763608778745409   -0.00043646127236805614   -8.762640100440636e-05
-0.00762717485028873   -0.0041951794868644796   -0.00010252801346316551
-0.009921570736568623   -0.00039952955315399264   -0.00014606435980258283
-0.00763608778745409   -0.00043646127236805614   -8.762640100440636e-05
-0.009912210957080518   -0.0042316026173718   -0.00016516840266534794
              </DataArray>   
          </PointData>  
       </Piece>  
   </UnstructuredGrid> 
</VTKFile> 
