<?xml version="1.0"?> 
<VTKFile type="UnstructuredGrid"> 
   <UnstructuredGrid> 
      <Piece NumberOfPoints="6000"  NumberOfCells="1500">  
          <Points>  
             <DataArray type="Float64" NumberOfComponents="3" format="ascii">   
-500.0   0.0   0.0
-450.0   0.0   0.0
-500.0   30.0   0.0
-500.0   0.0   16.666666666666668
-450.0   0.0   0.0
-450.0   30.0   0.0
-500.0   30.0   0.0
-450.0   30.0   16.666666666666668
-500.0   0.0   16.666666666666668
-500.0   30.0   16.666666666666668
-450.0   30.0   16.666666666666668
-500.0   30.0   0.0
-500.0   0.0   16.666666666666668
-450.0   30.0   16.666666666666668
-450.0   0.0   16.666666666666668
-450.0   0.0   0.0
-500.0   0.0   16.666666666666668
-450.0   30.0   16.666666666666668
-450.0   0.0   0.0
-500.0   30.0   0.0
-500.0   0.0   16.666666666666668
-450.0   0.0   16.666666666666668
-500.0   30.0   16.666666666666668
-500.0   0.0   33.333333333333336
-450.0   0.0   16.666666666666668
-450.0   30.0   16.666666666666668
-500.0   30.0   16.666666666666668
-450.0   30.0   33.333333333333336
-500.0   0.0   33.333333333333336
-500.0   30.0   33.333333333333336
-450.0   30.0   33.333333333333336
-500.0   30.0   16.666666666666668
-500.0   0.0   33.333333333333336
-450.0   30.0   33.333333333333336
-450.0   0.0   33.333333333333336
-450.0   0.0   16.666666666666668
-500.0   0.0   33.333333333333336
-450.0   30.0   33.333333333333336
-450.0   0.0   16.666666666666668
-500.0   30.0   16.666666666666668
-500.0   0.0   33.333333333333336
-450.0   0.0   33.333333333333336
-500.0   30.0   33.333333333333336
-500.0   0.0   50.0
-450.0   0.0   33.333333333333336
-450.0   30.0   33.333333333333336
-500.0   30.0   33.333333333333336
-450.0   30.0   50.0
-500.0   0.0   50.0
-500.0   30.0   50.0
-450.0   30.0   50.0
-500.0   30.0   33.333333333333336
-500.0   0.0   50.0
-450.0   30.0   50.0
-450.0   0.0   50.0
-450.0   0.0   33.333333333333336
-500.0   0.0   50.0
-450.0   30.0   50.0
-450.0   0.0   33.333333333333336
-500.0   30.0   33.333333333333336
-500.0   30.0   0.0
-450.0   30.0   0.0
-500.0   60.0   0.0
-500.0   30.0   16.666666666666668
-450.0   30.0   0.0
-450.0   60.0   0.0
-500.0   60.0   0.0
-450.0   60.0   16.666666666666668
-500.0   30.0   16.666666666666668
-500.0   60.0   16.666666666666668
-450.0   60.0   16.666666666666668
-500.0   60.0   0.0
-500.0   30.0   16.666666666666668
-450.0   60.0   16.666666666666668
-450.0   30.0   16.666666666666668
-450.0   30.0   0.0
-500.0   30.0   16.666666666666668
-450.0   60.0   16.666666666666668
-450.0   30.0   0.0
-500.0   60.0   0.0
-500.0   30.0   16.666666666666668
-450.0   30.0   16.666666666666668
-500.0   60.0   16.666666666666668
-500.0   30.0   33.333333333333336
-450.0   30.0   16.666666666666668
-450.0   60.0   16.666666666666668
-500.0   60.0   16.666666666666668
-450.0   60.0   33.333333333333336
-500.0   30.0   33.333333333333336
-500.0   60.0   33.333333333333336
-450.0   60.0   33.333333333333336
-500.0   60.0   16.666666666666668
-500.0   30.0   33.333333333333336
-450.0   60.0   33.333333333333336
-450.0   30.0   33.333333333333336
-450.0   30.0   16.666666666666668
-500.0   30.0   33.333333333333336
-450.0   60.0   33.333333333333336
-450.0   30.0   16.666666666666668
-500.0   60.0   16.666666666666668
-500.0   30.0   33.333333333333336
-450.0   30.0   33.333333333333336
-500.0   60.0   33.333333333333336
-500.0   30.0   50.0
-450.0   30.0   33.333333333333336
-450.0   60.0   33.333333333333336
-500.0   60.0   33.333333333333336
-450.0   60.0   50.0
-500.0   30.0   50.0
-500.0   60.0   50.0
-450.0   60.0   50.0
-500.0   60.0   33.333333333333336
-500.0   30.0   50.0
-450.0   60.0   50.0
-450.0   30.0   50.0
-450.0   30.0   33.333333333333336
-500.0   30.0   50.0
-450.0   60.0   50.0
-450.0   30.0   33.333333333333336
-500.0   60.0   33.333333333333336
-500.0   60.0   0.0
-450.0   60.0   0.0
-500.0   90.0   0.0
-500.0   60.0   16.666666666666668
-450.0   60.0   0.0
-450.0   90.0   0.0
-500.0   90.0   0.0
-450.0   90.0   16.666666666666668
-500.0   60.0   16.666666666666668
-500.0   90.0   16.666666666666668
-450.0   90.0   16.666666666666668
-500.0   90.0   0.0
-500.0   60.0   16.666666666666668
-450.0   90.0   16.666666666666668
-450.0   60.0   16.666666666666668
-450.0   60.0   0.0
-500.0   60.0   16.666666666666668
-450.0   90.0   16.666666666666668
-450.0   60.0   0.0
-500.0   90.0   0.0
-500.0   60.0   16.666666666666668
-450.0   60.0   16.666666666666668
-500.0   90.0   16.666666666666668
-500.0   60.0   33.333333333333336
-450.0   60.0   16.666666666666668
-450.0   90.0   16.666666666666668
-500.0   90.0   16.666666666666668
-450.0   90.0   33.333333333333336
-500.0   60.0   33.333333333333336
-500.0   90.0   33.333333333333336
-450.0   90.0   33.333333333333336
-500.0   90.0   16.666666666666668
-500.0   60.0   33.333333333333336
-450.0   90.0   33.333333333333336
-450.0   60.0   33.333333333333336
-450.0   60.0   16.666666666666668
-500.0   60.0   33.333333333333336
-450.0   90.0   33.333333333333336
-450.0   60.0   16.666666666666668
-500.0   90.0   16.666666666666668
-500.0   60.0   33.333333333333336
-450.0   60.0   33.333333333333336
-500.0   90.0   33.333333333333336
-500.0   60.0   50.0
-450.0   60.0   33.333333333333336
-450.0   90.0   33.333333333333336
-500.0   90.0   33.333333333333336
-450.0   90.0   50.0
-500.0   60.0   50.0
-500.0   90.0   50.0
-450.0   90.0   50.0
-500.0   90.0   33.333333333333336
-500.0   60.0   50.0
-450.0   90.0   50.0
-450.0   60.0   50.0
-450.0   60.0   33.333333333333336
-500.0   60.0   50.0
-450.0   90.0   50.0
-450.0   60.0   33.333333333333336
-500.0   90.0   33.333333333333336
-500.0   90.0   0.0
-450.0   90.0   0.0
-500.0   120.0   0.0
-500.0   90.0   16.666666666666668
-450.0   90.0   0.0
-450.0   120.0   0.0
-500.0   120.0   0.0
-450.0   120.0   16.666666666666668
-500.0   90.0   16.666666666666668
-500.0   120.0   16.666666666666668
-450.0   120.0   16.666666666666668
-500.0   120.0   0.0
-500.0   90.0   16.666666666666668
-450.0   120.0   16.666666666666668
-450.0   90.0   16.666666666666668
-450.0   90.0   0.0
-500.0   90.0   16.666666666666668
-450.0   120.0   16.666666666666668
-450.0   90.0   0.0
-500.0   120.0   0.0
-500.0   90.0   16.666666666666668
-450.0   90.0   16.666666666666668
-500.0   120.0   16.666666666666668
-500.0   90.0   33.333333333333336
-450.0   90.0   16.666666666666668
-450.0   120.0   16.666666666666668
-500.0   120.0   16.666666666666668
-450.0   120.0   33.333333333333336
-500.0   90.0   33.333333333333336
-500.0   120.0   33.333333333333336
-450.0   120.0   33.333333333333336
-500.0   120.0   16.666666666666668
-500.0   90.0   33.333333333333336
-450.0   120.0   33.333333333333336
-450.0   90.0   33.333333333333336
-450.0   90.0   16.666666666666668
-500.0   90.0   33.333333333333336
-450.0   120.0   33.333333333333336
-450.0   90.0   16.666666666666668
-500.0   120.0   16.666666666666668
-500.0   90.0   33.333333333333336
-450.0   90.0   33.333333333333336
-500.0   120.0   33.333333333333336
-500.0   90.0   50.0
-450.0   90.0   33.333333333333336
-450.0   120.0   33.333333333333336
-500.0   120.0   33.333333333333336
-450.0   120.0   50.0
-500.0   90.0   50.0
-500.0   120.0   50.0
-450.0   120.0   50.0
-500.0   120.0   33.333333333333336
-500.0   90.0   50.0
-450.0   120.0   50.0
-450.0   90.0   50.0
-450.0   90.0   33.333333333333336
-500.0   90.0   50.0
-450.0   120.0   50.0
-450.0   90.0   33.333333333333336
-500.0   120.0   33.333333333333336
-500.0   120.0   0.0
-450.0   120.0   0.0
-500.0   150.0   0.0
-500.0   120.0   16.666666666666668
-450.0   120.0   0.0
-450.0   150.0   0.0
-500.0   150.0   0.0
-450.0   150.0   16.666666666666668
-500.0   120.0   16.666666666666668
-500.0   150.0   16.666666666666668
-450.0   150.0   16.666666666666668
-500.0   150.0   0.0
-500.0   120.0   16.666666666666668
-450.0   150.0   16.666666666666668
-450.0   120.0   16.666666666666668
-450.0   120.0   0.0
-500.0   120.0   16.666666666666668
-450.0   150.0   16.666666666666668
-450.0   120.0   0.0
-500.0   150.0   0.0
-500.0   120.0   16.666666666666668
-450.0   120.0   16.666666666666668
-500.0   150.0   16.666666666666668
-500.0   120.0   33.333333333333336
-450.0   120.0   16.666666666666668
-450.0   150.0   16.666666666666668
-500.0   150.0   16.666666666666668
-450.0   150.0   33.333333333333336
-500.0   120.0   33.333333333333336
-500.0   150.0   33.333333333333336
-450.0   150.0   33.333333333333336
-500.0   150.0   16.666666666666668
-500.0   120.0   33.333333333333336
-450.0   150.0   33.333333333333336
-450.0   120.0   33.333333333333336
-450.0   120.0   16.666666666666668
-500.0   120.0   33.333333333333336
-450.0   150.0   33.333333333333336
-450.0   120.0   16.666666666666668
-500.0   150.0   16.666666666666668
-500.0   120.0   33.333333333333336
-450.0   120.0   33.333333333333336
-500.0   150.0   33.333333333333336
-500.0   120.0   50.0
-450.0   120.0   33.333333333333336
-450.0   150.0   33.333333333333336
-500.0   150.0   33.333333333333336
-450.0   150.0   50.0
-500.0   120.0   50.0
-500.0   150.0   50.0
-450.0   150.0   50.0
-500.0   150.0   33.333333333333336
-500.0   120.0   50.0
-450.0   150.0   50.0
-450.0   120.0   50.0
-450.0   120.0   33.333333333333336
-500.0   120.0   50.0
-450.0   150.0   50.0
-450.0   120.0   33.333333333333336
-500.0   150.0   33.333333333333336
-450.0   0.0   0.0
-400.0   0.0   0.0
-450.0   30.0   0.0
-450.0   0.0   16.666666666666668
-400.0   0.0   0.0
-400.0   30.0   0.0
-450.0   30.0   0.0
-400.0   30.0   16.666666666666668
-450.0   0.0   16.666666666666668
-450.0   30.0   16.666666666666668
-400.0   30.0   16.666666666666668
-450.0   30.0   0.0
-450.0   0.0   16.666666666666668
-400.0   30.0   16.666666666666668
-400.0   0.0   16.666666666666668
-400.0   0.0   0.0
-450.0   0.0   16.666666666666668
-400.0   30.0   16.666666666666668
-400.0   0.0   0.0
-450.0   30.0   0.0
-450.0   0.0   16.666666666666668
-400.0   0.0   16.666666666666668
-450.0   30.0   16.666666666666668
-450.0   0.0   33.333333333333336
-400.0   0.0   16.666666666666668
-400.0   30.0   16.666666666666668
-450.0   30.0   16.666666666666668
-400.0   30.0   33.333333333333336
-450.0   0.0   33.333333333333336
-450.0   30.0   33.333333333333336
-400.0   30.0   33.333333333333336
-450.0   30.0   16.666666666666668
-450.0   0.0   33.333333333333336
-400.0   30.0   33.333333333333336
-400.0   0.0   33.333333333333336
-400.0   0.0   16.666666666666668
-450.0   0.0   33.333333333333336
-400.0   30.0   33.333333333333336
-400.0   0.0   16.666666666666668
-450.0   30.0   16.666666666666668
-450.0   0.0   33.333333333333336
-400.0   0.0   33.333333333333336
-450.0   30.0   33.333333333333336
-450.0   0.0   50.0
-400.0   0.0   33.333333333333336
-400.0   30.0   33.333333333333336
-450.0   30.0   33.333333333333336
-400.0   30.0   50.0
-450.0   0.0   50.0
-450.0   30.0   50.0
-400.0   30.0   50.0
-450.0   30.0   33.333333333333336
-450.0   0.0   50.0
-400.0   30.0   50.0
-400.0   0.0   50.0
-400.0   0.0   33.333333333333336
-450.0   0.0   50.0
-400.0   30.0   50.0
-400.0   0.0   33.333333333333336
-450.0   30.0   33.333333333333336
-450.0   30.0   0.0
-400.0   30.0   0.0
-450.0   60.0   0.0
-450.0   30.0   16.666666666666668
-400.0   30.0   0.0
-400.0   60.0   0.0
-450.0   60.0   0.0
-400.0   60.0   16.666666666666668
-450.0   30.0   16.666666666666668
-450.0   60.0   16.666666666666668
-400.0   60.0   16.666666666666668
-450.0   60.0   0.0
-450.0   30.0   16.666666666666668
-400.0   60.0   16.666666666666668
-400.0   30.0   16.666666666666668
-400.0   30.0   0.0
-450.0   30.0   16.666666666666668
-400.0   60.0   16.666666666666668
-400.0   30.0   0.0
-450.0   60.0   0.0
-450.0   30.0   16.666666666666668
-400.0   30.0   16.666666666666668
-450.0   60.0   16.666666666666668
-450.0   30.0   33.333333333333336
-400.0   30.0   16.666666666666668
-400.0   60.0   16.666666666666668
-450.0   60.0   16.666666666666668
-400.0   60.0   33.333333333333336
-450.0   30.0   33.333333333333336
-450.0   60.0   33.333333333333336
-400.0   60.0   33.333333333333336
-450.0   60.0   16.666666666666668
-450.0   30.0   33.333333333333336
-400.0   60.0   33.333333333333336
-400.0   30.0   33.333333333333336
-400.0   30.0   16.666666666666668
-450.0   30.0   33.333333333333336
-400.0   60.0   33.333333333333336
-400.0   30.0   16.666666666666668
-450.0   60.0   16.666666666666668
-450.0   30.0   33.333333333333336
-400.0   30.0   33.333333333333336
-450.0   60.0   33.333333333333336
-450.0   30.0   50.0
-400.0   30.0   33.333333333333336
-400.0   60.0   33.333333333333336
-450.0   60.0   33.333333333333336
-400.0   60.0   50.0
-450.0   30.0   50.0
-450.0   60.0   50.0
-400.0   60.0   50.0
-450.0   60.0   33.333333333333336
-450.0   30.0   50.0
-400.0   60.0   50.0
-400.0   30.0   50.0
-400.0   30.0   33.333333333333336
-450.0   30.0   50.0
-400.0   60.0   50.0
-400.0   30.0   33.333333333333336
-450.0   60.0   33.333333333333336
-450.0   60.0   0.0
-400.0   60.0   0.0
-450.0   90.0   0.0
-450.0   60.0   16.666666666666668
-400.0   60.0   0.0
-400.0   90.0   0.0
-450.0   90.0   0.0
-400.0   90.0   16.666666666666668
-450.0   60.0   16.666666666666668
-450.0   90.0   16.666666666666668
-400.0   90.0   16.666666666666668
-450.0   90.0   0.0
-450.0   60.0   16.666666666666668
-400.0   90.0   16.666666666666668
-400.0   60.0   16.666666666666668
-400.0   60.0   0.0
-450.0   60.0   16.666666666666668
-400.0   90.0   16.666666666666668
-400.0   60.0   0.0
-450.0   90.0   0.0
-450.0   60.0   16.666666666666668
-400.0   60.0   16.666666666666668
-450.0   90.0   16.666666666666668
-450.0   60.0   33.333333333333336
-400.0   60.0   16.666666666666668
-400.0   90.0   16.666666666666668
-450.0   90.0   16.666666666666668
-400.0   90.0   33.333333333333336
-450.0   60.0   33.333333333333336
-450.0   90.0   33.333333333333336
-400.0   90.0   33.333333333333336
-450.0   90.0   16.666666666666668
-450.0   60.0   33.333333333333336
-400.0   90.0   33.333333333333336
-400.0   60.0   33.333333333333336
-400.0   60.0   16.666666666666668
-450.0   60.0   33.333333333333336
-400.0   90.0   33.333333333333336
-400.0   60.0   16.666666666666668
-450.0   90.0   16.666666666666668
-450.0   60.0   33.333333333333336
-400.0   60.0   33.333333333333336
-450.0   90.0   33.333333333333336
-450.0   60.0   50.0
-400.0   60.0   33.333333333333336
-400.0   90.0   33.333333333333336
-450.0   90.0   33.333333333333336
-400.0   90.0   50.0
-450.0   60.0   50.0
-450.0   90.0   50.0
-400.0   90.0   50.0
-450.0   90.0   33.333333333333336
-450.0   60.0   50.0
-400.0   90.0   50.0
-400.0   60.0   50.0
-400.0   60.0   33.333333333333336
-450.0   60.0   50.0
-400.0   90.0   50.0
-400.0   60.0   33.333333333333336
-450.0   90.0   33.333333333333336
-450.0   90.0   0.0
-400.0   90.0   0.0
-450.0   120.0   0.0
-450.0   90.0   16.666666666666668
-400.0   90.0   0.0
-400.0   120.0   0.0
-450.0   120.0   0.0
-400.0   120.0   16.666666666666668
-450.0   90.0   16.666666666666668
-450.0   120.0   16.666666666666668
-400.0   120.0   16.666666666666668
-450.0   120.0   0.0
-450.0   90.0   16.666666666666668
-400.0   120.0   16.666666666666668
-400.0   90.0   16.666666666666668
-400.0   90.0   0.0
-450.0   90.0   16.666666666666668
-400.0   120.0   16.666666666666668
-400.0   90.0   0.0
-450.0   120.0   0.0
-450.0   90.0   16.666666666666668
-400.0   90.0   16.666666666666668
-450.0   120.0   16.666666666666668
-450.0   90.0   33.333333333333336
-400.0   90.0   16.666666666666668
-400.0   120.0   16.666666666666668
-450.0   120.0   16.666666666666668
-400.0   120.0   33.333333333333336
-450.0   90.0   33.333333333333336
-450.0   120.0   33.333333333333336
-400.0   120.0   33.333333333333336
-450.0   120.0   16.666666666666668
-450.0   90.0   33.333333333333336
-400.0   120.0   33.333333333333336
-400.0   90.0   33.333333333333336
-400.0   90.0   16.666666666666668
-450.0   90.0   33.333333333333336
-400.0   120.0   33.333333333333336
-400.0   90.0   16.666666666666668
-450.0   120.0   16.666666666666668
-450.0   90.0   33.333333333333336
-400.0   90.0   33.333333333333336
-450.0   120.0   33.333333333333336
-450.0   90.0   50.0
-400.0   90.0   33.333333333333336
-400.0   120.0   33.333333333333336
-450.0   120.0   33.333333333333336
-400.0   120.0   50.0
-450.0   90.0   50.0
-450.0   120.0   50.0
-400.0   120.0   50.0
-450.0   120.0   33.333333333333336
-450.0   90.0   50.0
-400.0   120.0   50.0
-400.0   90.0   50.0
-400.0   90.0   33.333333333333336
-450.0   90.0   50.0
-400.0   120.0   50.0
-400.0   90.0   33.333333333333336
-450.0   120.0   33.333333333333336
-450.0   120.0   0.0
-400.0   120.0   0.0
-450.0   150.0   0.0
-450.0   120.0   16.666666666666668
-400.0   120.0   0.0
-400.0   150.0   0.0
-450.0   150.0   0.0
-400.0   150.0   16.666666666666668
-450.0   120.0   16.666666666666668
-450.0   150.0   16.666666666666668
-400.0   150.0   16.666666666666668
-450.0   150.0   0.0
-450.0   120.0   16.666666666666668
-400.0   150.0   16.666666666666668
-400.0   120.0   16.666666666666668
-400.0   120.0   0.0
-450.0   120.0   16.666666666666668
-400.0   150.0   16.666666666666668
-400.0   120.0   0.0
-450.0   150.0   0.0
-450.0   120.0   16.666666666666668
-400.0   120.0   16.666666666666668
-450.0   150.0   16.666666666666668
-450.0   120.0   33.333333333333336
-400.0   120.0   16.666666666666668
-400.0   150.0   16.666666666666668
-450.0   150.0   16.666666666666668
-400.0   150.0   33.333333333333336
-450.0   120.0   33.333333333333336
-450.0   150.0   33.333333333333336
-400.0   150.0   33.333333333333336
-450.0   150.0   16.666666666666668
-450.0   120.0   33.333333333333336
-400.0   150.0   33.333333333333336
-400.0   120.0   33.333333333333336
-400.0   120.0   16.666666666666668
-450.0   120.0   33.333333333333336
-400.0   150.0   33.333333333333336
-400.0   120.0   16.666666666666668
-450.0   150.0   16.666666666666668
-450.0   120.0   33.333333333333336
-400.0   120.0   33.333333333333336
-450.0   150.0   33.333333333333336
-450.0   120.0   50.0
-400.0   120.0   33.333333333333336
-400.0   150.0   33.333333333333336
-450.0   150.0   33.333333333333336
-400.0   150.0   50.0
-450.0   120.0   50.0
-450.0   150.0   50.0
-400.0   150.0   50.0
-450.0   150.0   33.333333333333336
-450.0   120.0   50.0
-400.0   150.0   50.0
-400.0   120.0   50.0
-400.0   120.0   33.333333333333336
-450.0   120.0   50.0
-400.0   150.0   50.0
-400.0   120.0   33.333333333333336
-450.0   150.0   33.333333333333336
-400.0   0.0   0.0
-350.0   0.0   0.0
-400.0   30.0   0.0
-400.0   0.0   16.666666666666668
-350.0   0.0   0.0
-350.0   30.0   0.0
-400.0   30.0   0.0
-350.0   30.0   16.666666666666668
-400.0   0.0   16.666666666666668
-400.0   30.0   16.666666666666668
-350.0   30.0   16.666666666666668
-400.0   30.0   0.0
-400.0   0.0   16.666666666666668
-350.0   30.0   16.666666666666668
-350.0   0.0   16.666666666666668
-350.0   0.0   0.0
-400.0   0.0   16.666666666666668
-350.0   30.0   16.666666666666668
-350.0   0.0   0.0
-400.0   30.0   0.0
-400.0   0.0   16.666666666666668
-350.0   0.0   16.666666666666668
-400.0   30.0   16.666666666666668
-400.0   0.0   33.333333333333336
-350.0   0.0   16.666666666666668
-350.0   30.0   16.666666666666668
-400.0   30.0   16.666666666666668
-350.0   30.0   33.333333333333336
-400.0   0.0   33.333333333333336
-400.0   30.0   33.333333333333336
-350.0   30.0   33.333333333333336
-400.0   30.0   16.666666666666668
-400.0   0.0   33.333333333333336
-350.0   30.0   33.333333333333336
-350.0   0.0   33.333333333333336
-350.0   0.0   16.666666666666668
-400.0   0.0   33.333333333333336
-350.0   30.0   33.333333333333336
-350.0   0.0   16.666666666666668
-400.0   30.0   16.666666666666668
-400.0   0.0   33.333333333333336
-350.0   0.0   33.333333333333336
-400.0   30.0   33.333333333333336
-400.0   0.0   50.0
-350.0   0.0   33.333333333333336
-350.0   30.0   33.333333333333336
-400.0   30.0   33.333333333333336
-350.0   30.0   50.0
-400.0   0.0   50.0
-400.0   30.0   50.0
-350.0   30.0   50.0
-400.0   30.0   33.333333333333336
-400.0   0.0   50.0
-350.0   30.0   50.0
-350.0   0.0   50.0
-350.0   0.0   33.333333333333336
-400.0   0.0   50.0
-350.0   30.0   50.0
-350.0   0.0   33.333333333333336
-400.0   30.0   33.333333333333336
-400.0   30.0   0.0
-350.0   30.0   0.0
-400.0   60.0   0.0
-400.0   30.0   16.666666666666668
-350.0   30.0   0.0
-350.0   60.0   0.0
-400.0   60.0   0.0
-350.0   60.0   16.666666666666668
-400.0   30.0   16.666666666666668
-400.0   60.0   16.666666666666668
-350.0   60.0   16.666666666666668
-400.0   60.0   0.0
-400.0   30.0   16.666666666666668
-350.0   60.0   16.666666666666668
-350.0   30.0   16.666666666666668
-350.0   30.0   0.0
-400.0   30.0   16.666666666666668
-350.0   60.0   16.666666666666668
-350.0   30.0   0.0
-400.0   60.0   0.0
-400.0   30.0   16.666666666666668
-350.0   30.0   16.666666666666668
-400.0   60.0   16.666666666666668
-400.0   30.0   33.333333333333336
-350.0   30.0   16.666666666666668
-350.0   60.0   16.666666666666668
-400.0   60.0   16.666666666666668
-350.0   60.0   33.333333333333336
-400.0   30.0   33.333333333333336
-400.0   60.0   33.333333333333336
-350.0   60.0   33.333333333333336
-400.0   60.0   16.666666666666668
-400.0   30.0   33.333333333333336
-350.0   60.0   33.333333333333336
-350.0   30.0   33.333333333333336
-350.0   30.0   16.666666666666668
-400.0   30.0   33.333333333333336
-350.0   60.0   33.333333333333336
-350.0   30.0   16.666666666666668
-400.0   60.0   16.666666666666668
-400.0   30.0   33.333333333333336
-350.0   30.0   33.333333333333336
-400.0   60.0   33.333333333333336
-400.0   30.0   50.0
-350.0   30.0   33.333333333333336
-350.0   60.0   33.333333333333336
-400.0   60.0   33.333333333333336
-350.0   60.0   50.0
-400.0   30.0   50.0
-400.0   60.0   50.0
-350.0   60.0   50.0
-400.0   60.0   33.333333333333336
-400.0   30.0   50.0
-350.0   60.0   50.0
-350.0   30.0   50.0
-350.0   30.0   33.333333333333336
-400.0   30.0   50.0
-350.0   60.0   50.0
-350.0   30.0   33.333333333333336
-400.0   60.0   33.333333333333336
-400.0   60.0   0.0
-350.0   60.0   0.0
-400.0   90.0   0.0
-400.0   60.0   16.666666666666668
-350.0   60.0   0.0
-350.0   90.0   0.0
-400.0   90.0   0.0
-350.0   90.0   16.666666666666668
-400.0   60.0   16.666666666666668
-400.0   90.0   16.666666666666668
-350.0   90.0   16.666666666666668
-400.0   90.0   0.0
-400.0   60.0   16.666666666666668
-350.0   90.0   16.666666666666668
-350.0   60.0   16.666666666666668
-350.0   60.0   0.0
-400.0   60.0   16.666666666666668
-350.0   90.0   16.666666666666668
-350.0   60.0   0.0
-400.0   90.0   0.0
-400.0   60.0   16.666666666666668
-350.0   60.0   16.666666666666668
-400.0   90.0   16.666666666666668
-400.0   60.0   33.333333333333336
-350.0   60.0   16.666666666666668
-350.0   90.0   16.666666666666668
-400.0   90.0   16.666666666666668
-350.0   90.0   33.333333333333336
-400.0   60.0   33.333333333333336
-400.0   90.0   33.333333333333336
-350.0   90.0   33.333333333333336
-400.0   90.0   16.666666666666668
-400.0   60.0   33.333333333333336
-350.0   90.0   33.333333333333336
-350.0   60.0   33.333333333333336
-350.0   60.0   16.666666666666668
-400.0   60.0   33.333333333333336
-350.0   90.0   33.333333333333336
-350.0   60.0   16.666666666666668
-400.0   90.0   16.666666666666668
-400.0   60.0   33.333333333333336
-350.0   60.0   33.333333333333336
-400.0   90.0   33.333333333333336
-400.0   60.0   50.0
-350.0   60.0   33.333333333333336
-350.0   90.0   33.333333333333336
-400.0   90.0   33.333333333333336
-350.0   90.0   50.0
-400.0   60.0   50.0
-400.0   90.0   50.0
-350.0   90.0   50.0
-400.0   90.0   33.333333333333336
-400.0   60.0   50.0
-350.0   90.0   50.0
-350.0   60.0   50.0
-350.0   60.0   33.333333333333336
-400.0   60.0   50.0
-350.0   90.0   50.0
-350.0   60.0   33.333333333333336
-400.0   90.0   33.333333333333336
-400.0   90.0   0.0
-350.0   90.0   0.0
-400.0   120.0   0.0
-400.0   90.0   16.666666666666668
-350.0   90.0   0.0
-350.0   120.0   0.0
-400.0   120.0   0.0
-350.0   120.0   16.666666666666668
-400.0   90.0   16.666666666666668
-400.0   120.0   16.666666666666668
-350.0   120.0   16.666666666666668
-400.0   120.0   0.0
-400.0   90.0   16.666666666666668
-350.0   120.0   16.666666666666668
-350.0   90.0   16.666666666666668
-350.0   90.0   0.0
-400.0   90.0   16.666666666666668
-350.0   120.0   16.666666666666668
-350.0   90.0   0.0
-400.0   120.0   0.0
-400.0   90.0   16.666666666666668
-350.0   90.0   16.666666666666668
-400.0   120.0   16.666666666666668
-400.0   90.0   33.333333333333336
-350.0   90.0   16.666666666666668
-350.0   120.0   16.666666666666668
-400.0   120.0   16.666666666666668
-350.0   120.0   33.333333333333336
-400.0   90.0   33.333333333333336
-400.0   120.0   33.333333333333336
-350.0   120.0   33.333333333333336
-400.0   120.0   16.666666666666668
-400.0   90.0   33.333333333333336
-350.0   120.0   33.333333333333336
-350.0   90.0   33.333333333333336
-350.0   90.0   16.666666666666668
-400.0   90.0   33.333333333333336
-350.0   120.0   33.333333333333336
-350.0   90.0   16.666666666666668
-400.0   120.0   16.666666666666668
-400.0   90.0   33.333333333333336
-350.0   90.0   33.333333333333336
-400.0   120.0   33.333333333333336
-400.0   90.0   50.0
-350.0   90.0   33.333333333333336
-350.0   120.0   33.333333333333336
-400.0   120.0   33.333333333333336
-350.0   120.0   50.0
-400.0   90.0   50.0
-400.0   120.0   50.0
-350.0   120.0   50.0
-400.0   120.0   33.333333333333336
-400.0   90.0   50.0
-350.0   120.0   50.0
-350.0   90.0   50.0
-350.0   90.0   33.333333333333336
-400.0   90.0   50.0
-350.0   120.0   50.0
-350.0   90.0   33.333333333333336
-400.0   120.0   33.333333333333336
-400.0   120.0   0.0
-350.0   120.0   0.0
-400.0   150.0   0.0
-400.0   120.0   16.666666666666668
-350.0   120.0   0.0
-350.0   150.0   0.0
-400.0   150.0   0.0
-350.0   150.0   16.666666666666668
-400.0   120.0   16.666666666666668
-400.0   150.0   16.666666666666668
-350.0   150.0   16.666666666666668
-400.0   150.0   0.0
-400.0   120.0   16.666666666666668
-350.0   150.0   16.666666666666668
-350.0   120.0   16.666666666666668
-350.0   120.0   0.0
-400.0   120.0   16.666666666666668
-350.0   150.0   16.666666666666668
-350.0   120.0   0.0
-400.0   150.0   0.0
-400.0   120.0   16.666666666666668
-350.0   120.0   16.666666666666668
-400.0   150.0   16.666666666666668
-400.0   120.0   33.333333333333336
-350.0   120.0   16.666666666666668
-350.0   150.0   16.666666666666668
-400.0   150.0   16.666666666666668
-350.0   150.0   33.333333333333336
-400.0   120.0   33.333333333333336
-400.0   150.0   33.333333333333336
-350.0   150.0   33.333333333333336
-400.0   150.0   16.666666666666668
-400.0   120.0   33.333333333333336
-350.0   150.0   33.333333333333336
-350.0   120.0   33.333333333333336
-350.0   120.0   16.666666666666668
-400.0   120.0   33.333333333333336
-350.0   150.0   33.333333333333336
-350.0   120.0   16.666666666666668
-400.0   150.0   16.666666666666668
-400.0   120.0   33.333333333333336
-350.0   120.0   33.333333333333336
-400.0   150.0   33.333333333333336
-400.0   120.0   50.0
-350.0   120.0   33.333333333333336
-350.0   150.0   33.333333333333336
-400.0   150.0   33.333333333333336
-350.0   150.0   50.0
-400.0   120.0   50.0
-400.0   150.0   50.0
-350.0   150.0   50.0
-400.0   150.0   33.333333333333336
-400.0   120.0   50.0
-350.0   150.0   50.0
-350.0   120.0   50.0
-350.0   120.0   33.333333333333336
-400.0   120.0   50.0
-350.0   150.0   50.0
-350.0   120.0   33.333333333333336
-400.0   150.0   33.333333333333336
-350.0   0.0   0.0
-300.0   0.0   0.0
-350.0   30.0   0.0
-350.0   0.0   16.666666666666668
-300.0   0.0   0.0
-300.0   30.0   0.0
-350.0   30.0   0.0
-300.0   30.0   16.666666666666668
-350.0   0.0   16.666666666666668
-350.0   30.0   16.666666666666668
-300.0   30.0   16.666666666666668
-350.0   30.0   0.0
-350.0   0.0   16.666666666666668
-300.0   30.0   16.666666666666668
-300.0   0.0   16.666666666666668
-300.0   0.0   0.0
-350.0   0.0   16.666666666666668
-300.0   30.0   16.666666666666668
-300.0   0.0   0.0
-350.0   30.0   0.0
-350.0   0.0   16.666666666666668
-300.0   0.0   16.666666666666668
-350.0   30.0   16.666666666666668
-350.0   0.0   33.333333333333336
-300.0   0.0   16.666666666666668
-300.0   30.0   16.666666666666668
-350.0   30.0   16.666666666666668
-300.0   30.0   33.333333333333336
-350.0   0.0   33.333333333333336
-350.0   30.0   33.333333333333336
-300.0   30.0   33.333333333333336
-350.0   30.0   16.666666666666668
-350.0   0.0   33.333333333333336
-300.0   30.0   33.333333333333336
-300.0   0.0   33.333333333333336
-300.0   0.0   16.666666666666668
-350.0   0.0   33.333333333333336
-300.0   30.0   33.333333333333336
-300.0   0.0   16.666666666666668
-350.0   30.0   16.666666666666668
-350.0   0.0   33.333333333333336
-300.0   0.0   33.333333333333336
-350.0   30.0   33.333333333333336
-350.0   0.0   50.0
-300.0   0.0   33.333333333333336
-300.0   30.0   33.333333333333336
-350.0   30.0   33.333333333333336
-300.0   30.0   50.0
-350.0   0.0   50.0
-350.0   30.0   50.0
-300.0   30.0   50.0
-350.0   30.0   33.333333333333336
-350.0   0.0   50.0
-300.0   30.0   50.0
-300.0   0.0   50.0
-300.0   0.0   33.333333333333336
-350.0   0.0   50.0
-300.0   30.0   50.0
-300.0   0.0   33.333333333333336
-350.0   30.0   33.333333333333336
-350.0   30.0   0.0
-300.0   30.0   0.0
-350.0   60.0   0.0
-350.0   30.0   16.666666666666668
-300.0   30.0   0.0
-300.0   60.0   0.0
-350.0   60.0   0.0
-300.0   60.0   16.666666666666668
-350.0   30.0   16.666666666666668
-350.0   60.0   16.666666666666668
-300.0   60.0   16.666666666666668
-350.0   60.0   0.0
-350.0   30.0   16.666666666666668
-300.0   60.0   16.666666666666668
-300.0   30.0   16.666666666666668
-300.0   30.0   0.0
-350.0   30.0   16.666666666666668
-300.0   60.0   16.666666666666668
-300.0   30.0   0.0
-350.0   60.0   0.0
-350.0   30.0   16.666666666666668
-300.0   30.0   16.666666666666668
-350.0   60.0   16.666666666666668
-350.0   30.0   33.333333333333336
-300.0   30.0   16.666666666666668
-300.0   60.0   16.666666666666668
-350.0   60.0   16.666666666666668
-300.0   60.0   33.333333333333336
-350.0   30.0   33.333333333333336
-350.0   60.0   33.333333333333336
-300.0   60.0   33.333333333333336
-350.0   60.0   16.666666666666668
-350.0   30.0   33.333333333333336
-300.0   60.0   33.333333333333336
-300.0   30.0   33.333333333333336
-300.0   30.0   16.666666666666668
-350.0   30.0   33.333333333333336
-300.0   60.0   33.333333333333336
-300.0   30.0   16.666666666666668
-350.0   60.0   16.666666666666668
-350.0   30.0   33.333333333333336
-300.0   30.0   33.333333333333336
-350.0   60.0   33.333333333333336
-350.0   30.0   50.0
-300.0   30.0   33.333333333333336
-300.0   60.0   33.333333333333336
-350.0   60.0   33.333333333333336
-300.0   60.0   50.0
-350.0   30.0   50.0
-350.0   60.0   50.0
-300.0   60.0   50.0
-350.0   60.0   33.333333333333336
-350.0   30.0   50.0
-300.0   60.0   50.0
-300.0   30.0   50.0
-300.0   30.0   33.333333333333336
-350.0   30.0   50.0
-300.0   60.0   50.0
-300.0   30.0   33.333333333333336
-350.0   60.0   33.333333333333336
-350.0   60.0   0.0
-300.0   60.0   0.0
-350.0   90.0   0.0
-350.0   60.0   16.666666666666668
-300.0   60.0   0.0
-300.0   90.0   0.0
-350.0   90.0   0.0
-300.0   90.0   16.666666666666668
-350.0   60.0   16.666666666666668
-350.0   90.0   16.666666666666668
-300.0   90.0   16.666666666666668
-350.0   90.0   0.0
-350.0   60.0   16.666666666666668
-300.0   90.0   16.666666666666668
-300.0   60.0   16.666666666666668
-300.0   60.0   0.0
-350.0   60.0   16.666666666666668
-300.0   90.0   16.666666666666668
-300.0   60.0   0.0
-350.0   90.0   0.0
-350.0   60.0   16.666666666666668
-300.0   60.0   16.666666666666668
-350.0   90.0   16.666666666666668
-350.0   60.0   33.333333333333336
-300.0   60.0   16.666666666666668
-300.0   90.0   16.666666666666668
-350.0   90.0   16.666666666666668
-300.0   90.0   33.333333333333336
-350.0   60.0   33.333333333333336
-350.0   90.0   33.333333333333336
-300.0   90.0   33.333333333333336
-350.0   90.0   16.666666666666668
-350.0   60.0   33.333333333333336
-300.0   90.0   33.333333333333336
-300.0   60.0   33.333333333333336
-300.0   60.0   16.666666666666668
-350.0   60.0   33.333333333333336
-300.0   90.0   33.333333333333336
-300.0   60.0   16.666666666666668
-350.0   90.0   16.666666666666668
-350.0   60.0   33.333333333333336
-300.0   60.0   33.333333333333336
-350.0   90.0   33.333333333333336
-350.0   60.0   50.0
-300.0   60.0   33.333333333333336
-300.0   90.0   33.333333333333336
-350.0   90.0   33.333333333333336
-300.0   90.0   50.0
-350.0   60.0   50.0
-350.0   90.0   50.0
-300.0   90.0   50.0
-350.0   90.0   33.333333333333336
-350.0   60.0   50.0
-300.0   90.0   50.0
-300.0   60.0   50.0
-300.0   60.0   33.333333333333336
-350.0   60.0   50.0
-300.0   90.0   50.0
-300.0   60.0   33.333333333333336
-350.0   90.0   33.333333333333336
-350.0   90.0   0.0
-300.0   90.0   0.0
-350.0   120.0   0.0
-350.0   90.0   16.666666666666668
-300.0   90.0   0.0
-300.0   120.0   0.0
-350.0   120.0   0.0
-300.0   120.0   16.666666666666668
-350.0   90.0   16.666666666666668
-350.0   120.0   16.666666666666668
-300.0   120.0   16.666666666666668
-350.0   120.0   0.0
-350.0   90.0   16.666666666666668
-300.0   120.0   16.666666666666668
-300.0   90.0   16.666666666666668
-300.0   90.0   0.0
-350.0   90.0   16.666666666666668
-300.0   120.0   16.666666666666668
-300.0   90.0   0.0
-350.0   120.0   0.0
-350.0   90.0   16.666666666666668
-300.0   90.0   16.666666666666668
-350.0   120.0   16.666666666666668
-350.0   90.0   33.333333333333336
-300.0   90.0   16.666666666666668
-300.0   120.0   16.666666666666668
-350.0   120.0   16.666666666666668
-300.0   120.0   33.333333333333336
-350.0   90.0   33.333333333333336
-350.0   120.0   33.333333333333336
-300.0   120.0   33.333333333333336
-350.0   120.0   16.666666666666668
-350.0   90.0   33.333333333333336
-300.0   120.0   33.333333333333336
-300.0   90.0   33.333333333333336
-300.0   90.0   16.666666666666668
-350.0   90.0   33.333333333333336
-300.0   120.0   33.333333333333336
-300.0   90.0   16.666666666666668
-350.0   120.0   16.666666666666668
-350.0   90.0   33.333333333333336
-300.0   90.0   33.333333333333336
-350.0   120.0   33.333333333333336
-350.0   90.0   50.0
-300.0   90.0   33.333333333333336
-300.0   120.0   33.333333333333336
-350.0   120.0   33.333333333333336
-300.0   120.0   50.0
-350.0   90.0   50.0
-350.0   120.0   50.0
-300.0   120.0   50.0
-350.0   120.0   33.333333333333336
-350.0   90.0   50.0
-300.0   120.0   50.0
-300.0   90.0   50.0
-300.0   90.0   33.333333333333336
-350.0   90.0   50.0
-300.0   120.0   50.0
-300.0   90.0   33.333333333333336
-350.0   120.0   33.333333333333336
-350.0   120.0   0.0
-300.0   120.0   0.0
-350.0   150.0   0.0
-350.0   120.0   16.666666666666668
-300.0   120.0   0.0
-300.0   150.0   0.0
-350.0   150.0   0.0
-300.0   150.0   16.666666666666668
-350.0   120.0   16.666666666666668
-350.0   150.0   16.666666666666668
-300.0   150.0   16.666666666666668
-350.0   150.0   0.0
-350.0   120.0   16.666666666666668
-300.0   150.0   16.666666666666668
-300.0   120.0   16.666666666666668
-300.0   120.0   0.0
-350.0   120.0   16.666666666666668
-300.0   150.0   16.666666666666668
-300.0   120.0   0.0
-350.0   150.0   0.0
-350.0   120.0   16.666666666666668
-300.0   120.0   16.666666666666668
-350.0   150.0   16.666666666666668
-350.0   120.0   33.333333333333336
-300.0   120.0   16.666666666666668
-300.0   150.0   16.666666666666668
-350.0   150.0   16.666666666666668
-300.0   150.0   33.333333333333336
-350.0   120.0   33.333333333333336
-350.0   150.0   33.333333333333336
-300.0   150.0   33.333333333333336
-350.0   150.0   16.666666666666668
-350.0   120.0   33.333333333333336
-300.0   150.0   33.333333333333336
-300.0   120.0   33.333333333333336
-300.0   120.0   16.666666666666668
-350.0   120.0   33.333333333333336
-300.0   150.0   33.333333333333336
-300.0   120.0   16.666666666666668
-350.0   150.0   16.666666666666668
-350.0   120.0   33.333333333333336
-300.0   120.0   33.333333333333336
-350.0   150.0   33.333333333333336
-350.0   120.0   50.0
-300.0   120.0   33.333333333333336
-300.0   150.0   33.333333333333336
-350.0   150.0   33.333333333333336
-300.0   150.0   50.0
-350.0   120.0   50.0
-350.0   150.0   50.0
-300.0   150.0   50.0
-350.0   150.0   33.333333333333336
-350.0   120.0   50.0
-300.0   150.0   50.0
-300.0   120.0   50.0
-300.0   120.0   33.333333333333336
-350.0   120.0   50.0
-300.0   150.0   50.0
-300.0   120.0   33.333333333333336
-350.0   150.0   33.333333333333336
-300.0   0.0   0.0
-250.0   0.0   0.0
-300.0   30.0   0.0
-300.0   0.0   16.666666666666668
-250.0   0.0   0.0
-250.0   30.0   0.0
-300.0   30.0   0.0
-250.0   30.0   16.666666666666668
-300.0   0.0   16.666666666666668
-300.0   30.0   16.666666666666668
-250.0   30.0   16.666666666666668
-300.0   30.0   0.0
-300.0   0.0   16.666666666666668
-250.0   30.0   16.666666666666668
-250.0   0.0   16.666666666666668
-250.0   0.0   0.0
-300.0   0.0   16.666666666666668
-250.0   30.0   16.666666666666668
-250.0   0.0   0.0
-300.0   30.0   0.0
-300.0   0.0   16.666666666666668
-250.0   0.0   16.666666666666668
-300.0   30.0   16.666666666666668
-300.0   0.0   33.333333333333336
-250.0   0.0   16.666666666666668
-250.0   30.0   16.666666666666668
-300.0   30.0   16.666666666666668
-250.0   30.0   33.333333333333336
-300.0   0.0   33.333333333333336
-300.0   30.0   33.333333333333336
-250.0   30.0   33.333333333333336
-300.0   30.0   16.666666666666668
-300.0   0.0   33.333333333333336
-250.0   30.0   33.333333333333336
-250.0   0.0   33.333333333333336
-250.0   0.0   16.666666666666668
-300.0   0.0   33.333333333333336
-250.0   30.0   33.333333333333336
-250.0   0.0   16.666666666666668
-300.0   30.0   16.666666666666668
-300.0   0.0   33.333333333333336
-250.0   0.0   33.333333333333336
-300.0   30.0   33.333333333333336
-300.0   0.0   50.0
-250.0   0.0   33.333333333333336
-250.0   30.0   33.333333333333336
-300.0   30.0   33.333333333333336
-250.0   30.0   50.0
-300.0   0.0   50.0
-300.0   30.0   50.0
-250.0   30.0   50.0
-300.0   30.0   33.333333333333336
-300.0   0.0   50.0
-250.0   30.0   50.0
-250.0   0.0   50.0
-250.0   0.0   33.333333333333336
-300.0   0.0   50.0
-250.0   30.0   50.0
-250.0   0.0   33.333333333333336
-300.0   30.0   33.333333333333336
-300.0   30.0   0.0
-250.0   30.0   0.0
-300.0   60.0   0.0
-300.0   30.0   16.666666666666668
-250.0   30.0   0.0
-250.0   60.0   0.0
-300.0   60.0   0.0
-250.0   60.0   16.666666666666668
-300.0   30.0   16.666666666666668
-300.0   60.0   16.666666666666668
-250.0   60.0   16.666666666666668
-300.0   60.0   0.0
-300.0   30.0   16.666666666666668
-250.0   60.0   16.666666666666668
-250.0   30.0   16.666666666666668
-250.0   30.0   0.0
-300.0   30.0   16.666666666666668
-250.0   60.0   16.666666666666668
-250.0   30.0   0.0
-300.0   60.0   0.0
-300.0   30.0   16.666666666666668
-250.0   30.0   16.666666666666668
-300.0   60.0   16.666666666666668
-300.0   30.0   33.333333333333336
-250.0   30.0   16.666666666666668
-250.0   60.0   16.666666666666668
-300.0   60.0   16.666666666666668
-250.0   60.0   33.333333333333336
-300.0   30.0   33.333333333333336
-300.0   60.0   33.333333333333336
-250.0   60.0   33.333333333333336
-300.0   60.0   16.666666666666668
-300.0   30.0   33.333333333333336
-250.0   60.0   33.333333333333336
-250.0   30.0   33.333333333333336
-250.0   30.0   16.666666666666668
-300.0   30.0   33.333333333333336
-250.0   60.0   33.333333333333336
-250.0   30.0   16.666666666666668
-300.0   60.0   16.666666666666668
-300.0   30.0   33.333333333333336
-250.0   30.0   33.333333333333336
-300.0   60.0   33.333333333333336
-300.0   30.0   50.0
-250.0   30.0   33.333333333333336
-250.0   60.0   33.333333333333336
-300.0   60.0   33.333333333333336
-250.0   60.0   50.0
-300.0   30.0   50.0
-300.0   60.0   50.0
-250.0   60.0   50.0
-300.0   60.0   33.333333333333336
-300.0   30.0   50.0
-250.0   60.0   50.0
-250.0   30.0   50.0
-250.0   30.0   33.333333333333336
-300.0   30.0   50.0
-250.0   60.0   50.0
-250.0   30.0   33.333333333333336
-300.0   60.0   33.333333333333336
-300.0   60.0   0.0
-250.0   60.0   0.0
-300.0   90.0   0.0
-300.0   60.0   16.666666666666668
-250.0   60.0   0.0
-250.0   90.0   0.0
-300.0   90.0   0.0
-250.0   90.0   16.666666666666668
-300.0   60.0   16.666666666666668
-300.0   90.0   16.666666666666668
-250.0   90.0   16.666666666666668
-300.0   90.0   0.0
-300.0   60.0   16.666666666666668
-250.0   90.0   16.666666666666668
-250.0   60.0   16.666666666666668
-250.0   60.0   0.0
-300.0   60.0   16.666666666666668
-250.0   90.0   16.666666666666668
-250.0   60.0   0.0
-300.0   90.0   0.0
-300.0   60.0   16.666666666666668
-250.0   60.0   16.666666666666668
-300.0   90.0   16.666666666666668
-300.0   60.0   33.333333333333336
-250.0   60.0   16.666666666666668
-250.0   90.0   16.666666666666668
-300.0   90.0   16.666666666666668
-250.0   90.0   33.333333333333336
-300.0   60.0   33.333333333333336
-300.0   90.0   33.333333333333336
-250.0   90.0   33.333333333333336
-300.0   90.0   16.666666666666668
-300.0   60.0   33.333333333333336
-250.0   90.0   33.333333333333336
-250.0   60.0   33.333333333333336
-250.0   60.0   16.666666666666668
-300.0   60.0   33.333333333333336
-250.0   90.0   33.333333333333336
-250.0   60.0   16.666666666666668
-300.0   90.0   16.666666666666668
-300.0   60.0   33.333333333333336
-250.0   60.0   33.333333333333336
-300.0   90.0   33.333333333333336
-300.0   60.0   50.0
-250.0   60.0   33.333333333333336
-250.0   90.0   33.333333333333336
-300.0   90.0   33.333333333333336
-250.0   90.0   50.0
-300.0   60.0   50.0
-300.0   90.0   50.0
-250.0   90.0   50.0
-300.0   90.0   33.333333333333336
-300.0   60.0   50.0
-250.0   90.0   50.0
-250.0   60.0   50.0
-250.0   60.0   33.333333333333336
-300.0   60.0   50.0
-250.0   90.0   50.0
-250.0   60.0   33.333333333333336
-300.0   90.0   33.333333333333336
-300.0   90.0   0.0
-250.0   90.0   0.0
-300.0   120.0   0.0
-300.0   90.0   16.666666666666668
-250.0   90.0   0.0
-250.0   120.0   0.0
-300.0   120.0   0.0
-250.0   120.0   16.666666666666668
-300.0   90.0   16.666666666666668
-300.0   120.0   16.666666666666668
-250.0   120.0   16.666666666666668
-300.0   120.0   0.0
-300.0   90.0   16.666666666666668
-250.0   120.0   16.666666666666668
-250.0   90.0   16.666666666666668
-250.0   90.0   0.0
-300.0   90.0   16.666666666666668
-250.0   120.0   16.666666666666668
-250.0   90.0   0.0
-300.0   120.0   0.0
-300.0   90.0   16.666666666666668
-250.0   90.0   16.666666666666668
-300.0   120.0   16.666666666666668
-300.0   90.0   33.333333333333336
-250.0   90.0   16.666666666666668
-250.0   120.0   16.666666666666668
-300.0   120.0   16.666666666666668
-250.0   120.0   33.333333333333336
-300.0   90.0   33.333333333333336
-300.0   120.0   33.333333333333336
-250.0   120.0   33.333333333333336
-300.0   120.0   16.666666666666668
-300.0   90.0   33.333333333333336
-250.0   120.0   33.333333333333336
-250.0   90.0   33.333333333333336
-250.0   90.0   16.666666666666668
-300.0   90.0   33.333333333333336
-250.0   120.0   33.333333333333336
-250.0   90.0   16.666666666666668
-300.0   120.0   16.666666666666668
-300.0   90.0   33.333333333333336
-250.0   90.0   33.333333333333336
-300.0   120.0   33.333333333333336
-300.0   90.0   50.0
-250.0   90.0   33.333333333333336
-250.0   120.0   33.333333333333336
-300.0   120.0   33.333333333333336
-250.0   120.0   50.0
-300.0   90.0   50.0
-300.0   120.0   50.0
-250.0   120.0   50.0
-300.0   120.0   33.333333333333336
-300.0   90.0   50.0
-250.0   120.0   50.0
-250.0   90.0   50.0
-250.0   90.0   33.333333333333336
-300.0   90.0   50.0
-250.0   120.0   50.0
-250.0   90.0   33.333333333333336
-300.0   120.0   33.333333333333336
-300.0   120.0   0.0
-250.0   120.0   0.0
-300.0   150.0   0.0
-300.0   120.0   16.666666666666668
-250.0   120.0   0.0
-250.0   150.0   0.0
-300.0   150.0   0.0
-250.0   150.0   16.666666666666668
-300.0   120.0   16.666666666666668
-300.0   150.0   16.666666666666668
-250.0   150.0   16.666666666666668
-300.0   150.0   0.0
-300.0   120.0   16.666666666666668
-250.0   150.0   16.666666666666668
-250.0   120.0   16.666666666666668
-250.0   120.0   0.0
-300.0   120.0   16.666666666666668
-250.0   150.0   16.666666666666668
-250.0   120.0   0.0
-300.0   150.0   0.0
-300.0   120.0   16.666666666666668
-250.0   120.0   16.666666666666668
-300.0   150.0   16.666666666666668
-300.0   120.0   33.333333333333336
-250.0   120.0   16.666666666666668
-250.0   150.0   16.666666666666668
-300.0   150.0   16.666666666666668
-250.0   150.0   33.333333333333336
-300.0   120.0   33.333333333333336
-300.0   150.0   33.333333333333336
-250.0   150.0   33.333333333333336
-300.0   150.0   16.666666666666668
-300.0   120.0   33.333333333333336
-250.0   150.0   33.333333333333336
-250.0   120.0   33.333333333333336
-250.0   120.0   16.666666666666668
-300.0   120.0   33.333333333333336
-250.0   150.0   33.333333333333336
-250.0   120.0   16.666666666666668
-300.0   150.0   16.666666666666668
-300.0   120.0   33.333333333333336
-250.0   120.0   33.333333333333336
-300.0   150.0   33.333333333333336
-300.0   120.0   50.0
-250.0   120.0   33.333333333333336
-250.0   150.0   33.333333333333336
-300.0   150.0   33.333333333333336
-250.0   150.0   50.0
-300.0   120.0   50.0
-300.0   150.0   50.0
-250.0   150.0   50.0
-300.0   150.0   33.333333333333336
-300.0   120.0   50.0
-250.0   150.0   50.0
-250.0   120.0   50.0
-250.0   120.0   33.333333333333336
-300.0   120.0   50.0
-250.0   150.0   50.0
-250.0   120.0   33.333333333333336
-300.0   150.0   33.333333333333336
-250.0   0.0   0.0
-200.0   0.0   0.0
-250.0   30.0   0.0
-250.0   0.0   16.666666666666668
-200.0   0.0   0.0
-200.0   30.0   0.0
-250.0   30.0   0.0
-200.0   30.0   16.666666666666668
-250.0   0.0   16.666666666666668
-250.0   30.0   16.666666666666668
-200.0   30.0   16.666666666666668
-250.0   30.0   0.0
-250.0   0.0   16.666666666666668
-200.0   30.0   16.666666666666668
-200.0   0.0   16.666666666666668
-200.0   0.0   0.0
-250.0   0.0   16.666666666666668
-200.0   30.0   16.666666666666668
-200.0   0.0   0.0
-250.0   30.0   0.0
-250.0   0.0   16.666666666666668
-200.0   0.0   16.666666666666668
-250.0   30.0   16.666666666666668
-250.0   0.0   33.333333333333336
-200.0   0.0   16.666666666666668
-200.0   30.0   16.666666666666668
-250.0   30.0   16.666666666666668
-200.0   30.0   33.333333333333336
-250.0   0.0   33.333333333333336
-250.0   30.0   33.333333333333336
-200.0   30.0   33.333333333333336
-250.0   30.0   16.666666666666668
-250.0   0.0   33.333333333333336
-200.0   30.0   33.333333333333336
-200.0   0.0   33.333333333333336
-200.0   0.0   16.666666666666668
-250.0   0.0   33.333333333333336
-200.0   30.0   33.333333333333336
-200.0   0.0   16.666666666666668
-250.0   30.0   16.666666666666668
-250.0   0.0   33.333333333333336
-200.0   0.0   33.333333333333336
-250.0   30.0   33.333333333333336
-250.0   0.0   50.0
-200.0   0.0   33.333333333333336
-200.0   30.0   33.333333333333336
-250.0   30.0   33.333333333333336
-200.0   30.0   50.0
-250.0   0.0   50.0
-250.0   30.0   50.0
-200.0   30.0   50.0
-250.0   30.0   33.333333333333336
-250.0   0.0   50.0
-200.0   30.0   50.0
-200.0   0.0   50.0
-200.0   0.0   33.333333333333336
-250.0   0.0   50.0
-200.0   30.0   50.0
-200.0   0.0   33.333333333333336
-250.0   30.0   33.333333333333336
-250.0   30.0   0.0
-200.0   30.0   0.0
-250.0   60.0   0.0
-250.0   30.0   16.666666666666668
-200.0   30.0   0.0
-200.0   60.0   0.0
-250.0   60.0   0.0
-200.0   60.0   16.666666666666668
-250.0   30.0   16.666666666666668
-250.0   60.0   16.666666666666668
-200.0   60.0   16.666666666666668
-250.0   60.0   0.0
-250.0   30.0   16.666666666666668
-200.0   60.0   16.666666666666668
-200.0   30.0   16.666666666666668
-200.0   30.0   0.0
-250.0   30.0   16.666666666666668
-200.0   60.0   16.666666666666668
-200.0   30.0   0.0
-250.0   60.0   0.0
-250.0   30.0   16.666666666666668
-200.0   30.0   16.666666666666668
-250.0   60.0   16.666666666666668
-250.0   30.0   33.333333333333336
-200.0   30.0   16.666666666666668
-200.0   60.0   16.666666666666668
-250.0   60.0   16.666666666666668
-200.0   60.0   33.333333333333336
-250.0   30.0   33.333333333333336
-250.0   60.0   33.333333333333336
-200.0   60.0   33.333333333333336
-250.0   60.0   16.666666666666668
-250.0   30.0   33.333333333333336
-200.0   60.0   33.333333333333336
-200.0   30.0   33.333333333333336
-200.0   30.0   16.666666666666668
-250.0   30.0   33.333333333333336
-200.0   60.0   33.333333333333336
-200.0   30.0   16.666666666666668
-250.0   60.0   16.666666666666668
-250.0   30.0   33.333333333333336
-200.0   30.0   33.333333333333336
-250.0   60.0   33.333333333333336
-250.0   30.0   50.0
-200.0   30.0   33.333333333333336
-200.0   60.0   33.333333333333336
-250.0   60.0   33.333333333333336
-200.0   60.0   50.0
-250.0   30.0   50.0
-250.0   60.0   50.0
-200.0   60.0   50.0
-250.0   60.0   33.333333333333336
-250.0   30.0   50.0
-200.0   60.0   50.0
-200.0   30.0   50.0
-200.0   30.0   33.333333333333336
-250.0   30.0   50.0
-200.0   60.0   50.0
-200.0   30.0   33.333333333333336
-250.0   60.0   33.333333333333336
-250.0   60.0   0.0
-200.0   60.0   0.0
-250.0   90.0   0.0
-250.0   60.0   16.666666666666668
-200.0   60.0   0.0
-200.0   90.0   0.0
-250.0   90.0   0.0
-200.0   90.0   16.666666666666668
-250.0   60.0   16.666666666666668
-250.0   90.0   16.666666666666668
-200.0   90.0   16.666666666666668
-250.0   90.0   0.0
-250.0   60.0   16.666666666666668
-200.0   90.0   16.666666666666668
-200.0   60.0   16.666666666666668
-200.0   60.0   0.0
-250.0   60.0   16.666666666666668
-200.0   90.0   16.666666666666668
-200.0   60.0   0.0
-250.0   90.0   0.0
-250.0   60.0   16.666666666666668
-200.0   60.0   16.666666666666668
-250.0   90.0   16.666666666666668
-250.0   60.0   33.333333333333336
-200.0   60.0   16.666666666666668
-200.0   90.0   16.666666666666668
-250.0   90.0   16.666666666666668
-200.0   90.0   33.333333333333336
-250.0   60.0   33.333333333333336
-250.0   90.0   33.333333333333336
-200.0   90.0   33.333333333333336
-250.0   90.0   16.666666666666668
-250.0   60.0   33.333333333333336
-200.0   90.0   33.333333333333336
-200.0   60.0   33.333333333333336
-200.0   60.0   16.666666666666668
-250.0   60.0   33.333333333333336
-200.0   90.0   33.333333333333336
-200.0   60.0   16.666666666666668
-250.0   90.0   16.666666666666668
-250.0   60.0   33.333333333333336
-200.0   60.0   33.333333333333336
-250.0   90.0   33.333333333333336
-250.0   60.0   50.0
-200.0   60.0   33.333333333333336
-200.0   90.0   33.333333333333336
-250.0   90.0   33.333333333333336
-200.0   90.0   50.0
-250.0   60.0   50.0
-250.0   90.0   50.0
-200.0   90.0   50.0
-250.0   90.0   33.333333333333336
-250.0   60.0   50.0
-200.0   90.0   50.0
-200.0   60.0   50.0
-200.0   60.0   33.333333333333336
-250.0   60.0   50.0
-200.0   90.0   50.0
-200.0   60.0   33.333333333333336
-250.0   90.0   33.333333333333336
-250.0   90.0   0.0
-200.0   90.0   0.0
-250.0   120.0   0.0
-250.0   90.0   16.666666666666668
-200.0   90.0   0.0
-200.0   120.0   0.0
-250.0   120.0   0.0
-200.0   120.0   16.666666666666668
-250.0   90.0   16.666666666666668
-250.0   120.0   16.666666666666668
-200.0   120.0   16.666666666666668
-250.0   120.0   0.0
-250.0   90.0   16.666666666666668
-200.0   120.0   16.666666666666668
-200.0   90.0   16.666666666666668
-200.0   90.0   0.0
-250.0   90.0   16.666666666666668
-200.0   120.0   16.666666666666668
-200.0   90.0   0.0
-250.0   120.0   0.0
-250.0   90.0   16.666666666666668
-200.0   90.0   16.666666666666668
-250.0   120.0   16.666666666666668
-250.0   90.0   33.333333333333336
-200.0   90.0   16.666666666666668
-200.0   120.0   16.666666666666668
-250.0   120.0   16.666666666666668
-200.0   120.0   33.333333333333336
-250.0   90.0   33.333333333333336
-250.0   120.0   33.333333333333336
-200.0   120.0   33.333333333333336
-250.0   120.0   16.666666666666668
-250.0   90.0   33.333333333333336
-200.0   120.0   33.333333333333336
-200.0   90.0   33.333333333333336
-200.0   90.0   16.666666666666668
-250.0   90.0   33.333333333333336
-200.0   120.0   33.333333333333336
-200.0   90.0   16.666666666666668
-250.0   120.0   16.666666666666668
-250.0   90.0   33.333333333333336
-200.0   90.0   33.333333333333336
-250.0   120.0   33.333333333333336
-250.0   90.0   50.0
-200.0   90.0   33.333333333333336
-200.0   120.0   33.333333333333336
-250.0   120.0   33.333333333333336
-200.0   120.0   50.0
-250.0   90.0   50.0
-250.0   120.0   50.0
-200.0   120.0   50.0
-250.0   120.0   33.333333333333336
-250.0   90.0   50.0
-200.0   120.0   50.0
-200.0   90.0   50.0
-200.0   90.0   33.333333333333336
-250.0   90.0   50.0
-200.0   120.0   50.0
-200.0   90.0   33.333333333333336
-250.0   120.0   33.333333333333336
-250.0   120.0   0.0
-200.0   120.0   0.0
-250.0   150.0   0.0
-250.0   120.0   16.666666666666668
-200.0   120.0   0.0
-200.0   150.0   0.0
-250.0   150.0   0.0
-200.0   150.0   16.666666666666668
-250.0   120.0   16.666666666666668
-250.0   150.0   16.666666666666668
-200.0   150.0   16.666666666666668
-250.0   150.0   0.0
-250.0   120.0   16.666666666666668
-200.0   150.0   16.666666666666668
-200.0   120.0   16.666666666666668
-200.0   120.0   0.0
-250.0   120.0   16.666666666666668
-200.0   150.0   16.666666666666668
-200.0   120.0   0.0
-250.0   150.0   0.0
-250.0   120.0   16.666666666666668
-200.0   120.0   16.666666666666668
-250.0   150.0   16.666666666666668
-250.0   120.0   33.333333333333336
-200.0   120.0   16.666666666666668
-200.0   150.0   16.666666666666668
-250.0   150.0   16.666666666666668
-200.0   150.0   33.333333333333336
-250.0   120.0   33.333333333333336
-250.0   150.0   33.333333333333336
-200.0   150.0   33.333333333333336
-250.0   150.0   16.666666666666668
-250.0   120.0   33.333333333333336
-200.0   150.0   33.333333333333336
-200.0   120.0   33.333333333333336
-200.0   120.0   16.666666666666668
-250.0   120.0   33.333333333333336
-200.0   150.0   33.333333333333336
-200.0   120.0   16.666666666666668
-250.0   150.0   16.666666666666668
-250.0   120.0   33.333333333333336
-200.0   120.0   33.333333333333336
-250.0   150.0   33.333333333333336
-250.0   120.0   50.0
-200.0   120.0   33.333333333333336
-200.0   150.0   33.333333333333336
-250.0   150.0   33.333333333333336
-200.0   150.0   50.0
-250.0   120.0   50.0
-250.0   150.0   50.0
-200.0   150.0   50.0
-250.0   150.0   33.333333333333336
-250.0   120.0   50.0
-200.0   150.0   50.0
-200.0   120.0   50.0
-200.0   120.0   33.333333333333336
-250.0   120.0   50.0
-200.0   150.0   50.0
-200.0   120.0   33.333333333333336
-250.0   150.0   33.333333333333336
-200.0   0.0   0.0
-150.0   0.0   0.0
-200.0   30.0   0.0
-200.0   0.0   16.666666666666668
-150.0   0.0   0.0
-150.0   30.0   0.0
-200.0   30.0   0.0
-150.0   30.0   16.666666666666668
-200.0   0.0   16.666666666666668
-200.0   30.0   16.666666666666668
-150.0   30.0   16.666666666666668
-200.0   30.0   0.0
-200.0   0.0   16.666666666666668
-150.0   30.0   16.666666666666668
-150.0   0.0   16.666666666666668
-150.0   0.0   0.0
-200.0   0.0   16.666666666666668
-150.0   30.0   16.666666666666668
-150.0   0.0   0.0
-200.0   30.0   0.0
-200.0   0.0   16.666666666666668
-150.0   0.0   16.666666666666668
-200.0   30.0   16.666666666666668
-200.0   0.0   33.333333333333336
-150.0   0.0   16.666666666666668
-150.0   30.0   16.666666666666668
-200.0   30.0   16.666666666666668
-150.0   30.0   33.333333333333336
-200.0   0.0   33.333333333333336
-200.0   30.0   33.333333333333336
-150.0   30.0   33.333333333333336
-200.0   30.0   16.666666666666668
-200.0   0.0   33.333333333333336
-150.0   30.0   33.333333333333336
-150.0   0.0   33.333333333333336
-150.0   0.0   16.666666666666668
-200.0   0.0   33.333333333333336
-150.0   30.0   33.333333333333336
-150.0   0.0   16.666666666666668
-200.0   30.0   16.666666666666668
-200.0   0.0   33.333333333333336
-150.0   0.0   33.333333333333336
-200.0   30.0   33.333333333333336
-200.0   0.0   50.0
-150.0   0.0   33.333333333333336
-150.0   30.0   33.333333333333336
-200.0   30.0   33.333333333333336
-150.0   30.0   50.0
-200.0   0.0   50.0
-200.0   30.0   50.0
-150.0   30.0   50.0
-200.0   30.0   33.333333333333336
-200.0   0.0   50.0
-150.0   30.0   50.0
-150.0   0.0   50.0
-150.0   0.0   33.333333333333336
-200.0   0.0   50.0
-150.0   30.0   50.0
-150.0   0.0   33.333333333333336
-200.0   30.0   33.333333333333336
-200.0   30.0   0.0
-150.0   30.0   0.0
-200.0   60.0   0.0
-200.0   30.0   16.666666666666668
-150.0   30.0   0.0
-150.0   60.0   0.0
-200.0   60.0   0.0
-150.0   60.0   16.666666666666668
-200.0   30.0   16.666666666666668
-200.0   60.0   16.666666666666668
-150.0   60.0   16.666666666666668
-200.0   60.0   0.0
-200.0   30.0   16.666666666666668
-150.0   60.0   16.666666666666668
-150.0   30.0   16.666666666666668
-150.0   30.0   0.0
-200.0   30.0   16.666666666666668
-150.0   60.0   16.666666666666668
-150.0   30.0   0.0
-200.0   60.0   0.0
-200.0   30.0   16.666666666666668
-150.0   30.0   16.666666666666668
-200.0   60.0   16.666666666666668
-200.0   30.0   33.333333333333336
-150.0   30.0   16.666666666666668
-150.0   60.0   16.666666666666668
-200.0   60.0   16.666666666666668
-150.0   60.0   33.333333333333336
-200.0   30.0   33.333333333333336
-200.0   60.0   33.333333333333336
-150.0   60.0   33.333333333333336
-200.0   60.0   16.666666666666668
-200.0   30.0   33.333333333333336
-150.0   60.0   33.333333333333336
-150.0   30.0   33.333333333333336
-150.0   30.0   16.666666666666668
-200.0   30.0   33.333333333333336
-150.0   60.0   33.333333333333336
-150.0   30.0   16.666666666666668
-200.0   60.0   16.666666666666668
-200.0   30.0   33.333333333333336
-150.0   30.0   33.333333333333336
-200.0   60.0   33.333333333333336
-200.0   30.0   50.0
-150.0   30.0   33.333333333333336
-150.0   60.0   33.333333333333336
-200.0   60.0   33.333333333333336
-150.0   60.0   50.0
-200.0   30.0   50.0
-200.0   60.0   50.0
-150.0   60.0   50.0
-200.0   60.0   33.333333333333336
-200.0   30.0   50.0
-150.0   60.0   50.0
-150.0   30.0   50.0
-150.0   30.0   33.333333333333336
-200.0   30.0   50.0
-150.0   60.0   50.0
-150.0   30.0   33.333333333333336
-200.0   60.0   33.333333333333336
-200.0   60.0   0.0
-150.0   60.0   0.0
-200.0   90.0   0.0
-200.0   60.0   16.666666666666668
-150.0   60.0   0.0
-150.0   90.0   0.0
-200.0   90.0   0.0
-150.0   90.0   16.666666666666668
-200.0   60.0   16.666666666666668
-200.0   90.0   16.666666666666668
-150.0   90.0   16.666666666666668
-200.0   90.0   0.0
-200.0   60.0   16.666666666666668
-150.0   90.0   16.666666666666668
-150.0   60.0   16.666666666666668
-150.0   60.0   0.0
-200.0   60.0   16.666666666666668
-150.0   90.0   16.666666666666668
-150.0   60.0   0.0
-200.0   90.0   0.0
-200.0   60.0   16.666666666666668
-150.0   60.0   16.666666666666668
-200.0   90.0   16.666666666666668
-200.0   60.0   33.333333333333336
-150.0   60.0   16.666666666666668
-150.0   90.0   16.666666666666668
-200.0   90.0   16.666666666666668
-150.0   90.0   33.333333333333336
-200.0   60.0   33.333333333333336
-200.0   90.0   33.333333333333336
-150.0   90.0   33.333333333333336
-200.0   90.0   16.666666666666668
-200.0   60.0   33.333333333333336
-150.0   90.0   33.333333333333336
-150.0   60.0   33.333333333333336
-150.0   60.0   16.666666666666668
-200.0   60.0   33.333333333333336
-150.0   90.0   33.333333333333336
-150.0   60.0   16.666666666666668
-200.0   90.0   16.666666666666668
-200.0   60.0   33.333333333333336
-150.0   60.0   33.333333333333336
-200.0   90.0   33.333333333333336
-200.0   60.0   50.0
-150.0   60.0   33.333333333333336
-150.0   90.0   33.333333333333336
-200.0   90.0   33.333333333333336
-150.0   90.0   50.0
-200.0   60.0   50.0
-200.0   90.0   50.0
-150.0   90.0   50.0
-200.0   90.0   33.333333333333336
-200.0   60.0   50.0
-150.0   90.0   50.0
-150.0   60.0   50.0
-150.0   60.0   33.333333333333336
-200.0   60.0   50.0
-150.0   90.0   50.0
-150.0   60.0   33.333333333333336
-200.0   90.0   33.333333333333336
-200.0   90.0   0.0
-150.0   90.0   0.0
-200.0   120.0   0.0
-200.0   90.0   16.666666666666668
-150.0   90.0   0.0
-150.0   120.0   0.0
-200.0   120.0   0.0
-150.0   120.0   16.666666666666668
-200.0   90.0   16.666666666666668
-200.0   120.0   16.666666666666668
-150.0   120.0   16.666666666666668
-200.0   120.0   0.0
-200.0   90.0   16.666666666666668
-150.0   120.0   16.666666666666668
-150.0   90.0   16.666666666666668
-150.0   90.0   0.0
-200.0   90.0   16.666666666666668
-150.0   120.0   16.666666666666668
-150.0   90.0   0.0
-200.0   120.0   0.0
-200.0   90.0   16.666666666666668
-150.0   90.0   16.666666666666668
-200.0   120.0   16.666666666666668
-200.0   90.0   33.333333333333336
-150.0   90.0   16.666666666666668
-150.0   120.0   16.666666666666668
-200.0   120.0   16.666666666666668
-150.0   120.0   33.333333333333336
-200.0   90.0   33.333333333333336
-200.0   120.0   33.333333333333336
-150.0   120.0   33.333333333333336
-200.0   120.0   16.666666666666668
-200.0   90.0   33.333333333333336
-150.0   120.0   33.333333333333336
-150.0   90.0   33.333333333333336
-150.0   90.0   16.666666666666668
-200.0   90.0   33.333333333333336
-150.0   120.0   33.333333333333336
-150.0   90.0   16.666666666666668
-200.0   120.0   16.666666666666668
-200.0   90.0   33.333333333333336
-150.0   90.0   33.333333333333336
-200.0   120.0   33.333333333333336
-200.0   90.0   50.0
-150.0   90.0   33.333333333333336
-150.0   120.0   33.333333333333336
-200.0   120.0   33.333333333333336
-150.0   120.0   50.0
-200.0   90.0   50.0
-200.0   120.0   50.0
-150.0   120.0   50.0
-200.0   120.0   33.333333333333336
-200.0   90.0   50.0
-150.0   120.0   50.0
-150.0   90.0   50.0
-150.0   90.0   33.333333333333336
-200.0   90.0   50.0
-150.0   120.0   50.0
-150.0   90.0   33.333333333333336
-200.0   120.0   33.333333333333336
-200.0   120.0   0.0
-150.0   120.0   0.0
-200.0   150.0   0.0
-200.0   120.0   16.666666666666668
-150.0   120.0   0.0
-150.0   150.0   0.0
-200.0   150.0   0.0
-150.0   150.0   16.666666666666668
-200.0   120.0   16.666666666666668
-200.0   150.0   16.666666666666668
-150.0   150.0   16.666666666666668
-200.0   150.0   0.0
-200.0   120.0   16.666666666666668
-150.0   150.0   16.666666666666668
-150.0   120.0   16.666666666666668
-150.0   120.0   0.0
-200.0   120.0   16.666666666666668
-150.0   150.0   16.666666666666668
-150.0   120.0   0.0
-200.0   150.0   0.0
-200.0   120.0   16.666666666666668
-150.0   120.0   16.666666666666668
-200.0   150.0   16.666666666666668
-200.0   120.0   33.333333333333336
-150.0   120.0   16.666666666666668
-150.0   150.0   16.666666666666668
-200.0   150.0   16.666666666666668
-150.0   150.0   33.333333333333336
-200.0   120.0   33.333333333333336
-200.0   150.0   33.333333333333336
-150.0   150.0   33.333333333333336
-200.0   150.0   16.666666666666668
-200.0   120.0   33.333333333333336
-150.0   150.0   33.333333333333336
-150.0   120.0   33.333333333333336
-150.0   120.0   16.666666666666668
-200.0   120.0   33.333333333333336
-150.0   150.0   33.333333333333336
-150.0   120.0   16.666666666666668
-200.0   150.0   16.666666666666668
-200.0   120.0   33.333333333333336
-150.0   120.0   33.333333333333336
-200.0   150.0   33.333333333333336
-200.0   120.0   50.0
-150.0   120.0   33.333333333333336
-150.0   150.0   33.333333333333336
-200.0   150.0   33.333333333333336
-150.0   150.0   50.0
-200.0   120.0   50.0
-200.0   150.0   50.0
-150.0   150.0   50.0
-200.0   150.0   33.333333333333336
-200.0   120.0   50.0
-150.0   150.0   50.0
-150.0   120.0   50.0
-150.0   120.0   33.333333333333336
-200.0   120.0   50.0
-150.0   150.0   50.0
-150.0   120.0   33.333333333333336
-200.0   150.0   33.333333333333336
-150.0   0.0   0.0
-100.0   0.0   0.0
-150.0   30.0   0.0
-150.0   0.0   16.666666666666668
-100.0   0.0   0.0
-100.0   30.0   0.0
-150.0   30.0   0.0
-100.0   30.0   16.666666666666668
-150.0   0.0   16.666666666666668
-150.0   30.0   16.666666666666668
-100.0   30.0   16.666666666666668
-150.0   30.0   0.0
-150.0   0.0   16.666666666666668
-100.0   30.0   16.666666666666668
-100.0   0.0   16.666666666666668
-100.0   0.0   0.0
-150.0   0.0   16.666666666666668
-100.0   30.0   16.666666666666668
-100.0   0.0   0.0
-150.0   30.0   0.0
-150.0   0.0   16.666666666666668
-100.0   0.0   16.666666666666668
-150.0   30.0   16.666666666666668
-150.0   0.0   33.333333333333336
-100.0   0.0   16.666666666666668
-100.0   30.0   16.666666666666668
-150.0   30.0   16.666666666666668
-100.0   30.0   33.333333333333336
-150.0   0.0   33.333333333333336
-150.0   30.0   33.333333333333336
-100.0   30.0   33.333333333333336
-150.0   30.0   16.666666666666668
-150.0   0.0   33.333333333333336
-100.0   30.0   33.333333333333336
-100.0   0.0   33.333333333333336
-100.0   0.0   16.666666666666668
-150.0   0.0   33.333333333333336
-100.0   30.0   33.333333333333336
-100.0   0.0   16.666666666666668
-150.0   30.0   16.666666666666668
-150.0   0.0   33.333333333333336
-100.0   0.0   33.333333333333336
-150.0   30.0   33.333333333333336
-150.0   0.0   50.0
-100.0   0.0   33.333333333333336
-100.0   30.0   33.333333333333336
-150.0   30.0   33.333333333333336
-100.0   30.0   50.0
-150.0   0.0   50.0
-150.0   30.0   50.0
-100.0   30.0   50.0
-150.0   30.0   33.333333333333336
-150.0   0.0   50.0
-100.0   30.0   50.0
-100.0   0.0   50.0
-100.0   0.0   33.333333333333336
-150.0   0.0   50.0
-100.0   30.0   50.0
-100.0   0.0   33.333333333333336
-150.0   30.0   33.333333333333336
-150.0   30.0   0.0
-100.0   30.0   0.0
-150.0   60.0   0.0
-150.0   30.0   16.666666666666668
-100.0   30.0   0.0
-100.0   60.0   0.0
-150.0   60.0   0.0
-100.0   60.0   16.666666666666668
-150.0   30.0   16.666666666666668
-150.0   60.0   16.666666666666668
-100.0   60.0   16.666666666666668
-150.0   60.0   0.0
-150.0   30.0   16.666666666666668
-100.0   60.0   16.666666666666668
-100.0   30.0   16.666666666666668
-100.0   30.0   0.0
-150.0   30.0   16.666666666666668
-100.0   60.0   16.666666666666668
-100.0   30.0   0.0
-150.0   60.0   0.0
-150.0   30.0   16.666666666666668
-100.0   30.0   16.666666666666668
-150.0   60.0   16.666666666666668
-150.0   30.0   33.333333333333336
-100.0   30.0   16.666666666666668
-100.0   60.0   16.666666666666668
-150.0   60.0   16.666666666666668
-100.0   60.0   33.333333333333336
-150.0   30.0   33.333333333333336
-150.0   60.0   33.333333333333336
-100.0   60.0   33.333333333333336
-150.0   60.0   16.666666666666668
-150.0   30.0   33.333333333333336
-100.0   60.0   33.333333333333336
-100.0   30.0   33.333333333333336
-100.0   30.0   16.666666666666668
-150.0   30.0   33.333333333333336
-100.0   60.0   33.333333333333336
-100.0   30.0   16.666666666666668
-150.0   60.0   16.666666666666668
-150.0   30.0   33.333333333333336
-100.0   30.0   33.333333333333336
-150.0   60.0   33.333333333333336
-150.0   30.0   50.0
-100.0   30.0   33.333333333333336
-100.0   60.0   33.333333333333336
-150.0   60.0   33.333333333333336
-100.0   60.0   50.0
-150.0   30.0   50.0
-150.0   60.0   50.0
-100.0   60.0   50.0
-150.0   60.0   33.333333333333336
-150.0   30.0   50.0
-100.0   60.0   50.0
-100.0   30.0   50.0
-100.0   30.0   33.333333333333336
-150.0   30.0   50.0
-100.0   60.0   50.0
-100.0   30.0   33.333333333333336
-150.0   60.0   33.333333333333336
-150.0   60.0   0.0
-100.0   60.0   0.0
-150.0   90.0   0.0
-150.0   60.0   16.666666666666668
-100.0   60.0   0.0
-100.0   90.0   0.0
-150.0   90.0   0.0
-100.0   90.0   16.666666666666668
-150.0   60.0   16.666666666666668
-150.0   90.0   16.666666666666668
-100.0   90.0   16.666666666666668
-150.0   90.0   0.0
-150.0   60.0   16.666666666666668
-100.0   90.0   16.666666666666668
-100.0   60.0   16.666666666666668
-100.0   60.0   0.0
-150.0   60.0   16.666666666666668
-100.0   90.0   16.666666666666668
-100.0   60.0   0.0
-150.0   90.0   0.0
-150.0   60.0   16.666666666666668
-100.0   60.0   16.666666666666668
-150.0   90.0   16.666666666666668
-150.0   60.0   33.333333333333336
-100.0   60.0   16.666666666666668
-100.0   90.0   16.666666666666668
-150.0   90.0   16.666666666666668
-100.0   90.0   33.333333333333336
-150.0   60.0   33.333333333333336
-150.0   90.0   33.333333333333336
-100.0   90.0   33.333333333333336
-150.0   90.0   16.666666666666668
-150.0   60.0   33.333333333333336
-100.0   90.0   33.333333333333336
-100.0   60.0   33.333333333333336
-100.0   60.0   16.666666666666668
-150.0   60.0   33.333333333333336
-100.0   90.0   33.333333333333336
-100.0   60.0   16.666666666666668
-150.0   90.0   16.666666666666668
-150.0   60.0   33.333333333333336
-100.0   60.0   33.333333333333336
-150.0   90.0   33.333333333333336
-150.0   60.0   50.0
-100.0   60.0   33.333333333333336
-100.0   90.0   33.333333333333336
-150.0   90.0   33.333333333333336
-100.0   90.0   50.0
-150.0   60.0   50.0
-150.0   90.0   50.0
-100.0   90.0   50.0
-150.0   90.0   33.333333333333336
-150.0   60.0   50.0
-100.0   90.0   50.0
-100.0   60.0   50.0
-100.0   60.0   33.333333333333336
-150.0   60.0   50.0
-100.0   90.0   50.0
-100.0   60.0   33.333333333333336
-150.0   90.0   33.333333333333336
-150.0   90.0   0.0
-100.0   90.0   0.0
-150.0   120.0   0.0
-150.0   90.0   16.666666666666668
-100.0   90.0   0.0
-100.0   120.0   0.0
-150.0   120.0   0.0
-100.0   120.0   16.666666666666668
-150.0   90.0   16.666666666666668
-150.0   120.0   16.666666666666668
-100.0   120.0   16.666666666666668
-150.0   120.0   0.0
-150.0   90.0   16.666666666666668
-100.0   120.0   16.666666666666668
-100.0   90.0   16.666666666666668
-100.0   90.0   0.0
-150.0   90.0   16.666666666666668
-100.0   120.0   16.666666666666668
-100.0   90.0   0.0
-150.0   120.0   0.0
-150.0   90.0   16.666666666666668
-100.0   90.0   16.666666666666668
-150.0   120.0   16.666666666666668
-150.0   90.0   33.333333333333336
-100.0   90.0   16.666666666666668
-100.0   120.0   16.666666666666668
-150.0   120.0   16.666666666666668
-100.0   120.0   33.333333333333336
-150.0   90.0   33.333333333333336
-150.0   120.0   33.333333333333336
-100.0   120.0   33.333333333333336
-150.0   120.0   16.666666666666668
-150.0   90.0   33.333333333333336
-100.0   120.0   33.333333333333336
-100.0   90.0   33.333333333333336
-100.0   90.0   16.666666666666668
-150.0   90.0   33.333333333333336
-100.0   120.0   33.333333333333336
-100.0   90.0   16.666666666666668
-150.0   120.0   16.666666666666668
-150.0   90.0   33.333333333333336
-100.0   90.0   33.333333333333336
-150.0   120.0   33.333333333333336
-150.0   90.0   50.0
-100.0   90.0   33.333333333333336
-100.0   120.0   33.333333333333336
-150.0   120.0   33.333333333333336
-100.0   120.0   50.0
-150.0   90.0   50.0
-150.0   120.0   50.0
-100.0   120.0   50.0
-150.0   120.0   33.333333333333336
-150.0   90.0   50.0
-100.0   120.0   50.0
-100.0   90.0   50.0
-100.0   90.0   33.333333333333336
-150.0   90.0   50.0
-100.0   120.0   50.0
-100.0   90.0   33.333333333333336
-150.0   120.0   33.333333333333336
-150.0   120.0   0.0
-100.0   120.0   0.0
-150.0   150.0   0.0
-150.0   120.0   16.666666666666668
-100.0   120.0   0.0
-100.0   150.0   0.0
-150.0   150.0   0.0
-100.0   150.0   16.666666666666668
-150.0   120.0   16.666666666666668
-150.0   150.0   16.666666666666668
-100.0   150.0   16.666666666666668
-150.0   150.0   0.0
-150.0   120.0   16.666666666666668
-100.0   150.0   16.666666666666668
-100.0   120.0   16.666666666666668
-100.0   120.0   0.0
-150.0   120.0   16.666666666666668
-100.0   150.0   16.666666666666668
-100.0   120.0   0.0
-150.0   150.0   0.0
-150.0   120.0   16.666666666666668
-100.0   120.0   16.666666666666668
-150.0   150.0   16.666666666666668
-150.0   120.0   33.333333333333336
-100.0   120.0   16.666666666666668
-100.0   150.0   16.666666666666668
-150.0   150.0   16.666666666666668
-100.0   150.0   33.333333333333336
-150.0   120.0   33.333333333333336
-150.0   150.0   33.333333333333336
-100.0   150.0   33.333333333333336
-150.0   150.0   16.666666666666668
-150.0   120.0   33.333333333333336
-100.0   150.0   33.333333333333336
-100.0   120.0   33.333333333333336
-100.0   120.0   16.666666666666668
-150.0   120.0   33.333333333333336
-100.0   150.0   33.333333333333336
-100.0   120.0   16.666666666666668
-150.0   150.0   16.666666666666668
-150.0   120.0   33.333333333333336
-100.0   120.0   33.333333333333336
-150.0   150.0   33.333333333333336
-150.0   120.0   50.0
-100.0   120.0   33.333333333333336
-100.0   150.0   33.333333333333336
-150.0   150.0   33.333333333333336
-100.0   150.0   50.0
-150.0   120.0   50.0
-150.0   150.0   50.0
-100.0   150.0   50.0
-150.0   150.0   33.333333333333336
-150.0   120.0   50.0
-100.0   150.0   50.0
-100.0   120.0   50.0
-100.0   120.0   33.333333333333336
-150.0   120.0   50.0
-100.0   150.0   50.0
-100.0   120.0   33.333333333333336
-150.0   150.0   33.333333333333336
-100.0   0.0   0.0
-50.0   0.0   0.0
-100.0   30.0   0.0
-100.0   0.0   16.666666666666668
-50.0   0.0   0.0
-50.0   30.0   0.0
-100.0   30.0   0.0
-50.0   30.0   16.666666666666668
-100.0   0.0   16.666666666666668
-100.0   30.0   16.666666666666668
-50.0   30.0   16.666666666666668
-100.0   30.0   0.0
-100.0   0.0   16.666666666666668
-50.0   30.0   16.666666666666668
-50.0   0.0   16.666666666666668
-50.0   0.0   0.0
-100.0   0.0   16.666666666666668
-50.0   30.0   16.666666666666668
-50.0   0.0   0.0
-100.0   30.0   0.0
-100.0   0.0   16.666666666666668
-50.0   0.0   16.666666666666668
-100.0   30.0   16.666666666666668
-100.0   0.0   33.333333333333336
-50.0   0.0   16.666666666666668
-50.0   30.0   16.666666666666668
-100.0   30.0   16.666666666666668
-50.0   30.0   33.333333333333336
-100.0   0.0   33.333333333333336
-100.0   30.0   33.333333333333336
-50.0   30.0   33.333333333333336
-100.0   30.0   16.666666666666668
-100.0   0.0   33.333333333333336
-50.0   30.0   33.333333333333336
-50.0   0.0   33.333333333333336
-50.0   0.0   16.666666666666668
-100.0   0.0   33.333333333333336
-50.0   30.0   33.333333333333336
-50.0   0.0   16.666666666666668
-100.0   30.0   16.666666666666668
-100.0   0.0   33.333333333333336
-50.0   0.0   33.333333333333336
-100.0   30.0   33.333333333333336
-100.0   0.0   50.0
-50.0   0.0   33.333333333333336
-50.0   30.0   33.333333333333336
-100.0   30.0   33.333333333333336
-50.0   30.0   50.0
-100.0   0.0   50.0
-100.0   30.0   50.0
-50.0   30.0   50.0
-100.0   30.0   33.333333333333336
-100.0   0.0   50.0
-50.0   30.0   50.0
-50.0   0.0   50.0
-50.0   0.0   33.333333333333336
-100.0   0.0   50.0
-50.0   30.0   50.0
-50.0   0.0   33.333333333333336
-100.0   30.0   33.333333333333336
-100.0   30.0   0.0
-50.0   30.0   0.0
-100.0   60.0   0.0
-100.0   30.0   16.666666666666668
-50.0   30.0   0.0
-50.0   60.0   0.0
-100.0   60.0   0.0
-50.0   60.0   16.666666666666668
-100.0   30.0   16.666666666666668
-100.0   60.0   16.666666666666668
-50.0   60.0   16.666666666666668
-100.0   60.0   0.0
-100.0   30.0   16.666666666666668
-50.0   60.0   16.666666666666668
-50.0   30.0   16.666666666666668
-50.0   30.0   0.0
-100.0   30.0   16.666666666666668
-50.0   60.0   16.666666666666668
-50.0   30.0   0.0
-100.0   60.0   0.0
-100.0   30.0   16.666666666666668
-50.0   30.0   16.666666666666668
-100.0   60.0   16.666666666666668
-100.0   30.0   33.333333333333336
-50.0   30.0   16.666666666666668
-50.0   60.0   16.666666666666668
-100.0   60.0   16.666666666666668
-50.0   60.0   33.333333333333336
-100.0   30.0   33.333333333333336
-100.0   60.0   33.333333333333336
-50.0   60.0   33.333333333333336
-100.0   60.0   16.666666666666668
-100.0   30.0   33.333333333333336
-50.0   60.0   33.333333333333336
-50.0   30.0   33.333333333333336
-50.0   30.0   16.666666666666668
-100.0   30.0   33.333333333333336
-50.0   60.0   33.333333333333336
-50.0   30.0   16.666666666666668
-100.0   60.0   16.666666666666668
-100.0   30.0   33.333333333333336
-50.0   30.0   33.333333333333336
-100.0   60.0   33.333333333333336
-100.0   30.0   50.0
-50.0   30.0   33.333333333333336
-50.0   60.0   33.333333333333336
-100.0   60.0   33.333333333333336
-50.0   60.0   50.0
-100.0   30.0   50.0
-100.0   60.0   50.0
-50.0   60.0   50.0
-100.0   60.0   33.333333333333336
-100.0   30.0   50.0
-50.0   60.0   50.0
-50.0   30.0   50.0
-50.0   30.0   33.333333333333336
-100.0   30.0   50.0
-50.0   60.0   50.0
-50.0   30.0   33.333333333333336
-100.0   60.0   33.333333333333336
-100.0   60.0   0.0
-50.0   60.0   0.0
-100.0   90.0   0.0
-100.0   60.0   16.666666666666668
-50.0   60.0   0.0
-50.0   90.0   0.0
-100.0   90.0   0.0
-50.0   90.0   16.666666666666668
-100.0   60.0   16.666666666666668
-100.0   90.0   16.666666666666668
-50.0   90.0   16.666666666666668
-100.0   90.0   0.0
-100.0   60.0   16.666666666666668
-50.0   90.0   16.666666666666668
-50.0   60.0   16.666666666666668
-50.0   60.0   0.0
-100.0   60.0   16.666666666666668
-50.0   90.0   16.666666666666668
-50.0   60.0   0.0
-100.0   90.0   0.0
-100.0   60.0   16.666666666666668
-50.0   60.0   16.666666666666668
-100.0   90.0   16.666666666666668
-100.0   60.0   33.333333333333336
-50.0   60.0   16.666666666666668
-50.0   90.0   16.666666666666668
-100.0   90.0   16.666666666666668
-50.0   90.0   33.333333333333336
-100.0   60.0   33.333333333333336
-100.0   90.0   33.333333333333336
-50.0   90.0   33.333333333333336
-100.0   90.0   16.666666666666668
-100.0   60.0   33.333333333333336
-50.0   90.0   33.333333333333336
-50.0   60.0   33.333333333333336
-50.0   60.0   16.666666666666668
-100.0   60.0   33.333333333333336
-50.0   90.0   33.333333333333336
-50.0   60.0   16.666666666666668
-100.0   90.0   16.666666666666668
-100.0   60.0   33.333333333333336
-50.0   60.0   33.333333333333336
-100.0   90.0   33.333333333333336
-100.0   60.0   50.0
-50.0   60.0   33.333333333333336
-50.0   90.0   33.333333333333336
-100.0   90.0   33.333333333333336
-50.0   90.0   50.0
-100.0   60.0   50.0
-100.0   90.0   50.0
-50.0   90.0   50.0
-100.0   90.0   33.333333333333336
-100.0   60.0   50.0
-50.0   90.0   50.0
-50.0   60.0   50.0
-50.0   60.0   33.333333333333336
-100.0   60.0   50.0
-50.0   90.0   50.0
-50.0   60.0   33.333333333333336
-100.0   90.0   33.333333333333336
-100.0   90.0   0.0
-50.0   90.0   0.0
-100.0   120.0   0.0
-100.0   90.0   16.666666666666668
-50.0   90.0   0.0
-50.0   120.0   0.0
-100.0   120.0   0.0
-50.0   120.0   16.666666666666668
-100.0   90.0   16.666666666666668
-100.0   120.0   16.666666666666668
-50.0   120.0   16.666666666666668
-100.0   120.0   0.0
-100.0   90.0   16.666666666666668
-50.0   120.0   16.666666666666668
-50.0   90.0   16.666666666666668
-50.0   90.0   0.0
-100.0   90.0   16.666666666666668
-50.0   120.0   16.666666666666668
-50.0   90.0   0.0
-100.0   120.0   0.0
-100.0   90.0   16.666666666666668
-50.0   90.0   16.666666666666668
-100.0   120.0   16.666666666666668
-100.0   90.0   33.333333333333336
-50.0   90.0   16.666666666666668
-50.0   120.0   16.666666666666668
-100.0   120.0   16.666666666666668
-50.0   120.0   33.333333333333336
-100.0   90.0   33.333333333333336
-100.0   120.0   33.333333333333336
-50.0   120.0   33.333333333333336
-100.0   120.0   16.666666666666668
-100.0   90.0   33.333333333333336
-50.0   120.0   33.333333333333336
-50.0   90.0   33.333333333333336
-50.0   90.0   16.666666666666668
-100.0   90.0   33.333333333333336
-50.0   120.0   33.333333333333336
-50.0   90.0   16.666666666666668
-100.0   120.0   16.666666666666668
-100.0   90.0   33.333333333333336
-50.0   90.0   33.333333333333336
-100.0   120.0   33.333333333333336
-100.0   90.0   50.0
-50.0   90.0   33.333333333333336
-50.0   120.0   33.333333333333336
-100.0   120.0   33.333333333333336
-50.0   120.0   50.0
-100.0   90.0   50.0
-100.0   120.0   50.0
-50.0   120.0   50.0
-100.0   120.0   33.333333333333336
-100.0   90.0   50.0
-50.0   120.0   50.0
-50.0   90.0   50.0
-50.0   90.0   33.333333333333336
-100.0   90.0   50.0
-50.0   120.0   50.0
-50.0   90.0   33.333333333333336
-100.0   120.0   33.333333333333336
-100.0   120.0   0.0
-50.0   120.0   0.0
-100.0   150.0   0.0
-100.0   120.0   16.666666666666668
-50.0   120.0   0.0
-50.0   150.0   0.0
-100.0   150.0   0.0
-50.0   150.0   16.666666666666668
-100.0   120.0   16.666666666666668
-100.0   150.0   16.666666666666668
-50.0   150.0   16.666666666666668
-100.0   150.0   0.0
-100.0   120.0   16.666666666666668
-50.0   150.0   16.666666666666668
-50.0   120.0   16.666666666666668
-50.0   120.0   0.0
-100.0   120.0   16.666666666666668
-50.0   150.0   16.666666666666668
-50.0   120.0   0.0
-100.0   150.0   0.0
-100.0   120.0   16.666666666666668
-50.0   120.0   16.666666666666668
-100.0   150.0   16.666666666666668
-100.0   120.0   33.333333333333336
-50.0   120.0   16.666666666666668
-50.0   150.0   16.666666666666668
-100.0   150.0   16.666666666666668
-50.0   150.0   33.333333333333336
-100.0   120.0   33.333333333333336
-100.0   150.0   33.333333333333336
-50.0   150.0   33.333333333333336
-100.0   150.0   16.666666666666668
-100.0   120.0   33.333333333333336
-50.0   150.0   33.333333333333336
-50.0   120.0   33.333333333333336
-50.0   120.0   16.666666666666668
-100.0   120.0   33.333333333333336
-50.0   150.0   33.333333333333336
-50.0   120.0   16.666666666666668
-100.0   150.0   16.666666666666668
-100.0   120.0   33.333333333333336
-50.0   120.0   33.333333333333336
-100.0   150.0   33.333333333333336
-100.0   120.0   50.0
-50.0   120.0   33.333333333333336
-50.0   150.0   33.333333333333336
-100.0   150.0   33.333333333333336
-50.0   150.0   50.0
-100.0   120.0   50.0
-100.0   150.0   50.0
-50.0   150.0   50.0
-100.0   150.0   33.333333333333336
-100.0   120.0   50.0
-50.0   150.0   50.0
-50.0   120.0   50.0
-50.0   120.0   33.333333333333336
-100.0   120.0   50.0
-50.0   150.0   50.0
-50.0   120.0   33.333333333333336
-100.0   150.0   33.333333333333336
-50.0   0.0   0.0
0.0   0.0   0.0
-50.0   30.0   0.0
-50.0   0.0   16.666666666666668
0.0   0.0   0.0
0.0   30.0   0.0
-50.0   30.0   0.0
0.0   30.0   16.666666666666668
-50.0   0.0   16.666666666666668
-50.0   30.0   16.666666666666668
0.0   30.0   16.666666666666668
-50.0   30.0   0.0
-50.0   0.0   16.666666666666668
0.0   30.0   16.666666666666668
0.0   0.0   16.666666666666668
0.0   0.0   0.0
-50.0   0.0   16.666666666666668
0.0   30.0   16.666666666666668
0.0   0.0   0.0
-50.0   30.0   0.0
-50.0   0.0   16.666666666666668
0.0   0.0   16.666666666666668
-50.0   30.0   16.666666666666668
-50.0   0.0   33.333333333333336
0.0   0.0   16.666666666666668
0.0   30.0   16.666666666666668
-50.0   30.0   16.666666666666668
0.0   30.0   33.333333333333336
-50.0   0.0   33.333333333333336
-50.0   30.0   33.333333333333336
0.0   30.0   33.333333333333336
-50.0   30.0   16.666666666666668
-50.0   0.0   33.333333333333336
0.0   30.0   33.333333333333336
0.0   0.0   33.333333333333336
0.0   0.0   16.666666666666668
-50.0   0.0   33.333333333333336
0.0   30.0   33.333333333333336
0.0   0.0   16.666666666666668
-50.0   30.0   16.666666666666668
-50.0   0.0   33.333333333333336
0.0   0.0   33.333333333333336
-50.0   30.0   33.333333333333336
-50.0   0.0   50.0
0.0   0.0   33.333333333333336
0.0   30.0   33.333333333333336
-50.0   30.0   33.333333333333336
0.0   30.0   50.0
-50.0   0.0   50.0
-50.0   30.0   50.0
0.0   30.0   50.0
-50.0   30.0   33.333333333333336
-50.0   0.0   50.0
0.0   30.0   50.0
0.0   0.0   50.0
0.0   0.0   33.333333333333336
-50.0   0.0   50.0
0.0   30.0   50.0
0.0   0.0   33.333333333333336
-50.0   30.0   33.333333333333336
-50.0   30.0   0.0
0.0   30.0   0.0
-50.0   60.0   0.0
-50.0   30.0   16.666666666666668
0.0   30.0   0.0
0.0   60.0   0.0
-50.0   60.0   0.0
0.0   60.0   16.666666666666668
-50.0   30.0   16.666666666666668
-50.0   60.0   16.666666666666668
0.0   60.0   16.666666666666668
-50.0   60.0   0.0
-50.0   30.0   16.666666666666668
0.0   60.0   16.666666666666668
0.0   30.0   16.666666666666668
0.0   30.0   0.0
-50.0   30.0   16.666666666666668
0.0   60.0   16.666666666666668
0.0   30.0   0.0
-50.0   60.0   0.0
-50.0   30.0   16.666666666666668
0.0   30.0   16.666666666666668
-50.0   60.0   16.666666666666668
-50.0   30.0   33.333333333333336
0.0   30.0   16.666666666666668
0.0   60.0   16.666666666666668
-50.0   60.0   16.666666666666668
0.0   60.0   33.333333333333336
-50.0   30.0   33.333333333333336
-50.0   60.0   33.333333333333336
0.0   60.0   33.333333333333336
-50.0   60.0   16.666666666666668
-50.0   30.0   33.333333333333336
0.0   60.0   33.333333333333336
0.0   30.0   33.333333333333336
0.0   30.0   16.666666666666668
-50.0   30.0   33.333333333333336
0.0   60.0   33.333333333333336
0.0   30.0   16.666666666666668
-50.0   60.0   16.666666666666668
-50.0   30.0   33.333333333333336
0.0   30.0   33.333333333333336
-50.0   60.0   33.333333333333336
-50.0   30.0   50.0
0.0   30.0   33.333333333333336
0.0   60.0   33.333333333333336
-50.0   60.0   33.333333333333336
0.0   60.0   50.0
-50.0   30.0   50.0
-50.0   60.0   50.0
0.0   60.0   50.0
-50.0   60.0   33.333333333333336
-50.0   30.0   50.0
0.0   60.0   50.0
0.0   30.0   50.0
0.0   30.0   33.333333333333336
-50.0   30.0   50.0
0.0   60.0   50.0
0.0   30.0   33.333333333333336
-50.0   60.0   33.333333333333336
-50.0   60.0   0.0
0.0   60.0   0.0
-50.0   90.0   0.0
-50.0   60.0   16.666666666666668
0.0   60.0   0.0
0.0   90.0   0.0
-50.0   90.0   0.0
0.0   90.0   16.666666666666668
-50.0   60.0   16.666666666666668
-50.0   90.0   16.666666666666668
0.0   90.0   16.666666666666668
-50.0   90.0   0.0
-50.0   60.0   16.666666666666668
0.0   90.0   16.666666666666668
0.0   60.0   16.666666666666668
0.0   60.0   0.0
-50.0   60.0   16.666666666666668
0.0   90.0   16.666666666666668
0.0   60.0   0.0
-50.0   90.0   0.0
-50.0   60.0   16.666666666666668
0.0   60.0   16.666666666666668
-50.0   90.0   16.666666666666668
-50.0   60.0   33.333333333333336
0.0   60.0   16.666666666666668
0.0   90.0   16.666666666666668
-50.0   90.0   16.666666666666668
0.0   90.0   33.333333333333336
-50.0   60.0   33.333333333333336
-50.0   90.0   33.333333333333336
0.0   90.0   33.333333333333336
-50.0   90.0   16.666666666666668
-50.0   60.0   33.333333333333336
0.0   90.0   33.333333333333336
0.0   60.0   33.333333333333336
0.0   60.0   16.666666666666668
-50.0   60.0   33.333333333333336
0.0   90.0   33.333333333333336
0.0   60.0   16.666666666666668
-50.0   90.0   16.666666666666668
-50.0   60.0   33.333333333333336
0.0   60.0   33.333333333333336
-50.0   90.0   33.333333333333336
-50.0   60.0   50.0
0.0   60.0   33.333333333333336
0.0   90.0   33.333333333333336
-50.0   90.0   33.333333333333336
0.0   90.0   50.0
-50.0   60.0   50.0
-50.0   90.0   50.0
0.0   90.0   50.0
-50.0   90.0   33.333333333333336
-50.0   60.0   50.0
0.0   90.0   50.0
0.0   60.0   50.0
0.0   60.0   33.333333333333336
-50.0   60.0   50.0
0.0   90.0   50.0
0.0   60.0   33.333333333333336
-50.0   90.0   33.333333333333336
-50.0   90.0   0.0
0.0   90.0   0.0
-50.0   120.0   0.0
-50.0   90.0   16.666666666666668
0.0   90.0   0.0
0.0   120.0   0.0
-50.0   120.0   0.0
0.0   120.0   16.666666666666668
-50.0   90.0   16.666666666666668
-50.0   120.0   16.666666666666668
0.0   120.0   16.666666666666668
-50.0   120.0   0.0
-50.0   90.0   16.666666666666668
0.0   120.0   16.666666666666668
0.0   90.0   16.666666666666668
0.0   90.0   0.0
-50.0   90.0   16.666666666666668
0.0   120.0   16.666666666666668
0.0   90.0   0.0
-50.0   120.0   0.0
-50.0   90.0   16.666666666666668
0.0   90.0   16.666666666666668
-50.0   120.0   16.666666666666668
-50.0   90.0   33.333333333333336
0.0   90.0   16.666666666666668
0.0   120.0   16.666666666666668
-50.0   120.0   16.666666666666668
0.0   120.0   33.333333333333336
-50.0   90.0   33.333333333333336
-50.0   120.0   33.333333333333336
0.0   120.0   33.333333333333336
-50.0   120.0   16.666666666666668
-50.0   90.0   33.333333333333336
0.0   120.0   33.333333333333336
0.0   90.0   33.333333333333336
0.0   90.0   16.666666666666668
-50.0   90.0   33.333333333333336
0.0   120.0   33.333333333333336
0.0   90.0   16.666666666666668
-50.0   120.0   16.666666666666668
-50.0   90.0   33.333333333333336
0.0   90.0   33.333333333333336
-50.0   120.0   33.333333333333336
-50.0   90.0   50.0
0.0   90.0   33.333333333333336
0.0   120.0   33.333333333333336
-50.0   120.0   33.333333333333336
0.0   120.0   50.0
-50.0   90.0   50.0
-50.0   120.0   50.0
0.0   120.0   50.0
-50.0   120.0   33.333333333333336
-50.0   90.0   50.0
0.0   120.0   50.0
0.0   90.0   50.0
0.0   90.0   33.333333333333336
-50.0   90.0   50.0
0.0   120.0   50.0
0.0   90.0   33.333333333333336
-50.0   120.0   33.333333333333336
-50.0   120.0   0.0
0.0   120.0   0.0
-50.0   150.0   0.0
-50.0   120.0   16.666666666666668
0.0   120.0   0.0
0.0   150.0   0.0
-50.0   150.0   0.0
0.0   150.0   16.666666666666668
-50.0   120.0   16.666666666666668
-50.0   150.0   16.666666666666668
0.0   150.0   16.666666666666668
-50.0   150.0   0.0
-50.0   120.0   16.666666666666668
0.0   150.0   16.666666666666668
0.0   120.0   16.666666666666668
0.0   120.0   0.0
-50.0   120.0   16.666666666666668
0.0   150.0   16.666666666666668
0.0   120.0   0.0
-50.0   150.0   0.0
-50.0   120.0   16.666666666666668
0.0   120.0   16.666666666666668
-50.0   150.0   16.666666666666668
-50.0   120.0   33.333333333333336
0.0   120.0   16.666666666666668
0.0   150.0   16.666666666666668
-50.0   150.0   16.666666666666668
0.0   150.0   33.333333333333336
-50.0   120.0   33.333333333333336
-50.0   150.0   33.333333333333336
0.0   150.0   33.333333333333336
-50.0   150.0   16.666666666666668
-50.0   120.0   33.333333333333336
0.0   150.0   33.333333333333336
0.0   120.0   33.333333333333336
0.0   120.0   16.666666666666668
-50.0   120.0   33.333333333333336
0.0   150.0   33.333333333333336
0.0   120.0   16.666666666666668
-50.0   150.0   16.666666666666668
-50.0   120.0   33.333333333333336
0.0   120.0   33.333333333333336
-50.0   150.0   33.333333333333336
-50.0   120.0   50.0
0.0   120.0   33.333333333333336
0.0   150.0   33.333333333333336
-50.0   150.0   33.333333333333336
0.0   150.0   50.0
-50.0   120.0   50.0
-50.0   150.0   50.0
0.0   150.0   50.0
-50.0   150.0   33.333333333333336
-50.0   120.0   50.0
0.0   150.0   50.0
0.0   120.0   50.0
0.0   120.0   33.333333333333336
-50.0   120.0   50.0
0.0   150.0   50.0
0.0   120.0   33.333333333333336
-50.0   150.0   33.333333333333336
0.0   0.0   0.0
50.0   0.0   0.0
0.0   30.0   0.0
0.0   0.0   16.666666666666668
50.0   0.0   0.0
50.0   30.0   0.0
0.0   30.0   0.0
50.0   30.0   16.666666666666668
0.0   0.0   16.666666666666668
0.0   30.0   16.666666666666668
50.0   30.0   16.666666666666668
0.0   30.0   0.0
0.0   0.0   16.666666666666668
50.0   30.0   16.666666666666668
50.0   0.0   16.666666666666668
50.0   0.0   0.0
0.0   0.0   16.666666666666668
50.0   30.0   16.666666666666668
50.0   0.0   0.0
0.0   30.0   0.0
0.0   0.0   16.666666666666668
50.0   0.0   16.666666666666668
0.0   30.0   16.666666666666668
0.0   0.0   33.333333333333336
50.0   0.0   16.666666666666668
50.0   30.0   16.666666666666668
0.0   30.0   16.666666666666668
50.0   30.0   33.333333333333336
0.0   0.0   33.333333333333336
0.0   30.0   33.333333333333336
50.0   30.0   33.333333333333336
0.0   30.0   16.666666666666668
0.0   0.0   33.333333333333336
50.0   30.0   33.333333333333336
50.0   0.0   33.333333333333336
50.0   0.0   16.666666666666668
0.0   0.0   33.333333333333336
50.0   30.0   33.333333333333336
50.0   0.0   16.666666666666668
0.0   30.0   16.666666666666668
0.0   0.0   33.333333333333336
50.0   0.0   33.333333333333336
0.0   30.0   33.333333333333336
0.0   0.0   50.0
50.0   0.0   33.333333333333336
50.0   30.0   33.333333333333336
0.0   30.0   33.333333333333336
50.0   30.0   50.0
0.0   0.0   50.0
0.0   30.0   50.0
50.0   30.0   50.0
0.0   30.0   33.333333333333336
0.0   0.0   50.0
50.0   30.0   50.0
50.0   0.0   50.0
50.0   0.0   33.333333333333336
0.0   0.0   50.0
50.0   30.0   50.0
50.0   0.0   33.333333333333336
0.0   30.0   33.333333333333336
0.0   30.0   0.0
50.0   30.0   0.0
0.0   60.0   0.0
0.0   30.0   16.666666666666668
50.0   30.0   0.0
50.0   60.0   0.0
0.0   60.0   0.0
50.0   60.0   16.666666666666668
0.0   30.0   16.666666666666668
0.0   60.0   16.666666666666668
50.0   60.0   16.666666666666668
0.0   60.0   0.0
0.0   30.0   16.666666666666668
50.0   60.0   16.666666666666668
50.0   30.0   16.666666666666668
50.0   30.0   0.0
0.0   30.0   16.666666666666668
50.0   60.0   16.666666666666668
50.0   30.0   0.0
0.0   60.0   0.0
0.0   30.0   16.666666666666668
50.0   30.0   16.666666666666668
0.0   60.0   16.666666666666668
0.0   30.0   33.333333333333336
50.0   30.0   16.666666666666668
50.0   60.0   16.666666666666668
0.0   60.0   16.666666666666668
50.0   60.0   33.333333333333336
0.0   30.0   33.333333333333336
0.0   60.0   33.333333333333336
50.0   60.0   33.333333333333336
0.0   60.0   16.666666666666668
0.0   30.0   33.333333333333336
50.0   60.0   33.333333333333336
50.0   30.0   33.333333333333336
50.0   30.0   16.666666666666668
0.0   30.0   33.333333333333336
50.0   60.0   33.333333333333336
50.0   30.0   16.666666666666668
0.0   60.0   16.666666666666668
0.0   30.0   33.333333333333336
50.0   30.0   33.333333333333336
0.0   60.0   33.333333333333336
0.0   30.0   50.0
50.0   30.0   33.333333333333336
50.0   60.0   33.333333333333336
0.0   60.0   33.333333333333336
50.0   60.0   50.0
0.0   30.0   50.0
0.0   60.0   50.0
50.0   60.0   50.0
0.0   60.0   33.333333333333336
0.0   30.0   50.0
50.0   60.0   50.0
50.0   30.0   50.0
50.0   30.0   33.333333333333336
0.0   30.0   50.0
50.0   60.0   50.0
50.0   30.0   33.333333333333336
0.0   60.0   33.333333333333336
0.0   60.0   0.0
50.0   60.0   0.0
0.0   90.0   0.0
0.0   60.0   16.666666666666668
50.0   60.0   0.0
50.0   90.0   0.0
0.0   90.0   0.0
50.0   90.0   16.666666666666668
0.0   60.0   16.666666666666668
0.0   90.0   16.666666666666668
50.0   90.0   16.666666666666668
0.0   90.0   0.0
0.0   60.0   16.666666666666668
50.0   90.0   16.666666666666668
50.0   60.0   16.666666666666668
50.0   60.0   0.0
0.0   60.0   16.666666666666668
50.0   90.0   16.666666666666668
50.0   60.0   0.0
0.0   90.0   0.0
0.0   60.0   16.666666666666668
50.0   60.0   16.666666666666668
0.0   90.0   16.666666666666668
0.0   60.0   33.333333333333336
50.0   60.0   16.666666666666668
50.0   90.0   16.666666666666668
0.0   90.0   16.666666666666668
50.0   90.0   33.333333333333336
0.0   60.0   33.333333333333336
0.0   90.0   33.333333333333336
50.0   90.0   33.333333333333336
0.0   90.0   16.666666666666668
0.0   60.0   33.333333333333336
50.0   90.0   33.333333333333336
50.0   60.0   33.333333333333336
50.0   60.0   16.666666666666668
0.0   60.0   33.333333333333336
50.0   90.0   33.333333333333336
50.0   60.0   16.666666666666668
0.0   90.0   16.666666666666668
0.0   60.0   33.333333333333336
50.0   60.0   33.333333333333336
0.0   90.0   33.333333333333336
0.0   60.0   50.0
50.0   60.0   33.333333333333336
50.0   90.0   33.333333333333336
0.0   90.0   33.333333333333336
50.0   90.0   50.0
0.0   60.0   50.0
0.0   90.0   50.0
50.0   90.0   50.0
0.0   90.0   33.333333333333336
0.0   60.0   50.0
50.0   90.0   50.0
50.0   60.0   50.0
50.0   60.0   33.333333333333336
0.0   60.0   50.0
50.0   90.0   50.0
50.0   60.0   33.333333333333336
0.0   90.0   33.333333333333336
0.0   90.0   0.0
50.0   90.0   0.0
0.0   120.0   0.0
0.0   90.0   16.666666666666668
50.0   90.0   0.0
50.0   120.0   0.0
0.0   120.0   0.0
50.0   120.0   16.666666666666668
0.0   90.0   16.666666666666668
0.0   120.0   16.666666666666668
50.0   120.0   16.666666666666668
0.0   120.0   0.0
0.0   90.0   16.666666666666668
50.0   120.0   16.666666666666668
50.0   90.0   16.666666666666668
50.0   90.0   0.0
0.0   90.0   16.666666666666668
50.0   120.0   16.666666666666668
50.0   90.0   0.0
0.0   120.0   0.0
0.0   90.0   16.666666666666668
50.0   90.0   16.666666666666668
0.0   120.0   16.666666666666668
0.0   90.0   33.333333333333336
50.0   90.0   16.666666666666668
50.0   120.0   16.666666666666668
0.0   120.0   16.666666666666668
50.0   120.0   33.333333333333336
0.0   90.0   33.333333333333336
0.0   120.0   33.333333333333336
50.0   120.0   33.333333333333336
0.0   120.0   16.666666666666668
0.0   90.0   33.333333333333336
50.0   120.0   33.333333333333336
50.0   90.0   33.333333333333336
50.0   90.0   16.666666666666668
0.0   90.0   33.333333333333336
50.0   120.0   33.333333333333336
50.0   90.0   16.666666666666668
0.0   120.0   16.666666666666668
0.0   90.0   33.333333333333336
50.0   90.0   33.333333333333336
0.0   120.0   33.333333333333336
0.0   90.0   50.0
50.0   90.0   33.333333333333336
50.0   120.0   33.333333333333336
0.0   120.0   33.333333333333336
50.0   120.0   50.0
0.0   90.0   50.0
0.0   120.0   50.0
50.0   120.0   50.0
0.0   120.0   33.333333333333336
0.0   90.0   50.0
50.0   120.0   50.0
50.0   90.0   50.0
50.0   90.0   33.333333333333336
0.0   90.0   50.0
50.0   120.0   50.0
50.0   90.0   33.333333333333336
0.0   120.0   33.333333333333336
0.0   120.0   0.0
50.0   120.0   0.0
0.0   150.0   0.0
0.0   120.0   16.666666666666668
50.0   120.0   0.0
50.0   150.0   0.0
0.0   150.0   0.0
50.0   150.0   16.666666666666668
0.0   120.0   16.666666666666668
0.0   150.0   16.666666666666668
50.0   150.0   16.666666666666668
0.0   150.0   0.0
0.0   120.0   16.666666666666668
50.0   150.0   16.666666666666668
50.0   120.0   16.666666666666668
50.0   120.0   0.0
0.0   120.0   16.666666666666668
50.0   150.0   16.666666666666668
50.0   120.0   0.0
0.0   150.0   0.0
0.0   120.0   16.666666666666668
50.0   120.0   16.666666666666668
0.0   150.0   16.666666666666668
0.0   120.0   33.333333333333336
50.0   120.0   16.666666666666668
50.0   150.0   16.666666666666668
0.0   150.0   16.666666666666668
50.0   150.0   33.333333333333336
0.0   120.0   33.333333333333336
0.0   150.0   33.333333333333336
50.0   150.0   33.333333333333336
0.0   150.0   16.666666666666668
0.0   120.0   33.333333333333336
50.0   150.0   33.333333333333336
50.0   120.0   33.333333333333336
50.0   120.0   16.666666666666668
0.0   120.0   33.333333333333336
50.0   150.0   33.333333333333336
50.0   120.0   16.666666666666668
0.0   150.0   16.666666666666668
0.0   120.0   33.333333333333336
50.0   120.0   33.333333333333336
0.0   150.0   33.333333333333336
0.0   120.0   50.0
50.0   120.0   33.333333333333336
50.0   150.0   33.333333333333336
0.0   150.0   33.333333333333336
50.0   150.0   50.0
0.0   120.0   50.0
0.0   150.0   50.0
50.0   150.0   50.0
0.0   150.0   33.333333333333336
0.0   120.0   50.0
50.0   150.0   50.0
50.0   120.0   50.0
50.0   120.0   33.333333333333336
0.0   120.0   50.0
50.0   150.0   50.0
50.0   120.0   33.333333333333336
0.0   150.0   33.333333333333336
50.0   0.0   0.0
100.0   0.0   0.0
50.0   30.0   0.0
50.0   0.0   16.666666666666668
100.0   0.0   0.0
100.0   30.0   0.0
50.0   30.0   0.0
100.0   30.0   16.666666666666668
50.0   0.0   16.666666666666668
50.0   30.0   16.666666666666668
100.0   30.0   16.666666666666668
50.0   30.0   0.0
50.0   0.0   16.666666666666668
100.0   30.0   16.666666666666668
100.0   0.0   16.666666666666668
100.0   0.0   0.0
50.0   0.0   16.666666666666668
100.0   30.0   16.666666666666668
100.0   0.0   0.0
50.0   30.0   0.0
50.0   0.0   16.666666666666668
100.0   0.0   16.666666666666668
50.0   30.0   16.666666666666668
50.0   0.0   33.333333333333336
100.0   0.0   16.666666666666668
100.0   30.0   16.666666666666668
50.0   30.0   16.666666666666668
100.0   30.0   33.333333333333336
50.0   0.0   33.333333333333336
50.0   30.0   33.333333333333336
100.0   30.0   33.333333333333336
50.0   30.0   16.666666666666668
50.0   0.0   33.333333333333336
100.0   30.0   33.333333333333336
100.0   0.0   33.333333333333336
100.0   0.0   16.666666666666668
50.0   0.0   33.333333333333336
100.0   30.0   33.333333333333336
100.0   0.0   16.666666666666668
50.0   30.0   16.666666666666668
50.0   0.0   33.333333333333336
100.0   0.0   33.333333333333336
50.0   30.0   33.333333333333336
50.0   0.0   50.0
100.0   0.0   33.333333333333336
100.0   30.0   33.333333333333336
50.0   30.0   33.333333333333336
100.0   30.0   50.0
50.0   0.0   50.0
50.0   30.0   50.0
100.0   30.0   50.0
50.0   30.0   33.333333333333336
50.0   0.0   50.0
100.0   30.0   50.0
100.0   0.0   50.0
100.0   0.0   33.333333333333336
50.0   0.0   50.0
100.0   30.0   50.0
100.0   0.0   33.333333333333336
50.0   30.0   33.333333333333336
50.0   30.0   0.0
100.0   30.0   0.0
50.0   60.0   0.0
50.0   30.0   16.666666666666668
100.0   30.0   0.0
100.0   60.0   0.0
50.0   60.0   0.0
100.0   60.0   16.666666666666668
50.0   30.0   16.666666666666668
50.0   60.0   16.666666666666668
100.0   60.0   16.666666666666668
50.0   60.0   0.0
50.0   30.0   16.666666666666668
100.0   60.0   16.666666666666668
100.0   30.0   16.666666666666668
100.0   30.0   0.0
50.0   30.0   16.666666666666668
100.0   60.0   16.666666666666668
100.0   30.0   0.0
50.0   60.0   0.0
50.0   30.0   16.666666666666668
100.0   30.0   16.666666666666668
50.0   60.0   16.666666666666668
50.0   30.0   33.333333333333336
100.0   30.0   16.666666666666668
100.0   60.0   16.666666666666668
50.0   60.0   16.666666666666668
100.0   60.0   33.333333333333336
50.0   30.0   33.333333333333336
50.0   60.0   33.333333333333336
100.0   60.0   33.333333333333336
50.0   60.0   16.666666666666668
50.0   30.0   33.333333333333336
100.0   60.0   33.333333333333336
100.0   30.0   33.333333333333336
100.0   30.0   16.666666666666668
50.0   30.0   33.333333333333336
100.0   60.0   33.333333333333336
100.0   30.0   16.666666666666668
50.0   60.0   16.666666666666668
50.0   30.0   33.333333333333336
100.0   30.0   33.333333333333336
50.0   60.0   33.333333333333336
50.0   30.0   50.0
100.0   30.0   33.333333333333336
100.0   60.0   33.333333333333336
50.0   60.0   33.333333333333336
100.0   60.0   50.0
50.0   30.0   50.0
50.0   60.0   50.0
100.0   60.0   50.0
50.0   60.0   33.333333333333336
50.0   30.0   50.0
100.0   60.0   50.0
100.0   30.0   50.0
100.0   30.0   33.333333333333336
50.0   30.0   50.0
100.0   60.0   50.0
100.0   30.0   33.333333333333336
50.0   60.0   33.333333333333336
50.0   60.0   0.0
100.0   60.0   0.0
50.0   90.0   0.0
50.0   60.0   16.666666666666668
100.0   60.0   0.0
100.0   90.0   0.0
50.0   90.0   0.0
100.0   90.0   16.666666666666668
50.0   60.0   16.666666666666668
50.0   90.0   16.666666666666668
100.0   90.0   16.666666666666668
50.0   90.0   0.0
50.0   60.0   16.666666666666668
100.0   90.0   16.666666666666668
100.0   60.0   16.666666666666668
100.0   60.0   0.0
50.0   60.0   16.666666666666668
100.0   90.0   16.666666666666668
100.0   60.0   0.0
50.0   90.0   0.0
50.0   60.0   16.666666666666668
100.0   60.0   16.666666666666668
50.0   90.0   16.666666666666668
50.0   60.0   33.333333333333336
100.0   60.0   16.666666666666668
100.0   90.0   16.666666666666668
50.0   90.0   16.666666666666668
100.0   90.0   33.333333333333336
50.0   60.0   33.333333333333336
50.0   90.0   33.333333333333336
100.0   90.0   33.333333333333336
50.0   90.0   16.666666666666668
50.0   60.0   33.333333333333336
100.0   90.0   33.333333333333336
100.0   60.0   33.333333333333336
100.0   60.0   16.666666666666668
50.0   60.0   33.333333333333336
100.0   90.0   33.333333333333336
100.0   60.0   16.666666666666668
50.0   90.0   16.666666666666668
50.0   60.0   33.333333333333336
100.0   60.0   33.333333333333336
50.0   90.0   33.333333333333336
50.0   60.0   50.0
100.0   60.0   33.333333333333336
100.0   90.0   33.333333333333336
50.0   90.0   33.333333333333336
100.0   90.0   50.0
50.0   60.0   50.0
50.0   90.0   50.0
100.0   90.0   50.0
50.0   90.0   33.333333333333336
50.0   60.0   50.0
100.0   90.0   50.0
100.0   60.0   50.0
100.0   60.0   33.333333333333336
50.0   60.0   50.0
100.0   90.0   50.0
100.0   60.0   33.333333333333336
50.0   90.0   33.333333333333336
50.0   90.0   0.0
100.0   90.0   0.0
50.0   120.0   0.0
50.0   90.0   16.666666666666668
100.0   90.0   0.0
100.0   120.0   0.0
50.0   120.0   0.0
100.0   120.0   16.666666666666668
50.0   90.0   16.666666666666668
50.0   120.0   16.666666666666668
100.0   120.0   16.666666666666668
50.0   120.0   0.0
50.0   90.0   16.666666666666668
100.0   120.0   16.666666666666668
100.0   90.0   16.666666666666668
100.0   90.0   0.0
50.0   90.0   16.666666666666668
100.0   120.0   16.666666666666668
100.0   90.0   0.0
50.0   120.0   0.0
50.0   90.0   16.666666666666668
100.0   90.0   16.666666666666668
50.0   120.0   16.666666666666668
50.0   90.0   33.333333333333336
100.0   90.0   16.666666666666668
100.0   120.0   16.666666666666668
50.0   120.0   16.666666666666668
100.0   120.0   33.333333333333336
50.0   90.0   33.333333333333336
50.0   120.0   33.333333333333336
100.0   120.0   33.333333333333336
50.0   120.0   16.666666666666668
50.0   90.0   33.333333333333336
100.0   120.0   33.333333333333336
100.0   90.0   33.333333333333336
100.0   90.0   16.666666666666668
50.0   90.0   33.333333333333336
100.0   120.0   33.333333333333336
100.0   90.0   16.666666666666668
50.0   120.0   16.666666666666668
50.0   90.0   33.333333333333336
100.0   90.0   33.333333333333336
50.0   120.0   33.333333333333336
50.0   90.0   50.0
100.0   90.0   33.333333333333336
100.0   120.0   33.333333333333336
50.0   120.0   33.333333333333336
100.0   120.0   50.0
50.0   90.0   50.0
50.0   120.0   50.0
100.0   120.0   50.0
50.0   120.0   33.333333333333336
50.0   90.0   50.0
100.0   120.0   50.0
100.0   90.0   50.0
100.0   90.0   33.333333333333336
50.0   90.0   50.0
100.0   120.0   50.0
100.0   90.0   33.333333333333336
50.0   120.0   33.333333333333336
50.0   120.0   0.0
100.0   120.0   0.0
50.0   150.0   0.0
50.0   120.0   16.666666666666668
100.0   120.0   0.0
100.0   150.0   0.0
50.0   150.0   0.0
100.0   150.0   16.666666666666668
50.0   120.0   16.666666666666668
50.0   150.0   16.666666666666668
100.0   150.0   16.666666666666668
50.0   150.0   0.0
50.0   120.0   16.666666666666668
100.0   150.0   16.666666666666668
100.0   120.0   16.666666666666668
100.0   120.0   0.0
50.0   120.0   16.666666666666668
100.0   150.0   16.666666666666668
100.0   120.0   0.0
50.0   150.0   0.0
50.0   120.0   16.666666666666668
100.0   120.0   16.666666666666668
50.0   150.0   16.666666666666668
50.0   120.0   33.333333333333336
100.0   120.0   16.666666666666668
100.0   150.0   16.666666666666668
50.0   150.0   16.666666666666668
100.0   150.0   33.333333333333336
50.0   120.0   33.333333333333336
50.0   150.0   33.333333333333336
100.0   150.0   33.333333333333336
50.0   150.0   16.666666666666668
50.0   120.0   33.333333333333336
100.0   150.0   33.333333333333336
100.0   120.0   33.333333333333336
100.0   120.0   16.666666666666668
50.0   120.0   33.333333333333336
100.0   150.0   33.333333333333336
100.0   120.0   16.666666666666668
50.0   150.0   16.666666666666668
50.0   120.0   33.333333333333336
100.0   120.0   33.333333333333336
50.0   150.0   33.333333333333336
50.0   120.0   50.0
100.0   120.0   33.333333333333336
100.0   150.0   33.333333333333336
50.0   150.0   33.333333333333336
100.0   150.0   50.0
50.0   120.0   50.0
50.0   150.0   50.0
100.0   150.0   50.0
50.0   150.0   33.333333333333336
50.0   120.0   50.0
100.0   150.0   50.0
100.0   120.0   50.0
100.0   120.0   33.333333333333336
50.0   120.0   50.0
100.0   150.0   50.0
100.0   120.0   33.333333333333336
50.0   150.0   33.333333333333336
100.0   0.0   0.0
150.0   0.0   0.0
100.0   30.0   0.0
100.0   0.0   16.666666666666668
150.0   0.0   0.0
150.0   30.0   0.0
100.0   30.0   0.0
150.0   30.0   16.666666666666668
100.0   0.0   16.666666666666668
100.0   30.0   16.666666666666668
150.0   30.0   16.666666666666668
100.0   30.0   0.0
100.0   0.0   16.666666666666668
150.0   30.0   16.666666666666668
150.0   0.0   16.666666666666668
150.0   0.0   0.0
100.0   0.0   16.666666666666668
150.0   30.0   16.666666666666668
150.0   0.0   0.0
100.0   30.0   0.0
100.0   0.0   16.666666666666668
150.0   0.0   16.666666666666668
100.0   30.0   16.666666666666668
100.0   0.0   33.333333333333336
150.0   0.0   16.666666666666668
150.0   30.0   16.666666666666668
100.0   30.0   16.666666666666668
150.0   30.0   33.333333333333336
100.0   0.0   33.333333333333336
100.0   30.0   33.333333333333336
150.0   30.0   33.333333333333336
100.0   30.0   16.666666666666668
100.0   0.0   33.333333333333336
150.0   30.0   33.333333333333336
150.0   0.0   33.333333333333336
150.0   0.0   16.666666666666668
100.0   0.0   33.333333333333336
150.0   30.0   33.333333333333336
150.0   0.0   16.666666666666668
100.0   30.0   16.666666666666668
100.0   0.0   33.333333333333336
150.0   0.0   33.333333333333336
100.0   30.0   33.333333333333336
100.0   0.0   50.0
150.0   0.0   33.333333333333336
150.0   30.0   33.333333333333336
100.0   30.0   33.333333333333336
150.0   30.0   50.0
100.0   0.0   50.0
100.0   30.0   50.0
150.0   30.0   50.0
100.0   30.0   33.333333333333336
100.0   0.0   50.0
150.0   30.0   50.0
150.0   0.0   50.0
150.0   0.0   33.333333333333336
100.0   0.0   50.0
150.0   30.0   50.0
150.0   0.0   33.333333333333336
100.0   30.0   33.333333333333336
100.0   30.0   0.0
150.0   30.0   0.0
100.0   60.0   0.0
100.0   30.0   16.666666666666668
150.0   30.0   0.0
150.0   60.0   0.0
100.0   60.0   0.0
150.0   60.0   16.666666666666668
100.0   30.0   16.666666666666668
100.0   60.0   16.666666666666668
150.0   60.0   16.666666666666668
100.0   60.0   0.0
100.0   30.0   16.666666666666668
150.0   60.0   16.666666666666668
150.0   30.0   16.666666666666668
150.0   30.0   0.0
100.0   30.0   16.666666666666668
150.0   60.0   16.666666666666668
150.0   30.0   0.0
100.0   60.0   0.0
100.0   30.0   16.666666666666668
150.0   30.0   16.666666666666668
100.0   60.0   16.666666666666668
100.0   30.0   33.333333333333336
150.0   30.0   16.666666666666668
150.0   60.0   16.666666666666668
100.0   60.0   16.666666666666668
150.0   60.0   33.333333333333336
100.0   30.0   33.333333333333336
100.0   60.0   33.333333333333336
150.0   60.0   33.333333333333336
100.0   60.0   16.666666666666668
100.0   30.0   33.333333333333336
150.0   60.0   33.333333333333336
150.0   30.0   33.333333333333336
150.0   30.0   16.666666666666668
100.0   30.0   33.333333333333336
150.0   60.0   33.333333333333336
150.0   30.0   16.666666666666668
100.0   60.0   16.666666666666668
100.0   30.0   33.333333333333336
150.0   30.0   33.333333333333336
100.0   60.0   33.333333333333336
100.0   30.0   50.0
150.0   30.0   33.333333333333336
150.0   60.0   33.333333333333336
100.0   60.0   33.333333333333336
150.0   60.0   50.0
100.0   30.0   50.0
100.0   60.0   50.0
150.0   60.0   50.0
100.0   60.0   33.333333333333336
100.0   30.0   50.0
150.0   60.0   50.0
150.0   30.0   50.0
150.0   30.0   33.333333333333336
100.0   30.0   50.0
150.0   60.0   50.0
150.0   30.0   33.333333333333336
100.0   60.0   33.333333333333336
100.0   60.0   0.0
150.0   60.0   0.0
100.0   90.0   0.0
100.0   60.0   16.666666666666668
150.0   60.0   0.0
150.0   90.0   0.0
100.0   90.0   0.0
150.0   90.0   16.666666666666668
100.0   60.0   16.666666666666668
100.0   90.0   16.666666666666668
150.0   90.0   16.666666666666668
100.0   90.0   0.0
100.0   60.0   16.666666666666668
150.0   90.0   16.666666666666668
150.0   60.0   16.666666666666668
150.0   60.0   0.0
100.0   60.0   16.666666666666668
150.0   90.0   16.666666666666668
150.0   60.0   0.0
100.0   90.0   0.0
100.0   60.0   16.666666666666668
150.0   60.0   16.666666666666668
100.0   90.0   16.666666666666668
100.0   60.0   33.333333333333336
150.0   60.0   16.666666666666668
150.0   90.0   16.666666666666668
100.0   90.0   16.666666666666668
150.0   90.0   33.333333333333336
100.0   60.0   33.333333333333336
100.0   90.0   33.333333333333336
150.0   90.0   33.333333333333336
100.0   90.0   16.666666666666668
100.0   60.0   33.333333333333336
150.0   90.0   33.333333333333336
150.0   60.0   33.333333333333336
150.0   60.0   16.666666666666668
100.0   60.0   33.333333333333336
150.0   90.0   33.333333333333336
150.0   60.0   16.666666666666668
100.0   90.0   16.666666666666668
100.0   60.0   33.333333333333336
150.0   60.0   33.333333333333336
100.0   90.0   33.333333333333336
100.0   60.0   50.0
150.0   60.0   33.333333333333336
150.0   90.0   33.333333333333336
100.0   90.0   33.333333333333336
150.0   90.0   50.0
100.0   60.0   50.0
100.0   90.0   50.0
150.0   90.0   50.0
100.0   90.0   33.333333333333336
100.0   60.0   50.0
150.0   90.0   50.0
150.0   60.0   50.0
150.0   60.0   33.333333333333336
100.0   60.0   50.0
150.0   90.0   50.0
150.0   60.0   33.333333333333336
100.0   90.0   33.333333333333336
100.0   90.0   0.0
150.0   90.0   0.0
100.0   120.0   0.0
100.0   90.0   16.666666666666668
150.0   90.0   0.0
150.0   120.0   0.0
100.0   120.0   0.0
150.0   120.0   16.666666666666668
100.0   90.0   16.666666666666668
100.0   120.0   16.666666666666668
150.0   120.0   16.666666666666668
100.0   120.0   0.0
100.0   90.0   16.666666666666668
150.0   120.0   16.666666666666668
150.0   90.0   16.666666666666668
150.0   90.0   0.0
100.0   90.0   16.666666666666668
150.0   120.0   16.666666666666668
150.0   90.0   0.0
100.0   120.0   0.0
100.0   90.0   16.666666666666668
150.0   90.0   16.666666666666668
100.0   120.0   16.666666666666668
100.0   90.0   33.333333333333336
150.0   90.0   16.666666666666668
150.0   120.0   16.666666666666668
100.0   120.0   16.666666666666668
150.0   120.0   33.333333333333336
100.0   90.0   33.333333333333336
100.0   120.0   33.333333333333336
150.0   120.0   33.333333333333336
100.0   120.0   16.666666666666668
100.0   90.0   33.333333333333336
150.0   120.0   33.333333333333336
150.0   90.0   33.333333333333336
150.0   90.0   16.666666666666668
100.0   90.0   33.333333333333336
150.0   120.0   33.333333333333336
150.0   90.0   16.666666666666668
100.0   120.0   16.666666666666668
100.0   90.0   33.333333333333336
150.0   90.0   33.333333333333336
100.0   120.0   33.333333333333336
100.0   90.0   50.0
150.0   90.0   33.333333333333336
150.0   120.0   33.333333333333336
100.0   120.0   33.333333333333336
150.0   120.0   50.0
100.0   90.0   50.0
100.0   120.0   50.0
150.0   120.0   50.0
100.0   120.0   33.333333333333336
100.0   90.0   50.0
150.0   120.0   50.0
150.0   90.0   50.0
150.0   90.0   33.333333333333336
100.0   90.0   50.0
150.0   120.0   50.0
150.0   90.0   33.333333333333336
100.0   120.0   33.333333333333336
100.0   120.0   0.0
150.0   120.0   0.0
100.0   150.0   0.0
100.0   120.0   16.666666666666668
150.0   120.0   0.0
150.0   150.0   0.0
100.0   150.0   0.0
150.0   150.0   16.666666666666668
100.0   120.0   16.666666666666668
100.0   150.0   16.666666666666668
150.0   150.0   16.666666666666668
100.0   150.0   0.0
100.0   120.0   16.666666666666668
150.0   150.0   16.666666666666668
150.0   120.0   16.666666666666668
150.0   120.0   0.0
100.0   120.0   16.666666666666668
150.0   150.0   16.666666666666668
150.0   120.0   0.0
100.0   150.0   0.0
100.0   120.0   16.666666666666668
150.0   120.0   16.666666666666668
100.0   150.0   16.666666666666668
100.0   120.0   33.333333333333336
150.0   120.0   16.666666666666668
150.0   150.0   16.666666666666668
100.0   150.0   16.666666666666668
150.0   150.0   33.333333333333336
100.0   120.0   33.333333333333336
100.0   150.0   33.333333333333336
150.0   150.0   33.333333333333336
100.0   150.0   16.666666666666668
100.0   120.0   33.333333333333336
150.0   150.0   33.333333333333336
150.0   120.0   33.333333333333336
150.0   120.0   16.666666666666668
100.0   120.0   33.333333333333336
150.0   150.0   33.333333333333336
150.0   120.0   16.666666666666668
100.0   150.0   16.666666666666668
100.0   120.0   33.333333333333336
150.0   120.0   33.333333333333336
100.0   150.0   33.333333333333336
100.0   120.0   50.0
150.0   120.0   33.333333333333336
150.0   150.0   33.333333333333336
100.0   150.0   33.333333333333336
150.0   150.0   50.0
100.0   120.0   50.0
100.0   150.0   50.0
150.0   150.0   50.0
100.0   150.0   33.333333333333336
100.0   120.0   50.0
150.0   150.0   50.0
150.0   120.0   50.0
150.0   120.0   33.333333333333336
100.0   120.0   50.0
150.0   150.0   50.0
150.0   120.0   33.333333333333336
100.0   150.0   33.333333333333336
150.0   0.0   0.0
200.0   0.0   0.0
150.0   30.0   0.0
150.0   0.0   16.666666666666668
200.0   0.0   0.0
200.0   30.0   0.0
150.0   30.0   0.0
200.0   30.0   16.666666666666668
150.0   0.0   16.666666666666668
150.0   30.0   16.666666666666668
200.0   30.0   16.666666666666668
150.0   30.0   0.0
150.0   0.0   16.666666666666668
200.0   30.0   16.666666666666668
200.0   0.0   16.666666666666668
200.0   0.0   0.0
150.0   0.0   16.666666666666668
200.0   30.0   16.666666666666668
200.0   0.0   0.0
150.0   30.0   0.0
150.0   0.0   16.666666666666668
200.0   0.0   16.666666666666668
150.0   30.0   16.666666666666668
150.0   0.0   33.333333333333336
200.0   0.0   16.666666666666668
200.0   30.0   16.666666666666668
150.0   30.0   16.666666666666668
200.0   30.0   33.333333333333336
150.0   0.0   33.333333333333336
150.0   30.0   33.333333333333336
200.0   30.0   33.333333333333336
150.0   30.0   16.666666666666668
150.0   0.0   33.333333333333336
200.0   30.0   33.333333333333336
200.0   0.0   33.333333333333336
200.0   0.0   16.666666666666668
150.0   0.0   33.333333333333336
200.0   30.0   33.333333333333336
200.0   0.0   16.666666666666668
150.0   30.0   16.666666666666668
150.0   0.0   33.333333333333336
200.0   0.0   33.333333333333336
150.0   30.0   33.333333333333336
150.0   0.0   50.0
200.0   0.0   33.333333333333336
200.0   30.0   33.333333333333336
150.0   30.0   33.333333333333336
200.0   30.0   50.0
150.0   0.0   50.0
150.0   30.0   50.0
200.0   30.0   50.0
150.0   30.0   33.333333333333336
150.0   0.0   50.0
200.0   30.0   50.0
200.0   0.0   50.0
200.0   0.0   33.333333333333336
150.0   0.0   50.0
200.0   30.0   50.0
200.0   0.0   33.333333333333336
150.0   30.0   33.333333333333336
150.0   30.0   0.0
200.0   30.0   0.0
150.0   60.0   0.0
150.0   30.0   16.666666666666668
200.0   30.0   0.0
200.0   60.0   0.0
150.0   60.0   0.0
200.0   60.0   16.666666666666668
150.0   30.0   16.666666666666668
150.0   60.0   16.666666666666668
200.0   60.0   16.666666666666668
150.0   60.0   0.0
150.0   30.0   16.666666666666668
200.0   60.0   16.666666666666668
200.0   30.0   16.666666666666668
200.0   30.0   0.0
150.0   30.0   16.666666666666668
200.0   60.0   16.666666666666668
200.0   30.0   0.0
150.0   60.0   0.0
150.0   30.0   16.666666666666668
200.0   30.0   16.666666666666668
150.0   60.0   16.666666666666668
150.0   30.0   33.333333333333336
200.0   30.0   16.666666666666668
200.0   60.0   16.666666666666668
150.0   60.0   16.666666666666668
200.0   60.0   33.333333333333336
150.0   30.0   33.333333333333336
150.0   60.0   33.333333333333336
200.0   60.0   33.333333333333336
150.0   60.0   16.666666666666668
150.0   30.0   33.333333333333336
200.0   60.0   33.333333333333336
200.0   30.0   33.333333333333336
200.0   30.0   16.666666666666668
150.0   30.0   33.333333333333336
200.0   60.0   33.333333333333336
200.0   30.0   16.666666666666668
150.0   60.0   16.666666666666668
150.0   30.0   33.333333333333336
200.0   30.0   33.333333333333336
150.0   60.0   33.333333333333336
150.0   30.0   50.0
200.0   30.0   33.333333333333336
200.0   60.0   33.333333333333336
150.0   60.0   33.333333333333336
200.0   60.0   50.0
150.0   30.0   50.0
150.0   60.0   50.0
200.0   60.0   50.0
150.0   60.0   33.333333333333336
150.0   30.0   50.0
200.0   60.0   50.0
200.0   30.0   50.0
200.0   30.0   33.333333333333336
150.0   30.0   50.0
200.0   60.0   50.0
200.0   30.0   33.333333333333336
150.0   60.0   33.333333333333336
150.0   60.0   0.0
200.0   60.0   0.0
150.0   90.0   0.0
150.0   60.0   16.666666666666668
200.0   60.0   0.0
200.0   90.0   0.0
150.0   90.0   0.0
200.0   90.0   16.666666666666668
150.0   60.0   16.666666666666668
150.0   90.0   16.666666666666668
200.0   90.0   16.666666666666668
150.0   90.0   0.0
150.0   60.0   16.666666666666668
200.0   90.0   16.666666666666668
200.0   60.0   16.666666666666668
200.0   60.0   0.0
150.0   60.0   16.666666666666668
200.0   90.0   16.666666666666668
200.0   60.0   0.0
150.0   90.0   0.0
150.0   60.0   16.666666666666668
200.0   60.0   16.666666666666668
150.0   90.0   16.666666666666668
150.0   60.0   33.333333333333336
200.0   60.0   16.666666666666668
200.0   90.0   16.666666666666668
150.0   90.0   16.666666666666668
200.0   90.0   33.333333333333336
150.0   60.0   33.333333333333336
150.0   90.0   33.333333333333336
200.0   90.0   33.333333333333336
150.0   90.0   16.666666666666668
150.0   60.0   33.333333333333336
200.0   90.0   33.333333333333336
200.0   60.0   33.333333333333336
200.0   60.0   16.666666666666668
150.0   60.0   33.333333333333336
200.0   90.0   33.333333333333336
200.0   60.0   16.666666666666668
150.0   90.0   16.666666666666668
150.0   60.0   33.333333333333336
200.0   60.0   33.333333333333336
150.0   90.0   33.333333333333336
150.0   60.0   50.0
200.0   60.0   33.333333333333336
200.0   90.0   33.333333333333336
150.0   90.0   33.333333333333336
200.0   90.0   50.0
150.0   60.0   50.0
150.0   90.0   50.0
200.0   90.0   50.0
150.0   90.0   33.333333333333336
150.0   60.0   50.0
200.0   90.0   50.0
200.0   60.0   50.0
200.0   60.0   33.333333333333336
150.0   60.0   50.0
200.0   90.0   50.0
200.0   60.0   33.333333333333336
150.0   90.0   33.333333333333336
150.0   90.0   0.0
200.0   90.0   0.0
150.0   120.0   0.0
150.0   90.0   16.666666666666668
200.0   90.0   0.0
200.0   120.0   0.0
150.0   120.0   0.0
200.0   120.0   16.666666666666668
150.0   90.0   16.666666666666668
150.0   120.0   16.666666666666668
200.0   120.0   16.666666666666668
150.0   120.0   0.0
150.0   90.0   16.666666666666668
200.0   120.0   16.666666666666668
200.0   90.0   16.666666666666668
200.0   90.0   0.0
150.0   90.0   16.666666666666668
200.0   120.0   16.666666666666668
200.0   90.0   0.0
150.0   120.0   0.0
150.0   90.0   16.666666666666668
200.0   90.0   16.666666666666668
150.0   120.0   16.666666666666668
150.0   90.0   33.333333333333336
200.0   90.0   16.666666666666668
200.0   120.0   16.666666666666668
150.0   120.0   16.666666666666668
200.0   120.0   33.333333333333336
150.0   90.0   33.333333333333336
150.0   120.0   33.333333333333336
200.0   120.0   33.333333333333336
150.0   120.0   16.666666666666668
150.0   90.0   33.333333333333336
200.0   120.0   33.333333333333336
200.0   90.0   33.333333333333336
200.0   90.0   16.666666666666668
150.0   90.0   33.333333333333336
200.0   120.0   33.333333333333336
200.0   90.0   16.666666666666668
150.0   120.0   16.666666666666668
150.0   90.0   33.333333333333336
200.0   90.0   33.333333333333336
150.0   120.0   33.333333333333336
150.0   90.0   50.0
200.0   90.0   33.333333333333336
200.0   120.0   33.333333333333336
150.0   120.0   33.333333333333336
200.0   120.0   50.0
150.0   90.0   50.0
150.0   120.0   50.0
200.0   120.0   50.0
150.0   120.0   33.333333333333336
150.0   90.0   50.0
200.0   120.0   50.0
200.0   90.0   50.0
200.0   90.0   33.333333333333336
150.0   90.0   50.0
200.0   120.0   50.0
200.0   90.0   33.333333333333336
150.0   120.0   33.333333333333336
150.0   120.0   0.0
200.0   120.0   0.0
150.0   150.0   0.0
150.0   120.0   16.666666666666668
200.0   120.0   0.0
200.0   150.0   0.0
150.0   150.0   0.0
200.0   150.0   16.666666666666668
150.0   120.0   16.666666666666668
150.0   150.0   16.666666666666668
200.0   150.0   16.666666666666668
150.0   150.0   0.0
150.0   120.0   16.666666666666668
200.0   150.0   16.666666666666668
200.0   120.0   16.666666666666668
200.0   120.0   0.0
150.0   120.0   16.666666666666668
200.0   150.0   16.666666666666668
200.0   120.0   0.0
150.0   150.0   0.0
150.0   120.0   16.666666666666668
200.0   120.0   16.666666666666668
150.0   150.0   16.666666666666668
150.0   120.0   33.333333333333336
200.0   120.0   16.666666666666668
200.0   150.0   16.666666666666668
150.0   150.0   16.666666666666668
200.0   150.0   33.333333333333336
150.0   120.0   33.333333333333336
150.0   150.0   33.333333333333336
200.0   150.0   33.333333333333336
150.0   150.0   16.666666666666668
150.0   120.0   33.333333333333336
200.0   150.0   33.333333333333336
200.0   120.0   33.333333333333336
200.0   120.0   16.666666666666668
150.0   120.0   33.333333333333336
200.0   150.0   33.333333333333336
200.0   120.0   16.666666666666668
150.0   150.0   16.666666666666668
150.0   120.0   33.333333333333336
200.0   120.0   33.333333333333336
150.0   150.0   33.333333333333336
150.0   120.0   50.0
200.0   120.0   33.333333333333336
200.0   150.0   33.333333333333336
150.0   150.0   33.333333333333336
200.0   150.0   50.0
150.0   120.0   50.0
150.0   150.0   50.0
200.0   150.0   50.0
150.0   150.0   33.333333333333336
150.0   120.0   50.0
200.0   150.0   50.0
200.0   120.0   50.0
200.0   120.0   33.333333333333336
150.0   120.0   50.0
200.0   150.0   50.0
200.0   120.0   33.333333333333336
150.0   150.0   33.333333333333336
200.0   0.0   0.0
250.0   0.0   0.0
200.0   30.0   0.0
200.0   0.0   16.666666666666668
250.0   0.0   0.0
250.0   30.0   0.0
200.0   30.0   0.0
250.0   30.0   16.666666666666668
200.0   0.0   16.666666666666668
200.0   30.0   16.666666666666668
250.0   30.0   16.666666666666668
200.0   30.0   0.0
200.0   0.0   16.666666666666668
250.0   30.0   16.666666666666668
250.0   0.0   16.666666666666668
250.0   0.0   0.0
200.0   0.0   16.666666666666668
250.0   30.0   16.666666666666668
250.0   0.0   0.0
200.0   30.0   0.0
200.0   0.0   16.666666666666668
250.0   0.0   16.666666666666668
200.0   30.0   16.666666666666668
200.0   0.0   33.333333333333336
250.0   0.0   16.666666666666668
250.0   30.0   16.666666666666668
200.0   30.0   16.666666666666668
250.0   30.0   33.333333333333336
200.0   0.0   33.333333333333336
200.0   30.0   33.333333333333336
250.0   30.0   33.333333333333336
200.0   30.0   16.666666666666668
200.0   0.0   33.333333333333336
250.0   30.0   33.333333333333336
250.0   0.0   33.333333333333336
250.0   0.0   16.666666666666668
200.0   0.0   33.333333333333336
250.0   30.0   33.333333333333336
250.0   0.0   16.666666666666668
200.0   30.0   16.666666666666668
200.0   0.0   33.333333333333336
250.0   0.0   33.333333333333336
200.0   30.0   33.333333333333336
200.0   0.0   50.0
250.0   0.0   33.333333333333336
250.0   30.0   33.333333333333336
200.0   30.0   33.333333333333336
250.0   30.0   50.0
200.0   0.0   50.0
200.0   30.0   50.0
250.0   30.0   50.0
200.0   30.0   33.333333333333336
200.0   0.0   50.0
250.0   30.0   50.0
250.0   0.0   50.0
250.0   0.0   33.333333333333336
200.0   0.0   50.0
250.0   30.0   50.0
250.0   0.0   33.333333333333336
200.0   30.0   33.333333333333336
200.0   30.0   0.0
250.0   30.0   0.0
200.0   60.0   0.0
200.0   30.0   16.666666666666668
250.0   30.0   0.0
250.0   60.0   0.0
200.0   60.0   0.0
250.0   60.0   16.666666666666668
200.0   30.0   16.666666666666668
200.0   60.0   16.666666666666668
250.0   60.0   16.666666666666668
200.0   60.0   0.0
200.0   30.0   16.666666666666668
250.0   60.0   16.666666666666668
250.0   30.0   16.666666666666668
250.0   30.0   0.0
200.0   30.0   16.666666666666668
250.0   60.0   16.666666666666668
250.0   30.0   0.0
200.0   60.0   0.0
200.0   30.0   16.666666666666668
250.0   30.0   16.666666666666668
200.0   60.0   16.666666666666668
200.0   30.0   33.333333333333336
250.0   30.0   16.666666666666668
250.0   60.0   16.666666666666668
200.0   60.0   16.666666666666668
250.0   60.0   33.333333333333336
200.0   30.0   33.333333333333336
200.0   60.0   33.333333333333336
250.0   60.0   33.333333333333336
200.0   60.0   16.666666666666668
200.0   30.0   33.333333333333336
250.0   60.0   33.333333333333336
250.0   30.0   33.333333333333336
250.0   30.0   16.666666666666668
200.0   30.0   33.333333333333336
250.0   60.0   33.333333333333336
250.0   30.0   16.666666666666668
200.0   60.0   16.666666666666668
200.0   30.0   33.333333333333336
250.0   30.0   33.333333333333336
200.0   60.0   33.333333333333336
200.0   30.0   50.0
250.0   30.0   33.333333333333336
250.0   60.0   33.333333333333336
200.0   60.0   33.333333333333336
250.0   60.0   50.0
200.0   30.0   50.0
200.0   60.0   50.0
250.0   60.0   50.0
200.0   60.0   33.333333333333336
200.0   30.0   50.0
250.0   60.0   50.0
250.0   30.0   50.0
250.0   30.0   33.333333333333336
200.0   30.0   50.0
250.0   60.0   50.0
250.0   30.0   33.333333333333336
200.0   60.0   33.333333333333336
200.0   60.0   0.0
250.0   60.0   0.0
200.0   90.0   0.0
200.0   60.0   16.666666666666668
250.0   60.0   0.0
250.0   90.0   0.0
200.0   90.0   0.0
250.0   90.0   16.666666666666668
200.0   60.0   16.666666666666668
200.0   90.0   16.666666666666668
250.0   90.0   16.666666666666668
200.0   90.0   0.0
200.0   60.0   16.666666666666668
250.0   90.0   16.666666666666668
250.0   60.0   16.666666666666668
250.0   60.0   0.0
200.0   60.0   16.666666666666668
250.0   90.0   16.666666666666668
250.0   60.0   0.0
200.0   90.0   0.0
200.0   60.0   16.666666666666668
250.0   60.0   16.666666666666668
200.0   90.0   16.666666666666668
200.0   60.0   33.333333333333336
250.0   60.0   16.666666666666668
250.0   90.0   16.666666666666668
200.0   90.0   16.666666666666668
250.0   90.0   33.333333333333336
200.0   60.0   33.333333333333336
200.0   90.0   33.333333333333336
250.0   90.0   33.333333333333336
200.0   90.0   16.666666666666668
200.0   60.0   33.333333333333336
250.0   90.0   33.333333333333336
250.0   60.0   33.333333333333336
250.0   60.0   16.666666666666668
200.0   60.0   33.333333333333336
250.0   90.0   33.333333333333336
250.0   60.0   16.666666666666668
200.0   90.0   16.666666666666668
200.0   60.0   33.333333333333336
250.0   60.0   33.333333333333336
200.0   90.0   33.333333333333336
200.0   60.0   50.0
250.0   60.0   33.333333333333336
250.0   90.0   33.333333333333336
200.0   90.0   33.333333333333336
250.0   90.0   50.0
200.0   60.0   50.0
200.0   90.0   50.0
250.0   90.0   50.0
200.0   90.0   33.333333333333336
200.0   60.0   50.0
250.0   90.0   50.0
250.0   60.0   50.0
250.0   60.0   33.333333333333336
200.0   60.0   50.0
250.0   90.0   50.0
250.0   60.0   33.333333333333336
200.0   90.0   33.333333333333336
200.0   90.0   0.0
250.0   90.0   0.0
200.0   120.0   0.0
200.0   90.0   16.666666666666668
250.0   90.0   0.0
250.0   120.0   0.0
200.0   120.0   0.0
250.0   120.0   16.666666666666668
200.0   90.0   16.666666666666668
200.0   120.0   16.666666666666668
250.0   120.0   16.666666666666668
200.0   120.0   0.0
200.0   90.0   16.666666666666668
250.0   120.0   16.666666666666668
250.0   90.0   16.666666666666668
250.0   90.0   0.0
200.0   90.0   16.666666666666668
250.0   120.0   16.666666666666668
250.0   90.0   0.0
200.0   120.0   0.0
200.0   90.0   16.666666666666668
250.0   90.0   16.666666666666668
200.0   120.0   16.666666666666668
200.0   90.0   33.333333333333336
250.0   90.0   16.666666666666668
250.0   120.0   16.666666666666668
200.0   120.0   16.666666666666668
250.0   120.0   33.333333333333336
200.0   90.0   33.333333333333336
200.0   120.0   33.333333333333336
250.0   120.0   33.333333333333336
200.0   120.0   16.666666666666668
200.0   90.0   33.333333333333336
250.0   120.0   33.333333333333336
250.0   90.0   33.333333333333336
250.0   90.0   16.666666666666668
200.0   90.0   33.333333333333336
250.0   120.0   33.333333333333336
250.0   90.0   16.666666666666668
200.0   120.0   16.666666666666668
200.0   90.0   33.333333333333336
250.0   90.0   33.333333333333336
200.0   120.0   33.333333333333336
200.0   90.0   50.0
250.0   90.0   33.333333333333336
250.0   120.0   33.333333333333336
200.0   120.0   33.333333333333336
250.0   120.0   50.0
200.0   90.0   50.0
200.0   120.0   50.0
250.0   120.0   50.0
200.0   120.0   33.333333333333336
200.0   90.0   50.0
250.0   120.0   50.0
250.0   90.0   50.0
250.0   90.0   33.333333333333336
200.0   90.0   50.0
250.0   120.0   50.0
250.0   90.0   33.333333333333336
200.0   120.0   33.333333333333336
200.0   120.0   0.0
250.0   120.0   0.0
200.0   150.0   0.0
200.0   120.0   16.666666666666668
250.0   120.0   0.0
250.0   150.0   0.0
200.0   150.0   0.0
250.0   150.0   16.666666666666668
200.0   120.0   16.666666666666668
200.0   150.0   16.666666666666668
250.0   150.0   16.666666666666668
200.0   150.0   0.0
200.0   120.0   16.666666666666668
250.0   150.0   16.666666666666668
250.0   120.0   16.666666666666668
250.0   120.0   0.0
200.0   120.0   16.666666666666668
250.0   150.0   16.666666666666668
250.0   120.0   0.0
200.0   150.0   0.0
200.0   120.0   16.666666666666668
250.0   120.0   16.666666666666668
200.0   150.0   16.666666666666668
200.0   120.0   33.333333333333336
250.0   120.0   16.666666666666668
250.0   150.0   16.666666666666668
200.0   150.0   16.666666666666668
250.0   150.0   33.333333333333336
200.0   120.0   33.333333333333336
200.0   150.0   33.333333333333336
250.0   150.0   33.333333333333336
200.0   150.0   16.666666666666668
200.0   120.0   33.333333333333336
250.0   150.0   33.333333333333336
250.0   120.0   33.333333333333336
250.0   120.0   16.666666666666668
200.0   120.0   33.333333333333336
250.0   150.0   33.333333333333336
250.0   120.0   16.666666666666668
200.0   150.0   16.666666666666668
200.0   120.0   33.333333333333336
250.0   120.0   33.333333333333336
200.0   150.0   33.333333333333336
200.0   120.0   50.0
250.0   120.0   33.333333333333336
250.0   150.0   33.333333333333336
200.0   150.0   33.333333333333336
250.0   150.0   50.0
200.0   120.0   50.0
200.0   150.0   50.0
250.0   150.0   50.0
200.0   150.0   33.333333333333336
200.0   120.0   50.0
250.0   150.0   50.0
250.0   120.0   50.0
250.0   120.0   33.333333333333336
200.0   120.0   50.0
250.0   150.0   50.0
250.0   120.0   33.333333333333336
200.0   150.0   33.333333333333336
250.0   0.0   0.0
300.0   0.0   0.0
250.0   30.0   0.0
250.0   0.0   16.666666666666668
300.0   0.0   0.0
300.0   30.0   0.0
250.0   30.0   0.0
300.0   30.0   16.666666666666668
250.0   0.0   16.666666666666668
250.0   30.0   16.666666666666668
300.0   30.0   16.666666666666668
250.0   30.0   0.0
250.0   0.0   16.666666666666668
300.0   30.0   16.666666666666668
300.0   0.0   16.666666666666668
300.0   0.0   0.0
250.0   0.0   16.666666666666668
300.0   30.0   16.666666666666668
300.0   0.0   0.0
250.0   30.0   0.0
250.0   0.0   16.666666666666668
300.0   0.0   16.666666666666668
250.0   30.0   16.666666666666668
250.0   0.0   33.333333333333336
300.0   0.0   16.666666666666668
300.0   30.0   16.666666666666668
250.0   30.0   16.666666666666668
300.0   30.0   33.333333333333336
250.0   0.0   33.333333333333336
250.0   30.0   33.333333333333336
300.0   30.0   33.333333333333336
250.0   30.0   16.666666666666668
250.0   0.0   33.333333333333336
300.0   30.0   33.333333333333336
300.0   0.0   33.333333333333336
300.0   0.0   16.666666666666668
250.0   0.0   33.333333333333336
300.0   30.0   33.333333333333336
300.0   0.0   16.666666666666668
250.0   30.0   16.666666666666668
250.0   0.0   33.333333333333336
300.0   0.0   33.333333333333336
250.0   30.0   33.333333333333336
250.0   0.0   50.0
300.0   0.0   33.333333333333336
300.0   30.0   33.333333333333336
250.0   30.0   33.333333333333336
300.0   30.0   50.0
250.0   0.0   50.0
250.0   30.0   50.0
300.0   30.0   50.0
250.0   30.0   33.333333333333336
250.0   0.0   50.0
300.0   30.0   50.0
300.0   0.0   50.0
300.0   0.0   33.333333333333336
250.0   0.0   50.0
300.0   30.0   50.0
300.0   0.0   33.333333333333336
250.0   30.0   33.333333333333336
250.0   30.0   0.0
300.0   30.0   0.0
250.0   60.0   0.0
250.0   30.0   16.666666666666668
300.0   30.0   0.0
300.0   60.0   0.0
250.0   60.0   0.0
300.0   60.0   16.666666666666668
250.0   30.0   16.666666666666668
250.0   60.0   16.666666666666668
300.0   60.0   16.666666666666668
250.0   60.0   0.0
250.0   30.0   16.666666666666668
300.0   60.0   16.666666666666668
300.0   30.0   16.666666666666668
300.0   30.0   0.0
250.0   30.0   16.666666666666668
300.0   60.0   16.666666666666668
300.0   30.0   0.0
250.0   60.0   0.0
250.0   30.0   16.666666666666668
300.0   30.0   16.666666666666668
250.0   60.0   16.666666666666668
250.0   30.0   33.333333333333336
300.0   30.0   16.666666666666668
300.0   60.0   16.666666666666668
250.0   60.0   16.666666666666668
300.0   60.0   33.333333333333336
250.0   30.0   33.333333333333336
250.0   60.0   33.333333333333336
300.0   60.0   33.333333333333336
250.0   60.0   16.666666666666668
250.0   30.0   33.333333333333336
300.0   60.0   33.333333333333336
300.0   30.0   33.333333333333336
300.0   30.0   16.666666666666668
250.0   30.0   33.333333333333336
300.0   60.0   33.333333333333336
300.0   30.0   16.666666666666668
250.0   60.0   16.666666666666668
250.0   30.0   33.333333333333336
300.0   30.0   33.333333333333336
250.0   60.0   33.333333333333336
250.0   30.0   50.0
300.0   30.0   33.333333333333336
300.0   60.0   33.333333333333336
250.0   60.0   33.333333333333336
300.0   60.0   50.0
250.0   30.0   50.0
250.0   60.0   50.0
300.0   60.0   50.0
250.0   60.0   33.333333333333336
250.0   30.0   50.0
300.0   60.0   50.0
300.0   30.0   50.0
300.0   30.0   33.333333333333336
250.0   30.0   50.0
300.0   60.0   50.0
300.0   30.0   33.333333333333336
250.0   60.0   33.333333333333336
250.0   60.0   0.0
300.0   60.0   0.0
250.0   90.0   0.0
250.0   60.0   16.666666666666668
300.0   60.0   0.0
300.0   90.0   0.0
250.0   90.0   0.0
300.0   90.0   16.666666666666668
250.0   60.0   16.666666666666668
250.0   90.0   16.666666666666668
300.0   90.0   16.666666666666668
250.0   90.0   0.0
250.0   60.0   16.666666666666668
300.0   90.0   16.666666666666668
300.0   60.0   16.666666666666668
300.0   60.0   0.0
250.0   60.0   16.666666666666668
300.0   90.0   16.666666666666668
300.0   60.0   0.0
250.0   90.0   0.0
250.0   60.0   16.666666666666668
300.0   60.0   16.666666666666668
250.0   90.0   16.666666666666668
250.0   60.0   33.333333333333336
300.0   60.0   16.666666666666668
300.0   90.0   16.666666666666668
250.0   90.0   16.666666666666668
300.0   90.0   33.333333333333336
250.0   60.0   33.333333333333336
250.0   90.0   33.333333333333336
300.0   90.0   33.333333333333336
250.0   90.0   16.666666666666668
250.0   60.0   33.333333333333336
300.0   90.0   33.333333333333336
300.0   60.0   33.333333333333336
300.0   60.0   16.666666666666668
250.0   60.0   33.333333333333336
300.0   90.0   33.333333333333336
300.0   60.0   16.666666666666668
250.0   90.0   16.666666666666668
250.0   60.0   33.333333333333336
300.0   60.0   33.333333333333336
250.0   90.0   33.333333333333336
250.0   60.0   50.0
300.0   60.0   33.333333333333336
300.0   90.0   33.333333333333336
250.0   90.0   33.333333333333336
300.0   90.0   50.0
250.0   60.0   50.0
250.0   90.0   50.0
300.0   90.0   50.0
250.0   90.0   33.333333333333336
250.0   60.0   50.0
300.0   90.0   50.0
300.0   60.0   50.0
300.0   60.0   33.333333333333336
250.0   60.0   50.0
300.0   90.0   50.0
300.0   60.0   33.333333333333336
250.0   90.0   33.333333333333336
250.0   90.0   0.0
300.0   90.0   0.0
250.0   120.0   0.0
250.0   90.0   16.666666666666668
300.0   90.0   0.0
300.0   120.0   0.0
250.0   120.0   0.0
300.0   120.0   16.666666666666668
250.0   90.0   16.666666666666668
250.0   120.0   16.666666666666668
300.0   120.0   16.666666666666668
250.0   120.0   0.0
250.0   90.0   16.666666666666668
300.0   120.0   16.666666666666668
300.0   90.0   16.666666666666668
300.0   90.0   0.0
250.0   90.0   16.666666666666668
300.0   120.0   16.666666666666668
300.0   90.0   0.0
250.0   120.0   0.0
250.0   90.0   16.666666666666668
300.0   90.0   16.666666666666668
250.0   120.0   16.666666666666668
250.0   90.0   33.333333333333336
300.0   90.0   16.666666666666668
300.0   120.0   16.666666666666668
250.0   120.0   16.666666666666668
300.0   120.0   33.333333333333336
250.0   90.0   33.333333333333336
250.0   120.0   33.333333333333336
300.0   120.0   33.333333333333336
250.0   120.0   16.666666666666668
250.0   90.0   33.333333333333336
300.0   120.0   33.333333333333336
300.0   90.0   33.333333333333336
300.0   90.0   16.666666666666668
250.0   90.0   33.333333333333336
300.0   120.0   33.333333333333336
300.0   90.0   16.666666666666668
250.0   120.0   16.666666666666668
250.0   90.0   33.333333333333336
300.0   90.0   33.333333333333336
250.0   120.0   33.333333333333336
250.0   90.0   50.0
300.0   90.0   33.333333333333336
300.0   120.0   33.333333333333336
250.0   120.0   33.333333333333336
300.0   120.0   50.0
250.0   90.0   50.0
250.0   120.0   50.0
300.0   120.0   50.0
250.0   120.0   33.333333333333336
250.0   90.0   50.0
300.0   120.0   50.0
300.0   90.0   50.0
300.0   90.0   33.333333333333336
250.0   90.0   50.0
300.0   120.0   50.0
300.0   90.0   33.333333333333336
250.0   120.0   33.333333333333336
250.0   120.0   0.0
300.0   120.0   0.0
250.0   150.0   0.0
250.0   120.0   16.666666666666668
300.0   120.0   0.0
300.0   150.0   0.0
250.0   150.0   0.0
300.0   150.0   16.666666666666668
250.0   120.0   16.666666666666668
250.0   150.0   16.666666666666668
300.0   150.0   16.666666666666668
250.0   150.0   0.0
250.0   120.0   16.666666666666668
300.0   150.0   16.666666666666668
300.0   120.0   16.666666666666668
300.0   120.0   0.0
250.0   120.0   16.666666666666668
300.0   150.0   16.666666666666668
300.0   120.0   0.0
250.0   150.0   0.0
250.0   120.0   16.666666666666668
300.0   120.0   16.666666666666668
250.0   150.0   16.666666666666668
250.0   120.0   33.333333333333336
300.0   120.0   16.666666666666668
300.0   150.0   16.666666666666668
250.0   150.0   16.666666666666668
300.0   150.0   33.333333333333336
250.0   120.0   33.333333333333336
250.0   150.0   33.333333333333336
300.0   150.0   33.333333333333336
250.0   150.0   16.666666666666668
250.0   120.0   33.333333333333336
300.0   150.0   33.333333333333336
300.0   120.0   33.333333333333336
300.0   120.0   16.666666666666668
250.0   120.0   33.333333333333336
300.0   150.0   33.333333333333336
300.0   120.0   16.666666666666668
250.0   150.0   16.666666666666668
250.0   120.0   33.333333333333336
300.0   120.0   33.333333333333336
250.0   150.0   33.333333333333336
250.0   120.0   50.0
300.0   120.0   33.333333333333336
300.0   150.0   33.333333333333336
250.0   150.0   33.333333333333336
300.0   150.0   50.0
250.0   120.0   50.0
250.0   150.0   50.0
300.0   150.0   50.0
250.0   150.0   33.333333333333336
250.0   120.0   50.0
300.0   150.0   50.0
300.0   120.0   50.0
300.0   120.0   33.333333333333336
250.0   120.0   50.0
300.0   150.0   50.0
300.0   120.0   33.333333333333336
250.0   150.0   33.333333333333336
300.0   0.0   0.0
350.0   0.0   0.0
300.0   30.0   0.0
300.0   0.0   16.666666666666668
350.0   0.0   0.0
350.0   30.0   0.0
300.0   30.0   0.0
350.0   30.0   16.666666666666668
300.0   0.0   16.666666666666668
300.0   30.0   16.666666666666668
350.0   30.0   16.666666666666668
300.0   30.0   0.0
300.0   0.0   16.666666666666668
350.0   30.0   16.666666666666668
350.0   0.0   16.666666666666668
350.0   0.0   0.0
300.0   0.0   16.666666666666668
350.0   30.0   16.666666666666668
350.0   0.0   0.0
300.0   30.0   0.0
300.0   0.0   16.666666666666668
350.0   0.0   16.666666666666668
300.0   30.0   16.666666666666668
300.0   0.0   33.333333333333336
350.0   0.0   16.666666666666668
350.0   30.0   16.666666666666668
300.0   30.0   16.666666666666668
350.0   30.0   33.333333333333336
300.0   0.0   33.333333333333336
300.0   30.0   33.333333333333336
350.0   30.0   33.333333333333336
300.0   30.0   16.666666666666668
300.0   0.0   33.333333333333336
350.0   30.0   33.333333333333336
350.0   0.0   33.333333333333336
350.0   0.0   16.666666666666668
300.0   0.0   33.333333333333336
350.0   30.0   33.333333333333336
350.0   0.0   16.666666666666668
300.0   30.0   16.666666666666668
300.0   0.0   33.333333333333336
350.0   0.0   33.333333333333336
300.0   30.0   33.333333333333336
300.0   0.0   50.0
350.0   0.0   33.333333333333336
350.0   30.0   33.333333333333336
300.0   30.0   33.333333333333336
350.0   30.0   50.0
300.0   0.0   50.0
300.0   30.0   50.0
350.0   30.0   50.0
300.0   30.0   33.333333333333336
300.0   0.0   50.0
350.0   30.0   50.0
350.0   0.0   50.0
350.0   0.0   33.333333333333336
300.0   0.0   50.0
350.0   30.0   50.0
350.0   0.0   33.333333333333336
300.0   30.0   33.333333333333336
300.0   30.0   0.0
350.0   30.0   0.0
300.0   60.0   0.0
300.0   30.0   16.666666666666668
350.0   30.0   0.0
350.0   60.0   0.0
300.0   60.0   0.0
350.0   60.0   16.666666666666668
300.0   30.0   16.666666666666668
300.0   60.0   16.666666666666668
350.0   60.0   16.666666666666668
300.0   60.0   0.0
300.0   30.0   16.666666666666668
350.0   60.0   16.666666666666668
350.0   30.0   16.666666666666668
350.0   30.0   0.0
300.0   30.0   16.666666666666668
350.0   60.0   16.666666666666668
350.0   30.0   0.0
300.0   60.0   0.0
300.0   30.0   16.666666666666668
350.0   30.0   16.666666666666668
300.0   60.0   16.666666666666668
300.0   30.0   33.333333333333336
350.0   30.0   16.666666666666668
350.0   60.0   16.666666666666668
300.0   60.0   16.666666666666668
350.0   60.0   33.333333333333336
300.0   30.0   33.333333333333336
300.0   60.0   33.333333333333336
350.0   60.0   33.333333333333336
300.0   60.0   16.666666666666668
300.0   30.0   33.333333333333336
350.0   60.0   33.333333333333336
350.0   30.0   33.333333333333336
350.0   30.0   16.666666666666668
300.0   30.0   33.333333333333336
350.0   60.0   33.333333333333336
350.0   30.0   16.666666666666668
300.0   60.0   16.666666666666668
300.0   30.0   33.333333333333336
350.0   30.0   33.333333333333336
300.0   60.0   33.333333333333336
300.0   30.0   50.0
350.0   30.0   33.333333333333336
350.0   60.0   33.333333333333336
300.0   60.0   33.333333333333336
350.0   60.0   50.0
300.0   30.0   50.0
300.0   60.0   50.0
350.0   60.0   50.0
300.0   60.0   33.333333333333336
300.0   30.0   50.0
350.0   60.0   50.0
350.0   30.0   50.0
350.0   30.0   33.333333333333336
300.0   30.0   50.0
350.0   60.0   50.0
350.0   30.0   33.333333333333336
300.0   60.0   33.333333333333336
300.0   60.0   0.0
350.0   60.0   0.0
300.0   90.0   0.0
300.0   60.0   16.666666666666668
350.0   60.0   0.0
350.0   90.0   0.0
300.0   90.0   0.0
350.0   90.0   16.666666666666668
300.0   60.0   16.666666666666668
300.0   90.0   16.666666666666668
350.0   90.0   16.666666666666668
300.0   90.0   0.0
300.0   60.0   16.666666666666668
350.0   90.0   16.666666666666668
350.0   60.0   16.666666666666668
350.0   60.0   0.0
300.0   60.0   16.666666666666668
350.0   90.0   16.666666666666668
350.0   60.0   0.0
300.0   90.0   0.0
300.0   60.0   16.666666666666668
350.0   60.0   16.666666666666668
300.0   90.0   16.666666666666668
300.0   60.0   33.333333333333336
350.0   60.0   16.666666666666668
350.0   90.0   16.666666666666668
300.0   90.0   16.666666666666668
350.0   90.0   33.333333333333336
300.0   60.0   33.333333333333336
300.0   90.0   33.333333333333336
350.0   90.0   33.333333333333336
300.0   90.0   16.666666666666668
300.0   60.0   33.333333333333336
350.0   90.0   33.333333333333336
350.0   60.0   33.333333333333336
350.0   60.0   16.666666666666668
300.0   60.0   33.333333333333336
350.0   90.0   33.333333333333336
350.0   60.0   16.666666666666668
300.0   90.0   16.666666666666668
300.0   60.0   33.333333333333336
350.0   60.0   33.333333333333336
300.0   90.0   33.333333333333336
300.0   60.0   50.0
350.0   60.0   33.333333333333336
350.0   90.0   33.333333333333336
300.0   90.0   33.333333333333336
350.0   90.0   50.0
300.0   60.0   50.0
300.0   90.0   50.0
350.0   90.0   50.0
300.0   90.0   33.333333333333336
300.0   60.0   50.0
350.0   90.0   50.0
350.0   60.0   50.0
350.0   60.0   33.333333333333336
300.0   60.0   50.0
350.0   90.0   50.0
350.0   60.0   33.333333333333336
300.0   90.0   33.333333333333336
300.0   90.0   0.0
350.0   90.0   0.0
300.0   120.0   0.0
300.0   90.0   16.666666666666668
350.0   90.0   0.0
350.0   120.0   0.0
300.0   120.0   0.0
350.0   120.0   16.666666666666668
300.0   90.0   16.666666666666668
300.0   120.0   16.666666666666668
350.0   120.0   16.666666666666668
300.0   120.0   0.0
300.0   90.0   16.666666666666668
350.0   120.0   16.666666666666668
350.0   90.0   16.666666666666668
350.0   90.0   0.0
300.0   90.0   16.666666666666668
350.0   120.0   16.666666666666668
350.0   90.0   0.0
300.0   120.0   0.0
300.0   90.0   16.666666666666668
350.0   90.0   16.666666666666668
300.0   120.0   16.666666666666668
300.0   90.0   33.333333333333336
350.0   90.0   16.666666666666668
350.0   120.0   16.666666666666668
300.0   120.0   16.666666666666668
350.0   120.0   33.333333333333336
300.0   90.0   33.333333333333336
300.0   120.0   33.333333333333336
350.0   120.0   33.333333333333336
300.0   120.0   16.666666666666668
300.0   90.0   33.333333333333336
350.0   120.0   33.333333333333336
350.0   90.0   33.333333333333336
350.0   90.0   16.666666666666668
300.0   90.0   33.333333333333336
350.0   120.0   33.333333333333336
350.0   90.0   16.666666666666668
300.0   120.0   16.666666666666668
300.0   90.0   33.333333333333336
350.0   90.0   33.333333333333336
300.0   120.0   33.333333333333336
300.0   90.0   50.0
350.0   90.0   33.333333333333336
350.0   120.0   33.333333333333336
300.0   120.0   33.333333333333336
350.0   120.0   50.0
300.0   90.0   50.0
300.0   120.0   50.0
350.0   120.0   50.0
300.0   120.0   33.333333333333336
300.0   90.0   50.0
350.0   120.0   50.0
350.0   90.0   50.0
350.0   90.0   33.333333333333336
300.0   90.0   50.0
350.0   120.0   50.0
350.0   90.0   33.333333333333336
300.0   120.0   33.333333333333336
300.0   120.0   0.0
350.0   120.0   0.0
300.0   150.0   0.0
300.0   120.0   16.666666666666668
350.0   120.0   0.0
350.0   150.0   0.0
300.0   150.0   0.0
350.0   150.0   16.666666666666668
300.0   120.0   16.666666666666668
300.0   150.0   16.666666666666668
350.0   150.0   16.666666666666668
300.0   150.0   0.0
300.0   120.0   16.666666666666668
350.0   150.0   16.666666666666668
350.0   120.0   16.666666666666668
350.0   120.0   0.0
300.0   120.0   16.666666666666668
350.0   150.0   16.666666666666668
350.0   120.0   0.0
300.0   150.0   0.0
300.0   120.0   16.666666666666668
350.0   120.0   16.666666666666668
300.0   150.0   16.666666666666668
300.0   120.0   33.333333333333336
350.0   120.0   16.666666666666668
350.0   150.0   16.666666666666668
300.0   150.0   16.666666666666668
350.0   150.0   33.333333333333336
300.0   120.0   33.333333333333336
300.0   150.0   33.333333333333336
350.0   150.0   33.333333333333336
300.0   150.0   16.666666666666668
300.0   120.0   33.333333333333336
350.0   150.0   33.333333333333336
350.0   120.0   33.333333333333336
350.0   120.0   16.666666666666668
300.0   120.0   33.333333333333336
350.0   150.0   33.333333333333336
350.0   120.0   16.666666666666668
300.0   150.0   16.666666666666668
300.0   120.0   33.333333333333336
350.0   120.0   33.333333333333336
300.0   150.0   33.333333333333336
300.0   120.0   50.0
350.0   120.0   33.333333333333336
350.0   150.0   33.333333333333336
300.0   150.0   33.333333333333336
350.0   150.0   50.0
300.0   120.0   50.0
300.0   150.0   50.0
350.0   150.0   50.0
300.0   150.0   33.333333333333336
300.0   120.0   50.0
350.0   150.0   50.0
350.0   120.0   50.0
350.0   120.0   33.333333333333336
300.0   120.0   50.0
350.0   150.0   50.0
350.0   120.0   33.333333333333336
300.0   150.0   33.333333333333336
350.0   0.0   0.0
400.0   0.0   0.0
350.0   30.0   0.0
350.0   0.0   16.666666666666668
400.0   0.0   0.0
400.0   30.0   0.0
350.0   30.0   0.0
400.0   30.0   16.666666666666668
350.0   0.0   16.666666666666668
350.0   30.0   16.666666666666668
400.0   30.0   16.666666666666668
350.0   30.0   0.0
350.0   0.0   16.666666666666668
400.0   30.0   16.666666666666668
400.0   0.0   16.666666666666668
400.0   0.0   0.0
350.0   0.0   16.666666666666668
400.0   30.0   16.666666666666668
400.0   0.0   0.0
350.0   30.0   0.0
350.0   0.0   16.666666666666668
400.0   0.0   16.666666666666668
350.0   30.0   16.666666666666668
350.0   0.0   33.333333333333336
400.0   0.0   16.666666666666668
400.0   30.0   16.666666666666668
350.0   30.0   16.666666666666668
400.0   30.0   33.333333333333336
350.0   0.0   33.333333333333336
350.0   30.0   33.333333333333336
400.0   30.0   33.333333333333336
350.0   30.0   16.666666666666668
350.0   0.0   33.333333333333336
400.0   30.0   33.333333333333336
400.0   0.0   33.333333333333336
400.0   0.0   16.666666666666668
350.0   0.0   33.333333333333336
400.0   30.0   33.333333333333336
400.0   0.0   16.666666666666668
350.0   30.0   16.666666666666668
350.0   0.0   33.333333333333336
400.0   0.0   33.333333333333336
350.0   30.0   33.333333333333336
350.0   0.0   50.0
400.0   0.0   33.333333333333336
400.0   30.0   33.333333333333336
350.0   30.0   33.333333333333336
400.0   30.0   50.0
350.0   0.0   50.0
350.0   30.0   50.0
400.0   30.0   50.0
350.0   30.0   33.333333333333336
350.0   0.0   50.0
400.0   30.0   50.0
400.0   0.0   50.0
400.0   0.0   33.333333333333336
350.0   0.0   50.0
400.0   30.0   50.0
400.0   0.0   33.333333333333336
350.0   30.0   33.333333333333336
350.0   30.0   0.0
400.0   30.0   0.0
350.0   60.0   0.0
350.0   30.0   16.666666666666668
400.0   30.0   0.0
400.0   60.0   0.0
350.0   60.0   0.0
400.0   60.0   16.666666666666668
350.0   30.0   16.666666666666668
350.0   60.0   16.666666666666668
400.0   60.0   16.666666666666668
350.0   60.0   0.0
350.0   30.0   16.666666666666668
400.0   60.0   16.666666666666668
400.0   30.0   16.666666666666668
400.0   30.0   0.0
350.0   30.0   16.666666666666668
400.0   60.0   16.666666666666668
400.0   30.0   0.0
350.0   60.0   0.0
350.0   30.0   16.666666666666668
400.0   30.0   16.666666666666668
350.0   60.0   16.666666666666668
350.0   30.0   33.333333333333336
400.0   30.0   16.666666666666668
400.0   60.0   16.666666666666668
350.0   60.0   16.666666666666668
400.0   60.0   33.333333333333336
350.0   30.0   33.333333333333336
350.0   60.0   33.333333333333336
400.0   60.0   33.333333333333336
350.0   60.0   16.666666666666668
350.0   30.0   33.333333333333336
400.0   60.0   33.333333333333336
400.0   30.0   33.333333333333336
400.0   30.0   16.666666666666668
350.0   30.0   33.333333333333336
400.0   60.0   33.333333333333336
400.0   30.0   16.666666666666668
350.0   60.0   16.666666666666668
350.0   30.0   33.333333333333336
400.0   30.0   33.333333333333336
350.0   60.0   33.333333333333336
350.0   30.0   50.0
400.0   30.0   33.333333333333336
400.0   60.0   33.333333333333336
350.0   60.0   33.333333333333336
400.0   60.0   50.0
350.0   30.0   50.0
350.0   60.0   50.0
400.0   60.0   50.0
350.0   60.0   33.333333333333336
350.0   30.0   50.0
400.0   60.0   50.0
400.0   30.0   50.0
400.0   30.0   33.333333333333336
350.0   30.0   50.0
400.0   60.0   50.0
400.0   30.0   33.333333333333336
350.0   60.0   33.333333333333336
350.0   60.0   0.0
400.0   60.0   0.0
350.0   90.0   0.0
350.0   60.0   16.666666666666668
400.0   60.0   0.0
400.0   90.0   0.0
350.0   90.0   0.0
400.0   90.0   16.666666666666668
350.0   60.0   16.666666666666668
350.0   90.0   16.666666666666668
400.0   90.0   16.666666666666668
350.0   90.0   0.0
350.0   60.0   16.666666666666668
400.0   90.0   16.666666666666668
400.0   60.0   16.666666666666668
400.0   60.0   0.0
350.0   60.0   16.666666666666668
400.0   90.0   16.666666666666668
400.0   60.0   0.0
350.0   90.0   0.0
350.0   60.0   16.666666666666668
400.0   60.0   16.666666666666668
350.0   90.0   16.666666666666668
350.0   60.0   33.333333333333336
400.0   60.0   16.666666666666668
400.0   90.0   16.666666666666668
350.0   90.0   16.666666666666668
400.0   90.0   33.333333333333336
350.0   60.0   33.333333333333336
350.0   90.0   33.333333333333336
400.0   90.0   33.333333333333336
350.0   90.0   16.666666666666668
350.0   60.0   33.333333333333336
400.0   90.0   33.333333333333336
400.0   60.0   33.333333333333336
400.0   60.0   16.666666666666668
350.0   60.0   33.333333333333336
400.0   90.0   33.333333333333336
400.0   60.0   16.666666666666668
350.0   90.0   16.666666666666668
350.0   60.0   33.333333333333336
400.0   60.0   33.333333333333336
350.0   90.0   33.333333333333336
350.0   60.0   50.0
400.0   60.0   33.333333333333336
400.0   90.0   33.333333333333336
350.0   90.0   33.333333333333336
400.0   90.0   50.0
350.0   60.0   50.0
350.0   90.0   50.0
400.0   90.0   50.0
350.0   90.0   33.333333333333336
350.0   60.0   50.0
400.0   90.0   50.0
400.0   60.0   50.0
400.0   60.0   33.333333333333336
350.0   60.0   50.0
400.0   90.0   50.0
400.0   60.0   33.333333333333336
350.0   90.0   33.333333333333336
350.0   90.0   0.0
400.0   90.0   0.0
350.0   120.0   0.0
350.0   90.0   16.666666666666668
400.0   90.0   0.0
400.0   120.0   0.0
350.0   120.0   0.0
400.0   120.0   16.666666666666668
350.0   90.0   16.666666666666668
350.0   120.0   16.666666666666668
400.0   120.0   16.666666666666668
350.0   120.0   0.0
350.0   90.0   16.666666666666668
400.0   120.0   16.666666666666668
400.0   90.0   16.666666666666668
400.0   90.0   0.0
350.0   90.0   16.666666666666668
400.0   120.0   16.666666666666668
400.0   90.0   0.0
350.0   120.0   0.0
350.0   90.0   16.666666666666668
400.0   90.0   16.666666666666668
350.0   120.0   16.666666666666668
350.0   90.0   33.333333333333336
400.0   90.0   16.666666666666668
400.0   120.0   16.666666666666668
350.0   120.0   16.666666666666668
400.0   120.0   33.333333333333336
350.0   90.0   33.333333333333336
350.0   120.0   33.333333333333336
400.0   120.0   33.333333333333336
350.0   120.0   16.666666666666668
350.0   90.0   33.333333333333336
400.0   120.0   33.333333333333336
400.0   90.0   33.333333333333336
400.0   90.0   16.666666666666668
350.0   90.0   33.333333333333336
400.0   120.0   33.333333333333336
400.0   90.0   16.666666666666668
350.0   120.0   16.666666666666668
350.0   90.0   33.333333333333336
400.0   90.0   33.333333333333336
350.0   120.0   33.333333333333336
350.0   90.0   50.0
400.0   90.0   33.333333333333336
400.0   120.0   33.333333333333336
350.0   120.0   33.333333333333336
400.0   120.0   50.0
350.0   90.0   50.0
350.0   120.0   50.0
400.0   120.0   50.0
350.0   120.0   33.333333333333336
350.0   90.0   50.0
400.0   120.0   50.0
400.0   90.0   50.0
400.0   90.0   33.333333333333336
350.0   90.0   50.0
400.0   120.0   50.0
400.0   90.0   33.333333333333336
350.0   120.0   33.333333333333336
350.0   120.0   0.0
400.0   120.0   0.0
350.0   150.0   0.0
350.0   120.0   16.666666666666668
400.0   120.0   0.0
400.0   150.0   0.0
350.0   150.0   0.0
400.0   150.0   16.666666666666668
350.0   120.0   16.666666666666668
350.0   150.0   16.666666666666668
400.0   150.0   16.666666666666668
350.0   150.0   0.0
350.0   120.0   16.666666666666668
400.0   150.0   16.666666666666668
400.0   120.0   16.666666666666668
400.0   120.0   0.0
350.0   120.0   16.666666666666668
400.0   150.0   16.666666666666668
400.0   120.0   0.0
350.0   150.0   0.0
350.0   120.0   16.666666666666668
400.0   120.0   16.666666666666668
350.0   150.0   16.666666666666668
350.0   120.0   33.333333333333336
400.0   120.0   16.666666666666668
400.0   150.0   16.666666666666668
350.0   150.0   16.666666666666668
400.0   150.0   33.333333333333336
350.0   120.0   33.333333333333336
350.0   150.0   33.333333333333336
400.0   150.0   33.333333333333336
350.0   150.0   16.666666666666668
350.0   120.0   33.333333333333336
400.0   150.0   33.333333333333336
400.0   120.0   33.333333333333336
400.0   120.0   16.666666666666668
350.0   120.0   33.333333333333336
400.0   150.0   33.333333333333336
400.0   120.0   16.666666666666668
350.0   150.0   16.666666666666668
350.0   120.0   33.333333333333336
400.0   120.0   33.333333333333336
350.0   150.0   33.333333333333336
350.0   120.0   50.0
400.0   120.0   33.333333333333336
400.0   150.0   33.333333333333336
350.0   150.0   33.333333333333336
400.0   150.0   50.0
350.0   120.0   50.0
350.0   150.0   50.0
400.0   150.0   50.0
350.0   150.0   33.333333333333336
350.0   120.0   50.0
400.0   150.0   50.0
400.0   120.0   50.0
400.0   120.0   33.333333333333336
350.0   120.0   50.0
400.0   150.0   50.0
400.0   120.0   33.333333333333336
350.0   150.0   33.333333333333336
400.0   0.0   0.0
450.0   0.0   0.0
400.0   30.0   0.0
400.0   0.0   16.666666666666668
450.0   0.0   0.0
450.0   30.0   0.0
400.0   30.0   0.0
450.0   30.0   16.666666666666668
400.0   0.0   16.666666666666668
400.0   30.0   16.666666666666668
450.0   30.0   16.666666666666668
400.0   30.0   0.0
400.0   0.0   16.666666666666668
450.0   30.0   16.666666666666668
450.0   0.0   16.666666666666668
450.0   0.0   0.0
400.0   0.0   16.666666666666668
450.0   30.0   16.666666666666668
450.0   0.0   0.0
400.0   30.0   0.0
400.0   0.0   16.666666666666668
450.0   0.0   16.666666666666668
400.0   30.0   16.666666666666668
400.0   0.0   33.333333333333336
450.0   0.0   16.666666666666668
450.0   30.0   16.666666666666668
400.0   30.0   16.666666666666668
450.0   30.0   33.333333333333336
400.0   0.0   33.333333333333336
400.0   30.0   33.333333333333336
450.0   30.0   33.333333333333336
400.0   30.0   16.666666666666668
400.0   0.0   33.333333333333336
450.0   30.0   33.333333333333336
450.0   0.0   33.333333333333336
450.0   0.0   16.666666666666668
400.0   0.0   33.333333333333336
450.0   30.0   33.333333333333336
450.0   0.0   16.666666666666668
400.0   30.0   16.666666666666668
400.0   0.0   33.333333333333336
450.0   0.0   33.333333333333336
400.0   30.0   33.333333333333336
400.0   0.0   50.0
450.0   0.0   33.333333333333336
450.0   30.0   33.333333333333336
400.0   30.0   33.333333333333336
450.0   30.0   50.0
400.0   0.0   50.0
400.0   30.0   50.0
450.0   30.0   50.0
400.0   30.0   33.333333333333336
400.0   0.0   50.0
450.0   30.0   50.0
450.0   0.0   50.0
450.0   0.0   33.333333333333336
400.0   0.0   50.0
450.0   30.0   50.0
450.0   0.0   33.333333333333336
400.0   30.0   33.333333333333336
400.0   30.0   0.0
450.0   30.0   0.0
400.0   60.0   0.0
400.0   30.0   16.666666666666668
450.0   30.0   0.0
450.0   60.0   0.0
400.0   60.0   0.0
450.0   60.0   16.666666666666668
400.0   30.0   16.666666666666668
400.0   60.0   16.666666666666668
450.0   60.0   16.666666666666668
400.0   60.0   0.0
400.0   30.0   16.666666666666668
450.0   60.0   16.666666666666668
450.0   30.0   16.666666666666668
450.0   30.0   0.0
400.0   30.0   16.666666666666668
450.0   60.0   16.666666666666668
450.0   30.0   0.0
400.0   60.0   0.0
400.0   30.0   16.666666666666668
450.0   30.0   16.666666666666668
400.0   60.0   16.666666666666668
400.0   30.0   33.333333333333336
450.0   30.0   16.666666666666668
450.0   60.0   16.666666666666668
400.0   60.0   16.666666666666668
450.0   60.0   33.333333333333336
400.0   30.0   33.333333333333336
400.0   60.0   33.333333333333336
450.0   60.0   33.333333333333336
400.0   60.0   16.666666666666668
400.0   30.0   33.333333333333336
450.0   60.0   33.333333333333336
450.0   30.0   33.333333333333336
450.0   30.0   16.666666666666668
400.0   30.0   33.333333333333336
450.0   60.0   33.333333333333336
450.0   30.0   16.666666666666668
400.0   60.0   16.666666666666668
400.0   30.0   33.333333333333336
450.0   30.0   33.333333333333336
400.0   60.0   33.333333333333336
400.0   30.0   50.0
450.0   30.0   33.333333333333336
450.0   60.0   33.333333333333336
400.0   60.0   33.333333333333336
450.0   60.0   50.0
400.0   30.0   50.0
400.0   60.0   50.0
450.0   60.0   50.0
400.0   60.0   33.333333333333336
400.0   30.0   50.0
450.0   60.0   50.0
450.0   30.0   50.0
450.0   30.0   33.333333333333336
400.0   30.0   50.0
450.0   60.0   50.0
450.0   30.0   33.333333333333336
400.0   60.0   33.333333333333336
400.0   60.0   0.0
450.0   60.0   0.0
400.0   90.0   0.0
400.0   60.0   16.666666666666668
450.0   60.0   0.0
450.0   90.0   0.0
400.0   90.0   0.0
450.0   90.0   16.666666666666668
400.0   60.0   16.666666666666668
400.0   90.0   16.666666666666668
450.0   90.0   16.666666666666668
400.0   90.0   0.0
400.0   60.0   16.666666666666668
450.0   90.0   16.666666666666668
450.0   60.0   16.666666666666668
450.0   60.0   0.0
400.0   60.0   16.666666666666668
450.0   90.0   16.666666666666668
450.0   60.0   0.0
400.0   90.0   0.0
400.0   60.0   16.666666666666668
450.0   60.0   16.666666666666668
400.0   90.0   16.666666666666668
400.0   60.0   33.333333333333336
450.0   60.0   16.666666666666668
450.0   90.0   16.666666666666668
400.0   90.0   16.666666666666668
450.0   90.0   33.333333333333336
400.0   60.0   33.333333333333336
400.0   90.0   33.333333333333336
450.0   90.0   33.333333333333336
400.0   90.0   16.666666666666668
400.0   60.0   33.333333333333336
450.0   90.0   33.333333333333336
450.0   60.0   33.333333333333336
450.0   60.0   16.666666666666668
400.0   60.0   33.333333333333336
450.0   90.0   33.333333333333336
450.0   60.0   16.666666666666668
400.0   90.0   16.666666666666668
400.0   60.0   33.333333333333336
450.0   60.0   33.333333333333336
400.0   90.0   33.333333333333336
400.0   60.0   50.0
450.0   60.0   33.333333333333336
450.0   90.0   33.333333333333336
400.0   90.0   33.333333333333336
450.0   90.0   50.0
400.0   60.0   50.0
400.0   90.0   50.0
450.0   90.0   50.0
400.0   90.0   33.333333333333336
400.0   60.0   50.0
450.0   90.0   50.0
450.0   60.0   50.0
450.0   60.0   33.333333333333336
400.0   60.0   50.0
450.0   90.0   50.0
450.0   60.0   33.333333333333336
400.0   90.0   33.333333333333336
400.0   90.0   0.0
450.0   90.0   0.0
400.0   120.0   0.0
400.0   90.0   16.666666666666668
450.0   90.0   0.0
450.0   120.0   0.0
400.0   120.0   0.0
450.0   120.0   16.666666666666668
400.0   90.0   16.666666666666668
400.0   120.0   16.666666666666668
450.0   120.0   16.666666666666668
400.0   120.0   0.0
400.0   90.0   16.666666666666668
450.0   120.0   16.666666666666668
450.0   90.0   16.666666666666668
450.0   90.0   0.0
400.0   90.0   16.666666666666668
450.0   120.0   16.666666666666668
450.0   90.0   0.0
400.0   120.0   0.0
400.0   90.0   16.666666666666668
450.0   90.0   16.666666666666668
400.0   120.0   16.666666666666668
400.0   90.0   33.333333333333336
450.0   90.0   16.666666666666668
450.0   120.0   16.666666666666668
400.0   120.0   16.666666666666668
450.0   120.0   33.333333333333336
400.0   90.0   33.333333333333336
400.0   120.0   33.333333333333336
450.0   120.0   33.333333333333336
400.0   120.0   16.666666666666668
400.0   90.0   33.333333333333336
450.0   120.0   33.333333333333336
450.0   90.0   33.333333333333336
450.0   90.0   16.666666666666668
400.0   90.0   33.333333333333336
450.0   120.0   33.333333333333336
450.0   90.0   16.666666666666668
400.0   120.0   16.666666666666668
400.0   90.0   33.333333333333336
450.0   90.0   33.333333333333336
400.0   120.0   33.333333333333336
400.0   90.0   50.0
450.0   90.0   33.333333333333336
450.0   120.0   33.333333333333336
400.0   120.0   33.333333333333336
450.0   120.0   50.0
400.0   90.0   50.0
400.0   120.0   50.0
450.0   120.0   50.0
400.0   120.0   33.333333333333336
400.0   90.0   50.0
450.0   120.0   50.0
450.0   90.0   50.0
450.0   90.0   33.333333333333336
400.0   90.0   50.0
450.0   120.0   50.0
450.0   90.0   33.333333333333336
400.0   120.0   33.333333333333336
400.0   120.0   0.0
450.0   120.0   0.0
400.0   150.0   0.0
400.0   120.0   16.666666666666668
450.0   120.0   0.0
450.0   150.0   0.0
400.0   150.0   0.0
450.0   150.0   16.666666666666668
400.0   120.0   16.666666666666668
400.0   150.0   16.666666666666668
450.0   150.0   16.666666666666668
400.0   150.0   0.0
400.0   120.0   16.666666666666668
450.0   150.0   16.666666666666668
450.0   120.0   16.666666666666668
450.0   120.0   0.0
400.0   120.0   16.666666666666668
450.0   150.0   16.666666666666668
450.0   120.0   0.0
400.0   150.0   0.0
400.0   120.0   16.666666666666668
450.0   120.0   16.666666666666668
400.0   150.0   16.666666666666668
400.0   120.0   33.333333333333336
450.0   120.0   16.666666666666668
450.0   150.0   16.666666666666668
400.0   150.0   16.666666666666668
450.0   150.0   33.333333333333336
400.0   120.0   33.333333333333336
400.0   150.0   33.333333333333336
450.0   150.0   33.333333333333336
400.0   150.0   16.666666666666668
400.0   120.0   33.333333333333336
450.0   150.0   33.333333333333336
450.0   120.0   33.333333333333336
450.0   120.0   16.666666666666668
400.0   120.0   33.333333333333336
450.0   150.0   33.333333333333336
450.0   120.0   16.666666666666668
400.0   150.0   16.666666666666668
400.0   120.0   33.333333333333336
450.0   120.0   33.333333333333336
400.0   150.0   33.333333333333336
400.0   120.0   50.0
450.0   120.0   33.333333333333336
450.0   150.0   33.333333333333336
400.0   150.0   33.333333333333336
450.0   150.0   50.0
400.0   120.0   50.0
400.0   150.0   50.0
450.0   150.0   50.0
400.0   150.0   33.333333333333336
400.0   120.0   50.0
450.0   150.0   50.0
450.0   120.0   50.0
450.0   120.0   33.333333333333336
400.0   120.0   50.0
450.0   150.0   50.0
450.0   120.0   33.333333333333336
400.0   150.0   33.333333333333336
450.0   0.0   0.0
500.0   0.0   0.0
450.0   30.0   0.0
450.0   0.0   16.666666666666668
500.0   0.0   0.0
500.0   30.0   0.0
450.0   30.0   0.0
500.0   30.0   16.666666666666668
450.0   0.0   16.666666666666668
450.0   30.0   16.666666666666668
500.0   30.0   16.666666666666668
450.0   30.0   0.0
450.0   0.0   16.666666666666668
500.0   30.0   16.666666666666668
500.0   0.0   16.666666666666668
500.0   0.0   0.0
450.0   0.0   16.666666666666668
500.0   30.0   16.666666666666668
500.0   0.0   0.0
450.0   30.0   0.0
450.0   0.0   16.666666666666668
500.0   0.0   16.666666666666668
450.0   30.0   16.666666666666668
450.0   0.0   33.333333333333336
500.0   0.0   16.666666666666668
500.0   30.0   16.666666666666668
450.0   30.0   16.666666666666668
500.0   30.0   33.333333333333336
450.0   0.0   33.333333333333336
450.0   30.0   33.333333333333336
500.0   30.0   33.333333333333336
450.0   30.0   16.666666666666668
450.0   0.0   33.333333333333336
500.0   30.0   33.333333333333336
500.0   0.0   33.333333333333336
500.0   0.0   16.666666666666668
450.0   0.0   33.333333333333336
500.0   30.0   33.333333333333336
500.0   0.0   16.666666666666668
450.0   30.0   16.666666666666668
450.0   0.0   33.333333333333336
500.0   0.0   33.333333333333336
450.0   30.0   33.333333333333336
450.0   0.0   50.0
500.0   0.0   33.333333333333336
500.0   30.0   33.333333333333336
450.0   30.0   33.333333333333336
500.0   30.0   50.0
450.0   0.0   50.0
450.0   30.0   50.0
500.0   30.0   50.0
450.0   30.0   33.333333333333336
450.0   0.0   50.0
500.0   30.0   50.0
500.0   0.0   50.0
500.0   0.0   33.333333333333336
450.0   0.0   50.0
500.0   30.0   50.0
500.0   0.0   33.333333333333336
450.0   30.0   33.333333333333336
450.0   30.0   0.0
500.0   30.0   0.0
450.0   60.0   0.0
450.0   30.0   16.666666666666668
500.0   30.0   0.0
500.0   60.0   0.0
450.0   60.0   0.0
500.0   60.0   16.666666666666668
450.0   30.0   16.666666666666668
450.0   60.0   16.666666666666668
500.0   60.0   16.666666666666668
450.0   60.0   0.0
450.0   30.0   16.666666666666668
500.0   60.0   16.666666666666668
500.0   30.0   16.666666666666668
500.0   30.0   0.0
450.0   30.0   16.666666666666668
500.0   60.0   16.666666666666668
500.0   30.0   0.0
450.0   60.0   0.0
450.0   30.0   16.666666666666668
500.0   30.0   16.666666666666668
450.0   60.0   16.666666666666668
450.0   30.0   33.333333333333336
500.0   30.0   16.666666666666668
500.0   60.0   16.666666666666668
450.0   60.0   16.666666666666668
500.0   60.0   33.333333333333336
450.0   30.0   33.333333333333336
450.0   60.0   33.333333333333336
500.0   60.0   33.333333333333336
450.0   60.0   16.666666666666668
450.0   30.0   33.333333333333336
500.0   60.0   33.333333333333336
500.0   30.0   33.333333333333336
500.0   30.0   16.666666666666668
450.0   30.0   33.333333333333336
500.0   60.0   33.333333333333336
500.0   30.0   16.666666666666668
450.0   60.0   16.666666666666668
450.0   30.0   33.333333333333336
500.0   30.0   33.333333333333336
450.0   60.0   33.333333333333336
450.0   30.0   50.0
500.0   30.0   33.333333333333336
500.0   60.0   33.333333333333336
450.0   60.0   33.333333333333336
500.0   60.0   50.0
450.0   30.0   50.0
450.0   60.0   50.0
500.0   60.0   50.0
450.0   60.0   33.333333333333336
450.0   30.0   50.0
500.0   60.0   50.0
500.0   30.0   50.0
500.0   30.0   33.333333333333336
450.0   30.0   50.0
500.0   60.0   50.0
500.0   30.0   33.333333333333336
450.0   60.0   33.333333333333336
450.0   60.0   0.0
500.0   60.0   0.0
450.0   90.0   0.0
450.0   60.0   16.666666666666668
500.0   60.0   0.0
500.0   90.0   0.0
450.0   90.0   0.0
500.0   90.0   16.666666666666668
450.0   60.0   16.666666666666668
450.0   90.0   16.666666666666668
500.0   90.0   16.666666666666668
450.0   90.0   0.0
450.0   60.0   16.666666666666668
500.0   90.0   16.666666666666668
500.0   60.0   16.666666666666668
500.0   60.0   0.0
450.0   60.0   16.666666666666668
500.0   90.0   16.666666666666668
500.0   60.0   0.0
450.0   90.0   0.0
450.0   60.0   16.666666666666668
500.0   60.0   16.666666666666668
450.0   90.0   16.666666666666668
450.0   60.0   33.333333333333336
500.0   60.0   16.666666666666668
500.0   90.0   16.666666666666668
450.0   90.0   16.666666666666668
500.0   90.0   33.333333333333336
450.0   60.0   33.333333333333336
450.0   90.0   33.333333333333336
500.0   90.0   33.333333333333336
450.0   90.0   16.666666666666668
450.0   60.0   33.333333333333336
500.0   90.0   33.333333333333336
500.0   60.0   33.333333333333336
500.0   60.0   16.666666666666668
450.0   60.0   33.333333333333336
500.0   90.0   33.333333333333336
500.0   60.0   16.666666666666668
450.0   90.0   16.666666666666668
450.0   60.0   33.333333333333336
500.0   60.0   33.333333333333336
450.0   90.0   33.333333333333336
450.0   60.0   50.0
500.0   60.0   33.333333333333336
500.0   90.0   33.333333333333336
450.0   90.0   33.333333333333336
500.0   90.0   50.0
450.0   60.0   50.0
450.0   90.0   50.0
500.0   90.0   50.0
450.0   90.0   33.333333333333336
450.0   60.0   50.0
500.0   90.0   50.0
500.0   60.0   50.0
500.0   60.0   33.333333333333336
450.0   60.0   50.0
500.0   90.0   50.0
500.0   60.0   33.333333333333336
450.0   90.0   33.333333333333336
450.0   90.0   0.0
500.0   90.0   0.0
450.0   120.0   0.0
450.0   90.0   16.666666666666668
500.0   90.0   0.0
500.0   120.0   0.0
450.0   120.0   0.0
500.0   120.0   16.666666666666668
450.0   90.0   16.666666666666668
450.0   120.0   16.666666666666668
500.0   120.0   16.666666666666668
450.0   120.0   0.0
450.0   90.0   16.666666666666668
500.0   120.0   16.666666666666668
500.0   90.0   16.666666666666668
500.0   90.0   0.0
450.0   90.0   16.666666666666668
500.0   120.0   16.666666666666668
500.0   90.0   0.0
450.0   120.0   0.0
450.0   90.0   16.666666666666668
500.0   90.0   16.666666666666668
450.0   120.0   16.666666666666668
450.0   90.0   33.333333333333336
500.0   90.0   16.666666666666668
500.0   120.0   16.666666666666668
450.0   120.0   16.666666666666668
500.0   120.0   33.333333333333336
450.0   90.0   33.333333333333336
450.0   120.0   33.333333333333336
500.0   120.0   33.333333333333336
450.0   120.0   16.666666666666668
450.0   90.0   33.333333333333336
500.0   120.0   33.333333333333336
500.0   90.0   33.333333333333336
500.0   90.0   16.666666666666668
450.0   90.0   33.333333333333336
500.0   120.0   33.333333333333336
500.0   90.0   16.666666666666668
450.0   120.0   16.666666666666668
450.0   90.0   33.333333333333336
500.0   90.0   33.333333333333336
450.0   120.0   33.333333333333336
450.0   90.0   50.0
500.0   90.0   33.333333333333336
500.0   120.0   33.333333333333336
450.0   120.0   33.333333333333336
500.0   120.0   50.0
450.0   90.0   50.0
450.0   120.0   50.0
500.0   120.0   50.0
450.0   120.0   33.333333333333336
450.0   90.0   50.0
500.0   120.0   50.0
500.0   90.0   50.0
500.0   90.0   33.333333333333336
450.0   90.0   50.0
500.0   120.0   50.0
500.0   90.0   33.333333333333336
450.0   120.0   33.333333333333336
450.0   120.0   0.0
500.0   120.0   0.0
450.0   150.0   0.0
450.0   120.0   16.666666666666668
500.0   120.0   0.0
500.0   150.0   0.0
450.0   150.0   0.0
500.0   150.0   16.666666666666668
450.0   120.0   16.666666666666668
450.0   150.0   16.666666666666668
500.0   150.0   16.666666666666668
450.0   150.0   0.0
450.0   120.0   16.666666666666668
500.0   150.0   16.666666666666668
500.0   120.0   16.666666666666668
500.0   120.0   0.0
450.0   120.0   16.666666666666668
500.0   150.0   16.666666666666668
500.0   120.0   0.0
450.0   150.0   0.0
450.0   120.0   16.666666666666668
500.0   120.0   16.666666666666668
450.0   150.0   16.666666666666668
450.0   120.0   33.333333333333336
500.0   120.0   16.666666666666668
500.0   150.0   16.666666666666668
450.0   150.0   16.666666666666668
500.0   150.0   33.333333333333336
450.0   120.0   33.333333333333336
450.0   150.0   33.333333333333336
500.0   150.0   33.333333333333336
450.0   150.0   16.666666666666668
450.0   120.0   33.333333333333336
500.0   150.0   33.333333333333336
500.0   120.0   33.333333333333336
500.0   120.0   16.666666666666668
450.0   120.0   33.333333333333336
500.0   150.0   33.333333333333336
500.0   120.0   16.666666666666668
450.0   150.0   16.666666666666668
450.0   120.0   33.333333333333336
500.0   120.0   33.333333333333336
450.0   150.0   33.333333333333336
450.0   120.0   50.0
500.0   120.0   33.333333333333336
500.0   150.0   33.333333333333336
450.0   150.0   33.333333333333336
500.0   150.0   50.0
450.0   120.0   50.0
450.0   150.0   50.0
500.0   150.0   50.0
450.0   150.0   33.333333333333336
450.0   120.0   50.0
500.0   150.0   50.0
500.0   120.0   50.0
500.0   120.0   33.333333333333336
450.0   120.0   50.0
500.0   150.0   50.0
500.0   120.0   33.333333333333336
450.0   150.0   33.333333333333336
             </DataArray>   
          </Points>  
          <Cells>  
             <DataArray type="Int32" Name="connectivity" format="ascii">   
0   1   2   3
4   5   6   7
8   9   10   11
12   13   14   15
16   17   18   19
20   21   22   23
24   25   26   27
28   29   30   31
32   33   34   35
36   37   38   39
40   41   42   43
44   45   46   47
48   49   50   51
52   53   54   55
56   57   58   59
60   61   62   63
64   65   66   67
68   69   70   71
72   73   74   75
76   77   78   79
80   81   82   83
84   85   86   87
88   89   90   91
92   93   94   95
96   97   98   99
100   101   102   103
104   105   106   107
108   109   110   111
112   113   114   115
116   117   118   119
120   121   122   123
124   125   126   127
128   129   130   131
132   133   134   135
136   137   138   139
140   141   142   143
144   145   146   147
148   149   150   151
152   153   154   155
156   157   158   159
160   161   162   163
164   165   166   167
168   169   170   171
172   173   174   175
176   177   178   179
180   181   182   183
184   185   186   187
188   189   190   191
192   193   194   195
196   197   198   199
200   201   202   203
204   205   206   207
208   209   210   211
212   213   214   215
216   217   218   219
220   221   222   223
224   225   226   227
228   229   230   231
232   233   234   235
236   237   238   239
240   241   242   243
244   245   246   247
248   249   250   251
252   253   254   255
256   257   258   259
260   261   262   263
264   265   266   267
268   269   270   271
272   273   274   275
276   277   278   279
280   281   282   283
284   285   286   287
288   289   290   291
292   293   294   295
296   297   298   299
300   301   302   303
304   305   306   307
308   309   310   311
312   313   314   315
316   317   318   319
320   321   322   323
324   325   326   327
328   329   330   331
332   333   334   335
336   337   338   339
340   341   342   343
344   345   346   347
348   349   350   351
352   353   354   355
356   357   358   359
360   361   362   363
364   365   366   367
368   369   370   371
372   373   374   375
376   377   378   379
380   381   382   383
384   385   386   387
388   389   390   391
392   393   394   395
396   397   398   399
400   401   402   403
404   405   406   407
408   409   410   411
412   413   414   415
416   417   418   419
420   421   422   423
424   425   426   427
428   429   430   431
432   433   434   435
436   437   438   439
440   441   442   443
444   445   446   447
448   449   450   451
452   453   454   455
456   457   458   459
460   461   462   463
464   465   466   467
468   469   470   471
472   473   474   475
476   477   478   479
480   481   482   483
484   485   486   487
488   489   490   491
492   493   494   495
496   497   498   499
500   501   502   503
504   505   506   507
508   509   510   511
512   513   514   515
516   517   518   519
520   521   522   523
524   525   526   527
528   529   530   531
532   533   534   535
536   537   538   539
540   541   542   543
544   545   546   547
548   549   550   551
552   553   554   555
556   557   558   559
560   561   562   563
564   565   566   567
568   569   570   571
572   573   574   575
576   577   578   579
580   581   582   583
584   585   586   587
588   589   590   591
592   593   594   595
596   597   598   599
600   601   602   603
604   605   606   607
608   609   610   611
612   613   614   615
616   617   618   619
620   621   622   623
624   625   626   627
628   629   630   631
632   633   634   635
636   637   638   639
640   641   642   643
644   645   646   647
648   649   650   651
652   653   654   655
656   657   658   659
660   661   662   663
664   665   666   667
668   669   670   671
672   673   674   675
676   677   678   679
680   681   682   683
684   685   686   687
688   689   690   691
692   693   694   695
696   697   698   699
700   701   702   703
704   705   706   707
708   709   710   711
712   713   714   715
716   717   718   719
720   721   722   723
724   725   726   727
728   729   730   731
732   733   734   735
736   737   738   739
740   741   742   743
744   745   746   747
748   749   750   751
752   753   754   755
756   757   758   759
760   761   762   763
764   765   766   767
768   769   770   771
772   773   774   775
776   777   778   779
780   781   782   783
784   785   786   787
788   789   790   791
792   793   794   795
796   797   798   799
800   801   802   803
804   805   806   807
808   809   810   811
812   813   814   815
816   817   818   819
820   821   822   823
824   825   826   827
828   829   830   831
832   833   834   835
836   837   838   839
840   841   842   843
844   845   846   847
848   849   850   851
852   853   854   855
856   857   858   859
860   861   862   863
864   865   866   867
868   869   870   871
872   873   874   875
876   877   878   879
880   881   882   883
884   885   886   887
888   889   890   891
892   893   894   895
896   897   898   899
900   901   902   903
904   905   906   907
908   909   910   911
912   913   914   915
916   917   918   919
920   921   922   923
924   925   926   927
928   929   930   931
932   933   934   935
936   937   938   939
940   941   942   943
944   945   946   947
948   949   950   951
952   953   954   955
956   957   958   959
960   961   962   963
964   965   966   967
968   969   970   971
972   973   974   975
976   977   978   979
980   981   982   983
984   985   986   987
988   989   990   991
992   993   994   995
996   997   998   999
1000   1001   1002   1003
1004   1005   1006   1007
1008   1009   1010   1011
1012   1013   1014   1015
1016   1017   1018   1019
1020   1021   1022   1023
1024   1025   1026   1027
1028   1029   1030   1031
1032   1033   1034   1035
1036   1037   1038   1039
1040   1041   1042   1043
1044   1045   1046   1047
1048   1049   1050   1051
1052   1053   1054   1055
1056   1057   1058   1059
1060   1061   1062   1063
1064   1065   1066   1067
1068   1069   1070   1071
1072   1073   1074   1075
1076   1077   1078   1079
1080   1081   1082   1083
1084   1085   1086   1087
1088   1089   1090   1091
1092   1093   1094   1095
1096   1097   1098   1099
1100   1101   1102   1103
1104   1105   1106   1107
1108   1109   1110   1111
1112   1113   1114   1115
1116   1117   1118   1119
1120   1121   1122   1123
1124   1125   1126   1127
1128   1129   1130   1131
1132   1133   1134   1135
1136   1137   1138   1139
1140   1141   1142   1143
1144   1145   1146   1147
1148   1149   1150   1151
1152   1153   1154   1155
1156   1157   1158   1159
1160   1161   1162   1163
1164   1165   1166   1167
1168   1169   1170   1171
1172   1173   1174   1175
1176   1177   1178   1179
1180   1181   1182   1183
1184   1185   1186   1187
1188   1189   1190   1191
1192   1193   1194   1195
1196   1197   1198   1199
1200   1201   1202   1203
1204   1205   1206   1207
1208   1209   1210   1211
1212   1213   1214   1215
1216   1217   1218   1219
1220   1221   1222   1223
1224   1225   1226   1227
1228   1229   1230   1231
1232   1233   1234   1235
1236   1237   1238   1239
1240   1241   1242   1243
1244   1245   1246   1247
1248   1249   1250   1251
1252   1253   1254   1255
1256   1257   1258   1259
1260   1261   1262   1263
1264   1265   1266   1267
1268   1269   1270   1271
1272   1273   1274   1275
1276   1277   1278   1279
1280   1281   1282   1283
1284   1285   1286   1287
1288   1289   1290   1291
1292   1293   1294   1295
1296   1297   1298   1299
1300   1301   1302   1303
1304   1305   1306   1307
1308   1309   1310   1311
1312   1313   1314   1315
1316   1317   1318   1319
1320   1321   1322   1323
1324   1325   1326   1327
1328   1329   1330   1331
1332   1333   1334   1335
1336   1337   1338   1339
1340   1341   1342   1343
1344   1345   1346   1347
1348   1349   1350   1351
1352   1353   1354   1355
1356   1357   1358   1359
1360   1361   1362   1363
1364   1365   1366   1367
1368   1369   1370   1371
1372   1373   1374   1375
1376   1377   1378   1379
1380   1381   1382   1383
1384   1385   1386   1387
1388   1389   1390   1391
1392   1393   1394   1395
1396   1397   1398   1399
1400   1401   1402   1403
1404   1405   1406   1407
1408   1409   1410   1411
1412   1413   1414   1415
1416   1417   1418   1419
1420   1421   1422   1423
1424   1425   1426   1427
1428   1429   1430   1431
1432   1433   1434   1435
1436   1437   1438   1439
1440   1441   1442   1443
1444   1445   1446   1447
1448   1449   1450   1451
1452   1453   1454   1455
1456   1457   1458   1459
1460   1461   1462   1463
1464   1465   1466   1467
1468   1469   1470   1471
1472   1473   1474   1475
1476   1477   1478   1479
1480   1481   1482   1483
1484   1485   1486   1487
1488   1489   1490   1491
1492   1493   1494   1495
1496   1497   1498   1499
1500   1501   1502   1503
1504   1505   1506   1507
1508   1509   1510   1511
1512   1513   1514   1515
1516   1517   1518   1519
1520   1521   1522   1523
1524   1525   1526   1527
1528   1529   1530   1531
1532   1533   1534   1535
1536   1537   1538   1539
1540   1541   1542   1543
1544   1545   1546   1547
1548   1549   1550   1551
1552   1553   1554   1555
1556   1557   1558   1559
1560   1561   1562   1563
1564   1565   1566   1567
1568   1569   1570   1571
1572   1573   1574   1575
1576   1577   1578   1579
1580   1581   1582   1583
1584   1585   1586   1587
1588   1589   1590   1591
1592   1593   1594   1595
1596   1597   1598   1599
1600   1601   1602   1603
1604   1605   1606   1607
1608   1609   1610   1611
1612   1613   1614   1615
1616   1617   1618   1619
1620   1621   1622   1623
1624   1625   1626   1627
1628   1629   1630   1631
1632   1633   1634   1635
1636   1637   1638   1639
1640   1641   1642   1643
1644   1645   1646   1647
1648   1649   1650   1651
1652   1653   1654   1655
1656   1657   1658   1659
1660   1661   1662   1663
1664   1665   1666   1667
1668   1669   1670   1671
1672   1673   1674   1675
1676   1677   1678   1679
1680   1681   1682   1683
1684   1685   1686   1687
1688   1689   1690   1691
1692   1693   1694   1695
1696   1697   1698   1699
1700   1701   1702   1703
1704   1705   1706   1707
1708   1709   1710   1711
1712   1713   1714   1715
1716   1717   1718   1719
1720   1721   1722   1723
1724   1725   1726   1727
1728   1729   1730   1731
1732   1733   1734   1735
1736   1737   1738   1739
1740   1741   1742   1743
1744   1745   1746   1747
1748   1749   1750   1751
1752   1753   1754   1755
1756   1757   1758   1759
1760   1761   1762   1763
1764   1765   1766   1767
1768   1769   1770   1771
1772   1773   1774   1775
1776   1777   1778   1779
1780   1781   1782   1783
1784   1785   1786   1787
1788   1789   1790   1791
1792   1793   1794   1795
1796   1797   1798   1799
1800   1801   1802   1803
1804   1805   1806   1807
1808   1809   1810   1811
1812   1813   1814   1815
1816   1817   1818   1819
1820   1821   1822   1823
1824   1825   1826   1827
1828   1829   1830   1831
1832   1833   1834   1835
1836   1837   1838   1839
1840   1841   1842   1843
1844   1845   1846   1847
1848   1849   1850   1851
1852   1853   1854   1855
1856   1857   1858   1859
1860   1861   1862   1863
1864   1865   1866   1867
1868   1869   1870   1871
1872   1873   1874   1875
1876   1877   1878   1879
1880   1881   1882   1883
1884   1885   1886   1887
1888   1889   1890   1891
1892   1893   1894   1895
1896   1897   1898   1899
1900   1901   1902   1903
1904   1905   1906   1907
1908   1909   1910   1911
1912   1913   1914   1915
1916   1917   1918   1919
1920   1921   1922   1923
1924   1925   1926   1927
1928   1929   1930   1931
1932   1933   1934   1935
1936   1937   1938   1939
1940   1941   1942   1943
1944   1945   1946   1947
1948   1949   1950   1951
1952   1953   1954   1955
1956   1957   1958   1959
1960   1961   1962   1963
1964   1965   1966   1967
1968   1969   1970   1971
1972   1973   1974   1975
1976   1977   1978   1979
1980   1981   1982   1983
1984   1985   1986   1987
1988   1989   1990   1991
1992   1993   1994   1995
1996   1997   1998   1999
2000   2001   2002   2003
2004   2005   2006   2007
2008   2009   2010   2011
2012   2013   2014   2015
2016   2017   2018   2019
2020   2021   2022   2023
2024   2025   2026   2027
2028   2029   2030   2031
2032   2033   2034   2035
2036   2037   2038   2039
2040   2041   2042   2043
2044   2045   2046   2047
2048   2049   2050   2051
2052   2053   2054   2055
2056   2057   2058   2059
2060   2061   2062   2063
2064   2065   2066   2067
2068   2069   2070   2071
2072   2073   2074   2075
2076   2077   2078   2079
2080   2081   2082   2083
2084   2085   2086   2087
2088   2089   2090   2091
2092   2093   2094   2095
2096   2097   2098   2099
2100   2101   2102   2103
2104   2105   2106   2107
2108   2109   2110   2111
2112   2113   2114   2115
2116   2117   2118   2119
2120   2121   2122   2123
2124   2125   2126   2127
2128   2129   2130   2131
2132   2133   2134   2135
2136   2137   2138   2139
2140   2141   2142   2143
2144   2145   2146   2147
2148   2149   2150   2151
2152   2153   2154   2155
2156   2157   2158   2159
2160   2161   2162   2163
2164   2165   2166   2167
2168   2169   2170   2171
2172   2173   2174   2175
2176   2177   2178   2179
2180   2181   2182   2183
2184   2185   2186   2187
2188   2189   2190   2191
2192   2193   2194   2195
2196   2197   2198   2199
2200   2201   2202   2203
2204   2205   2206   2207
2208   2209   2210   2211
2212   2213   2214   2215
2216   2217   2218   2219
2220   2221   2222   2223
2224   2225   2226   2227
2228   2229   2230   2231
2232   2233   2234   2235
2236   2237   2238   2239
2240   2241   2242   2243
2244   2245   2246   2247
2248   2249   2250   2251
2252   2253   2254   2255
2256   2257   2258   2259
2260   2261   2262   2263
2264   2265   2266   2267
2268   2269   2270   2271
2272   2273   2274   2275
2276   2277   2278   2279
2280   2281   2282   2283
2284   2285   2286   2287
2288   2289   2290   2291
2292   2293   2294   2295
2296   2297   2298   2299
2300   2301   2302   2303
2304   2305   2306   2307
2308   2309   2310   2311
2312   2313   2314   2315
2316   2317   2318   2319
2320   2321   2322   2323
2324   2325   2326   2327
2328   2329   2330   2331
2332   2333   2334   2335
2336   2337   2338   2339
2340   2341   2342   2343
2344   2345   2346   2347
2348   2349   2350   2351
2352   2353   2354   2355
2356   2357   2358   2359
2360   2361   2362   2363
2364   2365   2366   2367
2368   2369   2370   2371
2372   2373   2374   2375
2376   2377   2378   2379
2380   2381   2382   2383
2384   2385   2386   2387
2388   2389   2390   2391
2392   2393   2394   2395
2396   2397   2398   2399
2400   2401   2402   2403
2404   2405   2406   2407
2408   2409   2410   2411
2412   2413   2414   2415
2416   2417   2418   2419
2420   2421   2422   2423
2424   2425   2426   2427
2428   2429   2430   2431
2432   2433   2434   2435
2436   2437   2438   2439
2440   2441   2442   2443
2444   2445   2446   2447
2448   2449   2450   2451
2452   2453   2454   2455
2456   2457   2458   2459
2460   2461   2462   2463
2464   2465   2466   2467
2468   2469   2470   2471
2472   2473   2474   2475
2476   2477   2478   2479
2480   2481   2482   2483
2484   2485   2486   2487
2488   2489   2490   2491
2492   2493   2494   2495
2496   2497   2498   2499
2500   2501   2502   2503
2504   2505   2506   2507
2508   2509   2510   2511
2512   2513   2514   2515
2516   2517   2518   2519
2520   2521   2522   2523
2524   2525   2526   2527
2528   2529   2530   2531
2532   2533   2534   2535
2536   2537   2538   2539
2540   2541   2542   2543
2544   2545   2546   2547
2548   2549   2550   2551
2552   2553   2554   2555
2556   2557   2558   2559
2560   2561   2562   2563
2564   2565   2566   2567
2568   2569   2570   2571
2572   2573   2574   2575
2576   2577   2578   2579
2580   2581   2582   2583
2584   2585   2586   2587
2588   2589   2590   2591
2592   2593   2594   2595
2596   2597   2598   2599
2600   2601   2602   2603
2604   2605   2606   2607
2608   2609   2610   2611
2612   2613   2614   2615
2616   2617   2618   2619
2620   2621   2622   2623
2624   2625   2626   2627
2628   2629   2630   2631
2632   2633   2634   2635
2636   2637   2638   2639
2640   2641   2642   2643
2644   2645   2646   2647
2648   2649   2650   2651
2652   2653   2654   2655
2656   2657   2658   2659
2660   2661   2662   2663
2664   2665   2666   2667
2668   2669   2670   2671
2672   2673   2674   2675
2676   2677   2678   2679
2680   2681   2682   2683
2684   2685   2686   2687
2688   2689   2690   2691
2692   2693   2694   2695
2696   2697   2698   2699
2700   2701   2702   2703
2704   2705   2706   2707
2708   2709   2710   2711
2712   2713   2714   2715
2716   2717   2718   2719
2720   2721   2722   2723
2724   2725   2726   2727
2728   2729   2730   2731
2732   2733   2734   2735
2736   2737   2738   2739
2740   2741   2742   2743
2744   2745   2746   2747
2748   2749   2750   2751
2752   2753   2754   2755
2756   2757   2758   2759
2760   2761   2762   2763
2764   2765   2766   2767
2768   2769   2770   2771
2772   2773   2774   2775
2776   2777   2778   2779
2780   2781   2782   2783
2784   2785   2786   2787
2788   2789   2790   2791
2792   2793   2794   2795
2796   2797   2798   2799
2800   2801   2802   2803
2804   2805   2806   2807
2808   2809   2810   2811
2812   2813   2814   2815
2816   2817   2818   2819
2820   2821   2822   2823
2824   2825   2826   2827
2828   2829   2830   2831
2832   2833   2834   2835
2836   2837   2838   2839
2840   2841   2842   2843
2844   2845   2846   2847
2848   2849   2850   2851
2852   2853   2854   2855
2856   2857   2858   2859
2860   2861   2862   2863
2864   2865   2866   2867
2868   2869   2870   2871
2872   2873   2874   2875
2876   2877   2878   2879
2880   2881   2882   2883
2884   2885   2886   2887
2888   2889   2890   2891
2892   2893   2894   2895
2896   2897   2898   2899
2900   2901   2902   2903
2904   2905   2906   2907
2908   2909   2910   2911
2912   2913   2914   2915
2916   2917   2918   2919
2920   2921   2922   2923
2924   2925   2926   2927
2928   2929   2930   2931
2932   2933   2934   2935
2936   2937   2938   2939
2940   2941   2942   2943
2944   2945   2946   2947
2948   2949   2950   2951
2952   2953   2954   2955
2956   2957   2958   2959
2960   2961   2962   2963
2964   2965   2966   2967
2968   2969   2970   2971
2972   2973   2974   2975
2976   2977   2978   2979
2980   2981   2982   2983
2984   2985   2986   2987
2988   2989   2990   2991
2992   2993   2994   2995
2996   2997   2998   2999
3000   3001   3002   3003
3004   3005   3006   3007
3008   3009   3010   3011
3012   3013   3014   3015
3016   3017   3018   3019
3020   3021   3022   3023
3024   3025   3026   3027
3028   3029   3030   3031
3032   3033   3034   3035
3036   3037   3038   3039
3040   3041   3042   3043
3044   3045   3046   3047
3048   3049   3050   3051
3052   3053   3054   3055
3056   3057   3058   3059
3060   3061   3062   3063
3064   3065   3066   3067
3068   3069   3070   3071
3072   3073   3074   3075
3076   3077   3078   3079
3080   3081   3082   3083
3084   3085   3086   3087
3088   3089   3090   3091
3092   3093   3094   3095
3096   3097   3098   3099
3100   3101   3102   3103
3104   3105   3106   3107
3108   3109   3110   3111
3112   3113   3114   3115
3116   3117   3118   3119
3120   3121   3122   3123
3124   3125   3126   3127
3128   3129   3130   3131
3132   3133   3134   3135
3136   3137   3138   3139
3140   3141   3142   3143
3144   3145   3146   3147
3148   3149   3150   3151
3152   3153   3154   3155
3156   3157   3158   3159
3160   3161   3162   3163
3164   3165   3166   3167
3168   3169   3170   3171
3172   3173   3174   3175
3176   3177   3178   3179
3180   3181   3182   3183
3184   3185   3186   3187
3188   3189   3190   3191
3192   3193   3194   3195
3196   3197   3198   3199
3200   3201   3202   3203
3204   3205   3206   3207
3208   3209   3210   3211
3212   3213   3214   3215
3216   3217   3218   3219
3220   3221   3222   3223
3224   3225   3226   3227
3228   3229   3230   3231
3232   3233   3234   3235
3236   3237   3238   3239
3240   3241   3242   3243
3244   3245   3246   3247
3248   3249   3250   3251
3252   3253   3254   3255
3256   3257   3258   3259
3260   3261   3262   3263
3264   3265   3266   3267
3268   3269   3270   3271
3272   3273   3274   3275
3276   3277   3278   3279
3280   3281   3282   3283
3284   3285   3286   3287
3288   3289   3290   3291
3292   3293   3294   3295
3296   3297   3298   3299
3300   3301   3302   3303
3304   3305   3306   3307
3308   3309   3310   3311
3312   3313   3314   3315
3316   3317   3318   3319
3320   3321   3322   3323
3324   3325   3326   3327
3328   3329   3330   3331
3332   3333   3334   3335
3336   3337   3338   3339
3340   3341   3342   3343
3344   3345   3346   3347
3348   3349   3350   3351
3352   3353   3354   3355
3356   3357   3358   3359
3360   3361   3362   3363
3364   3365   3366   3367
3368   3369   3370   3371
3372   3373   3374   3375
3376   3377   3378   3379
3380   3381   3382   3383
3384   3385   3386   3387
3388   3389   3390   3391
3392   3393   3394   3395
3396   3397   3398   3399
3400   3401   3402   3403
3404   3405   3406   3407
3408   3409   3410   3411
3412   3413   3414   3415
3416   3417   3418   3419
3420   3421   3422   3423
3424   3425   3426   3427
3428   3429   3430   3431
3432   3433   3434   3435
3436   3437   3438   3439
3440   3441   3442   3443
3444   3445   3446   3447
3448   3449   3450   3451
3452   3453   3454   3455
3456   3457   3458   3459
3460   3461   3462   3463
3464   3465   3466   3467
3468   3469   3470   3471
3472   3473   3474   3475
3476   3477   3478   3479
3480   3481   3482   3483
3484   3485   3486   3487
3488   3489   3490   3491
3492   3493   3494   3495
3496   3497   3498   3499
3500   3501   3502   3503
3504   3505   3506   3507
3508   3509   3510   3511
3512   3513   3514   3515
3516   3517   3518   3519
3520   3521   3522   3523
3524   3525   3526   3527
3528   3529   3530   3531
3532   3533   3534   3535
3536   3537   3538   3539
3540   3541   3542   3543
3544   3545   3546   3547
3548   3549   3550   3551
3552   3553   3554   3555
3556   3557   3558   3559
3560   3561   3562   3563
3564   3565   3566   3567
3568   3569   3570   3571
3572   3573   3574   3575
3576   3577   3578   3579
3580   3581   3582   3583
3584   3585   3586   3587
3588   3589   3590   3591
3592   3593   3594   3595
3596   3597   3598   3599
3600   3601   3602   3603
3604   3605   3606   3607
3608   3609   3610   3611
3612   3613   3614   3615
3616   3617   3618   3619
3620   3621   3622   3623
3624   3625   3626   3627
3628   3629   3630   3631
3632   3633   3634   3635
3636   3637   3638   3639
3640   3641   3642   3643
3644   3645   3646   3647
3648   3649   3650   3651
3652   3653   3654   3655
3656   3657   3658   3659
3660   3661   3662   3663
3664   3665   3666   3667
3668   3669   3670   3671
3672   3673   3674   3675
3676   3677   3678   3679
3680   3681   3682   3683
3684   3685   3686   3687
3688   3689   3690   3691
3692   3693   3694   3695
3696   3697   3698   3699
3700   3701   3702   3703
3704   3705   3706   3707
3708   3709   3710   3711
3712   3713   3714   3715
3716   3717   3718   3719
3720   3721   3722   3723
3724   3725   3726   3727
3728   3729   3730   3731
3732   3733   3734   3735
3736   3737   3738   3739
3740   3741   3742   3743
3744   3745   3746   3747
3748   3749   3750   3751
3752   3753   3754   3755
3756   3757   3758   3759
3760   3761   3762   3763
3764   3765   3766   3767
3768   3769   3770   3771
3772   3773   3774   3775
3776   3777   3778   3779
3780   3781   3782   3783
3784   3785   3786   3787
3788   3789   3790   3791
3792   3793   3794   3795
3796   3797   3798   3799
3800   3801   3802   3803
3804   3805   3806   3807
3808   3809   3810   3811
3812   3813   3814   3815
3816   3817   3818   3819
3820   3821   3822   3823
3824   3825   3826   3827
3828   3829   3830   3831
3832   3833   3834   3835
3836   3837   3838   3839
3840   3841   3842   3843
3844   3845   3846   3847
3848   3849   3850   3851
3852   3853   3854   3855
3856   3857   3858   3859
3860   3861   3862   3863
3864   3865   3866   3867
3868   3869   3870   3871
3872   3873   3874   3875
3876   3877   3878   3879
3880   3881   3882   3883
3884   3885   3886   3887
3888   3889   3890   3891
3892   3893   3894   3895
3896   3897   3898   3899
3900   3901   3902   3903
3904   3905   3906   3907
3908   3909   3910   3911
3912   3913   3914   3915
3916   3917   3918   3919
3920   3921   3922   3923
3924   3925   3926   3927
3928   3929   3930   3931
3932   3933   3934   3935
3936   3937   3938   3939
3940   3941   3942   3943
3944   3945   3946   3947
3948   3949   3950   3951
3952   3953   3954   3955
3956   3957   3958   3959
3960   3961   3962   3963
3964   3965   3966   3967
3968   3969   3970   3971
3972   3973   3974   3975
3976   3977   3978   3979
3980   3981   3982   3983
3984   3985   3986   3987
3988   3989   3990   3991
3992   3993   3994   3995
3996   3997   3998   3999
4000   4001   4002   4003
4004   4005   4006   4007
4008   4009   4010   4011
4012   4013   4014   4015
4016   4017   4018   4019
4020   4021   4022   4023
4024   4025   4026   4027
4028   4029   4030   4031
4032   4033   4034   4035
4036   4037   4038   4039
4040   4041   4042   4043
4044   4045   4046   4047
4048   4049   4050   4051
4052   4053   4054   4055
4056   4057   4058   4059
4060   4061   4062   4063
4064   4065   4066   4067
4068   4069   4070   4071
4072   4073   4074   4075
4076   4077   4078   4079
4080   4081   4082   4083
4084   4085   4086   4087
4088   4089   4090   4091
4092   4093   4094   4095
4096   4097   4098   4099
4100   4101   4102   4103
4104   4105   4106   4107
4108   4109   4110   4111
4112   4113   4114   4115
4116   4117   4118   4119
4120   4121   4122   4123
4124   4125   4126   4127
4128   4129   4130   4131
4132   4133   4134   4135
4136   4137   4138   4139
4140   4141   4142   4143
4144   4145   4146   4147
4148   4149   4150   4151
4152   4153   4154   4155
4156   4157   4158   4159
4160   4161   4162   4163
4164   4165   4166   4167
4168   4169   4170   4171
4172   4173   4174   4175
4176   4177   4178   4179
4180   4181   4182   4183
4184   4185   4186   4187
4188   4189   4190   4191
4192   4193   4194   4195
4196   4197   4198   4199
4200   4201   4202   4203
4204   4205   4206   4207
4208   4209   4210   4211
4212   4213   4214   4215
4216   4217   4218   4219
4220   4221   4222   4223
4224   4225   4226   4227
4228   4229   4230   4231
4232   4233   4234   4235
4236   4237   4238   4239
4240   4241   4242   4243
4244   4245   4246   4247
4248   4249   4250   4251
4252   4253   4254   4255
4256   4257   4258   4259
4260   4261   4262   4263
4264   4265   4266   4267
4268   4269   4270   4271
4272   4273   4274   4275
4276   4277   4278   4279
4280   4281   4282   4283
4284   4285   4286   4287
4288   4289   4290   4291
4292   4293   4294   4295
4296   4297   4298   4299
4300   4301   4302   4303
4304   4305   4306   4307
4308   4309   4310   4311
4312   4313   4314   4315
4316   4317   4318   4319
4320   4321   4322   4323
4324   4325   4326   4327
4328   4329   4330   4331
4332   4333   4334   4335
4336   4337   4338   4339
4340   4341   4342   4343
4344   4345   4346   4347
4348   4349   4350   4351
4352   4353   4354   4355
4356   4357   4358   4359
4360   4361   4362   4363
4364   4365   4366   4367
4368   4369   4370   4371
4372   4373   4374   4375
4376   4377   4378   4379
4380   4381   4382   4383
4384   4385   4386   4387
4388   4389   4390   4391
4392   4393   4394   4395
4396   4397   4398   4399
4400   4401   4402   4403
4404   4405   4406   4407
4408   4409   4410   4411
4412   4413   4414   4415
4416   4417   4418   4419
4420   4421   4422   4423
4424   4425   4426   4427
4428   4429   4430   4431
4432   4433   4434   4435
4436   4437   4438   4439
4440   4441   4442   4443
4444   4445   4446   4447
4448   4449   4450   4451
4452   4453   4454   4455
4456   4457   4458   4459
4460   4461   4462   4463
4464   4465   4466   4467
4468   4469   4470   4471
4472   4473   4474   4475
4476   4477   4478   4479
4480   4481   4482   4483
4484   4485   4486   4487
4488   4489   4490   4491
4492   4493   4494   4495
4496   4497   4498   4499
4500   4501   4502   4503
4504   4505   4506   4507
4508   4509   4510   4511
4512   4513   4514   4515
4516   4517   4518   4519
4520   4521   4522   4523
4524   4525   4526   4527
4528   4529   4530   4531
4532   4533   4534   4535
4536   4537   4538   4539
4540   4541   4542   4543
4544   4545   4546   4547
4548   4549   4550   4551
4552   4553   4554   4555
4556   4557   4558   4559
4560   4561   4562   4563
4564   4565   4566   4567
4568   4569   4570   4571
4572   4573   4574   4575
4576   4577   4578   4579
4580   4581   4582   4583
4584   4585   4586   4587
4588   4589   4590   4591
4592   4593   4594   4595
4596   4597   4598   4599
4600   4601   4602   4603
4604   4605   4606   4607
4608   4609   4610   4611
4612   4613   4614   4615
4616   4617   4618   4619
4620   4621   4622   4623
4624   4625   4626   4627
4628   4629   4630   4631
4632   4633   4634   4635
4636   4637   4638   4639
4640   4641   4642   4643
4644   4645   4646   4647
4648   4649   4650   4651
4652   4653   4654   4655
4656   4657   4658   4659
4660   4661   4662   4663
4664   4665   4666   4667
4668   4669   4670   4671
4672   4673   4674   4675
4676   4677   4678   4679
4680   4681   4682   4683
4684   4685   4686   4687
4688   4689   4690   4691
4692   4693   4694   4695
4696   4697   4698   4699
4700   4701   4702   4703
4704   4705   4706   4707
4708   4709   4710   4711
4712   4713   4714   4715
4716   4717   4718   4719
4720   4721   4722   4723
4724   4725   4726   4727
4728   4729   4730   4731
4732   4733   4734   4735
4736   4737   4738   4739
4740   4741   4742   4743
4744   4745   4746   4747
4748   4749   4750   4751
4752   4753   4754   4755
4756   4757   4758   4759
4760   4761   4762   4763
4764   4765   4766   4767
4768   4769   4770   4771
4772   4773   4774   4775
4776   4777   4778   4779
4780   4781   4782   4783
4784   4785   4786   4787
4788   4789   4790   4791
4792   4793   4794   4795
4796   4797   4798   4799
4800   4801   4802   4803
4804   4805   4806   4807
4808   4809   4810   4811
4812   4813   4814   4815
4816   4817   4818   4819
4820   4821   4822   4823
4824   4825   4826   4827
4828   4829   4830   4831
4832   4833   4834   4835
4836   4837   4838   4839
4840   4841   4842   4843
4844   4845   4846   4847
4848   4849   4850   4851
4852   4853   4854   4855
4856   4857   4858   4859
4860   4861   4862   4863
4864   4865   4866   4867
4868   4869   4870   4871
4872   4873   4874   4875
4876   4877   4878   4879
4880   4881   4882   4883
4884   4885   4886   4887
4888   4889   4890   4891
4892   4893   4894   4895
4896   4897   4898   4899
4900   4901   4902   4903
4904   4905   4906   4907
4908   4909   4910   4911
4912   4913   4914   4915
4916   4917   4918   4919
4920   4921   4922   4923
4924   4925   4926   4927
4928   4929   4930   4931
4932   4933   4934   4935
4936   4937   4938   4939
4940   4941   4942   4943
4944   4945   4946   4947
4948   4949   4950   4951
4952   4953   4954   4955
4956   4957   4958   4959
4960   4961   4962   4963
4964   4965   4966   4967
4968   4969   4970   4971
4972   4973   4974   4975
4976   4977   4978   4979
4980   4981   4982   4983
4984   4985   4986   4987
4988   4989   4990   4991
4992   4993   4994   4995
4996   4997   4998   4999
5000   5001   5002   5003
5004   5005   5006   5007
5008   5009   5010   5011
5012   5013   5014   5015
5016   5017   5018   5019
5020   5021   5022   5023
5024   5025   5026   5027
5028   5029   5030   5031
5032   5033   5034   5035
5036   5037   5038   5039
5040   5041   5042   5043
5044   5045   5046   5047
5048   5049   5050   5051
5052   5053   5054   5055
5056   5057   5058   5059
5060   5061   5062   5063
5064   5065   5066   5067
5068   5069   5070   5071
5072   5073   5074   5075
5076   5077   5078   5079
5080   5081   5082   5083
5084   5085   5086   5087
5088   5089   5090   5091
5092   5093   5094   5095
5096   5097   5098   5099
5100   5101   5102   5103
5104   5105   5106   5107
5108   5109   5110   5111
5112   5113   5114   5115
5116   5117   5118   5119
5120   5121   5122   5123
5124   5125   5126   5127
5128   5129   5130   5131
5132   5133   5134   5135
5136   5137   5138   5139
5140   5141   5142   5143
5144   5145   5146   5147
5148   5149   5150   5151
5152   5153   5154   5155
5156   5157   5158   5159
5160   5161   5162   5163
5164   5165   5166   5167
5168   5169   5170   5171
5172   5173   5174   5175
5176   5177   5178   5179
5180   5181   5182   5183
5184   5185   5186   5187
5188   5189   5190   5191
5192   5193   5194   5195
5196   5197   5198   5199
5200   5201   5202   5203
5204   5205   5206   5207
5208   5209   5210   5211
5212   5213   5214   5215
5216   5217   5218   5219
5220   5221   5222   5223
5224   5225   5226   5227
5228   5229   5230   5231
5232   5233   5234   5235
5236   5237   5238   5239
5240   5241   5242   5243
5244   5245   5246   5247
5248   5249   5250   5251
5252   5253   5254   5255
5256   5257   5258   5259
5260   5261   5262   5263
5264   5265   5266   5267
5268   5269   5270   5271
5272   5273   5274   5275
5276   5277   5278   5279
5280   5281   5282   5283
5284   5285   5286   5287
5288   5289   5290   5291
5292   5293   5294   5295
5296   5297   5298   5299
5300   5301   5302   5303
5304   5305   5306   5307
5308   5309   5310   5311
5312   5313   5314   5315
5316   5317   5318   5319
5320   5321   5322   5323
5324   5325   5326   5327
5328   5329   5330   5331
5332   5333   5334   5335
5336   5337   5338   5339
5340   5341   5342   5343
5344   5345   5346   5347
5348   5349   5350   5351
5352   5353   5354   5355
5356   5357   5358   5359
5360   5361   5362   5363
5364   5365   5366   5367
5368   5369   5370   5371
5372   5373   5374   5375
5376   5377   5378   5379
5380   5381   5382   5383
5384   5385   5386   5387
5388   5389   5390   5391
5392   5393   5394   5395
5396   5397   5398   5399
5400   5401   5402   5403
5404   5405   5406   5407
5408   5409   5410   5411
5412   5413   5414   5415
5416   5417   5418   5419
5420   5421   5422   5423
5424   5425   5426   5427
5428   5429   5430   5431
5432   5433   5434   5435
5436   5437   5438   5439
5440   5441   5442   5443
5444   5445   5446   5447
5448   5449   5450   5451
5452   5453   5454   5455
5456   5457   5458   5459
5460   5461   5462   5463
5464   5465   5466   5467
5468   5469   5470   5471
5472   5473   5474   5475
5476   5477   5478   5479
5480   5481   5482   5483
5484   5485   5486   5487
5488   5489   5490   5491
5492   5493   5494   5495
5496   5497   5498   5499
5500   5501   5502   5503
5504   5505   5506   5507
5508   5509   5510   5511
5512   5513   5514   5515
5516   5517   5518   5519
5520   5521   5522   5523
5524   5525   5526   5527
5528   5529   5530   5531
5532   5533   5534   5535
5536   5537   5538   5539
5540   5541   5542   5543
5544   5545   5546   5547
5548   5549   5550   5551
5552   5553   5554   5555
5556   5557   5558   5559
5560   5561   5562   5563
5564   5565   5566   5567
5568   5569   5570   5571
5572   5573   5574   5575
5576   5577   5578   5579
5580   5581   5582   5583
5584   5585   5586   5587
5588   5589   5590   5591
5592   5593   5594   5595
5596   5597   5598   5599
5600   5601   5602   5603
5604   5605   5606   5607
5608   5609   5610   5611
5612   5613   5614   5615
5616   5617   5618   5619
5620   5621   5622   5623
5624   5625   5626   5627
5628   5629   5630   5631
5632   5633   5634   5635
5636   5637   5638   5639
5640   5641   5642   5643
5644   5645   5646   5647
5648   5649   5650   5651
5652   5653   5654   5655
5656   5657   5658   5659
5660   5661   5662   5663
5664   5665   5666   5667
5668   5669   5670   5671
5672   5673   5674   5675
5676   5677   5678   5679
5680   5681   5682   5683
5684   5685   5686   5687
5688   5689   5690   5691
5692   5693   5694   5695
5696   5697   5698   5699
5700   5701   5702   5703
5704   5705   5706   5707
5708   5709   5710   5711
5712   5713   5714   5715
5716   5717   5718   5719
5720   5721   5722   5723
5724   5725   5726   5727
5728   5729   5730   5731
5732   5733   5734   5735
5736   5737   5738   5739
5740   5741   5742   5743
5744   5745   5746   5747
5748   5749   5750   5751
5752   5753   5754   5755
5756   5757   5758   5759
5760   5761   5762   5763
5764   5765   5766   5767
5768   5769   5770   5771
5772   5773   5774   5775
5776   5777   5778   5779
5780   5781   5782   5783
5784   5785   5786   5787
5788   5789   5790   5791
5792   5793   5794   5795
5796   5797   5798   5799
5800   5801   5802   5803
5804   5805   5806   5807
5808   5809   5810   5811
5812   5813   5814   5815
5816   5817   5818   5819
5820   5821   5822   5823
5824   5825   5826   5827
5828   5829   5830   5831
5832   5833   5834   5835
5836   5837   5838   5839
5840   5841   5842   5843
5844   5845   5846   5847
5848   5849   5850   5851
5852   5853   5854   5855
5856   5857   5858   5859
5860   5861   5862   5863
5864   5865   5866   5867
5868   5869   5870   5871
5872   5873   5874   5875
5876   5877   5878   5879
5880   5881   5882   5883
5884   5885   5886   5887
5888   5889   5890   5891
5892   5893   5894   5895
5896   5897   5898   5899
5900   5901   5902   5903
5904   5905   5906   5907
5908   5909   5910   5911
5912   5913   5914   5915
5916   5917   5918   5919
5920   5921   5922   5923
5924   5925   5926   5927
5928   5929   5930   5931
5932   5933   5934   5935
5936   5937   5938   5939
5940   5941   5942   5943
5944   5945   5946   5947
5948   5949   5950   5951
5952   5953   5954   5955
5956   5957   5958   5959
5960   5961   5962   5963
5964   5965   5966   5967
5968   5969   5970   5971
5972   5973   5974   5975
5976   5977   5978   5979
5980   5981   5982   5983
5984   5985   5986   5987
5988   5989   5990   5991
5992   5993   5994   5995
5996   5997   5998   5999
              </DataArray>   
              <DataArray type="Int32" Name="offsets" format="ascii">   
4
8
12
16
20
24
28
32
36
40
44
48
52
56
60
64
68
72
76
80
84
88
92
96
100
104
108
112
116
120
124
128
132
136
140
144
148
152
156
160
164
168
172
176
180
184
188
192
196
200
204
208
212
216
220
224
228
232
236
240
244
248
252
256
260
264
268
272
276
280
284
288
292
296
300
304
308
312
316
320
324
328
332
336
340
344
348
352
356
360
364
368
372
376
380
384
388
392
396
400
404
408
412
416
420
424
428
432
436
440
444
448
452
456
460
464
468
472
476
480
484
488
492
496
500
504
508
512
516
520
524
528
532
536
540
544
548
552
556
560
564
568
572
576
580
584
588
592
596
600
604
608
612
616
620
624
628
632
636
640
644
648
652
656
660
664
668
672
676
680
684
688
692
696
700
704
708
712
716
720
724
728
732
736
740
744
748
752
756
760
764
768
772
776
780
784
788
792
796
800
804
808
812
816
820
824
828
832
836
840
844
848
852
856
860
864
868
872
876
880
884
888
892
896
900
904
908
912
916
920
924
928
932
936
940
944
948
952
956
960
964
968
972
976
980
984
988
992
996
1000
1004
1008
1012
1016
1020
1024
1028
1032
1036
1040
1044
1048
1052
1056
1060
1064
1068
1072
1076
1080
1084
1088
1092
1096
1100
1104
1108
1112
1116
1120
1124
1128
1132
1136
1140
1144
1148
1152
1156
1160
1164
1168
1172
1176
1180
1184
1188
1192
1196
1200
1204
1208
1212
1216
1220
1224
1228
1232
1236
1240
1244
1248
1252
1256
1260
1264
1268
1272
1276
1280
1284
1288
1292
1296
1300
1304
1308
1312
1316
1320
1324
1328
1332
1336
1340
1344
1348
1352
1356
1360
1364
1368
1372
1376
1380
1384
1388
1392
1396
1400
1404
1408
1412
1416
1420
1424
1428
1432
1436
1440
1444
1448
1452
1456
1460
1464
1468
1472
1476
1480
1484
1488
1492
1496
1500
1504
1508
1512
1516
1520
1524
1528
1532
1536
1540
1544
1548
1552
1556
1560
1564
1568
1572
1576
1580
1584
1588
1592
1596
1600
1604
1608
1612
1616
1620
1624
1628
1632
1636
1640
1644
1648
1652
1656
1660
1664
1668
1672
1676
1680
1684
1688
1692
1696
1700
1704
1708
1712
1716
1720
1724
1728
1732
1736
1740
1744
1748
1752
1756
1760
1764
1768
1772
1776
1780
1784
1788
1792
1796
1800
1804
1808
1812
1816
1820
1824
1828
1832
1836
1840
1844
1848
1852
1856
1860
1864
1868
1872
1876
1880
1884
1888
1892
1896
1900
1904
1908
1912
1916
1920
1924
1928
1932
1936
1940
1944
1948
1952
1956
1960
1964
1968
1972
1976
1980
1984
1988
1992
1996
2000
2004
2008
2012
2016
2020
2024
2028
2032
2036
2040
2044
2048
2052
2056
2060
2064
2068
2072
2076
2080
2084
2088
2092
2096
2100
2104
2108
2112
2116
2120
2124
2128
2132
2136
2140
2144
2148
2152
2156
2160
2164
2168
2172
2176
2180
2184
2188
2192
2196
2200
2204
2208
2212
2216
2220
2224
2228
2232
2236
2240
2244
2248
2252
2256
2260
2264
2268
2272
2276
2280
2284
2288
2292
2296
2300
2304
2308
2312
2316
2320
2324
2328
2332
2336
2340
2344
2348
2352
2356
2360
2364
2368
2372
2376
2380
2384
2388
2392
2396
2400
2404
2408
2412
2416
2420
2424
2428
2432
2436
2440
2444
2448
2452
2456
2460
2464
2468
2472
2476
2480
2484
2488
2492
2496
2500
2504
2508
2512
2516
2520
2524
2528
2532
2536
2540
2544
2548
2552
2556
2560
2564
2568
2572
2576
2580
2584
2588
2592
2596
2600
2604
2608
2612
2616
2620
2624
2628
2632
2636
2640
2644
2648
2652
2656
2660
2664
2668
2672
2676
2680
2684
2688
2692
2696
2700
2704
2708
2712
2716
2720
2724
2728
2732
2736
2740
2744
2748
2752
2756
2760
2764
2768
2772
2776
2780
2784
2788
2792
2796
2800
2804
2808
2812
2816
2820
2824
2828
2832
2836
2840
2844
2848
2852
2856
2860
2864
2868
2872
2876
2880
2884
2888
2892
2896
2900
2904
2908
2912
2916
2920
2924
2928
2932
2936
2940
2944
2948
2952
2956
2960
2964
2968
2972
2976
2980
2984
2988
2992
2996
3000
3004
3008
3012
3016
3020
3024
3028
3032
3036
3040
3044
3048
3052
3056
3060
3064
3068
3072
3076
3080
3084
3088
3092
3096
3100
3104
3108
3112
3116
3120
3124
3128
3132
3136
3140
3144
3148
3152
3156
3160
3164
3168
3172
3176
3180
3184
3188
3192
3196
3200
3204
3208
3212
3216
3220
3224
3228
3232
3236
3240
3244
3248
3252
3256
3260
3264
3268
3272
3276
3280
3284
3288
3292
3296
3300
3304
3308
3312
3316
3320
3324
3328
3332
3336
3340
3344
3348
3352
3356
3360
3364
3368
3372
3376
3380
3384
3388
3392
3396
3400
3404
3408
3412
3416
3420
3424
3428
3432
3436
3440
3444
3448
3452
3456
3460
3464
3468
3472
3476
3480
3484
3488
3492
3496
3500
3504
3508
3512
3516
3520
3524
3528
3532
3536
3540
3544
3548
3552
3556
3560
3564
3568
3572
3576
3580
3584
3588
3592
3596
3600
3604
3608
3612
3616
3620
3624
3628
3632
3636
3640
3644
3648
3652
3656
3660
3664
3668
3672
3676
3680
3684
3688
3692
3696
3700
3704
3708
3712
3716
3720
3724
3728
3732
3736
3740
3744
3748
3752
3756
3760
3764
3768
3772
3776
3780
3784
3788
3792
3796
3800
3804
3808
3812
3816
3820
3824
3828
3832
3836
3840
3844
3848
3852
3856
3860
3864
3868
3872
3876
3880
3884
3888
3892
3896
3900
3904
3908
3912
3916
3920
3924
3928
3932
3936
3940
3944
3948
3952
3956
3960
3964
3968
3972
3976
3980
3984
3988
3992
3996
4000
4004
4008
4012
4016
4020
4024
4028
4032
4036
4040
4044
4048
4052
4056
4060
4064
4068
4072
4076
4080
4084
4088
4092
4096
4100
4104
4108
4112
4116
4120
4124
4128
4132
4136
4140
4144
4148
4152
4156
4160
4164
4168
4172
4176
4180
4184
4188
4192
4196
4200
4204
4208
4212
4216
4220
4224
4228
4232
4236
4240
4244
4248
4252
4256
4260
4264
4268
4272
4276
4280
4284
4288
4292
4296
4300
4304
4308
4312
4316
4320
4324
4328
4332
4336
4340
4344
4348
4352
4356
4360
4364
4368
4372
4376
4380
4384
4388
4392
4396
4400
4404
4408
4412
4416
4420
4424
4428
4432
4436
4440
4444
4448
4452
4456
4460
4464
4468
4472
4476
4480
4484
4488
4492
4496
4500
4504
4508
4512
4516
4520
4524
4528
4532
4536
4540
4544
4548
4552
4556
4560
4564
4568
4572
4576
4580
4584
4588
4592
4596
4600
4604
4608
4612
4616
4620
4624
4628
4632
4636
4640
4644
4648
4652
4656
4660
4664
4668
4672
4676
4680
4684
4688
4692
4696
4700
4704
4708
4712
4716
4720
4724
4728
4732
4736
4740
4744
4748
4752
4756
4760
4764
4768
4772
4776
4780
4784
4788
4792
4796
4800
4804
4808
4812
4816
4820
4824
4828
4832
4836
4840
4844
4848
4852
4856
4860
4864
4868
4872
4876
4880
4884
4888
4892
4896
4900
4904
4908
4912
4916
4920
4924
4928
4932
4936
4940
4944
4948
4952
4956
4960
4964
4968
4972
4976
4980
4984
4988
4992
4996
5000
5004
5008
5012
5016
5020
5024
5028
5032
5036
5040
5044
5048
5052
5056
5060
5064
5068
5072
5076
5080
5084
5088
5092
5096
5100
5104
5108
5112
5116
5120
5124
5128
5132
5136
5140
5144
5148
5152
5156
5160
5164
5168
5172
5176
5180
5184
5188
5192
5196
5200
5204
5208
5212
5216
5220
5224
5228
5232
5236
5240
5244
5248
5252
5256
5260
5264
5268
5272
5276
5280
5284
5288
5292
5296
5300
5304
5308
5312
5316
5320
5324
5328
5332
5336
5340
5344
5348
5352
5356
5360
5364
5368
5372
5376
5380
5384
5388
5392
5396
5400
5404
5408
5412
5416
5420
5424
5428
5432
5436
5440
5444
5448
5452
5456
5460
5464
5468
5472
5476
5480
5484
5488
5492
5496
5500
5504
5508
5512
5516
5520
5524
5528
5532
5536
5540
5544
5548
5552
5556
5560
5564
5568
5572
5576
5580
5584
5588
5592
5596
5600
5604
5608
5612
5616
5620
5624
5628
5632
5636
5640
5644
5648
5652
5656
5660
5664
5668
5672
5676
5680
5684
5688
5692
5696
5700
5704
5708
5712
5716
5720
5724
5728
5732
5736
5740
5744
5748
5752
5756
5760
5764
5768
5772
5776
5780
5784
5788
5792
5796
5800
5804
5808
5812
5816
5820
5824
5828
5832
5836
5840
5844
5848
5852
5856
5860
5864
5868
5872
5876
5880
5884
5888
5892
5896
5900
5904
5908
5912
5916
5920
5924
5928
5932
5936
5940
5944
5948
5952
5956
5960
5964
5968
5972
5976
5980
5984
5988
5992
5996
6000
              </DataArray>   
              <DataArray type="UInt8" Name="types" format="ascii">   
10
10
10
10
10
10
10
10
10
10
10
10
10
10
10
10
10
10
10
10
10
10
10
10
10
10
10
10
10
10
10
10
10
10
10
10
10
10
10
10
10
10
10
10
10
10
10
10
10
10
10
10
10
10
10
10
10
10
10
10
10
10
10
10
10
10
10
10
10
10
10
10
10
10
10
10
10
10
10
10
10
10
10
10
10
10
10
10
10
10
10
10
10
10
10
10
10
10
10
10
10
10
10
10
10
10
10
10
10
10
10
10
10
10
10
10
10
10
10
10
10
10
10
10
10
10
10
10
10
10
10
10
10
10
10
10
10
10
10
10
10
10
10
10
10
10
10
10
10
10
10
10
10
10
10
10
10
10
10
10
10
10
10
10
10
10
10
10
10
10
10
10
10
10
10
10
10
10
10
10
10
10
10
10
10
10
10
10
10
10
10
10
10
10
10
10
10
10
10
10
10
10
10
10
10
10
10
10
10
10
10
10
10
10
10
10
10
10
10
10
10
10
10
10
10
10
10
10
10
10
10
10
10
10
10
10
10
10
10
10
10
10
10
10
10
10
10
10
10
10
10
10
10
10
10
10
10
10
10
10
10
10
10
10
10
10
10
10
10
10
10
10
10
10
10
10
10
10
10
10
10
10
10
10
10
10
10
10
10
10
10
10
10
10
10
10
10
10
10
10
10
10
10
10
10
10
10
10
10
10
10
10
10
10
10
10
10
10
10
10
10
10
10
10
10
10
10
10
10
10
10
10
10
10
10
10
10
10
10
10
10
10
10
10
10
10
10
10
10
10
10
10
10
10
10
10
10
10
10
10
10
10
10
10
10
10
10
10
10
10
10
10
10
10
10
10
10
10
10
10
10
10
10
10
10
10
10
10
10
10
10
10
10
10
10
10
10
10
10
10
10
10
10
10
10
10
10
10
10
10
10
10
10
10
10
10
10
10
10
10
10
10
10
10
10
10
10
10
10
10
10
10
10
10
10
10
10
10
10
10
10
10
10
10
10
10
10
10
10
10
10
10
10
10
10
10
10
10
10
10
10
10
10
10
10
10
10
10
10
10
10
10
10
10
10
10
10
10
10
10
10
10
10
10
10
10
10
10
10
10
10
10
10
10
10
10
10
10
10
10
10
10
10
10
10
10
10
10
10
10
10
10
10
10
10
10
10
10
10
10
10
10
10
10
10
10
10
10
10
10
10
10
10
10
10
10
10
10
10
10
10
10
10
10
10
10
10
10
10
10
10
10
10
10
10
10
10
10
10
10
10
10
10
10
10
10
10
10
10
10
10
10
10
10
10
10
10
10
10
10
10
10
10
10
10
10
10
10
10
10
10
10
10
10
10
10
10
10
10
10
10
10
10
10
10
10
10
10
10
10
10
10
10
10
10
10
10
10
10
10
10
10
10
10
10
10
10
10
10
10
10
10
10
10
10
10
10
10
10
10
10
10
10
10
10
10
10
10
10
10
10
10
10
10
10
10
10
10
10
10
10
10
10
10
10
10
10
10
10
10
10
10
10
10
10
10
10
10
10
10
10
10
10
10
10
10
10
10
10
10
10
10
10
10
10
10
10
10
10
10
10
10
10
10
10
10
10
10
10
10
10
10
10
10
10
10
10
10
10
10
10
10
10
10
10
10
10
10
10
10
10
10
10
10
10
10
10
10
10
10
10
10
10
10
10
10
10
10
10
10
10
10
10
10
10
10
10
10
10
10
10
10
10
10
10
10
10
10
10
10
10
10
10
10
10
10
10
10
10
10
10
10
10
10
10
10
10
10
10
10
10
10
10
10
10
10
10
10
10
10
10
10
10
10
10
10
10
10
10
10
10
10
10
10
10
10
10
10
10
10
10
10
10
10
10
10
10
10
10
10
10
10
10
10
10
10
10
10
10
10
10
10
10
10
10
10
10
10
10
10
10
10
10
10
10
10
10
10
10
10
10
10
10
10
10
10
10
10
10
10
10
10
10
10
10
10
10
10
10
10
10
10
10
10
10
10
10
10
10
10
10
10
10
10
10
10
10
10
10
10
10
10
10
10
10
10
10
10
10
10
10
10
10
10
10
10
10
10
10
10
10
10
10
10
10
10
10
10
10
10
10
10
10
10
10
10
10
10
10
10
10
10
10
10
10
10
10
10
10
10
10
10
10
10
10
10
10
10
10
10
10
10
10
10
10
10
10
10
10
10
10
10
10
10
10
10
10
10
10
10
10
10
10
10
10
10
10
10
10
10
10
10
10
10
10
10
10
10
10
10
10
10
10
10
10
10
10
10
10
10
10
10
10
10
10
10
10
10
10
10
10
10
10
10
10
10
10
10
10
10
10
10
10
10
10
10
10
10
10
10
10
10
10
10
10
10
10
10
10
10
10
10
10
10
10
10
10
10
10
10
10
10
10
10
10
10
10
10
10
10
10
10
10
10
10
10
10
10
10
10
10
10
10
10
10
10
10
10
10
10
10
10
10
10
10
10
10
10
10
10
10
10
10
10
10
10
10
10
10
10
10
10
10
10
10
10
10
10
10
10
10
10
10
10
10
10
10
10
10
10
10
10
10
10
10
10
10
10
10
10
10
10
10
10
10
10
10
10
10
10
10
10
10
10
10
10
10
10
10
10
10
10
10
10
10
10
10
10
10
10
10
10
10
10
10
10
10
10
10
10
10
10
10
10
10
10
10
10
10
10
10
10
10
10
10
10
10
10
10
10
10
10
10
10
10
10
10
10
10
10
10
10
10
10
10
10
10
10
10
10
10
10
10
10
10
10
10
10
10
10
10
10
10
10
10
10
10
10
10
10
10
10
10
10
10
10
10
10
10
10
10
10
10
10
10
10
10
10
10
10
10
10
10
10
10
10
10
10
10
10
10
10
10
10
10
10
10
10
10
10
10
10
10
10
10
10
10
10
10
10
10
10
10
10
10
10
10
10
10
10
10
10
10
10
10
10
10
10
10
10
10
10
10
10
10
10
10
10
10
10
10
10
10
10
10
10
10
10
10
10
10
10
10
10
10
10
10
10
10
10
10
10
10
10
10
10
10
10
10
10
10
10
10
10
10
10
10
10
10
10
10
10
10
10
10
10
10
10
10
10
10
10
10
10
10
10
10
10
10
10
10
10
10
10
10
10
10
10
10
10
10
10
10
10
10
10
10
10
10
10
10
10
10
10
10
10
10
10
10
10
10
10
10
10
10
10
10
10
10
10
10
10
10
10
10
10
10
10
10
10
10
10
10
10
10
10
10
10
10
10
10
10
10
10
10
10
10
10
10
10
10
10
10
10
10
10
10
10
10
10
10
10
10
10
10
10
10
10
10
10
10
10
10
10
10
10
10
10
10
10
10
10
10
10
10
10
10
10
10
10
10
10
10
10
10
10
10
10
10
10
              </DataArray>   
          </Cells>  
          <PointData>  
             <DataArray type="Float64" NumberOfComponents="3" Name="Strains" format="ascii">   
-1.301156881172063e-05   0.0   -8.765400633043181e-06
-1.301156881172063e-05   0.0   -8.765400633043181e-06
-1.301156881172063e-05   0.0   -8.765400633043181e-06
-1.301156881172063e-05   0.0   -8.765400633043181e-06
-8.257168956739957e-06   1.4114596980913763e-06   5.474944112747652e-09
-8.257168956739957e-06   1.4114596980913763e-06   5.474944112747652e-09
-8.257168956739957e-06   1.4114596980913763e-06   5.474944112747652e-09
-8.257168956739957e-06   1.4114596980913763e-06   5.474944112747652e-09
-8.078434054843979e-06   0.0   -8.302558785151764e-06
-8.078434054843979e-06   0.0   -8.302558785151764e-06
-8.078434054843979e-06   0.0   -8.302558785151764e-06
-8.078434054843979e-06   0.0   -8.302558785151764e-06
-1.3598135785058582e-05   1.7081239535860762e-06   -1.279302736123651e-07
-1.3598135785058582e-05   1.7081239535860762e-06   -1.279302736123651e-07
-1.3598135785058582e-05   1.7081239535860762e-06   -1.279302736123651e-07
-1.3598135785058582e-05   1.7081239535860762e-06   -1.279302736123651e-07
-1.0545001433282287e-05   3.8570153990951533e-07   -4.423034078366919e-06
-1.0545001433282287e-05   3.8570153990951533e-07   -4.423034078366919e-06
-1.0545001433282287e-05   3.8570153990951533e-07   -4.423034078366919e-06
-1.0545001433282287e-05   3.8570153990951533e-07   -4.423034078366919e-06
-1.3598135785058606e-05   0.0   -9.327433157303412e-06
-1.3598135785058606e-05   0.0   -9.327433157303412e-06
-1.3598135785058606e-05   0.0   -9.327433157303412e-06
-1.3598135785058606e-05   0.0   -9.327433157303412e-06
-8.078434054843979e-06   1.7081239535860813e-06   8.969440985392817e-07
-8.078434054843979e-06   1.7081239535860813e-06   8.969440985392817e-07
-8.078434054843979e-06   1.7081239535860813e-06   8.969440985392817e-07
-8.078434054843979e-06   1.7081239535860813e-06   8.969440985392817e-07
-8.084526561204616e-06   0.0   -8.50128391685774e-06
-8.084526561204616e-06   0.0   -8.50128391685774e-06
-8.084526561204616e-06   0.0   -8.50128391685774e-06
-8.084526561204616e-06   0.0   -8.50128391685774e-06
-1.4002413926501023e-05   1.8338924872244602e-06   2.615261996349645e-07
-1.4002413926501023e-05   1.8338924872244602e-06   2.615261996349645e-07
-1.4002413926501023e-05   1.8338924872244602e-06   2.615261996349645e-07
-1.4002413926501023e-05   1.8338924872244602e-06   2.615261996349645e-07
-1.0841331173131592e-05   6.884577003713923e-07   -4.319684183868906e-06
-1.0841331173131592e-05   6.884577003713923e-07   -4.319684183868906e-06
-1.0841331173131592e-05   6.884577003713923e-07   -4.319684183868906e-06
-1.0841331173131592e-05   6.884577003713923e-07   -4.319684183868906e-06
-1.4002413926501047e-05   0.0   -9.601619409192418e-06
-1.4002413926501047e-05   0.0   -9.601619409192418e-06
-1.4002413926501047e-05   0.0   -9.601619409192418e-06
-1.4002413926501047e-05   0.0   -9.601619409192418e-06
-8.084526561204616e-06   1.8338924872244636e-06   1.3618616919696423e-06
-8.084526561204616e-06   1.8338924872244636e-06   1.3618616919696423e-06
-8.084526561204616e-06   1.8338924872244636e-06   1.3618616919696423e-06
-8.084526561204616e-06   1.8338924872244636e-06   1.3618616919696423e-06
-8.06146274317621e-06   0.0   -8.554980204904685e-06
-8.06146274317621e-06   0.0   -8.554980204904685e-06
-8.06146274317621e-06   0.0   -8.554980204904685e-06
-8.06146274317621e-06   0.0   -8.554980204904685e-06
-1.4889903526822305e-05   2.1013426913186026e-06   1.564948819714353e-06
-1.4889903526822305e-05   2.1013426913186026e-06   1.564948819714353e-06
-1.4889903526822305e-05   2.1013426913186026e-06   1.564948819714353e-06
-1.4889903526822305e-05   2.1013426913186026e-06   1.564948819714353e-06
-1.103193833483861e-05   8.72199336906443e-07   -4.127507154277842e-06
-1.103193833483861e-05   8.72199336906443e-07   -4.127507154277842e-06
-1.103193833483861e-05   8.72199336906443e-07   -4.127507154277842e-06
-1.103193833483861e-05   8.72199336906443e-07   -4.127507154277842e-06
-8.257168956739972e-06   0.0   -7.918524814188355e-06
-8.257168956739972e-06   0.0   -7.918524814188355e-06
-8.257168956739972e-06   0.0   -7.918524814188355e-06
-8.257168956739972e-06   0.0   -7.918524814188355e-06
-3.779660286466252e-06   5.118849063727981e-07   -1.4887941990847963e-07
-3.779660286466252e-06   5.118849063727981e-07   -1.4887941990847963e-07
-3.779660286466252e-06   5.118849063727981e-07   -1.4887941990847963e-07
-3.779660286466252e-06   5.118849063727981e-07   -1.4887941990847963e-07
-3.618956973313578e-06   0.0   -7.859375196557739e-06
-3.618956973313578e-06   0.0   -7.859375196557739e-06
-3.618956973313578e-06   0.0   -7.859375196557739e-06
-3.618956973313578e-06   0.0   -7.859375196557739e-06
-8.078434054843979e-06   7.386393143233727e-07   -8.700969826010967e-07
-8.078434054843979e-06   7.386393143233727e-07   -8.700969826010967e-07
-8.078434054843979e-06   7.386393143233727e-07   -8.700969826010967e-07
-8.078434054843979e-06   7.386393143233727e-07   -8.700969826010967e-07
-5.938062965026764e-06   4.929134802551354e-08   -4.0237733525177085e-06
-5.938062965026764e-06   4.929134802551354e-08   -4.0237733525177085e-06
-5.938062965026764e-06   4.929134802551354e-08   -4.0237733525177085e-06
-5.938062965026764e-06   4.929134802551354e-08   -4.0237733525177085e-06
-8.078434054843972e-06   0.0   -8.302558785151755e-06
-8.078434054843972e-06   0.0   -8.302558785151755e-06
-8.078434054843972e-06   0.0   -8.302558785151755e-06
-8.078434054843972e-06   0.0   -8.302558785151755e-06
-3.618956973313578e-06   7.386393143233727e-07   -4.269133940070729e-07
-3.618956973313578e-06   7.386393143233727e-07   -4.269133940070729e-07
-3.618956973313578e-06   7.386393143233727e-07   -4.269133940070729e-07
-3.618956973313578e-06   7.386393143233727e-07   -4.269133940070729e-07
-3.521878548586421e-06   0.0   -7.954580018646636e-06
-3.521878548586421e-06   0.0   -7.954580018646636e-06
-3.521878548586421e-06   0.0   -7.954580018646636e-06
-3.521878548586421e-06   0.0   -7.954580018646636e-06
-8.084526561204616e-06   9.111731636851734e-07   -8.968705624940832e-07
-8.084526561204616e-06   9.111731636851734e-07   -8.968705624940832e-07
-8.084526561204616e-06   9.111731636851734e-07   -8.968705624940832e-07
-8.084526561204616e-06   9.111731636851734e-07   -8.968705624940832e-07
-5.800156301715189e-06   2.8998230542093837e-07   -4.3314398133512206e-06
-5.800156301715189e-06   2.8998230542093837e-07   -4.3314398133512206e-06
-5.800156301715189e-06   2.8998230542093837e-07   -4.3314398133512206e-06
-5.800156301715189e-06   2.8998230542093837e-07   -4.3314398133512206e-06
-8.084526561204616e-06   0.0   -8.50128391685774e-06
-8.084526561204616e-06   0.0   -8.50128391685774e-06
-8.084526561204616e-06   0.0   -8.50128391685774e-06
-8.084526561204616e-06   0.0   -8.50128391685774e-06
-3.521878548586421e-06   9.111731636851734e-07   -3.5016666428298e-07
-3.521878548586421e-06   9.111731636851734e-07   -3.5016666428298e-07
-3.521878548586421e-06   9.111731636851734e-07   -3.5016666428298e-07
-3.521878548586421e-06   9.111731636851734e-07   -3.5016666428298e-07
-3.4307239270428397e-06   0.0   -7.91645108939641e-06
-3.4307239270428397e-06   0.0   -7.91645108939641e-06
-3.4307239270428397e-06   0.0   -7.91645108939641e-06
-3.4307239270428397e-06   0.0   -7.91645108939641e-06
-8.061462743176188e-06   1.0642151925137771e-06   -8.37082178015734e-07
-8.061462743176188e-06   1.0642151925137771e-06   -8.37082178015734e-07
-8.061462743176188e-06   1.0642151925137771e-06   -8.37082178015734e-07
-8.061462743176188e-06   1.0642151925137771e-06   -8.37082178015734e-07
-5.757625244123726e-06   4.873606895511023e-07   -4.330698641325595e-06
-5.757625244123726e-06   4.873606895511023e-07   -4.330698641325595e-06
-5.757625244123726e-06   4.873606895511023e-07   -4.330698641325595e-06
-5.757625244123726e-06   4.873606895511023e-07   -4.330698641325595e-06
-3.7796602864662583e-06   0.0   -7.611393870364675e-06
-3.7796602864662583e-06   0.0   -7.611393870364675e-06
-3.7796602864662583e-06   0.0   -7.611393870364675e-06
-3.7796602864662583e-06   0.0   -7.611393870364675e-06
4.3648036146275304e-07   -6.993256020089791e-08   -6.264523266035213e-07
4.3648036146275304e-07   -6.993256020089791e-08   -6.264523266035213e-07
4.3648036146275304e-07   -6.993256020089791e-08   -6.264523266035213e-07
4.3648036146275304e-07   -6.993256020089791e-08   -6.264523266035213e-07
5.46793819325947e-07   0.0   -7.77965874256047e-06
5.46793819325947e-07   0.0   -7.77965874256047e-06
5.46793819325947e-07   0.0   -7.77965874256047e-06
5.46793819325947e-07   0.0   -7.77965874256047e-06
-3.618956973313578e-06   1.328607566620693e-07   -9.16457208825195e-07
-3.618956973313578e-06   1.328607566620693e-07   -9.16457208825195e-07
-3.618956973313578e-06   1.328607566620693e-07   -9.16457208825195e-07
-3.618956973313578e-06   1.328607566620693e-07   -9.16457208825195e-07
-1.616433233570152e-06   -1.4022072682985169e-07   -4.0901478849690706e-06
-1.616433233570152e-06   -1.4022072682985169e-07   -4.0901478849690706e-06
-1.616433233570152e-06   -1.4022072682985169e-07   -4.0901478849690706e-06
-1.616433233570152e-06   -1.4022072682985169e-07   -4.0901478849690706e-06
-3.618956973313578e-06   0.0   -7.859375196557739e-06
-3.618956973313578e-06   0.0   -7.859375196557739e-06
-3.618956973313578e-06   0.0   -7.859375196557739e-06
-3.618956973313578e-06   0.0   -7.859375196557739e-06
5.467938193259479e-07   1.328607566620676e-07   -8.367407548279521e-07
5.467938193259479e-07   1.328607566620676e-07   -8.367407548279521e-07
5.467938193259479e-07   1.328607566620676e-07   -8.367407548279521e-07
5.467938193259479e-07   1.328607566620676e-07   -8.367407548279521e-07
6.360661970020518e-07   0.0   -7.767247078738068e-06
6.360661970020518e-07   0.0   -7.767247078738068e-06
6.360661970020518e-07   0.0   -7.767247078738068e-06
6.360661970020518e-07   0.0   -7.767247078738068e-06
-3.521878548586415e-06   3.1222156651425725e-07   -1.0246721093325122e-06
-3.521878548586415e-06   3.1222156651425725e-07   -1.0246721093325122e-06
-3.521878548586415e-06   3.1222156651425725e-07   -1.0246721093325122e-06
-3.521878548586415e-06   3.1222156651425725e-07   -1.0246721093325122e-06
-1.4914453881557625e-06   7.677343151638148e-08   -4.2674584957182154e-06
-1.4914453881557625e-06   7.677343151638148e-08   -4.2674584957182154e-06
-1.4914453881557625e-06   7.677343151638148e-08   -4.2674584957182154e-06
-1.4914453881557625e-06   7.677343151638148e-08   -4.2674584957182154e-06
-3.521878548586421e-06   0.0   -7.954580018646636e-06
-3.521878548586421e-06   0.0   -7.954580018646636e-06
-3.521878548586421e-06   0.0   -7.954580018646636e-06
-3.521878548586421e-06   0.0   -7.954580018646636e-06
6.360661970020529e-07   3.1222156651425725e-07   -8.37339169423959e-07
6.360661970020529e-07   3.1222156651425725e-07   -8.37339169423959e-07
6.360661970020529e-07   3.1222156651425725e-07   -8.37339169423959e-07
6.360661970020529e-07   3.1222156651425725e-07   -8.37339169423959e-07
7.506422246992452e-07   0.0   -7.605066232057106e-06
7.506422246992452e-07   0.0   -7.605066232057106e-06
7.506422246992452e-07   0.0   -7.605066232057106e-06
7.506422246992452e-07   0.0   -7.605066232057106e-06
-3.4307239270428367e-06   5.189747622321626e-07   -9.47507503159601e-07
-3.4307239270428367e-06   5.189747622321626e-07   -9.47507503159601e-07
-3.4307239270428367e-06   5.189747622321626e-07   -9.47507503159601e-07
-3.4307239270428367e-06   5.189747622321626e-07   -9.47507503159601e-07
-1.385618161943585e-06   2.9126148882459687e-07   -4.219389147613811e-06
-1.385618161943585e-06   2.9126148882459687e-07   -4.219389147613811e-06
-1.385618161943585e-06   2.9126148882459687e-07   -4.219389147613811e-06
-1.385618161943585e-06   2.9126148882459687e-07   -4.219389147613811e-06
4.364803614627538e-07   0.0   -7.653353406485214e-06
4.364803614627538e-07   0.0   -7.653353406485214e-06
4.364803614627538e-07   0.0   -7.653353406485214e-06
4.364803614627538e-07   0.0   -7.653353406485214e-06
5.027236771108303e-06   -5.89731464718518e-07   -3.5593160257373896e-07
5.027236771108303e-06   -5.89731464718518e-07   -3.5593160257373896e-07
5.027236771108303e-06   -5.89731464718518e-07   -3.5593160257373896e-07
5.027236771108303e-06   -5.89731464718518e-07   -3.5593160257373896e-07
5.057065175192095e-06   0.0   -8.043583758752416e-06
5.057065175192095e-06   0.0   -8.043583758752416e-06
5.057065175192095e-06   0.0   -8.043583758752416e-06
5.057065175192095e-06   0.0   -8.043583758752416e-06
5.467938193259488e-07   -4.398750269865313e-07   -2.6253981611692246e-07
5.467938193259488e-07   -4.398750269865313e-07   -2.6253981611692246e-07
5.467938193259488e-07   -4.398750269865313e-07   -2.6253981611692246e-07
5.467938193259488e-07   -4.398750269865313e-07   -2.6253981611692246e-07
2.7467727683274244e-06   -3.251919602226675e-07   -3.997981237844362e-06
2.7467727683274244e-06   -3.251919602226675e-07   -3.997981237844362e-06
2.7467727683274244e-06   -3.251919602226675e-07   -3.997981237844362e-06
2.7467727683274244e-06   -3.251919602226675e-07   -3.997981237844362e-06
5.467938193259488e-07   0.0   -7.779658742560498e-06
5.467938193259488e-07   0.0   -7.779658742560498e-06
5.467938193259488e-07   0.0   -7.779658742560498e-06
5.467938193259488e-07   0.0   -7.779658742560498e-06
5.057065175192095e-06   -4.398750269865313e-07   -5.264648323088404e-07
5.057065175192095e-06   -4.398750269865313e-07   -5.264648323088404e-07
5.057065175192095e-06   -4.398750269865313e-07   -5.264648323088404e-07
5.057065175192095e-06   -4.398750269865313e-07   -5.264648323088404e-07
5.053408354963851e-06   0.0   -7.928874072279419e-06
5.053408354963851e-06   0.0   -7.928874072279419e-06
5.053408354963851e-06   0.0   -7.928874072279419e-06
5.053408354963851e-06   0.0   -7.928874072279419e-06
6.360661970020529e-07   -2.6937832256889554e-07   -4.0501014880175195e-07
6.360661970020529e-07   -2.6937832256889554e-07   -4.0501014880175195e-07
6.360661970020529e-07   -2.6937832256889554e-07   -4.0501014880175195e-07
6.360661970020529e-07   -2.6937832256889554e-07   -4.0501014880175195e-07
2.8001010871448997e-06   -1.2434610809910094e-07   -4.098754294388371e-06
2.8001010871448997e-06   -1.2434610809910094e-07   -4.098754294388371e-06
2.8001010871448997e-06   -1.2434610809910094e-07   -4.098754294388371e-06
2.8001010871448997e-06   -1.2434610809910094e-07   -4.098754294388371e-06
6.360661970020524e-07   0.0   -7.767247078738075e-06
6.360661970020524e-07   0.0   -7.767247078738075e-06
6.360661970020524e-07   0.0   -7.767247078738075e-06
6.360661970020524e-07   0.0   -7.767247078738075e-06
5.053408354963851e-06   -2.6937832256889554e-07   -5.666371423430891e-07
5.053408354963851e-06   -2.6937832256889554e-07   -5.666371423430891e-07
5.053408354963851e-06   -2.6937832256889554e-07   -5.666371423430891e-07
5.053408354963851e-06   -2.6937832256889554e-07   -5.666371423430891e-07
5.168575062588589e-06   0.0   -7.629885727193959e-06
5.168575062588589e-06   0.0   -7.629885727193959e-06
5.168575062588589e-06   0.0   -7.629885727193959e-06
5.168575062588589e-06   0.0   -7.629885727193959e-06
7.506422246992466e-07   -4.136582522806463e-08   -2.418448355748822e-07
7.506422246992466e-07   -4.136582522806463e-08   -2.418448355748822e-07
7.506422246992466e-07   -4.136582522806463e-08   -2.418448355748822e-07
7.506422246992466e-07   -4.136582522806463e-08   -2.418448355748822e-07
2.902320629795319e-06   1.1446779295343593e-07   -3.921475681643901e-06
2.902320629795319e-06   1.1446779295343593e-07   -3.921475681643901e-06
2.902320629795319e-06   1.1446779295343593e-07   -3.921475681643901e-06
2.902320629795319e-06   1.1446779295343593e-07   -3.921475681643901e-06
5.027236771108303e-06   0.0   -8.007192285316326e-06
5.027236771108303e-06   0.0   -8.007192285316326e-06
5.027236771108303e-06   0.0   -8.007192285316326e-06
5.027236771108303e-06   0.0   -8.007192285316326e-06
1.1460153835278553e-05   -1.5090194608070286e-06   1.808924478483272e-06
1.1460153835278553e-05   -1.5090194608070286e-06   1.808924478483272e-06
1.1460153835278553e-05   -1.5090194608070286e-06   1.808924478483272e-06
1.1460153835278553e-05   -1.5090194608070286e-06   1.808924478483272e-06
1.0790067338670725e-05   0.0   -8.807325162907822e-06
1.0790067338670725e-05   0.0   -8.807325162907822e-06
1.0790067338670725e-05   0.0   -8.807325162907822e-06
1.0790067338670725e-05   0.0   -8.807325162907822e-06
5.057065175192095e-06   -1.2729023402590114e-06   1.5114198470453012e-06
5.057065175192095e-06   -1.2729023402590114e-06   1.5114198470453012e-06
5.057065175192095e-06   -1.2729023402590114e-06   1.5114198470453012e-06
5.057065175192095e-06   -1.2729023402590114e-06   1.5114198470453012e-06
7.908652054889513e-06   -6.667773979929151e-07   -3.6048999178100528e-06
7.908652054889513e-06   -6.667773979929151e-07   -3.6048999178100528e-06
7.908652054889513e-06   -6.667773979929151e-07   -3.6048999178100528e-06
7.908652054889513e-06   -6.667773979929151e-07   -3.6048999178100528e-06
5.057065175192091e-06   0.0   -8.04358375875241e-06
5.057065175192091e-06   0.0   -8.04358375875241e-06
5.057065175192091e-06   0.0   -8.04358375875241e-06
5.057065175192091e-06   0.0   -8.04358375875241e-06
1.0790067338670688e-05   -1.2729023402590063e-06   7.476784428898886e-07
1.0790067338670688e-05   -1.2729023402590063e-06   7.476784428898886e-07
1.0790067338670688e-05   -1.2729023402590063e-06   7.476784428898886e-07
1.0790067338670688e-05   -1.2729023402590063e-06   7.476784428898886e-07
1.048919491862083e-05   0.0   -8.624413389308762e-06
1.048919491862083e-05   0.0   -8.624413389308762e-06
1.048919491862083e-05   0.0   -8.624413389308762e-06
1.048919491862083e-05   0.0   -8.624413389308762e-06
5.053408354963851e-06   -1.1592321950489058e-06   1.130770200482208e-06
5.053408354963851e-06   -1.1592321950489058e-06   1.130770200482208e-06
5.053408354963851e-06   -1.1592321950489058e-06   1.130770200482208e-06
5.053408354963851e-06   -1.1592321950489058e-06   1.130770200482208e-06
7.773130046906457e-06   -4.840246921302899e-07   -3.807223787839971e-06
7.773130046906457e-06   -4.840246921302899e-07   -3.807223787839971e-06
7.773130046906457e-06   -4.840246921302899e-07   -3.807223787839971e-06
7.773130046906457e-06   -4.840246921302899e-07   -3.807223787839971e-06
5.053408354963851e-06   0.0   -7.928874072279419e-06
5.053408354963851e-06   0.0   -7.928874072279419e-06
5.053408354963851e-06   0.0   -7.928874072279419e-06
5.053408354963851e-06   0.0   -7.928874072279419e-06
1.0489194918620792e-05   -1.1592321950489008e-06   4.3523088345286446e-07
1.0489194918620792e-05   -1.1592321950489008e-06   4.3523088345286446e-07
1.0489194918620792e-05   -1.1592321950489008e-06   4.3523088345286446e-07
1.0489194918620792e-05   -1.1592321950489008e-06   4.3523088345286446e-07
1.0028698233516576e-05   0.0   -8.162694671000784e-06
1.0028698233516576e-05   0.0   -8.162694671000784e-06
1.0028698233516576e-05   0.0   -8.162694671000784e-06
1.0028698233516576e-05   0.0   -8.162694671000784e-06
5.168575062588589e-06   -8.880149063447342e-07   4.703195576860451e-07
5.168575062588589e-06   -8.880149063447342e-07   4.703195576860451e-07
5.168575062588589e-06   -8.880149063447342e-07   4.703195576860451e-07
5.168575062588589e-06   -8.880149063447342e-07   4.703195576860451e-07
7.541053294240222e-06   -1.9485049893448257e-07   -3.8997094728461535e-06
7.541053294240222e-06   -1.9485049893448257e-07   -3.8997094728461535e-06
7.541053294240222e-06   -1.9485049893448257e-07   -3.8997094728461535e-06
7.541053294240222e-06   -1.9485049893448257e-07   -3.8997094728461535e-06
-1.112216124684921e-05   1.4114596980913712e-06   -7.4477978580202845e-06
-1.112216124684921e-05   1.4114596980913712e-06   -7.4477978580202845e-06
-1.112216124684921e-05   1.4114596980913712e-06   -7.4477978580202845e-06
-1.112216124684921e-05   1.4114596980913712e-06   -7.4477978580202845e-06
-7.138690086179779e-06   1.2591770111732863e-06   -9.000488690554137e-07
-7.138690086179779e-06   1.2591770111732863e-06   -9.000488690554137e-07
-7.138690086179779e-06   1.2591770111732863e-06   -9.000488690554137e-07
-7.138690086179779e-06   1.2591770111732863e-06   -9.000488690554137e-07
-7.309309956631082e-06   1.708123953586078e-06   -6.269211391252847e-06
-7.309309956631082e-06   1.708123953586078e-06   -6.269211391252847e-06
-7.309309956631082e-06   1.708123953586078e-06   -6.269211391252847e-06
-7.309309956631082e-06   1.708123953586078e-06   -6.269211391252847e-06
-1.1223726696856953e-05   1.520511295819064e-06   3.673841037838321e-07
-1.1223726696856953e-05   1.520511295819064e-06   3.673841037838321e-07
-1.1223726696856953e-05   1.520511295819064e-06   3.673841037838321e-07
-1.1223726696856953e-05   1.520511295819064e-06   3.673841037838321e-07
-8.833084664123177e-06   1.479027943653302e-06   -3.59212927280639e-06
-8.833084664123177e-06   1.479027943653302e-06   -3.59212927280639e-06
-8.833084664123177e-06   1.479027943653302e-06   -3.59212927280639e-06
-8.833084664123177e-06   1.479027943653302e-06   -3.59212927280639e-06
-1.1223726696856953e-05   1.708123953586078e-06   -6.156643796592637e-06
-1.1223726696856953e-05   1.708123953586078e-06   -6.156643796592637e-06
-1.1223726696856953e-05   1.708123953586078e-06   -6.156643796592637e-06
-1.1223726696856953e-05   1.708123953586078e-06   -6.156643796592637e-06
-7.309309956631107e-06   1.5205112958190708e-06   2.548165091236339e-07
-7.309309956631107e-06   1.5205112958190708e-06   2.548165091236339e-07
-7.309309956631107e-06   1.5205112958190708e-06   2.548165091236339e-07
-7.309309956631107e-06   1.5205112958190708e-06   2.548165091236339e-07
-7.335552021016104e-06   1.8338924872244568e-06   -5.646749332426668e-06
-7.335552021016104e-06   1.8338924872244568e-06   -5.646749332426668e-06
-7.335552021016104e-06   1.8338924872244568e-06   -5.646749332426668e-06
-7.335552021016104e-06   1.8338924872244568e-06   -5.646749332426668e-06
-1.1286458192541188e-05   1.6388150167610775e-06   1.0551407690598025e-06
-1.1286458192541188e-05   1.6388150167610775e-06   1.0551407690598025e-06
-1.1286458192541188e-05   1.6388150167610775e-06   1.0551407690598025e-06
-1.1286458192541188e-05   1.6388150167610775e-06   1.0551407690598025e-06
-9.08054654139564e-06   1.6428846695966417e-06   -2.6238204412174174e-06
-9.08054654139564e-06   1.6428846695966417e-06   -2.6238204412174174e-06
-9.08054654139564e-06   1.6428846695966417e-06   -2.6238204412174174e-06
-9.08054654139564e-06   1.6428846695966417e-06   -2.6238204412174174e-06
-1.128645819254117e-05   1.8338924872244568e-06   -5.529702850148635e-06
-1.128645819254117e-05   1.8338924872244568e-06   -5.529702850148635e-06
-1.128645819254117e-05   1.8338924872244568e-06   -5.529702850148635e-06
-1.128645819254117e-05   1.8338924872244568e-06   -5.529702850148635e-06
-7.335552021016114e-06   1.6388150167610775e-06   9.380942867817752e-07
-7.335552021016114e-06   1.6388150167610775e-06   9.380942867817752e-07
-7.335552021016114e-06   1.6388150167610775e-06   9.380942867817752e-07
-7.335552021016114e-06   1.6388150167610775e-06   9.380942867817752e-07
-7.2833511838737205e-06   2.101342691318601e-06   -4.203969919634192e-06
-7.2833511838737205e-06   2.101342691318601e-06   -4.203969919634192e-06
-7.2833511838737205e-06   2.101342691318601e-06   -4.203969919634192e-06
-7.2833511838737205e-06   2.101342691318601e-06   -4.203969919634192e-06
-1.0949750152107207e-05   1.7378306966493127e-06   2.124802224223156e-06
-1.0949750152107207e-05   1.7378306966493127e-06   2.124802224223156e-06
-1.0949750152107207e-05   1.7378306966493127e-06   2.124802224223156e-06
-1.0949750152107207e-05   1.7378306966493127e-06   2.124802224223156e-06
-8.829627979032615e-06   1.8077375058812197e-06   -1.4506788164403019e-06
-8.829627979032615e-06   1.8077375058812197e-06   -1.4506788164403019e-06
-8.829627979032615e-06   1.8077375058812197e-06   -1.4506788164403019e-06
-8.829627979032615e-06   1.8077375058812197e-06   -1.4506788164403019e-06
-7.138690086179779e-06   5.118849063727981e-07   -8.000652778016037e-06
-7.138690086179779e-06   5.118849063727981e-07   -8.000652778016037e-06
-7.138690086179779e-06   5.118849063727981e-07   -8.000652778016037e-06
-7.138690086179779e-06   5.118849063727981e-07   -8.000652778016037e-06
-3.409550062193443e-06   5.862321843568824e-07   -1.7408110379150146e-06
-3.409550062193443e-06   5.862321843568824e-07   -1.7408110379150146e-06
-3.409550062193443e-06   5.862321843568824e-07   -1.7408110379150146e-06
-3.409550062193443e-06   5.862321843568824e-07   -1.7408110379150146e-06
-3.4814316841006787e-06   7.38639314323371e-07   -7.983638474734875e-06
-3.4814316841006787e-06   7.38639314323371e-07   -7.983638474734875e-06
-3.4814316841006787e-06   7.38639314323371e-07   -7.983638474734875e-06
-3.4814316841006787e-06   7.38639314323371e-07   -7.983638474734875e-06
-7.309309956631082e-06   8.263293104206093e-07   -1.6564553515091935e-06
-7.309309956631082e-06   8.263293104206093e-07   -1.6564553515091935e-06
-7.309309956631082e-06   8.263293104206093e-07   -1.6564553515091935e-06
-7.309309956631082e-06   8.263293104206093e-07   -1.6564553515091935e-06
-5.3190766795118944e-06   6.644845696703143e-07   -4.876403968924378e-06
-5.3190766795118944e-06   6.644845696703143e-07   -4.876403968924378e-06
-5.3190766795118944e-06   6.644845696703143e-07   -4.876403968924378e-06
-5.3190766795118944e-06   6.644845696703143e-07   -4.876403968924378e-06
-7.309309956631075e-06   7.38639314323371e-07   -8.036252472393205e-06
-7.309309956631075e-06   7.38639314323371e-07   -8.036252472393205e-06
-7.309309956631075e-06   7.38639314323371e-07   -8.036252472393205e-06
-7.309309956631075e-06   7.38639314323371e-07   -8.036252472393205e-06
-3.4814316841006847e-06   8.263293104206093e-07   -1.6038413538508566e-06
-3.4814316841006847e-06   8.263293104206093e-07   -1.6038413538508566e-06
-3.4814316841006847e-06   8.263293104206093e-07   -1.6038413538508566e-06
-3.4814316841006847e-06   8.263293104206093e-07   -1.6038413538508566e-06
-3.4967812353834962e-06   9.111731636851717e-07   -7.836470899211888e-06
-3.4967812353834962e-06   9.111731636851717e-07   -7.836470899211888e-06
-3.4967812353834962e-06   9.111731636851717e-07   -7.836470899211888e-06
-3.4967812353834962e-06   9.111731636851717e-07   -7.836470899211888e-06
-7.335552021016104e-06   1.0261909764826613e-06   -1.5075302775027225e-06
-7.335552021016104e-06   1.0261909764826613e-06   -1.5075302775027225e-06
-7.335552021016104e-06   1.0261909764826613e-06   -1.5075302775027225e-06
-7.335552021016104e-06   1.0261909764826613e-06   -1.5075302775027225e-06
-5.351460130463399e-06   8.480979234779025e-07   -4.70749426328768e-06
-5.351460130463399e-06   8.480979234779025e-07   -4.70749426328768e-06
-5.351460130463399e-06   8.480979234779025e-07   -4.70749426328768e-06
-5.351460130463399e-06   8.480979234779025e-07   -4.70749426328768e-06
-7.335552021016104e-06   9.111731636851717e-07   -7.905481586890386e-06
-7.335552021016104e-06   9.111731636851717e-07   -7.905481586890386e-06
-7.335552021016104e-06   9.111731636851717e-07   -7.905481586890386e-06
-7.335552021016104e-06   9.111731636851717e-07   -7.905481586890386e-06
-3.4967812353835085e-06   1.026190976482668e-06   -1.4385195898242254e-06
-3.4967812353835085e-06   1.026190976482668e-06   -1.4385195898242254e-06
-3.4967812353835085e-06   1.026190976482668e-06   -1.4385195898242254e-06
-3.4967812353835085e-06   1.026190976482668e-06   -1.4385195898242254e-06
-3.478473635289344e-06   1.0642151925137771e-06   -7.760024949277128e-06
-3.478473635289344e-06   1.0642151925137771e-06   -7.760024949277128e-06
-3.478473635289344e-06   1.0642151925137771e-06   -7.760024949277128e-06
-3.478473635289344e-06   1.0642151925137771e-06   -7.760024949277128e-06
-7.283351183873714e-06   1.242184497310949e-06   -1.525343951181484e-06
-7.283351183873714e-06   1.242184497310949e-06   -1.525343951181484e-06
-7.283351183873714e-06   1.242184497310949e-06   -1.525343951181484e-06
-7.283351183873714e-06   1.242184497310949e-06   -1.525343951181484e-06
-5.372967426395141e-06   1.0143374823394383e-06   -4.572608671329553e-06
-5.372967426395141e-06   1.0143374823394383e-06   -4.572608671329553e-06
-5.372967426395141e-06   1.0143374823394383e-06   -4.572608671329553e-06
-5.372967426395141e-06   1.0143374823394383e-06   -4.572608671329553e-06
-3.409550062193438e-06   -6.993256020089791e-08   -8.391657781800082e-06
-3.409550062193438e-06   -6.993256020089791e-08   -8.391657781800082e-06
-3.409550062193438e-06   -6.993256020089791e-08   -8.391657781800082e-06
-3.409550062193438e-06   -6.993256020089791e-08   -8.391657781800082e-06
2.7090838635627593e-07   -2.013371656889437e-08   -2.227681061371356e-06
2.7090838635627593e-07   -2.013371656889437e-08   -2.227681061371356e-06
2.7090838635627593e-07   -2.013371656889437e-08   -2.227681061371356e-06
2.7090838635627593e-07   -2.013371656889437e-08   -2.227681061371356e-06
2.651087775714028e-07   1.328607566620676e-07   -8.431940939075372e-06
2.651087775714028e-07   1.328607566620676e-07   -8.431940939075372e-06
2.651087775714028e-07   1.328607566620676e-07   -8.431940939075372e-06
2.651087775714028e-07   1.328607566620676e-07   -8.431940939075372e-06
-3.4814316841006787e-06   2.0159634079146564e-07   -2.228948186766177e-06
-3.4814316841006787e-06   2.0159634079146564e-07   -2.228948186766177e-06
-3.4814316841006787e-06   2.0159634079146564e-07   -2.228948186766177e-06
-3.4814316841006787e-06   2.0159634079146564e-07   -2.228948186766177e-06
-1.5974155699557602e-06   6.788071062546896e-08   -5.2887456655747955e-06
-1.5974155699557602e-06   6.788071062546896e-08   -5.2887456655747955e-06
-1.5974155699557602e-06   6.788071062546896e-08   -5.2887456655747955e-06
-1.5974155699557602e-06   6.788071062546896e-08   -5.2887456655747955e-06
-3.4814316841006787e-06   1.328607566620676e-07   -8.473182289552998e-06
-3.4814316841006787e-06   1.328607566620676e-07   -8.473182289552998e-06
-3.4814316841006787e-06   1.328607566620676e-07   -8.473182289552998e-06
-3.4814316841006787e-06   1.328607566620676e-07   -8.473182289552998e-06
2.651087775714028e-07   2.0159634079147242e-07   -2.1877068362885435e-06
2.651087775714028e-07   2.0159634079147242e-07   -2.1877068362885435e-06
2.651087775714028e-07   2.0159634079147242e-07   -2.1877068362885435e-06
2.651087775714028e-07   2.0159634079147242e-07   -2.1877068362885435e-06
2.54667715513019e-07   3.1222156651425725e-07   -8.447163074685436e-06
2.54667715513019e-07   3.1222156651425725e-07   -8.447163074685436e-06
2.54667715513019e-07   3.1222156651425725e-07   -8.447163074685436e-06
2.54667715513019e-07   3.1222156651425725e-07   -8.447163074685436e-06
-3.4967812353834962e-06   4.185770158075729e-07   -2.2585614261005685e-06
-3.4967812353834962e-06   4.185770158075729e-07   -2.2585614261005685e-06
-3.4967812353834962e-06   4.185770158075729e-07   -2.2585614261005685e-06
-3.4967812353834962e-06   4.185770158075729e-07   -2.2585614261005685e-06
-1.6172850078193565e-06   2.550655726598272e-07   -5.292948272818807e-06
-1.6172850078193565e-06   2.550655726598272e-07   -5.292948272818807e-06
-1.6172850078193565e-06   2.550655726598272e-07   -5.292948272818807e-06
-1.6172850078193565e-06   2.550655726598272e-07   -5.292948272818807e-06
-3.4967812353834962e-06   3.1222156651425725e-07   -8.510976344261422e-06
-3.4967812353834962e-06   3.1222156651425725e-07   -8.510976344261422e-06
-3.4967812353834962e-06   3.1222156651425725e-07   -8.510976344261422e-06
-3.4967812353834962e-06   3.1222156651425725e-07   -8.510976344261422e-06
2.5466771551301944e-07   4.185770158075729e-07   -2.194748156524581e-06
2.5466771551301944e-07   4.185770158075729e-07   -2.194748156524581e-06
2.5466771551301944e-07   4.185770158075729e-07   -2.194748156524581e-06
2.5466771551301944e-07   4.185770158075729e-07   -2.194748156524581e-06
2.2266896339237855e-07   5.189747622321609e-07   -8.433811337389324e-06
2.2266896339237855e-07   5.189747622321609e-07   -8.433811337389324e-06
2.2266896339237855e-07   5.189747622321609e-07   -8.433811337389324e-06
2.2266896339237855e-07   5.189747622321609e-07   -8.433811337389324e-06
-3.478473635289347e-06   6.442548497987308e-07   -2.3404083921264006e-06
-3.478473635289347e-06   6.442548497987308e-07   -2.3404083921264006e-06
-3.478473635289347e-06   6.442548497987308e-07   -2.3404083921264006e-06
-3.478473635289347e-06   6.442548497987308e-07   -2.3404083921264006e-06
-1.6253454329187512e-06   4.473726059977131e-07   -5.310826049796775e-06
-1.6253454329187512e-06   4.473726059977131e-07   -5.310826049796775e-06
-1.6253454329187512e-06   4.473726059977131e-07   -5.310826049796775e-06
-1.6253454329187512e-06   4.473726059977131e-07   -5.310826049796775e-06
2.7090838635627593e-07   -5.897314647185163e-07   -7.737418872759992e-06
2.7090838635627593e-07   -5.897314647185163e-07   -7.737418872759992e-06
2.7090838635627593e-07   -5.897314647185163e-07   -7.737418872759992e-06
2.7090838635627593e-07   -5.897314647185163e-07   -7.737418872759992e-06
4.063218975261281e-06   -6.054846183274065e-07   -1.4263531167503138e-06
4.063218975261281e-06   -6.054846183274065e-07   -1.4263531167503138e-06
4.063218975261281e-06   -6.054846183274065e-07   -1.4263531167503138e-06
4.063218975261281e-06   -6.054846183274065e-07   -1.4263531167503138e-06
4.1078149362015e-06   -4.398750269865279e-07   -7.835111646253598e-06
4.1078149362015e-06   -4.398750269865279e-07   -7.835111646253598e-06
4.1078149362015e-06   -4.398750269865279e-07   -7.835111646253598e-06
4.1078149362015e-06   -4.398750269865279e-07   -7.835111646253598e-06
2.651087775714028e-07   -4.021611034686737e-07   -1.4532297359808052e-06
2.651087775714028e-07   -4.021611034686737e-07   -1.4532297359808052e-06
2.651087775714028e-07   -4.021611034686737e-07   -1.4532297359808052e-06
2.651087775714028e-07   -4.021611034686737e-07   -1.4532297359808052e-06
2.1491191343891892e-06   -4.84429093514705e-07   -4.543886203316171e-06
2.1491191343891892e-06   -4.84429093514705e-07   -4.543886203316171e-06
2.1491191343891892e-06   -4.84429093514705e-07   -4.543886203316171e-06
2.1491191343891892e-06   -4.84429093514705e-07   -4.543886203316171e-06
2.6510877757140237e-07   -4.398750269865279e-07   -7.857740000364323e-06
2.6510877757140237e-07   -4.398750269865279e-07   -7.857740000364323e-06
2.6510877757140237e-07   -4.398750269865279e-07   -7.857740000364323e-06
2.6510877757140237e-07   -4.398750269865279e-07   -7.857740000364323e-06
4.1078149362015064e-06   -4.021611034686669e-07   -1.430601381870085e-06
4.1078149362015064e-06   -4.021611034686669e-07   -1.430601381870085e-06
4.1078149362015064e-06   -4.021611034686669e-07   -1.430601381870085e-06
4.1078149362015064e-06   -4.021611034686669e-07   -1.430601381870085e-06
4.099362589479946e-06   -2.6937832256889554e-07   -7.975702118259882e-06
4.099362589479946e-06   -2.6937832256889554e-07   -7.975702118259882e-06
4.099362589479946e-06   -2.6937832256889554e-07   -7.975702118259882e-06
4.099362589479946e-06   -2.6937832256889554e-07   -7.975702118259882e-06
2.54667715513019e-07   -2.041584295633459e-07   -1.607009264118347e-06
2.54667715513019e-07   -2.041584295633459e-07   -1.607009264118347e-06
2.54667715513019e-07   -2.041584295633459e-07   -1.607009264118347e-06
2.54667715513019e-07   -2.041584295633459e-07   -1.607009264118347e-06
2.1357710845735045e-06   -3.2386010926797117e-07   -4.670360538063033e-06
2.1357710845735045e-06   -3.2386010926797117e-07   -4.670360538063033e-06
2.1357710845735045e-06   -3.2386010926797117e-07   -4.670360538063033e-06
2.1357710845735045e-06   -3.2386010926797117e-07   -4.670360538063033e-06
2.546677155130187e-07   -2.6937832256889554e-07   -8.014834054063214e-06
2.546677155130187e-07   -2.6937832256889554e-07   -8.014834054063214e-06
2.546677155130187e-07   -2.6937832256889554e-07   -8.014834054063214e-06
2.546677155130187e-07   -2.6937832256889554e-07   -8.014834054063214e-06
4.09936258947996e-06   -2.041584295633459e-07   -1.5678773283150147e-06
4.09936258947996e-06   -2.041584295633459e-07   -1.5678773283150147e-06
4.09936258947996e-06   -2.041584295633459e-07   -1.5678773283150147e-06
4.09936258947996e-06   -2.041584295633459e-07   -1.5678773283150147e-06
3.988225680079067e-06   -4.1365825228062935e-08   -7.991137274017918e-06
3.988225680079067e-06   -4.1365825228062935e-08   -7.991137274017918e-06
3.988225680079067e-06   -4.1365825228062935e-08   -7.991137274017918e-06
3.988225680079067e-06   -4.1365825228062935e-08   -7.991137274017918e-06
2.2266896339237855e-07   3.9294596648559654e-08   -1.763605665999418e-06
2.2266896339237855e-07   3.9294596648559654e-08   -1.763605665999418e-06
2.2266896339237855e-07   3.9294596648559654e-08   -1.763605665999418e-06
2.2266896339237855e-07   3.9294596648559654e-08   -1.763605665999418e-06
2.1217420377598185e-06   -1.364451459823175e-07   -4.823283611033282e-06
2.1217420377598185e-06   -1.364451459823175e-07   -4.823283611033282e-06
2.1217420377598185e-06   -1.364451459823175e-07   -4.823283611033282e-06
2.1217420377598185e-06   -1.364451459823175e-07   -4.823283611033282e-06
4.063218975261281e-06   -1.5090194608070286e-06   -4.676603007384101e-06
4.063218975261281e-06   -1.5090194608070286e-06   -4.676603007384101e-06
4.063218975261281e-06   -1.5090194608070286e-06   -4.676603007384101e-06
4.063218975261281e-06   -1.5090194608070286e-06   -4.676603007384101e-06
7.785510151498456e-06   -1.116528855628697e-06   1.7627099827848447e-06
7.785510151498456e-06   -1.116528855628697e-06   1.7627099827848447e-06
7.785510151498456e-06   -1.116528855628697e-06   1.7627099827848447e-06
7.785510151498456e-06   -1.116528855628697e-06   1.7627099827848447e-06
8.108715989617281e-06   -1.2729023402590097e-06   -5.6359468055384995e-06
8.108715989617281e-06   -1.2729023402590097e-06   -5.6359468055384995e-06
8.108715989617281e-06   -1.2729023402590097e-06   -5.6359468055384995e-06
8.108715989617281e-06   -1.2729023402590097e-06   -5.6359468055384995e-06
4.107814936201515e-06   -1.004102071324028e-06   8.709414554601436e-07
4.107814936201515e-06   -1.004102071324028e-06   8.709414554601436e-07
4.107814936201515e-06   -1.004102071324028e-06   8.709414554601436e-07
4.107814936201515e-06   -1.004102071324028e-06   8.709414554601436e-07
5.7360100320934555e-06   -1.2183100369232695e-06   -1.7141922583335592e-06
5.7360100320934555e-06   -1.2183100369232695e-06   -1.7141922583335592e-06
5.7360100320934555e-06   -1.2183100369232695e-06   -1.7141922583335592e-06
5.7360100320934555e-06   -1.2183100369232695e-06   -1.7141922583335592e-06
4.107814936201504e-06   -1.272902340259008e-06   -5.797226966899467e-06
4.107814936201504e-06   -1.272902340259008e-06   -5.797226966899467e-06
4.107814936201504e-06   -1.272902340259008e-06   -5.797226966899467e-06
4.107814936201504e-06   -1.272902340259008e-06   -5.797226966899467e-06
8.108715989617281e-06   -1.004102071324028e-06   1.032221616821133e-06
8.108715989617281e-06   -1.004102071324028e-06   1.032221616821133e-06
8.108715989617281e-06   -1.004102071324028e-06   1.032221616821133e-06
8.108715989617281e-06   -1.004102071324028e-06   1.032221616821133e-06
8.095775681710162e-06   -1.1592321950489041e-06   -6.1169943823892525e-06
8.095775681710162e-06   -1.1592321950489041e-06   -6.1169943823892525e-06
8.095775681710162e-06   -1.1592321950489041e-06   -6.1169943823892525e-06
8.095775681710162e-06   -1.1592321950489041e-06   -6.1169943823892525e-06
4.09936258947996e-06   -8.903982066399643e-07   3.8239371161571554e-07
4.09936258947996e-06   -8.903982066399643e-07   3.8239371161571554e-07
4.09936258947996e-06   -8.903982066399643e-07   3.8239371161571554e-07
4.09936258947996e-06   -8.903982066399643e-07   3.8239371161571554e-07
5.953187509045006e-06   -1.0697406696986753e-06   -2.599709009824128e-06
5.953187509045006e-06   -1.0697406696986753e-06   -2.599709009824128e-06
5.953187509045006e-06   -1.0697406696986753e-06   -2.599709009824128e-06
5.953187509045006e-06   -1.0697406696986753e-06   -2.599709009824128e-06
4.099362589479954e-06   -1.1592321950489041e-06   -6.278294775434605e-06
4.099362589479954e-06   -1.1592321950489041e-06   -6.278294775434605e-06
4.099362589479954e-06   -1.1592321950489041e-06   -6.278294775434605e-06
4.099362589479954e-06   -1.1592321950489041e-06   -6.278294775434605e-06
8.095775681710162e-06   -8.903982066399643e-07   5.436941046610747e-07
8.095775681710162e-06   -8.903982066399643e-07   5.436941046610747e-07
8.095775681710162e-06   -8.903982066399643e-07   5.436941046610747e-07
8.095775681710162e-06   -8.903982066399643e-07   5.436941046610747e-07
8.067033793345588e-06   -8.880149063447325e-07   -7.109252821842018e-06
8.067033793345588e-06   -8.880149063447325e-07   -7.109252821842018e-06
8.067033793345588e-06   -8.880149063447325e-07   -7.109252821842018e-06
8.067033793345588e-06   -8.880149063447325e-07   -7.109252821842018e-06
3.988225680079081e-06   -6.465139667144712e-07   -4.561398635093379e-07
3.988225680079081e-06   -6.465139667144712e-07   -4.561398635093379e-07
3.988225680079081e-06   -6.465139667144712e-07   -4.561398635093379e-07
3.988225680079081e-06   -6.465139667144712e-07   -4.561398635093379e-07
5.795366495048287e-06   -9.165560994683092e-07   -3.3060159421390394e-06
5.795366495048287e-06   -9.165560994683092e-07   -3.3060159421390394e-06
5.795366495048287e-06   -9.165560994683092e-07   -3.3060159421390394e-06
5.795366495048287e-06   -9.165560994683092e-07   -3.3060159421390394e-06
-8.722253885152253e-06   1.259177011173293e-06   -6.1233818835615525e-06
-8.722253885152253e-06   1.259177011173293e-06   -6.1233818835615525e-06
-8.722253885152253e-06   1.259177011173293e-06   -6.1233818835615525e-06
-8.722253885152253e-06   1.259177011173293e-06   -6.1233818835615525e-06
-5.751454218164657e-06   9.502058877691234e-07   -1.357431779291399e-06
-5.751454218164657e-06   9.502058877691234e-07   -1.357431779291399e-06
-5.751454218164657e-06   9.502058877691234e-07   -1.357431779291399e-06
-5.751454218164657e-06   9.502058877691234e-07   -1.357431779291399e-06
-5.7738771690929225e-06   1.520511295819064e-06   -5.090427148022784e-06
-5.7738771690929225e-06   1.520511295819064e-06   -5.090427148022784e-06
-5.7738771690929225e-06   1.520511295819064e-06   -5.090427148022784e-06
-5.7738771690929225e-06   1.520511295819064e-06   -5.090427148022784e-06
-8.574336765120496e-06   1.1559392167157922e-06   -2.0425124051487664e-07
-8.574336765120496e-06   1.1559392167157922e-06   -2.0425124051487664e-07
-8.574336765120496e-06   1.1559392167157922e-06   -2.0425124051487664e-07
-8.574336765120496e-06   1.1559392167157922e-06   -2.0425124051487664e-07
-6.899941799727396e-06   1.2836294125695842e-06   -3.071523633682338e-06
-6.899941799727396e-06   1.2836294125695842e-06   -3.071523633682338e-06
-6.899941799727396e-06   1.2836294125695842e-06   -3.071523633682338e-06
-6.899941799727396e-06   1.2836294125695842e-06   -3.071523633682338e-06
-8.574336765120496e-06   1.520511295819064e-06   -4.8716839005608314e-06
-8.574336765120496e-06   1.520511295819064e-06   -4.8716839005608314e-06
-8.574336765120496e-06   1.520511295819064e-06   -4.8716839005608314e-06
-8.574336765120496e-06   1.520511295819064e-06   -4.8716839005608314e-06
-5.7738771690929225e-06   1.1559392167158057e-06   -4.2299448797681536e-07
-5.7738771690929225e-06   1.1559392167158057e-06   -4.2299448797681536e-07
-5.7738771690929225e-06   1.1559392167158057e-06   -4.2299448797681536e-07
-5.7738771690929225e-06   1.1559392167158057e-06   -4.2299448797681536e-07
-5.762301230901663e-06   1.6388150167610775e-06   -4.3594672676111905e-06
-5.762301230901663e-06   1.6388150167610775e-06   -4.3594672676111905e-06
-5.762301230901663e-06   1.6388150167610775e-06   -4.3594672676111905e-06
-5.762301230901663e-06   1.6388150167610775e-06   -4.3594672676111905e-06
-8.433176174937898e-06   1.2474557095963574e-06   3.2680655674801527e-07
-8.433176174937898e-06   1.2474557095963574e-06   3.2680655674801527e-07
-8.433176174937898e-06   1.2474557095963574e-06   3.2680655674801527e-07
-8.433176174937898e-06   1.2474557095963574e-06   3.2680655674801527e-07
-6.950981464820578e-06   1.4027949804411885e-06   -2.2367215226210183e-06
-6.950981464820578e-06   1.4027949804411885e-06   -2.2367215226210183e-06
-6.950981464820578e-06   1.4027949804411885e-06   -2.2367215226210183e-06
-6.950981464820578e-06   1.4027949804411885e-06   -2.2367215226210183e-06
-8.433176174937898e-06   1.6388150167610775e-06   -4.124651683312365e-06
-8.433176174937898e-06   1.6388150167610775e-06   -4.124651683312365e-06
-8.433176174937898e-06   1.6388150167610775e-06   -4.124651683312365e-06
-8.433176174937898e-06   1.6388150167610775e-06   -4.124651683312365e-06
-5.762301230901669e-06   1.2474557095963574e-06   9.199097244921714e-08
-5.762301230901669e-06   1.2474557095963574e-06   9.199097244921714e-08
-5.762301230901669e-06   1.2474557095963574e-06   9.199097244921714e-08
-5.762301230901669e-06   1.2474557095963574e-06   9.199097244921714e-08
-5.763947990932054e-06   1.7378306966493127e-06   -3.3450958675565717e-06
-5.763947990932054e-06   1.7378306966493127e-06   -3.3450958675565717e-06
-5.763947990932054e-06   1.7378306966493127e-06   -3.3450958675565717e-06
-5.763947990932054e-06   1.7378306966493127e-06   -3.3450958675565717e-06
-8.253119292004508e-06   1.341236077673211e-06   1.0414797389498112e-06
-8.253119292004508e-06   1.341236077673211e-06   1.0414797389498112e-06
-8.253119292004508e-06   1.341236077673211e-06   1.0414797389498112e-06
-8.253119292004508e-06   1.341236077673211e-06   1.0414797389498112e-06
-6.7855389754059305e-06   1.4684440711432812e-06   -1.480812251463083e-06
-6.7855389754059305e-06   1.4684440711432812e-06   -1.480812251463083e-06
-6.7855389754059305e-06   1.4684440711432812e-06   -1.480812251463083e-06
-6.7855389754059305e-06   1.4684440711432812e-06   -1.480812251463083e-06
-5.751454218164657e-06   5.862321843568891e-07   -7.194135093254108e-06
-5.751454218164657e-06   5.862321843568891e-07   -7.194135093254108e-06
-5.751454218164657e-06   5.862321843568891e-07   -7.194135093254108e-06
-5.751454218164657e-06   5.862321843568891e-07   -7.194135093254108e-06
-2.963389835997161e-06   4.783129438757738e-07   -2.6121126672636155e-06
-2.963389835997161e-06   4.783129438757738e-07   -2.6121126672636155e-06
-2.963389835997161e-06   4.783129438757738e-07   -2.6121126672636155e-06
-2.963389835997161e-06   4.783129438757738e-07   -2.6121126672636155e-06
-2.994947669546087e-06   8.263293104206093e-07   -7.088529893270596e-06
-2.994947669546087e-06   8.263293104206093e-07   -7.088529893270596e-06
-2.994947669546087e-06   8.263293104206093e-07   -7.088529893270596e-06
-2.994947669546087e-06   8.263293104206093e-07   -7.088529893270596e-06
-5.773877169092912e-06   6.816111693956395e-07   -2.3701498427442164e-06
-5.773877169092912e-06   6.816111693956395e-07   -2.3701498427442164e-06
-5.773877169092912e-06   6.816111693956395e-07   -2.3701498427442164e-06
-5.773877169092912e-06   6.816111693956395e-07   -2.3701498427442164e-06
-4.332847613954998e-06   6.821924976517548e-07   -4.772214564927757e-06
-4.332847613954998e-06   6.821924976517548e-07   -4.772214564927757e-06
-4.332847613954998e-06   6.821924976517548e-07   -4.772214564927757e-06
-4.332847613954998e-06   6.821924976517548e-07   -4.772214564927757e-06
-5.773877169092916e-06   8.263293104206093e-07   -7.0016990086555874e-06
-5.773877169092916e-06   8.263293104206093e-07   -7.0016990086555874e-06
-5.773877169092916e-06   8.263293104206093e-07   -7.0016990086555874e-06
-5.773877169092916e-06   8.263293104206093e-07   -7.0016990086555874e-06
-2.9949476695460914e-06   6.816111693956395e-07   -2.456980727359188e-06
-2.9949476695460914e-06   6.816111693956395e-07   -2.456980727359188e-06
-2.9949476695460914e-06   6.816111693956395e-07   -2.456980727359188e-06
-2.9949476695460914e-06   6.816111693956395e-07   -2.456980727359188e-06
-3.0138828539158226e-06   1.0261909764826613e-06   -6.902615734599012e-06
-3.0138828539158226e-06   1.0261909764826613e-06   -6.902615734599012e-06
-3.0138828539158226e-06   1.0261909764826613e-06   -6.902615734599012e-06
-3.0138828539158226e-06   1.0261909764826613e-06   -6.902615734599012e-06
-5.762301230901663e-06   8.636511386437987e-07   -2.224394536919327e-06
-5.762301230901663e-06   8.636511386437987e-07   -2.224394536919327e-06
-5.762301230901663e-06   8.636511386437987e-07   -2.224394536919327e-06
-5.762301230901663e-06   8.636511386437987e-07   -2.224394536919327e-06
-4.336848289409373e-06   8.504080882349509e-07   -4.592203609161076e-06
-4.336848289409373e-06   8.504080882349509e-07   -4.592203609161076e-06
-4.336848289409373e-06   8.504080882349509e-07   -4.592203609161076e-06
-4.336848289409373e-06   8.504080882349509e-07   -4.592203609161076e-06
-5.762301230901663e-06   1.0261909764826613e-06   -6.805091831895688e-06
-5.762301230901663e-06   1.0261909764826613e-06   -6.805091831895688e-06
-5.762301230901663e-06   1.0261909764826613e-06   -6.805091831895688e-06
-5.762301230901663e-06   1.0261909764826613e-06   -6.805091831895688e-06
-3.0138828539158336e-06   8.636511386437851e-07   -2.3219184396226135e-06
-3.0138828539158336e-06   8.636511386437851e-07   -2.3219184396226135e-06
-3.0138828539158336e-06   8.636511386437851e-07   -2.3219184396226135e-06
-3.0138828539158336e-06   8.636511386437851e-07   -2.3219184396226135e-06
-3.040030013265493e-06   1.242184497310949e-06   -6.887162118755178e-06
-3.040030013265493e-06   1.242184497310949e-06   -6.887162118755178e-06
-3.040030013265493e-06   1.242184497310949e-06   -6.887162118755178e-06
-3.040030013265493e-06   1.242184497310949e-06   -6.887162118755178e-06
-5.763947990932047e-06   1.058805709651709e-06   -2.237271550048702e-06
-5.763947990932047e-06   1.058805709651709e-06   -2.237271550048702e-06
-5.763947990932047e-06   1.058805709651709e-06   -2.237271550048702e-06
-5.763947990932047e-06   1.058805709651709e-06   -2.237271550048702e-06
-4.3840668388500995e-06   1.0182992110876381e-06   -4.512769571046781e-06
-4.3840668388500995e-06   1.0182992110876381e-06   -4.512769571046781e-06
-4.3840668388500995e-06   1.0182992110876381e-06   -4.512769571046781e-06
-4.3840668388500995e-06   1.0182992110876381e-06   -4.512769571046781e-06
-2.963389835997155e-06   -2.0133716568887592e-08   -7.77563596717833e-06
-2.963389835997155e-06   -2.0133716568887592e-08   -7.77563596717833e-06
-2.963389835997155e-06   -2.0133716568887592e-08   -7.77563596717833e-06
-2.963389835997155e-06   -2.0133716568887592e-08   -7.77563596717833e-06
-2.0176172922542215e-07   2.6350249549594493e-08   -3.145032076221014e-06
-2.0176172922542215e-07   2.6350249549594493e-08   -3.145032076221014e-06
-2.0176172922542215e-07   2.6350249549594493e-08   -3.145032076221014e-06
-2.0176172922542215e-07   2.6350249549594493e-08   -3.145032076221014e-06
-2.265222426114737e-07   2.0159634079146564e-07   -7.697929444391071e-06
-2.265222426114737e-07   2.0159634079146564e-07   -7.697929444391071e-06
-2.265222426114737e-07   2.0159634079146564e-07   -7.697929444391071e-06
-2.265222426114737e-07   2.0159634079146564e-07   -7.697929444391071e-06
-2.994947669546087e-06   2.2777514378285655e-07   -3.0995943479615652e-06
-2.994947669546087e-06   2.2777514378285655e-07   -3.0995943479615652e-06
-2.994947669546087e-06   2.2777514378285655e-07   -3.0995943479615652e-06
-2.994947669546087e-06   2.2777514378285655e-07   -3.0995943479615652e-06
-1.5871099603878733e-06   1.3369208411054772e-07   -5.3895406940885304e-06
-1.5871099603878733e-06   1.3369208411054772e-07   -5.3895406940885304e-06
-1.5871099603878733e-06   1.3369208411054772e-07   -5.3895406940885304e-06
-1.5871099603878733e-06   1.3369208411054772e-07   -5.3895406940885304e-06
-2.994947669546087e-06   2.0159634079146564e-07   -7.713636726185918e-06
-2.994947669546087e-06   2.0159634079146564e-07   -7.713636726185918e-06
-2.994947669546087e-06   2.0159634079146564e-07   -7.713636726185918e-06
-2.994947669546087e-06   2.0159634079146564e-07   -7.713636726185918e-06
-2.26522242611474e-07   2.2777514378285655e-07   -3.083887066166718e-06
-2.26522242611474e-07   2.2777514378285655e-07   -3.083887066166718e-06
-2.26522242611474e-07   2.2777514378285655e-07   -3.083887066166718e-06
-2.26522242611474e-07   2.2777514378285655e-07   -3.083887066166718e-06
-2.428706711472545e-07   4.185770158075729e-07   -7.71656351555184e-06
-2.428706711472545e-07   4.185770158075729e-07   -7.71656351555184e-06
-2.428706711472545e-07   4.185770158075729e-07   -7.71656351555184e-06
-2.428706711472545e-07   4.185770158075729e-07   -7.71656351555184e-06
-3.013882853915827e-06   4.287337746800723e-07   -3.1043039329277615e-06
-3.013882853915827e-06   4.287337746800723e-07   -3.1043039329277615e-06
-3.013882853915827e-06   4.287337746800723e-07   -3.1043039329277615e-06
-3.013882853915827e-06   4.287337746800723e-07   -3.1043039329277615e-06
-1.6203579492599803e-06   3.1167207303157626e-07   -5.35660841969836e-06
-1.6203579492599803e-06   3.1167207303157626e-07   -5.35660841969836e-06
-1.6203579492599803e-06   3.1167207303157626e-07   -5.35660841969836e-06
-1.6203579492599803e-06   3.1167207303157626e-07   -5.35660841969836e-06
-3.013882853915827e-06   4.185770158075729e-07   -7.722657570875363e-06
-3.013882853915827e-06   4.185770158075729e-07   -7.722657570875363e-06
-3.013882853915827e-06   4.185770158075729e-07   -7.722657570875363e-06
-3.013882853915827e-06   4.185770158075729e-07   -7.722657570875363e-06
-2.4287067114725493e-07   4.2873377468008586e-07   -3.0982098776042246e-06
-2.4287067114725493e-07   4.2873377468008586e-07   -3.0982098776042246e-06
-2.4287067114725493e-07   4.2873377468008586e-07   -3.0982098776042246e-06
-2.4287067114725493e-07   4.2873377468008586e-07   -3.0982098776042246e-06
-2.710848103557373e-07   6.442548497987308e-07   -7.815029473773742e-06
-2.710848103557373e-07   6.442548497987308e-07   -7.815029473773742e-06
-2.710848103557373e-07   6.442548497987308e-07   -7.815029473773742e-06
-2.710848103557373e-07   6.442548497987308e-07   -7.815029473773742e-06
-3.040030013265489e-06   6.342192978064573e-07   -3.194099471062152e-06
-3.040030013265489e-06   6.342192978064573e-07   -3.194099471062152e-06
-3.040030013265489e-06   6.342192978064573e-07   -3.194099471062152e-06
-3.040030013265489e-06   6.342192978064573e-07   -3.194099471062152e-06
-1.6559263051663699e-06   4.917795499172794e-07   -5.415475135827128e-06
-1.6559263051663699e-06   4.917795499172794e-07   -5.415475135827128e-06
-1.6559263051663699e-06   4.917795499172794e-07   -5.415475135827128e-06
-1.6559263051663699e-06   4.917795499172794e-07   -5.415475135827128e-06
-2.0176172922542236e-07   -6.054846183274132e-07   -6.936965750720858e-06
-2.0176172922542236e-07   -6.054846183274132e-07   -6.936965750720858e-06
-2.0176172922542236e-07   -6.054846183274132e-07   -6.936965750720858e-06
-2.0176172922542236e-07   -6.054846183274132e-07   -6.936965750720858e-06
2.5372972318275546e-06   -3.9826987666091403e-07   -2.247538637299342e-06
2.5372972318275546e-06   -3.9826987666091403e-07   -2.247538637299342e-06
2.5372972318275546e-06   -3.9826987666091403e-07   -2.247538637299342e-06
2.5372972318275546e-06   -3.9826987666091403e-07   -2.247538637299342e-06
2.5397607318854008e-06   -4.021611034686737e-07   -6.8492251647821085e-06
2.5397607318854008e-06   -4.021611034686737e-07   -6.8492251647821085e-06
2.5397607318854008e-06   -4.021611034686737e-07   -6.8492251647821085e-06
2.5397607318854008e-06   -4.021611034686737e-07   -6.8492251647821085e-06
-2.26522242611474e-07   -2.117824712999139e-07   -2.352980719921896e-06
-2.26522242611474e-07   -2.117824712999139e-07   -2.352980719921896e-06
-2.26522242611474e-07   -2.117824712999139e-07   -2.352980719921896e-06
-2.26522242611474e-07   -2.117824712999139e-07   -2.352980719921896e-06
1.153954759302836e-06   -3.889147558736527e-07   -4.5474963523681734e-06
1.153954759302836e-06   -3.889147558736527e-07   -4.5474963523681734e-06
1.153954759302836e-06   -3.889147558736527e-07   -4.5474963523681734e-06
1.153954759302836e-06   -3.889147558736527e-07   -4.5474963523681734e-06
-2.26522242611474e-07   -4.021611034686669e-07   -6.9634523440833474e-06
-2.26522242611474e-07   -4.021611034686669e-07   -6.9634523440833474e-06
-2.26522242611474e-07   -4.021611034686669e-07   -6.9634523440833474e-06
-2.26522242611474e-07   -4.021611034686669e-07   -6.9634523440833474e-06
2.5397607318854008e-06   -2.117824712999139e-07   -2.2387535406206296e-06
2.5397607318854008e-06   -2.117824712999139e-07   -2.2387535406206296e-06
2.5397607318854008e-06   -2.117824712999139e-07   -2.2387535406206296e-06
2.5397607318854008e-06   -2.117824712999139e-07   -2.2387535406206296e-06
2.5583471221051127e-06   -2.041584295633459e-07   -7.024402206001471e-06
2.5583471221051127e-06   -2.041584295633459e-07   -7.024402206001471e-06
2.5583471221051127e-06   -2.041584295633459e-07   -7.024402206001471e-06
2.5583471221051127e-06   -2.041584295633459e-07   -7.024402206001471e-06
-2.4287067114725536e-07   -3.012106765641349e-08   -2.4601283010583703e-06
-2.4287067114725536e-07   -3.012106765641349e-08   -2.4601283010583703e-06
-2.4287067114725536e-07   -3.012106765641349e-08   -2.4601283010583703e-06
-2.4287067114725536e-07   -3.012106765641349e-08   -2.4601283010583703e-06
1.1204421984630575e-06   -2.2764509232617866e-07   -4.613802002273665e-06
1.1204421984630575e-06   -2.2764509232617866e-07   -4.613802002273665e-06
1.1204421984630575e-06   -2.2764509232617866e-07   -4.613802002273665e-06
1.1204421984630575e-06   -2.2764509232617866e-07   -4.613802002273665e-06
-2.428706711472547e-07   -2.041584295633459e-07   -7.128824623145596e-06
-2.428706711472547e-07   -2.041584295633459e-07   -7.128824623145596e-06
-2.428706711472547e-07   -2.041584295633459e-07   -7.128824623145596e-06
-2.428706711472547e-07   -2.041584295633459e-07   -7.128824623145596e-06
2.5583471221051127e-06   -3.012106765641349e-08   -2.3557058839141734e-06
2.5583471221051127e-06   -3.012106765641349e-08   -2.3557058839141734e-06
2.5583471221051127e-06   -3.012106765641349e-08   -2.3557058839141734e-06
2.5583471221051127e-06   -3.012106765641349e-08   -2.3557058839141734e-06
2.5437512596777047e-06   3.9294596648559654e-08   -7.228599538136672e-06
2.5437512596777047e-06   3.9294596648559654e-08   -7.228599538136672e-06
2.5437512596777047e-06   3.9294596648559654e-08   -7.228599538136672e-06
2.5437512596777047e-06   3.9294596648559654e-08   -7.228599538136672e-06
-2.7108481035573774e-07   1.8062003339864901e-07   -2.6220013501309992e-06
-2.7108481035573774e-07   1.8062003339864901e-07   -2.6220013501309992e-06
-2.7108481035573774e-07   1.8062003339864901e-07   -2.6220013501309992e-06
-2.7108481035573774e-07   1.8062003339864901e-07   -2.6220013501309992e-06
1.1111665555888725e-06   -5.648396040448074e-08   -4.783491230423442e-06
1.1111665555888725e-06   -5.648396040448074e-08   -4.783491230423442e-06
1.1111665555888725e-06   -5.648396040448074e-08   -4.783491230423442e-06
1.1111665555888725e-06   -5.648396040448074e-08   -4.783491230423442e-06
2.5372972318275496e-06   -1.116528855628697e-06   -3.8590681692928e-06
2.5372972318275496e-06   -1.116528855628697e-06   -3.8590681692928e-06
2.5372972318275496e-06   -1.116528855628697e-06   -3.8590681692928e-06
2.5372972318275496e-06   -1.116528855628697e-06   -3.8590681692928e-06
5.067264018803521e-06   -7.104970415768269e-07   6.011622307649578e-07
5.067264018803521e-06   -7.104970415768269e-07   6.011622307649578e-07
5.067264018803521e-06   -7.104970415768269e-07   6.011622307649578e-07
5.067264018803521e-06   -7.104970415768269e-07   6.011622307649578e-07
5.255397561487423e-06   -1.0041020713240213e-06   -4.305286678225914e-06
5.255397561487423e-06   -1.0041020713240213e-06   -4.305286678225914e-06
5.255397561487423e-06   -1.0041020713240213e-06   -4.305286678225914e-06
5.255397561487423e-06   -1.0041020713240213e-06   -4.305286678225914e-06
2.5397607318853974e-06   -6.001093226141134e-07   -2.162094478181108e-08
2.5397607318853974e-06   -6.001093226141134e-07   -2.162094478181108e-08
2.5397607318853974e-06   -6.001093226141134e-07   -2.162094478181108e-08
2.5397607318853974e-06   -6.001093226141134e-07   -2.162094478181108e-08
3.685694884900955e-06   -8.470183549302539e-07   -1.7833657804180562e-06
3.685694884900955e-06   -8.470183549302539e-07   -1.7833657804180562e-06
3.685694884900955e-06   -8.470183549302539e-07   -1.7833657804180562e-06
3.685694884900955e-06   -8.470183549302539e-07   -1.7833657804180562e-06
2.5397607318853957e-06   -1.004102071324028e-06   -4.547682327451849e-06
2.5397607318853957e-06   -1.004102071324028e-06   -4.547682327451849e-06
2.5397607318853957e-06   -1.004102071324028e-06   -4.547682327451849e-06
2.5397607318853957e-06   -1.004102071324028e-06   -4.547682327451849e-06
5.255397561487423e-06   -6.001093226140999e-07   2.2077470444415803e-07
5.255397561487423e-06   -6.001093226140999e-07   2.2077470444415803e-07
5.255397561487423e-06   -6.001093226140999e-07   2.2077470444415803e-07
5.255397561487423e-06   -6.001093226140999e-07   2.2077470444415803e-07
5.403330751495086e-06   -8.903982066399643e-07   -4.845168199531335e-06
5.403330751495086e-06   -8.903982066399643e-07   -4.845168199531335e-06
5.403330751495086e-06   -8.903982066399643e-07   -4.845168199531335e-06
5.403330751495086e-06   -8.903982066399643e-07   -4.845168199531335e-06
2.5583471221051026e-06   -5.08793262407641e-07   -3.3249178375412714e-07
2.5583471221051026e-06   -5.08793262407641e-07   -3.3249178375412714e-07
2.5583471221051026e-06   -5.08793262407641e-07   -3.3249178375412714e-07
2.5583471221051026e-06   -5.08793262407641e-07   -3.3249178375412714e-07
3.8206939611866235e-06   -7.7612230876039e-07   -2.2760057544116396e-06
3.8206939611866235e-06   -7.7612230876039e-07   -2.2760057544116396e-06
3.8206939611866235e-06   -7.7612230876039e-07   -2.2760057544116396e-06
3.8206939611866235e-06   -7.7612230876039e-07   -2.2760057544116396e-06
2.5583471221051077e-06   -8.903982066399643e-07   -5.074131166070727e-06
2.5583471221051077e-06   -8.903982066399643e-07   -5.074131166070727e-06
2.5583471221051077e-06   -8.903982066399643e-07   -5.074131166070727e-06
2.5583471221051077e-06   -8.903982066399643e-07   -5.074131166070727e-06
5.403330751495076e-06   -5.08793262407641e-07   -1.0352881721469042e-07
5.403330751495076e-06   -5.08793262407641e-07   -1.0352881721469042e-07
5.403330751495076e-06   -5.08793262407641e-07   -1.0352881721469042e-07
5.403330751495076e-06   -5.08793262407641e-07   -1.0352881721469042e-07
5.563811471509868e-06   -6.465139667144712e-07   -5.771484814070647e-06
5.563811471509868e-06   -6.465139667144712e-07   -5.771484814070647e-06
5.563811471509868e-06   -6.465139667144712e-07   -5.771484814070647e-06
5.563811471509868e-06   -6.465139667144712e-07   -5.771484814070647e-06
2.5437512596776946e-06   -3.1643867554463525e-07   -9.360963023856242e-07
2.5437512596776946e-06   -3.1643867554463525e-07   -9.360963023856242e-07
2.5437512596776946e-06   -3.1643867554463525e-07   -9.360963023856242e-07
2.5437512596776946e-06   -3.1643867554463525e-07   -9.360963023856242e-07
3.8144451109611535e-06   -6.644891659928468e-07   -2.8450890935890947e-06
3.8144451109611535e-06   -6.644891659928468e-07   -2.8450890935890947e-06
3.8144451109611535e-06   -6.644891659928468e-07   -2.8450890935890947e-06
3.8144451109611535e-06   -6.644891659928468e-07   -2.8450890935890947e-06
-6.150671708092218e-06   9.502058877691234e-07   -4.755541871406521e-06
-6.150671708092218e-06   9.502058877691234e-07   -4.755541871406521e-06
-6.150671708092218e-06   9.502058877691234e-07   -4.755541871406521e-06
-6.150671708092218e-06   9.502058877691234e-07   -4.755541871406521e-06
-4.23360378773394e-06   5.932483656149117e-07   -1.7746031841019095e-06
-4.23360378773394e-06   5.932483656149117e-07   -1.7746031841019095e-06
-4.23360378773394e-06   5.932483656149117e-07   -1.7746031841019095e-06
-4.23360378773394e-06   5.932483656149117e-07   -1.7746031841019095e-06
-4.217294917193477e-06   1.1559392167157922e-06   -4.042232305108838e-06
-4.217294917193477e-06   1.1559392167157922e-06   -4.042232305108838e-06
-4.217294917193477e-06   1.1559392167157922e-06   -4.042232305108838e-06
-4.217294917193477e-06   1.1559392167157922e-06   -4.042232305108838e-06
-5.955814029736745e-06   7.609983394570692e-07   -9.077359245148326e-07
-5.955814029736745e-06   7.609983394570692e-07   -9.077359245148326e-07
-5.955814029736745e-06   7.609983394570692e-07   -9.077359245148326e-07
-5.955814029736745e-06   7.609983394570692e-07   -9.077359245148326e-07
-4.921029620727655e-06   9.170702688372084e-07   -2.726019763824726e-06
-4.921029620727655e-06   9.170702688372084e-07   -2.726019763824726e-06
-4.921029620727655e-06   9.170702688372084e-07   -2.726019763824726e-06
-4.921029620727655e-06   9.170702688372084e-07   -2.726019763824726e-06
-5.955814029736745e-06   1.1559392167157922e-06   -3.8052677787536133e-06
-5.955814029736745e-06   1.1559392167157922e-06   -3.8052677787536133e-06
-5.955814029736745e-06   1.1559392167157922e-06   -3.8052677787536133e-06
-5.955814029736745e-06   1.1559392167157922e-06   -3.8052677787536133e-06
-4.217294917193487e-06   7.609983394570827e-07   -1.1447004508700705e-06
-4.217294917193487e-06   7.609983394570827e-07   -1.1447004508700705e-06
-4.217294917193487e-06   7.609983394570827e-07   -1.1447004508700705e-06
-4.217294917193487e-06   7.609983394570827e-07   -1.1447004508700705e-06
-4.184705135808033e-06   1.2474557095963574e-06   -3.525624339455641e-06
-4.184705135808033e-06   1.2474557095963574e-06   -3.525624339455641e-06
-4.184705135808033e-06   1.2474557095963574e-06   -3.525624339455641e-06
-4.184705135808033e-06   1.2474557095963574e-06   -3.525624339455641e-06
-5.812071890175275e-06   8.407293137248215e-07   -5.693105779873197e-07
-5.812071890175275e-06   8.407293137248215e-07   -5.693105779873197e-07
-5.812071890175275e-06   8.407293137248215e-07   -5.693105779873197e-07
-5.812071890175275e-06   8.407293137248215e-07   -5.693105779873197e-07
-4.917714375577565e-06   1.0109969759187375e-06   -2.1620670329665297e-06
-4.917714375577565e-06   1.0109969759187375e-06   -2.1620670329665297e-06
-4.917714375577565e-06   1.0109969759187375e-06   -2.1620670329665297e-06
-4.917714375577565e-06   1.0109969759187375e-06   -2.1620670329665297e-06
-5.812071890175275e-06   1.2474557095963574e-06   -3.28158850193271e-06
-5.812071890175275e-06   1.2474557095963574e-06   -3.28158850193271e-06
-5.812071890175275e-06   1.2474557095963574e-06   -3.28158850193271e-06
-5.812071890175275e-06   1.2474557095963574e-06   -3.28158850193271e-06
-4.184705135808043e-06   8.407293137248215e-07   -8.133464155102237e-07
-4.184705135808043e-06   8.407293137248215e-07   -8.133464155102237e-07
-4.184705135808043e-06   8.407293137248215e-07   -8.133464155102237e-07
-4.184705135808043e-06   8.407293137248215e-07   -8.133464155102237e-07
-4.172912653008194e-06   1.341236077673211e-06   -2.816368939040283e-06
-4.172912653008194e-06   1.341236077673211e-06   -2.816368939040283e-06
-4.172912653008194e-06   1.341236077673211e-06   -2.816368939040283e-06
-4.172912653008194e-06   1.341236077673211e-06   -2.816368939040283e-06
-5.626228072039326e-06   9.434053337359436e-07   -1.5547812762602045e-07
-5.626228072039326e-06   9.434053337359436e-07   -1.5547812762602045e-07
-5.626228072039326e-06   9.434053337359436e-07   -1.5547812762602045e-07
-5.626228072039326e-06   9.434053337359436e-07   -1.5547812762602045e-07
-4.770320985544588e-06   1.0648864014697228e-06   -1.6548785790908692e-06
-4.770320985544588e-06   1.0648864014697228e-06   -1.6548785790908692e-06
-4.770320985544588e-06   1.0648864014697228e-06   -1.6548785790908692e-06
-4.770320985544588e-06   1.0648864014697228e-06   -1.6548785790908692e-06
-4.233603787733934e-06   4.783129438757738e-07   -6.159645728382582e-06
-4.233603787733934e-06   4.783129438757738e-07   -6.159645728382582e-06
-4.233603787733934e-06   4.783129438757738e-07   -6.159645728382582e-06
-4.233603787733934e-06   4.783129438757738e-07   -6.159645728382582e-06
-2.4817647377425006e-06   3.141996720397097e-07   -3.3383819414985065e-06
-2.4817647377425006e-06   3.141996720397097e-07   -3.3383819414985065e-06
-2.4817647377425006e-06   3.141996720397097e-07   -3.3383819414985065e-06
-2.4817647377425006e-06   3.141996720397097e-07   -3.3383819414985065e-06
-2.4834107125072725e-06   6.816111693956395e-07   -6.102927801717673e-06
-2.4834107125072725e-06   6.816111693956395e-07   -6.102927801717673e-06
-2.4834107125072725e-06   6.816111693956395e-07   -6.102927801717673e-06
-2.4834107125072725e-06   6.816111693956395e-07   -6.102927801717673e-06
-4.217294917193477e-06   4.92377599659922e-07   -3.0995806520658768e-06
-4.217294917193477e-06   4.92377599659922e-07   -3.0995806520658768e-06
-4.217294917193477e-06   4.92377599659922e-07   -3.0995806520658768e-06
-4.217294917193477e-06   4.92377599659922e-07   -3.0995806520658768e-06
-3.3227213615305665e-06   5.278217494397112e-07   -4.61180306803862e-06
-3.3227213615305665e-06   5.278217494397112e-07   -4.61180306803862e-06
-3.3227213615305665e-06   5.278217494397112e-07   -4.61180306803862e-06
-3.3227213615305665e-06   5.278217494397112e-07   -4.61180306803862e-06
-4.217294917193477e-06   6.816111693956395e-07   -5.989387659876205e-06
-4.217294917193477e-06   6.816111693956395e-07   -5.989387659876205e-06
-4.217294917193477e-06   6.816111693956395e-07   -5.989387659876205e-06
-4.217294917193477e-06   6.816111693956395e-07   -5.989387659876205e-06
-2.4834107125072725e-06   4.92377599659922e-07   -3.2131207939073147e-06
-2.4834107125072725e-06   4.92377599659922e-07   -3.2131207939073147e-06
-2.4834107125072725e-06   4.92377599659922e-07   -3.2131207939073147e-06
-2.4834107125072725e-06   4.92377599659922e-07   -3.2131207939073147e-06
-2.4822257521514334e-06   8.636511386437851e-07   -5.966553474761523e-06
-2.4822257521514334e-06   8.636511386437851e-07   -5.966553474761523e-06
-2.4822257521514334e-06   8.636511386437851e-07   -5.966553474761523e-06
-2.4822257521514334e-06   8.636511386437851e-07   -5.966553474761523e-06
-4.184705135808033e-06   6.56078428748144e-07   -3.0045442093964804e-06
-4.184705135808033e-06   6.56078428748144e-07   -3.0045442093964804e-06
-4.184705135808033e-06   6.56078428748144e-07   -3.0045442093964804e-06
-4.184705135808033e-06   6.56078428748144e-07   -3.0045442093964804e-06
-3.3079841738579516e-06   6.756147504639024e-07   -4.4774676056760306e-06
-3.3079841738579516e-06   6.756147504639024e-07   -4.4774676056760306e-06
-3.3079841738579516e-06   6.756147504639024e-07   -4.4774676056760306e-06
-3.3079841738579516e-06   6.756147504639024e-07   -4.4774676056760306e-06
-4.184705135808033e-06   8.636511386437851e-07   -5.842009848824145e-06
-4.184705135808033e-06   8.636511386437851e-07   -5.842009848824145e-06
-4.184705135808033e-06   8.636511386437851e-07   -5.842009848824145e-06
-4.184705135808033e-06   8.636511386437851e-07   -5.842009848824145e-06
-2.482225752151435e-06   6.560784287481576e-07   -3.129087835333855e-06
-2.482225752151435e-06   6.560784287481576e-07   -3.129087835333855e-06
-2.482225752151435e-06   6.560784287481576e-07   -3.129087835333855e-06
-2.482225752151435e-06   6.560784287481576e-07   -3.129087835333855e-06
-2.4851758719587784e-06   1.0588057096517226e-06   -5.991149014510005e-06
-2.4851758719587784e-06   1.0588057096517226e-06   -5.991149014510005e-06
-2.4851758719587784e-06   1.0588057096517226e-06   -5.991149014510005e-06
-2.4851758719587784e-06   1.0588057096517226e-06   -5.991149014510005e-06
-4.172912653008194e-06   8.354964465569605e-07   -3.0442688215707775e-06
-4.172912653008194e-06   8.354964465569605e-07   -3.0442688215707775e-06
-4.172912653008194e-06   8.354964465569605e-07   -3.0442688215707775e-06
-4.172912653008194e-06   8.354964465569605e-07   -3.0442688215707775e-06
-3.3300919203095643e-06   8.234774983710861e-07   -4.441758673823631e-06
-3.3300919203095643e-06   8.234774983710861e-07   -4.441758673823631e-06
-3.3300919203095643e-06   8.234774983710861e-07   -4.441758673823631e-06
-3.3300919203095643e-06   8.234774983710861e-07   -4.441758673823631e-06
-2.481764737742497e-06   2.6350249549594493e-08   -6.818923480112721e-06
-2.481764737742497e-06   2.6350249549594493e-08   -6.818923480112721e-06
-2.481764737742497e-06   2.6350249549594493e-08   -6.818923480112721e-06
-2.481764737742497e-06   2.6350249549594493e-08   -6.818923480112721e-06
-7.473800888264206e-07   5.876085100549528e-08   -3.908836037712391e-06
-7.473800888264206e-07   5.876085100549528e-08   -3.908836037712391e-06
-7.473800888264206e-07   5.876085100549528e-08   -3.908836037712391e-06
-7.473800888264206e-07   5.876085100549528e-08   -3.908836037712391e-06
-7.495424663824582e-07   2.2777514378285655e-07   -6.73847770123091e-06
-7.495424663824582e-07   2.2777514378285655e-07   -6.73847770123091e-06
-7.495424663824582e-07   2.2777514378285655e-07   -6.73847770123091e-06
-7.495424663824582e-07   2.2777514378285655e-07   -6.73847770123091e-06
-2.4834107125072674e-06   2.3954801226471313e-07   -3.855761012111996e-06
-2.4834107125072674e-06   2.3954801226471313e-07   -3.855761012111996e-06
-2.4834107125072674e-06   2.3954801226471313e-07   -3.855761012111996e-06
-2.4834107125072674e-06   2.3954801226471313e-07   -3.855761012111996e-06
-1.6044088630645961e-06   1.6286545962920394e-07   -5.274754562935132e-06
-1.6044088630645961e-06   1.6286545962920394e-07   -5.274754562935132e-06
-1.6044088630645961e-06   1.6286545962920394e-07   -5.274754562935132e-06
-1.6044088630645961e-06   1.6286545962920394e-07   -5.274754562935132e-06
-2.4834107125072674e-06   2.2777514378285655e-07   -6.745541422320013e-06
-2.4834107125072674e-06   2.2777514378285655e-07   -6.745541422320013e-06
-2.4834107125072674e-06   2.2777514378285655e-07   -6.745541422320013e-06
-2.4834107125072674e-06   2.2777514378285655e-07   -6.745541422320013e-06
-7.495424663824582e-07   2.3954801226471313e-07   -3.848697291022883e-06
-7.495424663824582e-07   2.3954801226471313e-07   -3.848697291022883e-06
-7.495424663824582e-07   2.3954801226471313e-07   -3.848697291022883e-06
-7.495424663824582e-07   2.3954801226471313e-07   -3.848697291022883e-06
-7.477352360251188e-07   4.2873377468008586e-07   -6.753615842421094e-06
-7.477352360251188e-07   4.2873377468008586e-07   -6.753615842421094e-06
-7.477352360251188e-07   4.2873377468008586e-07   -6.753615842421094e-06
-7.477352360251188e-07   4.2873377468008586e-07   -6.753615842421094e-06
-2.4822257521514334e-06   4.209389840893209e-07   -3.858121441189461e-06
-2.4822257521514334e-06   4.209389840893209e-07   -3.858121441189461e-06
-2.4822257521514334e-06   4.209389840893209e-07   -3.858121441189461e-06
-2.4822257521514334e-06   4.209389840893209e-07   -3.858121441189461e-06
-1.6157283752625234e-06   3.2195744524815117e-07   -5.242894812699604e-06
-1.6157283752625234e-06   3.2195744524815117e-07   -5.242894812699604e-06
-1.6157283752625234e-06   3.2195744524815117e-07   -5.242894812699604e-06
-1.6157283752625234e-06   3.2195744524815117e-07   -5.242894812699604e-06
-2.4822257521514334e-06   4.2873377468008586e-07   -6.748938968066647e-06
-2.4822257521514334e-06   4.2873377468008586e-07   -6.748938968066647e-06
-2.4822257521514334e-06   4.2873377468008586e-07   -6.748938968066647e-06
-2.4822257521514334e-06   4.2873377468008586e-07   -6.748938968066647e-06
-7.477352360251201e-07   4.209389840893209e-07   -3.862798315543904e-06
-7.477352360251201e-07   4.209389840893209e-07   -3.862798315543904e-06
-7.477352360251201e-07   4.209389840893209e-07   -3.862798315543904e-06
-7.477352360251201e-07   4.209389840893209e-07   -3.862798315543904e-06
-7.491653369270743e-07   6.342192978064573e-07   -6.855180964132786e-06
-7.491653369270743e-07   6.342192978064573e-07   -6.855180964132786e-06
-7.491653369270743e-07   6.342192978064573e-07   -6.855180964132786e-06
-7.491653369270743e-07   6.342192978064573e-07   -6.855180964132786e-06
-2.4851758719587784e-06   6.0550046246502e-07   -3.944598771208385e-06
-2.4851758719587784e-06   6.0550046246502e-07   -3.944598771208385e-06
-2.4851758719587784e-06   6.0550046246502e-07   -3.944598771208385e-06
-2.4851758719587784e-06   6.0550046246502e-07   -3.944598771208385e-06
-1.6301715074992511e-06   4.831525477437125e-07   -5.29619729647483e-06
-1.6301715074992511e-06   4.831525477437125e-07   -5.29619729647483e-06
-1.6301715074992511e-06   4.831525477437125e-07   -5.29619729647483e-06
-1.6301715074992511e-06   4.831525477437125e-07   -5.29619729647483e-06
-7.473800888264194e-07   -3.9826987666091403e-07   -6.026312525317399e-06
-7.473800888264194e-07   -3.9826987666091403e-07   -6.026312525317399e-06
-7.473800888264194e-07   -3.9826987666091403e-07   -6.026312525317399e-06
-7.473800888264194e-07   -3.9826987666091403e-07   -6.026312525317399e-06
9.511132355269967e-07   -1.7354013644685395e-07   -3.060652473933282e-06
9.511132355269967e-07   -1.7354013644685395e-07   -3.060652473933282e-06
9.511132355269967e-07   -1.7354013644685395e-07   -3.060652473933282e-06
9.511132355269967e-07   -1.7354013644685395e-07   -3.060652473933282e-06
9.645989664607731e-07   -2.117824712999139e-07   -5.881459887694841e-06
9.645989664607731e-07   -2.117824712999139e-07   -5.881459887694841e-06
9.645989664607731e-07   -2.117824712999139e-07   -5.881459887694841e-06
9.645989664607731e-07   -2.117824712999139e-07   -5.881459887694841e-06
-7.495424663824582e-07   -1.5966924812209956e-09   -3.150668966914008e-06
-7.495424663824582e-07   -1.5966924812209956e-09   -3.150668966914008e-06
-7.495424663824582e-07   -1.5966924812209956e-09   -3.150668966914008e-06
-7.495424663824582e-07   -1.5966924812209956e-09   -3.150668966914008e-06
1.0717670351197592e-07   -1.8033582233605982e-07   -4.471290772158496e-06
1.0717670351197592e-07   -1.8033582233605982e-07   -4.471290772158496e-06
1.0717670351197592e-07   -1.8033582233605982e-07   -4.471290772158496e-06
1.0717670351197592e-07   -1.8033582233605982e-07   -4.471290772158496e-06
-7.495424663824582e-07   -2.117824712999139e-07   -6.007571354986067e-06
-7.495424663824582e-07   -2.117824712999139e-07   -6.007571354986067e-06
-7.495424663824582e-07   -2.117824712999139e-07   -6.007571354986067e-06
-7.495424663824582e-07   -2.117824712999139e-07   -6.007571354986067e-06
9.645989664607782e-07   -1.5966924812209956e-09   -3.0245574996228046e-06
9.645989664607782e-07   -1.5966924812209956e-09   -3.0245574996228046e-06
9.645989664607782e-07   -1.5966924812209956e-09   -3.0245574996228046e-06
9.645989664607782e-07   -1.5966924812209956e-09   -3.0245574996228046e-06
9.990610582824604e-07   -3.012106765641349e-08   -6.000091974797878e-06
9.990610582824604e-07   -3.012106765641349e-08   -6.000091974797878e-06
9.990610582824604e-07   -3.012106765641349e-08   -6.000091974797878e-06
9.990610582824604e-07   -3.012106765641349e-08   -6.000091974797878e-06
-7.477352360251201e-07   1.6228275080580406e-07   -3.20420710869591e-06
-7.477352360251201e-07   1.6228275080580406e-07   -3.20420710869591e-06
-7.477352360251201e-07   1.6228275080580406e-07   -3.20420710869591e-06
-7.477352360251201e-07   1.6228275080580406e-07   -3.20420710869591e-06
9.675646404398818e-08   -3.693330847130325e-08   -4.49216363991149e-06
9.675646404398818e-08   -3.693330847130325e-08   -4.49216363991149e-06
9.675646404398818e-08   -3.693330847130325e-08   -4.49216363991149e-06
9.675646404398818e-08   -3.693330847130325e-08   -4.49216363991149e-06
-7.477352360251195e-07   -3.012106765642704e-08   -6.115534265875205e-06
-7.477352360251195e-07   -3.012106765642704e-08   -6.115534265875205e-06
-7.477352360251195e-07   -3.012106765642704e-08   -6.115534265875205e-06
-7.477352360251195e-07   -3.012106765642704e-08   -6.115534265875205e-06
9.990610582824638e-07   1.6228275080580406e-07   -3.0887648176185608e-06
9.990610582824638e-07   1.6228275080580406e-07   -3.0887648176185608e-06
9.990610582824638e-07   1.6228275080580406e-07   -3.0887648176185608e-06
9.990610582824638e-07   1.6228275080580406e-07   -3.0887648176185608e-06
1.0166088336445649e-06   1.8062003339863546e-07   -6.17639791116256e-06
1.0166088336445649e-06   1.8062003339863546e-07   -6.17639791116256e-06
1.0166088336445649e-06   1.8062003339863546e-07   -6.17639791116256e-06
1.0166088336445649e-06   1.8062003339863546e-07   -6.17639791116256e-06
-7.491653369270729e-07   3.4839270147147e-07   -3.334104561053523e-06
-7.491653369270729e-07   3.4839270147147e-07   -3.334104561053523e-06
-7.491653369270729e-07   3.4839270147147e-07   -3.334104561053523e-06
-7.491653369270729e-07   3.4839270147147e-07   -3.334104561053523e-06
1.0197219852390776e-07   1.1470922370335841e-07   -4.612457033477596e-06
1.0197219852390776e-07   1.1470922370335841e-07   -4.612457033477596e-06
1.0197219852390776e-07   1.1470922370335841e-07   -4.612457033477596e-06
1.0197219852390776e-07   1.1470922370335841e-07   -4.612457033477596e-06
9.51113235526995e-07   -7.104970415768269e-07   -3.2863929015557883e-06
9.51113235526995e-07   -7.104970415768269e-07   -3.2863929015557883e-06
9.51113235526995e-07   -7.104970415768269e-07   -3.2863929015557883e-06
9.51113235526995e-07   -7.104970415768269e-07   -3.2863929015557883e-06
2.419695480126968e-06   -3.093941152620863e-07   -5.980940714336635e-07
2.419695480126968e-06   -3.093941152620863e-07   -5.980940714336635e-07
2.419695480126968e-06   -3.093941152620863e-07   -5.980940714336635e-07
2.419695480126968e-06   -3.093941152620863e-07   -5.980940714336635e-07
2.608351120185325e-06   -6.001093226141134e-07   -3.4187332457188186e-06
2.608351120185325e-06   -6.001093226141134e-07   -3.4187332457188186e-06
2.608351120185325e-06   -6.001093226141134e-07   -3.4187332457188186e-06
2.608351120185325e-06   -6.001093226141134e-07   -3.4187332457188186e-06
9.645989664607748e-07   -1.9078591238541913e-07   -9.247403689817795e-07
9.645989664607748e-07   -1.9078591238541913e-07   -9.247403689817795e-07
9.645989664607748e-07   -1.9078591238541913e-07   -9.247403689817795e-07
9.645989664607748e-07   -1.9078591238541913e-07   -9.247403689817795e-07
1.6619146874126539e-06   -4.383159954437989e-07   -1.938415187399876e-06
1.6619146874126539e-06   -4.383159954437989e-07   -1.938415187399876e-06
1.6619146874126539e-06   -4.383159954437989e-07   -1.938415187399876e-06
1.6619146874126539e-06   -4.383159954437989e-07   -1.938415187399876e-06
9.645989664607748e-07   -6.001093226141134e-07   -3.664327291856002e-06
9.645989664607748e-07   -6.001093226141134e-07   -3.664327291856002e-06
9.645989664607748e-07   -6.001093226141134e-07   -3.664327291856002e-06
9.645989664607748e-07   -6.001093226141134e-07   -3.664327291856002e-06
2.6083511201853147e-06   -1.9078591238540557e-07   -6.791463228445589e-07
2.6083511201853147e-06   -1.9078591238540557e-07   -6.791463228445589e-07
2.6083511201853147e-06   -1.9078591238540557e-07   -6.791463228445589e-07
2.6083511201853147e-06   -1.9078591238540557e-07   -6.791463228445589e-07
2.7552917634766055e-06   -5.08793262407641e-07   -3.7380916435998714e-06
2.7552917634766055e-06   -5.08793262407641e-07   -3.7380916435998714e-06
2.7552917634766055e-06   -5.08793262407641e-07   -3.7380916435998714e-06
2.7552917634766055e-06   -5.08793262407641e-07   -3.7380916435998714e-06
9.990610582824638e-07   -1.1081621067776442e-07   -1.0498266993142357e-06
9.990610582824638e-07   -1.1081621067776442e-07   -1.0498266993142357e-06
9.990610582824638e-07   -1.1081621067776442e-07   -1.0498266993142357e-06
9.990610582824638e-07   -1.1081621067776442e-07   -1.0498266993142357e-06
1.7737669843590398e-06   -3.765371950484385e-07   -2.1815706521527745e-06
1.7737669843590398e-06   -3.765371950484385e-07   -2.1815706521527745e-06
1.7737669843590398e-06   -3.765371950484385e-07   -2.1815706521527745e-06
1.7737669843590398e-06   -3.765371950484385e-07   -2.1815706521527745e-06
9.99061058282462e-07   -5.08793262407641e-07   -3.976877874637801e-06
9.99061058282462e-07   -5.08793262407641e-07   -3.976877874637801e-06
9.99061058282462e-07   -5.08793262407641e-07   -3.976877874637801e-06
9.99061058282462e-07   -5.08793262407641e-07   -3.976877874637801e-06
2.755291763476592e-06   -1.1081621067776442e-07   -8.110404682762888e-07
2.755291763476592e-06   -1.1081621067776442e-07   -8.110404682762888e-07
2.755291763476592e-06   -1.1081621067776442e-07   -8.110404682762888e-07
2.755291763476592e-06   -1.1081621067776442e-07   -8.110404682762888e-07
2.953018346520704e-06   -3.1643867554463525e-07   -4.359765226703919e-06
2.953018346520704e-06   -3.1643867554463525e-07   -4.359765226703919e-06
2.953018346520704e-06   -3.1643867554463525e-07   -4.359765226703919e-06
2.953018346520704e-06   -3.1643867554463525e-07   -4.359765226703919e-06
1.0166088336445666e-06   4.276615572757587e-08   -1.3479389373403221e-06
1.0166088336445666e-06   4.276615572757587e-08   -1.3479389373403221e-06
1.0166088336445666e-06   4.276615572757587e-08   -1.3479389373403221e-06
1.0166088336445666e-06   4.276615572757587e-08   -1.3479389373403221e-06
1.8169438077763444e-06   -2.8975572173891423e-07   -2.4823174344134184e-06
1.8169438077763444e-06   -2.8975572173891423e-07   -2.4823174344134184e-06
1.8169438077763444e-06   -2.8975572173891423e-07   -2.4823174344134184e-06
1.8169438077763444e-06   -2.8975572173891423e-07   -2.4823174344134184e-06
-3.6195193286017157e-06   5.932483656149117e-07   -3.4612308063086217e-06
-3.6195193286017157e-06   5.932483656149117e-07   -3.4612308063086217e-06
-3.6195193286017157e-06   5.932483656149117e-07   -3.4612308063086217e-06
-3.6195193286017157e-06   5.932483656149117e-07   -3.4612308063086217e-06
-2.7334028679301534e-06   2.3154583966630425e-07   -2.201391554091838e-06
-2.7334028679301534e-06   2.3154583966630425e-07   -2.201391554091838e-06
-2.7334028679301534e-06   2.3154583966630425e-07   -2.201391554091838e-06
-2.7334028679301534e-06   2.3154583966630425e-07   -2.201391554091838e-06
-2.6965750955171938e-06   7.609983394570692e-07   -3.053823614461421e-06
-2.6965750955171938e-06   7.609983394570692e-07   -3.053823614461421e-06
-2.6965750955171938e-06   7.609983394570692e-07   -3.053823614461421e-06
-2.6965750955171938e-06   7.609983394570692e-07   -3.053823614461421e-06
-3.4153409944494607e-06   3.689552348213037e-07   -1.6206545867927574e-06
-3.4153409944494607e-06   3.689552348213037e-07   -1.6206545867927574e-06
-3.4153409944494607e-06   3.689552348213037e-07   -1.6206545867927574e-06
-3.4153409944494607e-06   3.689552348213037e-07   -1.6206545867927574e-06
-2.9843679240517756e-06   5.341868790539037e-07   -2.4380820239953087e-06
-2.9843679240517756e-06   5.341868790539037e-07   -2.4380820239953087e-06
-2.9843679240517756e-06   5.341868790539037e-07   -2.4380820239953087e-06
-2.9843679240517756e-06   5.341868790539037e-07   -2.4380820239953087e-06
-3.4153409944494607e-06   7.609983394570692e-07   -2.818597751679913e-06
-3.4153409944494607e-06   7.609983394570692e-07   -2.818597751679913e-06
-3.4153409944494607e-06   7.609983394570692e-07   -2.818597751679913e-06
-3.4153409944494607e-06   7.609983394570692e-07   -2.818597751679913e-06
-2.696575095517197e-06   3.689552348213037e-07   -1.8558804495742723e-06
-2.696575095517197e-06   3.689552348213037e-07   -1.8558804495742723e-06
-2.696575095517197e-06   3.689552348213037e-07   -1.8558804495742723e-06
-2.696575095517197e-06   3.689552348213037e-07   -1.8558804495742723e-06
-2.642976362164247e-06   8.407293137248215e-07   -2.725475364024699e-06
-2.642976362164247e-06   8.407293137248215e-07   -2.725475364024699e-06
-2.642976362164247e-06   8.407293137248215e-07   -2.725475364024699e-06
-2.642976362164247e-06   8.407293137248215e-07   -2.725475364024699e-06
-3.2555008854798164e-06   4.402803149413054e-07   -1.4643317592286212e-06
-3.2555008854798164e-06   4.402803149413054e-07   -1.4643317592286212e-06
-3.2555008854798164e-06   4.402803149413054e-07   -1.4643317592286212e-06
-3.2555008854798164e-06   4.402803149413054e-07   -1.4643317592286212e-06
-2.9321896502000395e-06   6.091074048958432e-07   -2.1044800720009568e-06
-2.9321896502000395e-06   6.091074048958432e-07   -2.1044800720009568e-06
-2.9321896502000395e-06   6.091074048958432e-07   -2.1044800720009568e-06
-2.9321896502000395e-06   6.091074048958432e-07   -2.1044800720009568e-06
-3.2555008854798096e-06   8.407293137248215e-07   -2.485205964754557e-06
-3.2555008854798096e-06   8.407293137248215e-07   -2.485205964754557e-06
-3.2555008854798096e-06   8.407293137248215e-07   -2.485205964754557e-06
-3.2555008854798096e-06   8.407293137248215e-07   -2.485205964754557e-06
-2.6429763621642502e-06   4.402803149413054e-07   -1.704601158498716e-06
-2.6429763621642502e-06   4.402803149413054e-07   -1.704601158498716e-06
-2.6429763621642502e-06   4.402803149413054e-07   -1.704601158498716e-06
-2.6429763621642502e-06   4.402803149413054e-07   -1.704601158498716e-06
-2.6091786907105725e-06   9.434053337359436e-07   -2.3083507255730878e-06
-2.6091786907105725e-06   9.434053337359436e-07   -2.3083507255730878e-06
-2.6091786907105725e-06   9.434053337359436e-07   -2.3083507255730878e-06
-2.6091786907105725e-06   9.434053337359436e-07   -2.3083507255730878e-06
-3.052705784219592e-06   5.541964106971903e-07   -1.335613549234747e-06
-3.052705784219592e-06   5.541964106971903e-07   -1.335613549234747e-06
-3.052705784219592e-06   5.541964106971903e-07   -1.335613549234747e-06
-3.052705784219592e-06   5.541964106971903e-07   -1.335613549234747e-06
-2.7971941697161066e-06   6.64042194217432e-07   -1.827373710186123e-06
-2.7971941697161066e-06   6.64042194217432e-07   -1.827373710186123e-06
-2.7971941697161066e-06   6.64042194217432e-07   -1.827373710186123e-06
-2.7971941697161066e-06   6.64042194217432e-07   -1.827373710186123e-06
-2.7334028679301534e-06   3.141996720397097e-07   -5.143563116172725e-06
-2.7334028679301534e-06   3.141996720397097e-07   -5.143563116172725e-06
-2.7334028679301534e-06   3.141996720397097e-07   -5.143563116172725e-06
-2.7334028679301534e-06   3.141996720397097e-07   -5.143563116172725e-06
-2.0059652973579533e-06   1.431801519771324e-07   -4.0337788772566296e-06
-2.0059652973579533e-06   1.431801519771324e-07   -4.0337788772566296e-06
-2.0059652973579533e-06   1.431801519771324e-07   -4.0337788772566296e-06
-2.0059652973579533e-06   1.431801519771324e-07   -4.0337788772566296e-06
-1.9841767850898477e-06   4.923775996599084e-07   -5.123063019542206e-06
-1.9841767850898477e-06   4.923775996599084e-07   -5.123063019542206e-06
-1.9841767850898477e-06   4.923775996599084e-07   -5.123063019542206e-06
-1.9841767850898477e-06   4.923775996599084e-07   -5.123063019542206e-06
-2.6965750955172006e-06   3.0177892651825225e-07   -3.821373298278265e-06
-2.6965750955172006e-06   3.0177892651825225e-07   -3.821373298278265e-06
-2.6965750955172006e-06   3.0177892651825225e-07   -3.821373298278265e-06
-2.6965750955172006e-06   3.0177892651825225e-07   -3.821373298278265e-06
-2.3319813605725765e-06   3.4590408877117093e-07   -4.455504620537844e-06
-2.3319813605725765e-06   3.4590408877117093e-07   -4.455504620537844e-06
-2.3319813605725765e-06   3.4590408877117093e-07   -4.455504620537844e-06
-2.3319813605725765e-06   3.4590408877117093e-07   -4.455504620537844e-06
-2.696575095517187e-06   4.92377599659922e-07   -5.00870381565718e-06
-2.696575095517187e-06   4.92377599659922e-07   -5.00870381565718e-06
-2.696575095517187e-06   4.92377599659922e-07   -5.00870381565718e-06
-2.696575095517187e-06   4.92377599659922e-07   -5.00870381565718e-06
-1.9841767850898477e-06   3.0177892651825225e-07   -3.9357325021632705e-06
-1.9841767850898477e-06   3.0177892651825225e-07   -3.9357325021632705e-06
-1.9841767850898477e-06   3.0177892651825225e-07   -3.9357325021632705e-06
-1.9841767850898477e-06   3.0177892651825225e-07   -3.9357325021632705e-06
-1.9597955057598906e-06   6.560784287481576e-07   -5.039812782663334e-06
-1.9597955057598906e-06   6.560784287481576e-07   -5.039812782663334e-06
-1.9597955057598906e-06   6.560784287481576e-07   -5.039812782663334e-06
-1.9597955057598906e-06   6.560784287481576e-07   -5.039812782663334e-06
-2.6429763621642536e-06   4.508457208274731e-07   -3.778038397236945e-06
-2.6429763621642536e-06   4.508457208274731e-07   -3.778038397236945e-06
-2.6429763621642536e-06   4.508457208274731e-07   -3.778038397236945e-06
-2.6429763621642536e-06   4.508457208274731e-07   -3.778038397236945e-06
-2.3021115503388455e-06   4.7587679086647135e-07   -4.361165058969328e-06
-2.3021115503388455e-06   4.7587679086647135e-07   -4.361165058969328e-06
-2.3021115503388455e-06   4.7587679086647135e-07   -4.361165058969328e-06
-2.3021115503388455e-06   4.7587679086647135e-07   -4.361165058969328e-06
-2.642976362164247e-06   6.56078428748144e-07   -4.9166731579109016e-06
-2.642976362164247e-06   6.56078428748144e-07   -4.9166731579109016e-06
-2.642976362164247e-06   6.56078428748144e-07   -4.9166731579109016e-06
-2.642976362164247e-06   6.56078428748144e-07   -4.9166731579109016e-06
-1.9597955057598855e-06   4.508457208274731e-07   -3.901178021989364e-06
-1.9597955057598855e-06   4.508457208274731e-07   -3.901178021989364e-06
-1.9597955057598855e-06   4.508457208274731e-07   -3.901178021989364e-06
-1.9597955057598855e-06   4.508457208274731e-07   -3.901178021989364e-06
-1.939018692966259e-06   8.354964465569605e-07   -5.088913454458384e-06
-1.939018692966259e-06   8.354964465569605e-07   -5.088913454458384e-06
-1.939018692966259e-06   8.354964465569605e-07   -5.088913454458384e-06
-1.939018692966259e-06   8.354964465569605e-07   -5.088913454458384e-06
-2.6091786907105826e-06   6.180456443854608e-07   -3.841509643581561e-06
-2.6091786907105826e-06   6.180456443854608e-07   -3.841509643581561e-06
-2.6091786907105826e-06   6.180456443854608e-07   -3.841509643581561e-06
-2.6091786907105826e-06   6.180456443854608e-07   -3.841509643581561e-06
-2.293520245295006e-06   6.092614064456099e-07   -4.362336509843655e-06
-2.293520245295006e-06   6.092614064456099e-07   -4.362336509843655e-06
-2.293520245295006e-06   6.092614064456099e-07   -4.362336509843655e-06
-2.293520245295006e-06   6.092614064456099e-07   -4.362336509843655e-06
-2.0059652973579465e-06   5.876085100549528e-08   -5.836075285297707e-06
-2.0059652973579465e-06   5.876085100549528e-08   -5.836075285297707e-06
-2.0059652973579465e-06   5.876085100549528e-08   -5.836075285297707e-06
-2.0059652973579465e-06   5.876085100549528e-08   -5.836075285297707e-06
-1.2907700302662207e-06   8.885260745247043e-08   -4.6260281196099996e-06
-1.2907700302662207e-06   8.885260745247043e-08   -4.6260281196099996e-06
-1.2907700302662207e-06   8.885260745247043e-08   -4.6260281196099996e-06
-1.2907700302662207e-06   8.885260745247043e-08   -4.6260281196099996e-06
-1.2700917831932928e-06   2.395480122647267e-07   -5.758124956549592e-06
-1.2700917831932928e-06   2.395480122647267e-07   -5.758124956549592e-06
-1.2700917831932928e-06   2.395480122647267e-07   -5.758124956549592e-06
-1.2700917831932928e-06   2.395480122647267e-07   -5.758124956549592e-06
-1.9841767850898477e-06   2.5217848092690706e-07   -4.575561567919268e-06
-1.9841767850898477e-06   2.5217848092690706e-07   -4.575561567919268e-06
-1.9841767850898477e-06   2.5217848092690706e-07   -4.575561567919268e-06
-1.9841767850898477e-06   2.5217848092690706e-07   -4.575561567919268e-06
-1.6270420026733759e-06   1.8359487891889234e-07   -5.12963604407534e-06
-1.6270420026733759e-06   1.8359487891889234e-07   -5.12963604407534e-06
-1.6270420026733759e-06   1.8359487891889234e-07   -5.12963604407534e-06
-1.6270420026733759e-06   1.8359487891889234e-07   -5.12963604407534e-06
-1.984176785089846e-06   2.3954801226471313e-07   -5.7657032377468945e-06
-1.984176785089846e-06   2.3954801226471313e-07   -5.7657032377468945e-06
-1.984176785089846e-06   2.3954801226471313e-07   -5.7657032377468945e-06
-1.984176785089846e-06   2.3954801226471313e-07   -5.7657032377468945e-06
-1.2700917831932928e-06   2.5217848092690706e-07   -4.567983286721968e-06
-1.2700917831932928e-06   2.5217848092690706e-07   -4.567983286721968e-06
-1.2700917831932928e-06   2.5217848092690706e-07   -4.567983286721968e-06
-1.2700917831932928e-06   2.5217848092690706e-07   -4.567983286721968e-06
-1.245817869746482e-06   4.209389840893209e-07   -5.7712978405706435e-06
-1.245817869746482e-06   4.209389840893209e-07   -5.7712978405706435e-06
-1.245817869746482e-06   4.209389840893209e-07   -5.7712978405706435e-06
-1.245817869746482e-06   4.209389840893209e-07   -5.7712978405706435e-06
-1.9597955057598855e-06   4.16853230669783e-07   -4.578883661829896e-06
-1.9597955057598855e-06   4.16853230669783e-07   -4.578883661829896e-06
-1.9597955057598855e-06   4.16853230669783e-07   -4.578883661829896e-06
-1.9597955057598855e-06   4.16853230669783e-07   -4.578883661829896e-06
-1.6148415934137425e-06   3.2514873470052127e-07   -5.098784151491911e-06
-1.6148415934137425e-06   3.2514873470052127e-07   -5.098784151491911e-06
-1.6148415934137425e-06   3.2514873470052127e-07   -5.098784151491911e-06
-1.6148415934137425e-06   3.2514873470052127e-07   -5.098784151491911e-06
-1.959795505759882e-06   4.209389840893209e-07   -5.7688463885189126e-06
-1.959795505759882e-06   4.209389840893209e-07   -5.7688463885189126e-06
-1.959795505759882e-06   4.209389840893209e-07   -5.7688463885189126e-06
-1.959795505759882e-06   4.209389840893209e-07   -5.7688463885189126e-06
-1.2458178697464841e-06   4.16853230669783e-07   -4.581335113881634e-06
-1.2458178697464841e-06   4.16853230669783e-07   -4.581335113881634e-06
-1.2458178697464841e-06   4.16853230669783e-07   -4.581335113881634e-06
-1.2458178697464841e-06   4.16853230669783e-07   -4.581335113881634e-06
-1.2243005331735465e-06   6.055004624650064e-07   -5.868093196418687e-06
-1.2243005331735465e-06   6.055004624650064e-07   -5.868093196418687e-06
-1.2243005331735465e-06   6.055004624650064e-07   -5.868093196418687e-06
-1.2243005331735465e-06   6.055004624650064e-07   -5.868093196418687e-06
-1.9390186929662605e-06   5.8410821216577e-07   -4.664060913251244e-06
-1.9390186929662605e-06   5.8410821216577e-07   -4.664060913251244e-06
-1.9390186929662605e-06   5.8410821216577e-07   -4.664060913251244e-06
-1.9390186929662605e-06   5.8410821216577e-07   -4.664060913251244e-06
-1.6057639729740169e-06   4.686139208809521e-07   -5.150188871800796e-06
-1.6057639729740169e-06   4.686139208809521e-07   -5.150188871800796e-06
-1.6057639729740169e-06   4.686139208809521e-07   -5.150188871800796e-06
-1.6057639729740169e-06   4.686139208809521e-07   -5.150188871800796e-06
-1.2907700302662164e-06   -1.7354013644685395e-07   -5.104674511778866e-06
-1.2907700302662164e-06   -1.7354013644685395e-07   -5.104674511778866e-06
-1.2907700302662164e-06   -1.7354013644685395e-07   -5.104674511778866e-06
-1.2907700302662164e-06   -1.7354013644685395e-07   -5.104674511778866e-06
-6.095356661846509e-07   5.0193342711172834e-08   -3.835043817481442e-06
-6.095356661846509e-07   5.0193342711172834e-08   -3.835043817481442e-06
-6.095356661846509e-07   5.0193342711172834e-08   -3.835043817481442e-06
-6.095356661846509e-07   5.0193342711172834e-08   -3.835043817481442e-06
-5.762190759781845e-07   -1.5966924812345481e-09   -4.93326741682973e-06
-5.762190759781845e-07   -1.5966924812345481e-09   -4.93326741682973e-06
-5.762190759781845e-07   -1.5966924812345481e-09   -4.93326741682973e-06
-5.762190759781845e-07   -1.5966924812345481e-09   -4.93326741682973e-06
-1.2700917831932909e-06   2.0978533353706308e-07   -3.9036421204154795e-06
-1.2700917831932909e-06   2.0978533353706308e-07   -3.9036421204154795e-06
-1.2700917831932909e-06   2.0978533353706308e-07   -3.9036421204154795e-06
-1.2700917831932909e-06   2.0978533353706308e-07   -3.9036421204154795e-06
-9.27103234182494e-07   3.75171676053848e-08   -4.371928802541235e-06
-9.27103234182494e-07   3.75171676053848e-08   -4.371928802541235e-06
-9.27103234182494e-07   3.75171676053848e-08   -4.371928802541235e-06
-9.27103234182494e-07   3.75171676053848e-08   -4.371928802541235e-06
-1.2700917831932885e-06   -1.5966924812345481e-09   -5.060096632440692e-06
-1.2700917831932885e-06   -1.5966924812345481e-09   -5.060096632440692e-06
-1.2700917831932885e-06   -1.5966924812345481e-09   -5.060096632440692e-06
-1.2700917831932885e-06   -1.5966924812345481e-09   -5.060096632440692e-06
-5.762190759781845e-07   2.0978533353706308e-07   -3.776812904804545e-06
-5.762190759781845e-07   2.0978533353706308e-07   -3.776812904804545e-06
-5.762190759781845e-07   2.0978533353706308e-07   -3.776812904804545e-06
-5.762190759781845e-07   2.0978533353706308e-07   -3.776812904804545e-06
-5.228233285334607e-07   1.6228275080580406e-07   -4.994793194602515e-06
-5.228233285334607e-07   1.6228275080580406e-07   -4.994793194602515e-06
-5.228233285334607e-07   1.6228275080580406e-07   -4.994793194602515e-06
-5.228233285334607e-07   1.6228275080580406e-07   -4.994793194602515e-06
-1.245817869746482e-06   3.588051493393161e-07   -3.907715731700915e-06
-1.245817869746482e-06   3.588051493393161e-07   -3.907715731700915e-06
-1.245817869746482e-06   3.588051493393161e-07   -3.907715731700915e-06
-1.245817869746482e-06   3.588051493393161e-07   -3.907715731700915e-06
-9.08132957037215e-07   1.6719423062144128e-07   -4.35555736831897e-06
-9.08132957037215e-07   1.6719423062144128e-07   -4.35555736831897e-06
-9.08132957037215e-07   1.6719423062144128e-07   -4.35555736831897e-06
-9.08132957037215e-07   1.6719423062144128e-07   -4.35555736831897e-06
-1.2458178697464786e-06   1.6228275080580406e-07   -5.112706633722593e-06
-1.2458178697464786e-06   1.6228275080580406e-07   -5.112706633722593e-06
-1.2458178697464786e-06   1.6228275080580406e-07   -5.112706633722593e-06
-1.2458178697464786e-06   1.6228275080580406e-07   -5.112706633722593e-06
-5.228233285334624e-07   3.588051493393161e-07   -3.789802292580814e-06
-5.228233285334624e-07   3.588051493393161e-07   -3.789802292580814e-06
-5.228233285334624e-07   3.588051493393161e-07   -3.789802292580814e-06
-5.228233285334624e-07   3.588051493393161e-07   -3.789802292580814e-06
-4.862095874190245e-07   3.4839270147147e-07   -5.13406776808442e-06
-4.862095874190245e-07   3.4839270147147e-07   -5.13406776808442e-06
-4.862095874190245e-07   3.4839270147147e-07   -5.13406776808442e-06
-4.862095874190245e-07   3.4839270147147e-07   -5.13406776808442e-06
-1.2243005331735465e-06   5.255592297622965e-07   -4.010216108801367e-06
-1.2243005331735465e-06   5.255592297622965e-07   -4.010216108801367e-06
-1.2243005331735465e-06   5.255592297622965e-07   -4.010216108801367e-06
-1.2243005331735465e-06   5.255592297622965e-07   -4.010216108801367e-06
-8.889893907365401e-07   3.013580645975806e-07   -4.434547313764224e-06
-8.889893907365401e-07   3.013580645975806e-07   -4.434547313764224e-06
-8.889893907365401e-07   3.013580645975806e-07   -4.434547313764224e-06
-8.889893907365401e-07   3.013580645975806e-07   -4.434547313764224e-06
-6.095356661846475e-07   -3.093941152620727e-07   -2.748537777573268e-06
-6.095356661846475e-07   -3.093941152620727e-07   -2.748537777573268e-06
-6.095356661846475e-07   -3.093941152620727e-07   -2.748537777573268e-06
-6.095356661846475e-07   -3.093941152620727e-07   -2.748537777573268e-06
-1.5595380242156638e-07   8.324898043292925e-08   -1.75698214721779e-06
-1.5595380242156638e-07   8.324898043292925e-08   -1.75698214721779e-06
-1.5595380242156638e-07   8.324898043292925e-08   -1.75698214721779e-06
-1.5595380242156638e-07   8.324898043292925e-08   -1.75698214721779e-06
4.5330202149948854e-08   -1.9078591238540557e-07   -2.5923100573436354e-06
4.5330202149948854e-08   -1.9078591238540557e-07   -2.5923100573436354e-06
4.5330202149948854e-08   -1.9078591238540557e-07   -2.5923100573436354e-06
4.5330202149948854e-08   -1.9078591238540557e-07   -2.5923100573436354e-06
-5.762190759781845e-07   2.1111446902306158e-07   -1.7975348226417906e-06
-5.762190759781845e-07   2.1111446902306158e-07   -1.7975348226417906e-06
-5.762190759781845e-07   2.1111446902306158e-07   -1.7975348226417906e-06
-5.762190759781845e-07   2.1111446902306158e-07   -1.7975348226417906e-06
-3.123352678985695e-07   -3.592098062911702e-08   -2.089119899649921e-06
-3.123352678985695e-07   -3.592098062911702e-08   -2.089119899649921e-06
-3.123352678985695e-07   -3.592098062911702e-08   -2.089119899649921e-06
-3.123352678985695e-07   -3.592098062911702e-08   -2.089119899649921e-06
-5.762190759781828e-07   -1.9078591238540557e-07   -2.833450286188698e-06
-5.762190759781828e-07   -1.9078591238540557e-07   -2.833450286188698e-06
-5.762190759781828e-07   -1.9078591238540557e-07   -2.833450286188698e-06
-5.762190759781828e-07   -1.9078591238540557e-07   -2.833450286188698e-06
4.5330202149948854e-08   2.1111446902306158e-07   -1.5563945937967347e-06
4.5330202149948854e-08   2.1111446902306158e-07   -1.5563945937967347e-06
4.5330202149948854e-08   2.1111446902306158e-07   -1.5563945937967347e-06
4.5330202149948854e-08   2.1111446902306158e-07   -1.5563945937967347e-06
2.0485308827295257e-07   -1.1081621067776442e-07   -2.7200861453977756e-06
2.0485308827295257e-07   -1.1081621067776442e-07   -2.7200861453977756e-06
2.0485308827295257e-07   -1.1081621067776442e-07   -2.7200861453977756e-06
2.0485308827295257e-07   -1.1081621067776442e-07   -2.7200861453977756e-06
-5.228233285334607e-07   2.8213200748956977e-07   -1.7430610482874614e-06
-5.228233285334607e-07   2.8213200748956977e-07   -1.7430610482874614e-06
-5.228233285334607e-07   2.8213200748956977e-07   -1.7430610482874614e-06
-5.228233285334607e-07   2.8213200748956977e-07   -1.7430610482874614e-06
-2.156220987274679e-07   2.683323600208981e-08   -2.1018838350716167e-06
-2.156220987274679e-07   2.683323600208981e-08   -2.1018838350716167e-06
-2.156220987274679e-07   2.683323600208981e-08   -2.1018838350716167e-06
-2.156220987274679e-07   2.683323600208981e-08   -2.1018838350716167e-06
-5.228233285334607e-07   -1.1081621067776442e-07   -2.9558550762981666e-06
-5.228233285334607e-07   -1.1081621067776442e-07   -2.9558550762981666e-06
-5.228233285334607e-07   -1.1081621067776442e-07   -2.9558550762981666e-06
-5.228233285334607e-07   -1.1081621067776442e-07   -2.9558550762981666e-06
2.0485308827295257e-07   2.8213200748956977e-07   -1.507292117387067e-06
2.0485308827295257e-07   2.8213200748956977e-07   -1.507292117387067e-06
2.0485308827295257e-07   2.8213200748956977e-07   -1.507292117387067e-06
2.0485308827295257e-07   2.8213200748956977e-07   -1.507292117387067e-06
4.097411931533675e-07   4.276615572756232e-08   -3.0318855396653917e-06
4.097411931533675e-07   4.276615572756232e-08   -3.0318855396653917e-06
4.097411931533675e-07   4.276615572756232e-08   -3.0318855396653917e-06
4.097411931533675e-07   4.276615572756232e-08   -3.0318855396653917e-06
-4.862095874190262e-07   4.0389983164349896e-07   -1.755314444260939e-06
-4.862095874190262e-07   4.0389983164349896e-07   -1.755314444260939e-06
-4.862095874190262e-07   4.0389983164349896e-07   -1.755314444260939e-06
-4.862095874190262e-07   4.0389983164349896e-07   -1.755314444260939e-06
-1.2554755847428746e-07   9.430094967505481e-08   -2.1706584966544833e-06
-1.2554755847428746e-07   9.430094967505481e-08   -2.1706584966544833e-06
-1.2554755847428746e-07   9.430094967505481e-08   -2.1706584966544833e-06
-1.2554755847428746e-07   9.430094967505481e-08   -2.1706584966544833e-06
-1.1505938015829513e-06   2.3154583966630425e-07   -2.2226608003208815e-06
-1.1505938015829513e-06   2.3154583966630425e-07   -2.2226608003208815e-06
-1.1505938015829513e-06   2.3154583966630425e-07   -2.2226608003208815e-06
-1.1505938015829513e-06   2.3154583966630425e-07   -2.2226608003208815e-06
-1.2723781436916023e-06   -1.2387133554786142e-07   -2.6388850089638228e-06
-1.2723781436916023e-06   -1.2387133554786142e-07   -2.6388850089638228e-06
-1.2723781436916023e-06   -1.2387133554786142e-07   -2.6388850089638228e-06
-1.2723781436916023e-06   -1.2387133554786142e-07   -2.6388850089638228e-06
-1.2148356494156372e-06   3.689552348212766e-07   -2.090965253945731e-06
-1.2148356494156372e-06   3.689552348212766e-07   -2.090965253945731e-06
-1.2148356494156372e-06   3.689552348212766e-07   -2.090965253945731e-06
-1.2148356494156372e-06   3.689552348212766e-07   -2.090965253945731e-06
-9.308733556364062e-07   -1.4802952702242791e-08   -2.333980831063632e-06
-9.308733556364062e-07   -1.4802952702242791e-08   -2.333980831063632e-06
-9.308733556364062e-07   -1.4802952702242791e-08   -2.333980831063632e-06
-9.308733556364062e-07   -1.4802952702242791e-08   -2.333980831063632e-06
-1.0927107183612577e-06   1.59985694950693e-07   -2.1691250817807407e-06
-1.0927107183612577e-06   1.59985694950693e-07   -2.1691250817807407e-06
-1.0927107183612577e-06   1.59985694950693e-07   -2.1691250817807407e-06
-1.0927107183612577e-06   1.59985694950693e-07   -2.1691250817807407e-06
-9.308733556364062e-07   3.689552348212766e-07   -1.860710341431603e-06
-9.308733556364062e-07   3.689552348212766e-07   -1.860710341431603e-06
-9.308733556364062e-07   3.689552348212766e-07   -1.860710341431603e-06
-9.308733556364062e-07   3.689552348212766e-07   -1.860710341431603e-06
-1.2148356494156406e-06   -1.4802952702242791e-08   -2.5642357435777736e-06
-1.2148356494156406e-06   -1.4802952702242791e-08   -2.5642357435777736e-06
-1.2148356494156406e-06   -1.4802952702242791e-08   -2.5642357435777736e-06
-1.2148356494156406e-06   -1.4802952702242791e-08   -2.5642357435777736e-06
-1.140964789201559e-06   4.402803149413054e-07   -1.939457195818757e-06
-1.140964789201559e-06   4.402803149413054e-07   -1.939457195818757e-06
-1.140964789201559e-06   4.402803149413054e-07   -1.939457195818757e-06
-1.140964789201559e-06   4.402803149413054e-07   -1.939457195818757e-06
-7.527746935366786e-07   4.908457412346038e-08   -2.3517232441028365e-06
-7.527746935366786e-07   4.908457412346038e-08   -2.3517232441028365e-06
-7.527746935366786e-07   4.908457412346038e-08   -2.3517232441028365e-06
-7.527746935366786e-07   4.908457412346038e-08   -2.3517232441028365e-06
-9.92070732120517e-07   2.1719445095170695e-07   -2.0537624392268273e-06
-9.92070732120517e-07   2.1719445095170695e-07   -2.0537624392268273e-06
-9.92070732120517e-07   2.1719445095170695e-07   -2.0537624392268273e-06
-9.92070732120517e-07   2.1719445095170695e-07   -2.0537624392268273e-06
-7.527746935366786e-07   4.402803149413054e-07   -1.7047397513280743e-06
-7.527746935366786e-07   4.402803149413054e-07   -1.7047397513280743e-06
-7.527746935366786e-07   4.402803149413054e-07   -1.7047397513280743e-06
-7.527746935366786e-07   4.402803149413054e-07   -1.7047397513280743e-06
-1.1409647892015623e-06   4.908457412346038e-08   -2.5864406885935326e-06
-1.1409647892015623e-06   4.908457412346038e-08   -2.5864406885935326e-06
-1.1409647892015623e-06   4.908457412346038e-08   -2.5864406885935326e-06
-1.1409647892015623e-06   4.908457412346038e-08   -2.5864406885935326e-06
-1.0863297748067183e-06   5.541964106971903e-07   -1.8028638766288626e-06
-1.0863297748067183e-06   5.541964106971903e-07   -1.8028638766288626e-06
-1.0863297748067183e-06   5.541964106971903e-07   -1.8028638766288626e-06
-1.0863297748067183e-06   5.541964106971903e-07   -1.8028638766288626e-06
-5.328752040217102e-07   1.7574493700570786e-07   -2.4982172770556297e-06
-5.328752040217102e-07   1.7574493700570786e-07   -2.4982172770556297e-06
-5.328752040217102e-07   1.7574493700570786e-07   -2.4982172770556297e-06
-5.328752040217102e-07   1.7574493700570786e-07   -2.4982172770556297e-06
-8.689053306958841e-07   2.747824154135229e-07   -1.9975895529767107e-06
-8.689053306958841e-07   2.747824154135229e-07   -1.9975895529767107e-06
-8.689053306958841e-07   2.747824154135229e-07   -1.9975895529767107e-06
-8.689053306958841e-07   2.747824154135229e-07   -1.9975895529767107e-06
-1.2723781436915955e-06   1.431801519771053e-07   -4.1656867165766e-06
-1.2723781436915955e-06   1.431801519771053e-07   -4.1656867165766e-06
-1.2723781436915955e-06   1.431801519771053e-07   -4.1656867165766e-06
-1.2723781436915955e-06   1.431801519771053e-07   -4.1656867165766e-06
-1.5483874812145603e-06   -1.9685046967693812e-08   -4.7234213984817715e-06
-1.5483874812145603e-06   -1.9685046967693812e-08   -4.7234213984817715e-06
-1.5483874812145603e-06   -1.9685046967693812e-08   -4.7234213984817715e-06
-1.5483874812145603e-06   -1.9685046967693812e-08   -4.7234213984817715e-06
-1.5042668400818938e-06   3.0177892651825225e-07   -4.165911475432794e-06
-1.5042668400818938e-06   3.0177892651825225e-07   -4.165911475432794e-06
-1.5042668400818938e-06   3.0177892651825225e-07   -4.165911475432794e-06
-1.5042668400818938e-06   3.0177892651825225e-07   -4.165911475432794e-06
-1.214835649415644e-06   1.1935663854655194e-07   -4.538843420426805e-06
-1.214835649415644e-06   1.1935663854655194e-07   -4.538843420426805e-06
-1.214835649415644e-06   1.1935663854655194e-07   -4.538843420426805e-06
-1.214835649415644e-06   1.1935663854655194e-07   -4.538843420426805e-06
-1.369033656021751e-06   1.6871214057577336e-07   -4.311460043967615e-06
-1.369033656021751e-06   1.6871214057577336e-07   -4.311460043967615e-06
-1.369033656021751e-06   1.6871214057577336e-07   -4.311460043967615e-06
-1.369033656021751e-06   1.6871214057577336e-07   -4.311460043967615e-06
-1.2148356494156372e-06   3.0177892651827936e-07   -4.0564581026497165e-06
-1.2148356494156372e-06   3.0177892651827936e-07   -4.0564581026497165e-06
-1.2148356494156372e-06   3.0177892651827936e-07   -4.0564581026497165e-06
-1.2148356494156372e-06   3.0177892651827936e-07   -4.0564581026497165e-06
-1.5042668400818887e-06   1.1935663854655194e-07   -4.648296793209855e-06
-1.5042668400818887e-06   1.1935663854655194e-07   -4.648296793209855e-06
-1.5042668400818887e-06   1.1935663854655194e-07   -4.648296793209855e-06
-1.5042668400818887e-06   1.1935663854655194e-07   -4.648296793209855e-06
-1.4581700197629934e-06   4.508457208274731e-07   -4.130602026020645e-06
-1.4581700197629934e-06   4.508457208274731e-07   -4.130602026020645e-06
-1.4581700197629934e-06   4.508457208274731e-07   -4.130602026020645e-06
-1.4581700197629934e-06   4.508457208274731e-07   -4.130602026020645e-06
-1.1409647892015657e-06   2.546664017214178e-07   -4.5415698188260175e-06
-1.1409647892015657e-06   2.546664017214178e-07   -4.5415698188260175e-06
-1.1409647892015657e-06   2.546664017214178e-07   -4.5415698188260175e-06
-1.1409647892015657e-06   2.546664017214178e-07   -4.5415698188260175e-06
-1.3250378113011101e-06   2.8267843395202424e-07   -4.2515886679985194e-06
-1.3250378113011101e-06   2.8267843395202424e-07   -4.2515886679985194e-06
-1.3250378113011101e-06   2.8267843395202424e-07   -4.2515886679985194e-06
-1.3250378113011101e-06   2.8267843395202424e-07   -4.2515886679985194e-06
-1.140964789201559e-06   4.508457208274731e-07   -4.012894434557006e-06
-1.140964789201559e-06   4.508457208274731e-07   -4.012894434557006e-06
-1.140964789201559e-06   4.508457208274731e-07   -4.012894434557006e-06
-1.140964789201559e-06   4.508457208274731e-07   -4.012894434557006e-06
-1.4581700197629866e-06   2.546664017214178e-07   -4.659277410289656e-06
-1.4581700197629866e-06   2.546664017214178e-07   -4.659277410289656e-06
-1.4581700197629866e-06   2.546664017214178e-07   -4.659277410289656e-06
-1.4581700197629866e-06   2.546664017214178e-07   -4.659277410289656e-06
-1.4155841938405152e-06   6.180456443854608e-07   -4.199666434225193e-06
-1.4155841938405152e-06   6.180456443854608e-07   -4.199666434225193e-06
-1.4155841938405152e-06   6.180456443854608e-07   -4.199666434225193e-06
-1.4155841938405152e-06   6.180456443854608e-07   -4.199666434225193e-06
-1.0863297748067183e-06   4.106592825974865e-07   -4.623991982208696e-06
-1.0863297748067183e-06   4.106592825974865e-07   -4.623991982208696e-06
-1.0863297748067183e-06   4.106592825974865e-07   -4.623991982208696e-06
-1.0863297748067183e-06   4.106592825974865e-07   -4.623991982208696e-06
-1.2873076385808168e-06   4.038944247156638e-07   -4.284969961189474e-06
-1.2873076385808168e-06   4.038944247156638e-07   -4.284969961189474e-06
-1.2873076385808168e-06   4.038944247156638e-07   -4.284969961189474e-06
-1.2873076385808168e-06   4.038944247156638e-07   -4.284969961189474e-06
-1.548387481214557e-06   8.885260745247043e-08   -4.873710132165032e-06
-1.548387481214557e-06   8.885260745247043e-08   -4.873710132165032e-06
-1.548387481214557e-06   8.885260745247043e-08   -4.873710132165032e-06
-1.548387481214557e-06   8.885260745247043e-08   -4.873710132165032e-06
-1.8278056117173412e-06   1.2523416205399425e-07   -5.317578083575451e-06
-1.8278056117173412e-06   1.2523416205399425e-07   -5.317578083575451e-06
-1.8278056117173412e-06   1.2523416205399425e-07   -5.317578083575451e-06
-1.8278056117173412e-06   1.2523416205399425e-07   -5.317578083575451e-06
-1.7850058914743977e-06   2.5217848092690706e-07   -4.794562675611232e-06
-1.7850058914743977e-06   2.5217848092690706e-07   -4.794562675611232e-06
-1.7850058914743977e-06   2.5217848092690706e-07   -4.794562675611232e-06
-1.7850058914743977e-06   2.5217848092690706e-07   -4.794562675611232e-06
-1.5042668400818938e-06   2.708082568895272e-07   -5.2736389601762986e-06
-1.5042668400818938e-06   2.708082568895272e-07   -5.2736389601762986e-06
-1.5042668400818938e-06   2.708082568895272e-07   -5.2736389601762986e-06
-1.5042668400818938e-06   2.708082568895272e-07   -5.2736389601762986e-06
-1.6562652813398183e-06   2.0749563297152007e-07   -4.982320650395664e-06
-1.6562652813398183e-06   2.0749563297152007e-07   -4.982320650395664e-06
-1.6562652813398183e-06   2.0749563297152007e-07   -4.982320650395664e-06
-1.6562652813398183e-06   2.0749563297152007e-07   -4.982320650395664e-06
-1.5042668400818854e-06   2.5217848092690706e-07   -4.8057405411887604e-06
-1.5042668400818854e-06   2.5217848092690706e-07   -4.8057405411887604e-06
-1.5042668400818854e-06   2.5217848092690706e-07   -4.8057405411887604e-06
-1.5042668400818854e-06   2.5217848092690706e-07   -4.8057405411887604e-06
-1.7850058914744009e-06   2.708082568895272e-07   -5.262461094598746e-06
-1.7850058914744009e-06   2.708082568895272e-07   -5.262461094598746e-06
-1.7850058914744009e-06   2.708082568895272e-07   -5.262461094598746e-06
-1.7850058914744009e-06   2.708082568895272e-07   -5.262461094598746e-06
-1.7391442997725068e-06   4.16853230669783e-07   -4.806847320314885e-06
-1.7391442997725068e-06   4.16853230669783e-07   -4.806847320314885e-06
-1.7391442997725068e-06   4.16853230669783e-07   -4.806847320314885e-06
-1.7391442997725068e-06   4.16853230669783e-07   -4.806847320314885e-06
-1.4581700197629934e-06   4.192871399135822e-07   -5.276598132543686e-06
-1.4581700197629934e-06   4.192871399135822e-07   -5.276598132543686e-06
-1.4581700197629934e-06   4.192871399135822e-07   -5.276598132543686e-06
-1.4581700197629934e-06   4.192871399135822e-07   -5.276598132543686e-06
-1.6216035188643547e-06   3.3331006468528346e-07   -4.952622722237832e-06
-1.6216035188643547e-06   3.3331006468528346e-07   -4.952622722237832e-06
-1.6216035188643547e-06   3.3331006468528346e-07   -4.952622722237832e-06
-1.6216035188643547e-06   3.3331006468528346e-07   -4.952622722237832e-06
-1.4581700197629866e-06   4.16853230669783e-07   -4.808307665861157e-06
-1.4581700197629866e-06   4.16853230669783e-07   -4.808307665861157e-06
-1.4581700197629866e-06   4.16853230669783e-07   -4.808307665861157e-06
-1.4581700197629866e-06   4.16853230669783e-07   -4.808307665861157e-06
-1.7391442997725068e-06   4.192871399135822e-07   -5.275137786997394e-06
-1.7391442997725068e-06   4.192871399135822e-07   -5.275137786997394e-06
-1.7391442997725068e-06   4.192871399135822e-07   -5.275137786997394e-06
-1.7391442997725068e-06   4.192871399135822e-07   -5.275137786997394e-06
-1.6961113937925809e-06   5.8410821216577e-07   -4.900233638694475e-06
-1.6961113937925809e-06   5.8410821216577e-07   -4.900233638694475e-06
-1.6961113937925809e-06   5.8410821216577e-07   -4.900233638694475e-06
-1.6961113937925809e-06   5.8410821216577e-07   -4.900233638694475e-06
-1.4155841938405186e-06   5.699641853282452e-07   -5.359292555845371e-06
-1.4155841938405186e-06   5.699641853282452e-07   -5.359292555845371e-06
-1.4155841938405186e-06   5.699641853282452e-07   -5.359292555845371e-06
-1.4155841938405186e-06   5.699641853282452e-07   -5.359292555845371e-06
-1.5904863983954342e-06   4.609471096612928e-07   -5.002378636187014e-06
-1.5904863983954342e-06   4.609471096612928e-07   -5.002378636187014e-06
-1.5904863983954342e-06   4.609471096612928e-07   -5.002378636187014e-06
-1.5904863983954342e-06   4.609471096612928e-07   -5.002378636187014e-06
-1.8278056117173346e-06   5.019334271119994e-08   -4.195136984770393e-06
-1.8278056117173346e-06   5.019334271119994e-08   -4.195136984770393e-06
-1.8278056117173346e-06   5.019334271119994e-08   -4.195136984770393e-06
-1.8278056117173346e-06   5.019334271119994e-08   -4.195136984770393e-06
-2.1307711848084155e-06   2.743654326786693e-07   -4.565576352608361e-06
-2.1307711848084155e-06   2.743654326786693e-07   -4.565576352608361e-06
-2.1307711848084155e-06   2.743654326786693e-07   -4.565576352608361e-06
-2.1307711848084155e-06   2.743654326786693e-07   -4.565576352608361e-06
-2.0773275299279083e-06   2.0978533353706308e-07   -4.003242925551035e-06
-2.0773275299279083e-06   2.0978533353706308e-07   -4.003242925551035e-06
-2.0773275299279083e-06   2.0978533353706308e-07   -4.003242925551035e-06
-2.0773275299279083e-06   2.0978533353706308e-07   -4.003242925551035e-06
-1.7850058914743977e-06   4.2141630645999603e-07   -4.617424240060601e-06
-1.7850058914743977e-06   4.2141630645999603e-07   -4.617424240060601e-06
-1.7850058914743977e-06   4.2141630645999603e-07   -4.617424240060601e-06
-1.7850058914743977e-06   4.2141630645999603e-07   -4.617424240060601e-06
-1.939856080316148e-06   2.545941360666403e-07   -4.259247289755082e-06
-1.939856080316148e-06   2.545941360666403e-07   -4.259247289755082e-06
-1.939856080316148e-06   2.545941360666403e-07   -4.259247289755082e-06
-1.939856080316148e-06   2.545941360666403e-07   -4.259247289755082e-06
-1.7850058914743943e-06   2.0978533353706308e-07   -4.130221509304757e-06
-1.7850058914743943e-06   2.0978533353706308e-07   -4.130221509304757e-06
-1.7850058914743943e-06   2.0978533353706308e-07   -4.130221509304757e-06
-1.7850058914743943e-06   2.0978533353706308e-07   -4.130221509304757e-06
-2.0773275299279083e-06   4.2141630645999603e-07   -4.490445656306881e-06
-2.0773275299279083e-06   4.2141630645999603e-07   -4.490445656306881e-06
-2.0773275299279083e-06   4.2141630645999603e-07   -4.490445656306881e-06
-2.0773275299279083e-06   4.2141630645999603e-07   -4.490445656306881e-06
-2.00445706558476e-06   3.588051493393161e-07   -4.014983586364516e-06
-2.00445706558476e-06   3.588051493393161e-07   -4.014983586364516e-06
-2.00445706558476e-06   3.588051493393161e-07   -4.014983586364516e-06
-2.00445706558476e-06   3.588051493393161e-07   -4.014983586364516e-06
-1.739144299772504e-06   5.5587906895547e-07   -4.575415881154601e-06
-1.739144299772504e-06   5.5587906895547e-07   -4.575415881154601e-06
-1.739144299772504e-06   5.5587906895547e-07   -4.575415881154601e-06
-1.739144299772504e-06   5.5587906895547e-07   -4.575415881154601e-06
-1.8918459627044605e-06   3.7231152215185426e-07   -4.210772581519251e-06
-1.8918459627044605e-06   3.7231152215185426e-07   -4.210772581519251e-06
-1.8918459627044605e-06   3.7231152215185426e-07   -4.210772581519251e-06
-1.8918459627044605e-06   3.7231152215185426e-07   -4.210772581519251e-06
-1.7391442997724996e-06   3.588051493393161e-07   -4.1332279381341565e-06
-1.7391442997724996e-06   3.588051493393161e-07   -4.1332279381341565e-06
-1.7391442997724996e-06   3.588051493393161e-07   -4.1332279381341565e-06
-1.7391442997724996e-06   3.588051493393161e-07   -4.1332279381341565e-06
-2.004457065584763e-06   5.558790689554429e-07   -4.457171529384936e-06
-2.004457065584763e-06   5.558790689554429e-07   -4.457171529384936e-06
-2.004457065584763e-06   5.558790689554429e-07   -4.457171529384936e-06
-2.004457065584763e-06   5.558790689554429e-07   -4.457171529384936e-06
-1.9481747975029057e-06   5.255592297622965e-07   -4.126073326275642e-06
-1.9481747975029057e-06   5.255592297622965e-07   -4.126073326275642e-06
-1.9481747975029057e-06   5.255592297622965e-07   -4.126073326275642e-06
-1.9481747975029057e-06   5.255592297622965e-07   -4.126073326275642e-06
-1.6961113937925809e-06   7.046928260779739e-07   -4.653659156915584e-06
-1.6961113937925809e-06   7.046928260779739e-07   -4.653659156915584e-06
-1.6961113937925809e-06   7.046928260779739e-07   -4.653659156915584e-06
-1.6961113937925809e-06   7.046928260779739e-07   -4.653659156915584e-06
-1.859087008520739e-06   4.909984213302481e-07   -4.2538164895199595e-06
-1.859087008520739e-06   4.909984213302481e-07   -4.2538164895199595e-06
-1.859087008520739e-06   4.909984213302481e-07   -4.2538164895199595e-06
-1.859087008520739e-06   4.909984213302481e-07   -4.2538164895199595e-06
-2.1307711848084087e-06   8.324898043292925e-08   -2.2181579179432465e-06
-2.1307711848084087e-06   8.324898043292925e-08   -2.2181579179432465e-06
-2.1307711848084087e-06   8.324898043292925e-08   -2.2181579179432465e-06
-2.1307711848084087e-06   8.324898043292925e-08   -2.2181579179432465e-06
-2.6515416749645047e-06   4.684156762864108e-07   -2.855008717358011e-06
-2.6515416749645047e-06   4.684156762864108e-07   -2.855008717358011e-06
-2.6515416749645047e-06   4.684156762864108e-07   -2.855008717358011e-06
-2.6515416749645047e-06   4.684156762864108e-07   -2.855008717358011e-06
-2.4372778404486602e-06   2.1111446902306158e-07   -1.7886031990137452e-06
-2.4372778404486602e-06   2.1111446902306158e-07   -1.7886031990137452e-06
-2.4372778404486602e-06   2.1111446902306158e-07   -1.7886031990137452e-06
-2.4372778404486602e-06   2.1111446902306158e-07   -1.7886031990137452e-06
-2.0773275299279032e-06   6.033838763139362e-07   -2.6238820275895007e-06
-2.0773275299279032e-06   6.033838763139362e-07   -2.6238820275895007e-06
-2.0773275299279032e-06   6.033838763139362e-07   -2.6238820275895007e-06
-2.0773275299279032e-06   6.033838763139362e-07   -2.6238820275895007e-06
-2.2302733413272302e-06   3.558351813322475e-07   -2.2204431249350025e-06
-2.2302733413272302e-06   3.558351813322475e-07   -2.2204431249350025e-06
-2.2302733413272302e-06   3.558351813322475e-07   -2.2204431249350025e-06
-2.2302733413272302e-06   3.558351813322475e-07   -2.2204431249350025e-06
-2.077327529927898e-06   2.1111446902306158e-07   -2.0239648433882537e-06
-2.077327529927898e-06   2.1111446902306158e-07   -2.0239648433882537e-06
-2.077327529927898e-06   2.1111446902306158e-07   -2.0239648433882537e-06
-2.077327529927898e-06   2.1111446902306158e-07   -2.0239648433882537e-06
-2.4372778404486535e-06   6.033838763139362e-07   -2.3885203832149854e-06
-2.4372778404486535e-06   6.033838763139362e-07   -2.3885203832149854e-06
-2.4372778404486535e-06   6.033838763139362e-07   -2.3885203832149854e-06
-2.4372778404486535e-06   6.033838763139362e-07   -2.3885203832149854e-06
-2.2630068466185634e-06   2.8213200748956977e-07   -1.7385028371822277e-06
-2.2630068466185634e-06   2.8213200748956977e-07   -1.7385028371822277e-06
-2.2630068466185634e-06   2.8213200748956977e-07   -1.7385028371822277e-06
-2.2630068466185634e-06   2.8213200748956977e-07   -1.7385028371822277e-06
-2.00445706558476e-06   6.65031182304495e-07   -2.3991586437941686e-06
-2.00445706558476e-06   6.65031182304495e-07   -2.3991586437941686e-06
-2.00445706558476e-06   6.65031182304495e-07   -2.3991586437941686e-06
-2.00445706558476e-06   6.65031182304495e-07   -2.3991586437941686e-06
-2.147042723808947e-06   4.202736199160036e-07   -2.0146613426541272e-06
-2.147042723808947e-06   4.202736199160036e-07   -2.0146613426541272e-06
-2.147042723808947e-06   4.202736199160036e-07   -2.0146613426541272e-06
-2.147042723808947e-06   4.202736199160036e-07   -2.0146613426541272e-06
-2.0044570655847564e-06   2.8213200748956977e-07   -1.9682423420711666e-06
-2.0044570655847564e-06   2.8213200748956977e-07   -1.9682423420711666e-06
-2.0044570655847564e-06   2.8213200748956977e-07   -1.9682423420711666e-06
-2.0044570655847564e-06   2.8213200748956977e-07   -1.9682423420711666e-06
-2.2630068466185634e-06   6.650311823044679e-07   -2.169419138905196e-06
-2.2630068466185634e-06   6.650311823044679e-07   -2.169419138905196e-06
-2.2630068466185634e-06   6.650311823044679e-07   -2.169419138905196e-06
-2.2630068466185634e-06   6.650311823044679e-07   -2.169419138905196e-06
-2.045741445913992e-06   4.0389983164349896e-07   -1.7662303855264485e-06
-2.045741445913992e-06   4.0389983164349896e-07   -1.7662303855264485e-06
-2.045741445913992e-06   4.0389983164349896e-07   -1.7662303855264485e-06
-2.045741445913992e-06   4.0389983164349896e-07   -1.7662303855264485e-06
-1.9481747975029006e-06   7.559684869489381e-07   -2.1400826593948147e-06
-1.9481747975029006e-06   7.559684869489381e-07   -2.1400826593948147e-06
-1.9481747975029006e-06   7.559684869489381e-07   -2.1400826593948147e-06
-1.9481747975029006e-06   7.559684869489381e-07   -2.1400826593948147e-06
-2.0099685646506265e-06   4.6932951919061877e-07   -1.8651096668269738e-06
-2.0099685646506265e-06   4.6932951919061877e-07   -1.8651096668269738e-06
-2.0099685646506265e-06   4.6932951919061877e-07   -1.8651096668269738e-06
-2.0099685646506265e-06   4.6932951919061877e-07   -1.8651096668269738e-06
1.2745496841648458e-06   -1.2387133554786142e-07   -1.0263964628194833e-06
1.2745496841648458e-06   -1.2387133554786142e-07   -1.0263964628194833e-06
1.2745496841648458e-06   -1.2387133554786142e-07   -1.0263964628194833e-06
1.2745496841648458e-06   -1.2387133554786142e-07   -1.0263964628194833e-06
1.5037454932480344e-07   -4.7580514152457563e-07   -3.111181971138927e-06
1.5037454932480344e-07   -4.7580514152457563e-07   -3.111181971138927e-06
1.5037454932480344e-07   -4.7580514152457563e-07   -3.111181971138927e-06
1.5037454932480344e-07   -4.7580514152457563e-07   -3.111181971138927e-06
2.2778981507175954e-07   -1.4802952702242791e-08   -1.1572553626509495e-06
2.2778981507175954e-07   -1.4802952702242791e-08   -1.1572553626509495e-06
2.2778981507175954e-07   -1.4802952702242791e-08   -1.1572553626509495e-06
2.2778981507175954e-07   -1.4802952702242791e-08   -1.1572553626509495e-06
1.5110558939366073e-06   -3.936295988449636e-07   -3.0687361730734206e-06
1.5110558939366073e-06   -3.936295988449636e-07   -3.0687361730734206e-06
1.5110558939366073e-06   -3.936295988449636e-07   -3.0687361730734206e-06
1.5110558939366073e-06   -3.936295988449636e-07   -3.0687361730734206e-06
7.600847809210458e-07   -2.031502031588821e-07   -1.9314052887924412e-06
7.600847809210458e-07   -2.031502031588821e-07   -1.9314052887924412e-06
7.600847809210458e-07   -2.031502031588821e-07   -1.9314052887924412e-06
7.600847809210458e-07   -2.031502031588821e-07   -1.9314052887924412e-06
1.5110558939366073e-06   -1.4802952702242791e-08   -9.299593749653387e-07
1.5110558939366073e-06   -1.4802952702242791e-08   -9.299593749653387e-07
1.5110558939366073e-06   -1.4802952702242791e-08   -9.299593749653387e-07
1.5110558939366073e-06   -1.4802952702242791e-08   -9.299593749653387e-07
2.2778981507175954e-07   -3.936295988449636e-07   -3.2960321607590856e-06
2.2778981507175954e-07   -3.936295988449636e-07   -3.2960321607590856e-06
2.2778981507175954e-07   -3.936295988449636e-07   -3.2960321607590856e-06
2.2778981507175954e-07   -3.936295988449636e-07   -3.2960321607590856e-06
3.201863582714086e-07   4.908457412346038e-08   -1.17388911303413e-06
3.201863582714086e-07   4.908457412346038e-08   -1.17388911303413e-06
3.201863582714086e-07   4.908457412346038e-08   -1.17388911303413e-06
3.201863582714086e-07   4.908457412346038e-08   -1.17388911303413e-06
1.707174991966612e-06   -3.363026989980063e-07   -3.254304471986597e-06
1.707174991966612e-06   -3.363026989980063e-07   -3.254304471986597e-06
1.707174991966612e-06   -3.363026989980063e-07   -3.254304471986597e-06
1.707174991966612e-06   -3.363026989980063e-07   -3.254304471986597e-06
9.073555654596505e-07   -1.6317408033471987e-07   -2.0251492656730725e-06
9.073555654596505e-07   -1.6317408033471987e-07   -2.0251492656730725e-06
9.073555654596505e-07   -1.6317408033471987e-07   -2.0251492656730725e-06
9.073555654596505e-07   -1.6317408033471987e-07   -2.0251492656730725e-06
1.707174991966612e-06   4.908457412346038e-08   -9.426567491612717e-07
1.707174991966612e-06   4.908457412346038e-08   -9.426567491612717e-07
1.707174991966612e-06   4.908457412346038e-08   -9.426567491612717e-07
1.707174991966612e-06   4.908457412346038e-08   -9.426567491612717e-07
3.201863582714086e-07   -3.363026989980063e-07   -3.4855368358594553e-06
3.201863582714086e-07   -3.363026989980063e-07   -3.4855368358594553e-06
3.201863582714086e-07   -3.363026989980063e-07   -3.4855368358594553e-06
3.201863582714086e-07   -3.363026989980063e-07   -3.4855368358594553e-06
3.933264251089358e-07   1.7574493700570786e-07   -1.3068644026745647e-06
3.933264251089358e-07   1.7574493700570786e-07   -1.3068644026745647e-06
3.933264251089358e-07   1.7574493700570786e-07   -1.3068644026745647e-06
3.933264251089358e-07   1.7574493700570786e-07   -1.3068644026745647e-06
1.9430909831129824e-06   -1.943343291882678e-07   -3.667757772964959e-06
1.9430909831129824e-06   -1.943343291882678e-07   -3.667757772964959e-06
1.9430909831129824e-06   -1.943343291882678e-07   -3.667757772964959e-06
1.9430909831129824e-06   -1.943343291882678e-07   -3.667757772964959e-06
1.018265374453526e-06   -1.0224347212923752e-07   -2.181636272768019e-06
1.018265374453526e-06   -1.0224347212923752e-07   -2.181636272768019e-06
1.018265374453526e-06   -1.0224347212923752e-07   -2.181636272768019e-06
1.018265374453526e-06   -1.0224347212923752e-07   -2.181636272768019e-06
1.5037454932480683e-07   -1.9685046967693812e-08   -3.2243740165566122e-06
1.5037454932480683e-07   -1.9685046967693812e-08   -3.2243740165566122e-06
1.5037454932480683e-07   -1.9685046967693812e-08   -3.2243740165566122e-06
1.5037454932480683e-07   -1.9685046967693812e-08   -3.2243740165566122e-06
-1.1144489928742724e-06   -1.7775172424683728e-07   -5.427253259922569e-06
-1.1144489928742724e-06   -1.7775172424683728e-07   -5.427253259922569e-06
-1.1144489928742724e-06   -1.7775172424683728e-07   -5.427253259922569e-06
-1.1144489928742724e-06   -1.7775172424683728e-07   -5.427253259922569e-06
-1.0487360935489656e-06   1.1935663854655194e-07   -3.2408651114838904e-06
-1.0487360935489656e-06   1.1935663854655194e-07   -3.2408651114838904e-06
-1.0487360935489656e-06   1.1935663854655194e-07   -3.2408651114838904e-06
-1.0487360935489656e-06   1.1935663854655194e-07   -3.2408651114838904e-06
2.2778981507175954e-07   -6.231348142658136e-08   -5.259406220534564e-06
2.2778981507175954e-07   -6.231348142658136e-08   -5.259406220534564e-06
2.2778981507175954e-07   -6.231348142658136e-08   -5.259406220534564e-06
2.2778981507175954e-07   -6.231348142658136e-08   -5.259406220534564e-06
-4.3660286281872657e-07   1.1545797573759599e-09   -4.1901659274274635e-06
-4.3660286281872657e-07   1.1545797573759599e-09   -4.1901659274274635e-06
-4.3660286281872657e-07   1.1545797573759599e-09   -4.1901659274274635e-06
-4.3660286281872657e-07   1.1545797573759599e-09   -4.1901659274274635e-06
2.2778981507175615e-07   1.1935663854655194e-07   -3.1318630394999806e-06
2.2778981507175615e-07   1.1935663854655194e-07   -3.1318630394999806e-06
2.2778981507175615e-07   1.1935663854655194e-07   -3.1318630394999806e-06
2.2778981507175615e-07   1.1935663854655194e-07   -3.1318630394999806e-06
-1.0487360935489656e-06   -6.231348142663557e-08   -5.368408292518454e-06
-1.0487360935489656e-06   -6.231348142663557e-08   -5.368408292518454e-06
-1.0487360935489656e-06   -6.231348142663557e-08   -5.368408292518454e-06
-1.0487360935489656e-06   -6.231348142663557e-08   -5.368408292518454e-06
-9.825561747126674e-07   2.546664017214178e-07   -3.247050767613425e-06
-9.825561747126674e-07   2.546664017214178e-07   -3.247050767613425e-06
-9.825561747126674e-07   2.546664017214178e-07   -3.247050767613425e-06
-9.825561747126674e-07   2.546664017214178e-07   -3.247050767613425e-06
3.201863582714086e-07   5.794552781004936e-08   -5.300255798240073e-06
3.201863582714086e-07   5.794552781004936e-08   -5.300255798240073e-06
3.201863582714086e-07   5.794552781004936e-08   -5.300255798240073e-06
3.201863582714086e-07   5.794552781004936e-08   -5.300255798240073e-06
-3.79805176479836e-07   9.774951520435948e-08   -4.157485632757906e-06
-3.79805176479836e-07   9.774951520435948e-08   -4.157485632757906e-06
-3.79805176479836e-07   9.774951520435948e-08   -4.157485632757906e-06
-3.79805176479836e-07   9.774951520435948e-08   -4.157485632757906e-06
3.201863582714086e-07   2.546664017214178e-07   -3.129018243266615e-06
3.201863582714086e-07   2.546664017214178e-07   -3.129018243266615e-06
3.201863582714086e-07   2.546664017214178e-07   -3.129018243266615e-06
3.201863582714086e-07   2.546664017214178e-07   -3.129018243266615e-06
-9.825561747126674e-07   5.794552781004936e-08   -5.4182883225868965e-06
-9.825561747126674e-07   5.794552781004936e-08   -5.4182883225868965e-06
-9.825561747126674e-07   5.794552781004936e-08   -5.4182883225868965e-06
-9.825561747126674e-07   5.794552781004936e-08   -5.4182883225868965e-06
-9.200942655297163e-07   4.106592825974865e-07   -3.3309221084030453e-06
-9.200942655297163e-07   4.106592825974865e-07   -3.3309221084030453e-06
-9.200942655297163e-07   4.106592825974865e-07   -3.3309221084030453e-06
-9.200942655297163e-07   4.106592825974865e-07   -3.3309221084030453e-06
3.933264251089358e-07   2.0173614128033215e-07   -5.3946027080104965e-06
3.933264251089358e-07   2.0173614128033215e-07   -5.3946027080104965e-06
3.933264251089358e-07   2.0173614128033215e-07   -5.3946027080104965e-06
3.933264251089358e-07   2.0173614128033215e-07   -5.3946027080104965e-06
-3.150116949251131e-07   2.0623668036778668e-07   -4.216739498072947e-06
-3.150116949251131e-07   2.0623668036778668e-07   -4.216739498072947e-06
-3.150116949251131e-07   2.0623668036778668e-07   -4.216739498072947e-06
-3.150116949251131e-07   2.0623668036778668e-07   -4.216739498072947e-06
-1.1144489928742758e-06   1.2523416205399425e-07   -3.93519964077869e-06
-1.1144489928742758e-06   1.2523416205399425e-07   -3.93519964077869e-06
-1.1144489928742758e-06   1.2523416205399425e-07   -3.93519964077869e-06
-1.1144489928742758e-06   1.2523416205399425e-07   -3.93519964077869e-06
-2.3642455470320355e-06   1.5722592338490455e-07   -5.998998840909742e-06
-2.3642455470320355e-06   1.5722592338490455e-07   -5.998998840909742e-06
-2.3642455470320355e-06   1.5722592338490455e-07   -5.998998840909742e-06
-2.3642455470320355e-06   1.5722592338490455e-07   -5.998998840909742e-06
-2.298558166278136e-06   2.708082568895272e-07   -3.860003225306531e-06
-2.298558166278136e-06   2.708082568895272e-07   -3.860003225306531e-06
-2.298558166278136e-06   2.708082568895272e-07   -3.860003225306531e-06
-2.298558166278136e-06   2.708082568895272e-07   -3.860003225306531e-06
-1.0487360935489656e-06   2.8114834546257494e-07   -5.949244066332296e-06
-1.0487360935489656e-06   2.8114834546257494e-07   -5.949244066332296e-06
-1.0487360935489656e-06   2.8114834546257494e-07   -5.949244066332296e-06
-1.0487360935489656e-06   2.8114834546257494e-07   -5.949244066332296e-06
-1.6967326350164107e-06   2.3354337636580322e-07   -4.840686849095158e-06
-1.6967326350164107e-06   2.3354337636580322e-07   -4.840686849095158e-06
-1.6967326350164107e-06   2.3354337636580322e-07   -4.840686849095158e-06
-1.6967326350164107e-06   2.3354337636580322e-07   -4.840686849095158e-06
-1.0487360935489656e-06   2.708082568895272e-07   -3.866207278450338e-06
-1.0487360935489656e-06   2.708082568895272e-07   -3.866207278450338e-06
-1.0487360935489656e-06   2.708082568895272e-07   -3.866207278450338e-06
-1.0487360935489656e-06   2.708082568895272e-07   -3.866207278450338e-06
-2.298558166278136e-06   2.8114834546257494e-07   -5.943040013188489e-06
-2.298558166278136e-06   2.8114834546257494e-07   -5.943040013188489e-06
-2.298558166278136e-06   2.8114834546257494e-07   -5.943040013188489e-06
-2.298558166278136e-06   2.8114834546257494e-07   -5.943040013188489e-06
-2.231115416857202e-06   4.192871399135822e-07   -3.8690234415617204e-06
-2.231115416857202e-06   4.192871399135822e-07   -3.8690234415617204e-06
-2.231115416857202e-06   4.192871399135822e-07   -3.8690234415617204e-06
-2.231115416857202e-06   4.192871399135822e-07   -3.8690234415617204e-06
-9.825561747126674e-07   4.115338870897228e-07   -5.945303560108336e-06
-9.825561747126674e-07   4.115338870897228e-07   -5.945303560108336e-06
-9.825561747126674e-07   4.115338870897228e-07   -5.945303560108336e-06
-9.825561747126674e-07   4.115338870897228e-07   -5.945303560108336e-06
-1.6399413184487415e-06   3.4274412704656627e-07   -4.808387797855696e-06
-1.6399413184487415e-06   3.4274412704656627e-07   -4.808387797855696e-06
-1.6399413184487415e-06   3.4274412704656627e-07   -4.808387797855696e-06
-1.6399413184487415e-06   3.4274412704656627e-07   -4.808387797855696e-06
-9.825561747126674e-07   4.192871399135822e-07   -3.864371489867435e-06
-9.825561747126674e-07   4.192871399135822e-07   -3.864371489867435e-06
-9.825561747126674e-07   4.192871399135822e-07   -3.864371489867435e-06
-9.825561747126674e-07   4.192871399135822e-07   -3.864371489867435e-06
-2.231115416857198e-06   4.11533887089777e-07   -5.949955511802636e-06
-2.231115416857198e-06   4.11533887089777e-07   -5.949955511802636e-06
-2.231115416857198e-06   4.11533887089777e-07   -5.949955511802636e-06
-2.231115416857198e-06   4.11533887089777e-07   -5.949955511802636e-06
-2.1669381136988242e-06   5.699641853282452e-07   -3.957210755924312e-06
-2.1669381136988242e-06   5.699641853282452e-07   -3.957210755924312e-06
-2.1669381136988242e-06   5.699641853282452e-07   -3.957210755924312e-06
-2.1669381136988242e-06   5.699641853282452e-07   -3.957210755924312e-06
-9.200942655297163e-07   5.442643670659449e-07   -6.019863945248784e-06
-9.200942655297163e-07   5.442643670659449e-07   -6.019863945248784e-06
-9.200942655297163e-07   5.442643670659449e-07   -6.019863945248784e-06
-9.200942655297163e-07   5.442643670659449e-07   -6.019863945248784e-06
-1.5878692957946674e-06   4.5371002865374167e-07   -4.852572958426635e-06
-1.5878692957946674e-06   4.5371002865374167e-07   -4.852572958426635e-06
-1.5878692957946674e-06   4.5371002865374167e-07   -4.852572958426635e-06
-1.5878692957946674e-06   4.5371002865374167e-07   -4.852572958426635e-06
-2.364245547032039e-06   2.743654326786693e-07   -3.2985061069935753e-06
-2.364245547032039e-06   2.743654326786693e-07   -3.2985061069935753e-06
-2.364245547032039e-06   2.743654326786693e-07   -3.2985061069935753e-06
-2.364245547032039e-06   2.743654326786693e-07   -3.2985061069935753e-06
-3.6148207895396765e-06   4.868870461222736e-07   -5.255285209773458e-06
-3.6148207895396765e-06   4.868870461222736e-07   -5.255285209773458e-06
-3.6148207895396765e-06   4.868870461222736e-07   -5.255285209773458e-06
-3.6148207895396765e-06   4.868870461222736e-07   -5.255285209773458e-06
-3.538536475683606e-06   4.2141630645999603e-07   -3.0962332480387344e-06
-3.538536475683606e-06   4.2141630645999603e-07   -3.0962332480387344e-06
-3.538536475683606e-06   4.2141630645999603e-07   -3.0962332480387344e-06
-3.538536475683606e-06   4.2141630645999603e-07   -3.0962332480387344e-06
-2.298558166278136e-06   6.19304844342737e-07   -5.281596886444167e-06
-2.298558166278136e-06   6.19304844342737e-07   -5.281596886444167e-06
-2.298558166278136e-06   6.19304844342737e-07   -5.281596886444167e-06
-2.298558166278136e-06   6.19304844342737e-07   -5.281596886444167e-06
-2.9333585535325606e-06   4.6636142473924984e-07   -4.131830189258052e-06
-2.9333585535325606e-06   4.6636142473924984e-07   -4.131830189258052e-06
-2.9333585535325606e-06   4.6636142473924984e-07   -4.131830189258052e-06
-2.9333585535325606e-06   4.6636142473924984e-07   -4.131830189258052e-06
-2.2985581662781398e-06   4.214163064599689e-07   -3.214966370768387e-06
-2.2985581662781398e-06   4.214163064599689e-07   -3.214966370768387e-06
-2.2985581662781398e-06   4.214163064599689e-07   -3.214966370768387e-06
-2.2985581662781398e-06   4.214163064599689e-07   -3.214966370768387e-06
-3.538536475683612e-06   6.19304844342737e-07   -5.162863763714568e-06
-3.538536475683612e-06   6.19304844342737e-07   -5.162863763714568e-06
-3.538536475683612e-06   6.19304844342737e-07   -5.162863763714568e-06
-3.538536475683612e-06   6.19304844342737e-07   -5.162863763714568e-06
-3.443755260778174e-06   5.558790689554429e-07   -3.0602570081105006e-06
-3.443755260778174e-06   5.558790689554429e-07   -3.0602570081105006e-06
-3.443755260778174e-06   5.558790689554429e-07   -3.0602570081105006e-06
-3.443755260778174e-06   5.558790689554429e-07   -3.0602570081105006e-06
-2.231115416857202e-06   7.376199483028747e-07   -5.1903679422538976e-06
-2.231115416857202e-06   7.376199483028747e-07   -5.1903679422538976e-06
-2.231115416857202e-06   7.376199483028747e-07   -5.1903679422538976e-06
-2.231115416857202e-06   7.376199483028747e-07   -5.1903679422538976e-06
-2.854766761382414e-06   5.720445117399231e-07   -4.051603772774182e-06
-2.854766761382414e-06   5.720445117399231e-07   -4.051603772774182e-06
-2.854766761382414e-06   5.720445117399231e-07   -4.051603772774182e-06
-2.854766761382414e-06   5.720445117399231e-07   -4.051603772774182e-06
-2.2311154168572004e-06   5.558790689554429e-07   -3.1693015357189027e-06
-2.2311154168572004e-06   5.558790689554429e-07   -3.1693015357189027e-06
-2.2311154168572004e-06   5.558790689554429e-07   -3.1693015357189027e-06
-2.2311154168572004e-06   5.558790689554429e-07   -3.1693015357189027e-06
-3.443755260778174e-06   7.376199483028205e-07   -5.081323414645502e-06
-3.443755260778174e-06   7.376199483028205e-07   -5.081323414645502e-06
-3.443755260778174e-06   7.376199483028205e-07   -5.081323414645502e-06
-3.443755260778174e-06   7.376199483028205e-07   -5.081323414645502e-06
-3.365677267298877e-06   7.046928260779739e-07   -3.1451649334691696e-06
-3.365677267298877e-06   7.046928260779739e-07   -3.1451649334691696e-06
-3.365677267298877e-06   7.046928260779739e-07   -3.1451649334691696e-06
-3.365677267298877e-06   7.046928260779739e-07   -3.1451649334691696e-06
-2.1669381136988242e-06   8.679028384493909e-07   -5.240989530225431e-06
-2.1669381136988242e-06   8.679028384493909e-07   -5.240989530225431e-06
-2.1669381136988242e-06   8.679028384493909e-07   -5.240989530225431e-06
-2.1669381136988242e-06   8.679028384493909e-07   -5.240989530225431e-06
-2.8071991209101036e-06   6.74851946147161e-07   -4.058057316158619e-06
-2.8071991209101036e-06   6.74851946147161e-07   -4.058057316158619e-06
-2.8071991209101036e-06   6.74851946147161e-07   -4.058057316158619e-06
-2.8071991209101036e-06   6.74851946147161e-07   -4.058057316158619e-06
-3.6148207895396765e-06   4.684156762864108e-07   -1.6915255211891411e-06
-3.6148207895396765e-06   4.684156762864108e-07   -1.6915255211891411e-06
-3.6148207895396765e-06   4.684156762864108e-07   -1.6915255211891411e-06
-3.6148207895396765e-06   4.684156762864108e-07   -1.6915255211891411e-06
-5.057165393948807e-06   8.400625067533256e-07   -3.872445096924249e-06
-5.057165393948807e-06   8.400625067533256e-07   -3.872445096924249e-06
-5.057165393948807e-06   8.400625067533256e-07   -3.872445096924249e-06
-5.057165393948807e-06   8.400625067533256e-07   -3.872445096924249e-06
-4.826009629928813e-06   6.033838763139633e-07   -1.0041517279336086e-06
-4.826009629928813e-06   6.033838763139633e-07   -1.0041517279336086e-06
-4.826009629928813e-06   6.033838763139633e-07   -1.0041517279336086e-06
-4.826009629928813e-06   6.033838763139633e-07   -1.0041517279336086e-06
-3.538536475683606e-06   9.79247028627038e-07   -3.375458209730093e-06
-3.538536475683606e-06   9.79247028627038e-07   -3.375458209730093e-06
-3.538536475683606e-06   9.79247028627038e-07   -3.375458209730093e-06
-3.538536475683606e-06   9.79247028627038e-07   -3.375458209730093e-06
-4.086253948615266e-06   7.360411009048665e-07   -2.316672198210725e-06
-4.086253948615266e-06   7.360411009048665e-07   -2.316672198210725e-06
-4.086253948615266e-06   7.360411009048665e-07   -2.316672198210725e-06
-4.086253948615266e-06   7.360411009048665e-07   -2.316672198210725e-06
-3.5385364756836085e-06   6.033838763139633e-07   -1.2296696193214019e-06
-3.5385364756836085e-06   6.033838763139633e-07   -1.2296696193214019e-06
-3.5385364756836085e-06   6.033838763139633e-07   -1.2296696193214019e-06
-3.5385364756836085e-06   6.033838763139633e-07   -1.2296696193214019e-06
-4.826009629928796e-06   9.792470286269837e-07   -3.1499403183422674e-06
-4.826009629928796e-06   9.792470286269837e-07   -3.1499403183422674e-06
-4.826009629928796e-06   9.792470286269837e-07   -3.1499403183422674e-06
-4.826009629928796e-06   9.792470286269837e-07   -3.1499403183422674e-06
-4.635099792387785e-06   6.65031182304495e-07   -7.834551492600197e-07
-4.635099792387785e-06   6.65031182304495e-07   -7.834551492600197e-07
-4.635099792387785e-06   6.65031182304495e-07   -7.834551492600197e-07
-4.635099792387785e-06   6.65031182304495e-07   -7.834551492600197e-07
-3.443755260778169e-06   1.0296794710707097e-06   -2.9878183418690854e-06
-3.443755260778169e-06   1.0296794710707097e-06   -2.9878183418690854e-06
-3.443755260778169e-06   1.0296794710707097e-06   -2.9878183418690854e-06
-3.443755260778169e-06   1.0296794710707097e-06   -2.9878183418690854e-06
-4.0129934048279296e-06   8.00984228783129e-07   -1.901870956413633e-06
-4.0129934048279296e-06   8.00984228783129e-07   -1.901870956413633e-06
-4.0129934048279296e-06   8.00984228783129e-07   -1.901870956413633e-06
-4.0129934048279296e-06   8.00984228783129e-07   -1.901870956413633e-06
-3.443755260778174e-06   6.65031182304495e-07   -1.0022441225197675e-06
-3.443755260778174e-06   6.65031182304495e-07   -1.0022441225197675e-06
-3.443755260778174e-06   6.65031182304495e-07   -1.0022441225197675e-06
-3.443755260778174e-06   6.65031182304495e-07   -1.0022441225197675e-06
-4.635099792387775e-06   1.0296794710707097e-06   -2.769029368609392e-06
-4.635099792387775e-06   1.0296794710707097e-06   -2.769029368609392e-06
-4.635099792387775e-06   1.0296794710707097e-06   -2.769029368609392e-06
-4.635099792387775e-06   1.0296794710707097e-06   -2.769029368609392e-06
-4.404857430676563e-06   7.559684869489381e-07   -5.394454522481701e-07
-4.404857430676563e-06   7.559684869489381e-07   -5.394454522481701e-07
-4.404857430676563e-06   7.559684869489381e-07   -5.394454522481701e-07
-4.404857430676563e-06   7.559684869489381e-07   -5.394454522481701e-07
-3.365677267298877e-06   1.0886737227649957e-06   -2.47103553270065e-06
-3.365677267298877e-06   1.0886737227649957e-06   -2.47103553270065e-06
-3.365677267298877e-06   1.0886737227649957e-06   -2.47103553270065e-06
-3.365677267298877e-06   1.0886737227649957e-06   -2.47103553270065e-06
-3.828684088317254e-06   8.305480114915499e-07   -1.5444820709059337e-06
-3.828684088317254e-06   8.305480114915499e-07   -1.5444820709059337e-06
-3.828684088317254e-06   8.305480114915499e-07   -1.5444820709059337e-06
-3.828684088317254e-06   8.305480114915499e-07   -1.5444820709059337e-06
3.6809661666365693e-06   -4.7580514152462984e-07   1.4244345177338922e-07
3.6809661666365693e-06   -4.7580514152462984e-07   1.4244345177338922e-07
3.6809661666365693e-06   -4.7580514152462984e-07   1.4244345177338922e-07
3.6809661666365693e-06   -4.7580514152462984e-07   1.4244345177338922e-07
1.5390743851349704e-06   -8.35689701366956e-07   -3.643306919968016e-06
1.5390743851349704e-06   -8.35689701366956e-07   -3.643306919968016e-06
1.5390743851349704e-06   -8.35689701366956e-07   -3.643306919968016e-06
1.5390743851349704e-06   -8.35689701366956e-07   -3.643306919968016e-06
1.6324088588608984e-06   -3.9362959884490937e-07   -2.408732325498929e-07
1.6324088588608984e-06   -3.9362959884490937e-07   -2.408732325498929e-07
1.6324088588608984e-06   -3.9362959884490937e-07   -2.408732325498929e-07
1.6324088588608984e-06   -3.9362959884490937e-07   -2.408732325498929e-07
3.932488555191551e-06   -7.797913287910826e-07   -3.842642355133272e-06
3.932488555191551e-06   -7.797913287910826e-07   -3.842642355133272e-06
3.932488555191551e-06   -7.797913287910826e-07   -3.842642355133272e-06
3.932488555191551e-06   -7.797913287910826e-07   -3.842642355133272e-06
2.5860570720390692e-06   -5.579522718161855e-07   -1.7316933173974246e-06
2.5860570720390692e-06   -5.579522718161855e-07   -1.7316933173974246e-06
2.5860570720390692e-06   -5.579522718161855e-07   -1.7316933173974246e-06
2.5860570720390692e-06   -5.579522718161855e-07   -1.7316933173974246e-06
3.9324885551915575e-06   -3.9362959884490937e-07   -9.176194582205229e-09
3.9324885551915575e-06   -3.9362959884490937e-07   -9.176194582205229e-09
3.9324885551915575e-06   -3.9362959884490937e-07   -9.176194582205229e-09
3.9324885551915575e-06   -3.9362959884490937e-07   -9.176194582205229e-09
1.632408858860895e-06   -7.797913287910826e-07   -4.07433939310096e-06
1.632408858860895e-06   -7.797913287910826e-07   -4.07433939310096e-06
1.632408858860895e-06   -7.797913287910826e-07   -4.07433939310096e-06
1.632408858860895e-06   -7.797913287910826e-07   -4.07433939310096e-06
1.7366523589957736e-06   -3.363026989979521e-07   -4.1353247332047904e-07
1.7366523589957736e-06   -3.363026989979521e-07   -4.1353247332047904e-07
1.7366523589957736e-06   -3.363026989979521e-07   -4.1353247332047904e-07
1.7366523589957736e-06   -3.363026989979521e-07   -4.1353247332047904e-07
4.140348967818893e-06   -7.285047235424985e-07   -4.184372273298965e-06
4.140348967818893e-06   -7.285047235424985e-07   -4.184372273298965e-06
4.140348967818893e-06   -7.285047235424985e-07   -4.184372273298965e-06
4.140348967818893e-06   -7.285047235424985e-07   -4.184372273298965e-06
2.7744436190341253e-06   -5.349107199269405e-07   -2.024019760827048e-06
2.7744436190341253e-06   -5.349107199269405e-07   -2.024019760827048e-06
2.7744436190341253e-06   -5.349107199269405e-07   -2.024019760827048e-06
2.7744436190341253e-06   -5.349107199269405e-07   -2.024019760827048e-06
4.1403489678189e-06   -3.363026989979521e-07   -1.7821125859377287e-07
4.1403489678189e-06   -3.363026989979521e-07   -1.7821125859377287e-07
4.1403489678189e-06   -3.363026989979521e-07   -1.7821125859377287e-07
4.1403489678189e-06   -3.363026989979521e-07   -1.7821125859377287e-07
1.7366523589957702e-06   -7.285047235425527e-07   -4.4196934880256984e-06
1.7366523589957702e-06   -7.285047235425527e-07   -4.4196934880256984e-06
1.7366523589957702e-06   -7.285047235425527e-07   -4.4196934880256984e-06
1.7366523589957702e-06   -7.285047235425527e-07   -4.4196934880256984e-06
1.8201224578162359e-06   -1.943343291882678e-07   -8.01377982493647e-07
1.8201224578162359e-06   -1.943343291882678e-07   -8.01377982493647e-07
1.8201224578162359e-06   -1.943343291882678e-07   -8.01377982493647e-07
1.8201224578162359e-06   -1.943343291882678e-07   -8.01377982493647e-07
4.382186116122371e-06   -5.699643350548034e-07   -4.846106076150604e-06
4.382186116122371e-06   -5.699643350548034e-07   -4.846106076150604e-06
4.382186116122371e-06   -5.699643350548034e-07   -4.846106076150604e-06
4.382186116122371e-06   -5.699643350548034e-07   -4.846106076150604e-06
2.8668624165788933e-06   -4.696982944579135e-07   -2.3807262012696855e-06
2.8668624165788933e-06   -4.696982944579135e-07   -2.3807262012696855e-06
2.8668624165788933e-06   -4.696982944579135e-07   -2.3807262012696855e-06
2.8668624165788933e-06   -4.696982944579135e-07   -2.3807262012696855e-06
1.5390743851349738e-06   -1.7775172424683728e-07   -2.2947185665481303e-06
1.5390743851349738e-06   -1.7775172424683728e-07   -2.2947185665481303e-06
1.5390743851349738e-06   -1.7775172424683728e-07   -2.2947185665481303e-06
1.5390743851349738e-06   -1.7775172424683728e-07   -2.2947185665481303e-06
-6.964748442637235e-07   -3.744856870964777e-07   -6.138674326589048e-06
-6.964748442637235e-07   -3.744856870964777e-07   -6.138674326589048e-06
-6.964748442637235e-07   -3.744856870964777e-07   -6.138674326589048e-06
-6.964748442637235e-07   -3.744856870964777e-07   -6.138674326589048e-06
-6.115579045351257e-07   -6.231348142663557e-08   -2.3418391164687702e-06
-6.115579045351257e-07   -6.231348142663557e-08   -2.3418391164687702e-06
-6.115579045351257e-07   -6.231348142663557e-08   -2.3418391164687702e-06
-6.115579045351257e-07   -6.231348142663557e-08   -2.3418391164687702e-06
1.632408858860895e-06   -2.916331883322525e-07   -5.944191897985393e-06
1.632408858860895e-06   -2.916331883322525e-07   -5.944191897985393e-06
1.632408858860895e-06   -2.916331883322525e-07   -5.944191897985393e-06
1.632408858860895e-06   -2.916331883322525e-07   -5.944191897985393e-06
4.704849663824522e-07   -1.7798507799982478e-07   -4.07584094338744e-06
4.704849663824522e-07   -1.7798507799982478e-07   -4.07584094338744e-06
4.704849663824522e-07   -1.7798507799982478e-07   -4.07584094338744e-06
4.704849663824522e-07   -1.7798507799982478e-07   -4.07584094338744e-06
1.6324088588608984e-06   -6.231348142663557e-08   -2.2042472923253513e-06
1.6324088588608984e-06   -6.231348142663557e-08   -2.2042472923253513e-06
1.6324088588608984e-06   -6.231348142663557e-08   -2.2042472923253513e-06
1.6324088588608984e-06   -6.231348142663557e-08   -2.2042472923253513e-06
-6.115579045351257e-07   -2.916331883322525e-07   -6.081783722128778e-06
-6.115579045351257e-07   -2.916331883322525e-07   -6.081783722128778e-06
-6.115579045351257e-07   -2.916331883322525e-07   -6.081783722128778e-06
-6.115579045351257e-07   -2.916331883322525e-07   -6.081783722128778e-06
-5.305494772954511e-07   5.794552781004936e-08   -2.3775246066937194e-06
-5.305494772954511e-07   5.794552781004936e-08   -2.3775246066937194e-06
-5.305494772954511e-07   5.794552781004936e-08   -2.3775246066937194e-06
-5.305494772954511e-07   5.794552781004936e-08   -2.3775246066937194e-06
1.7366523589957702e-06   -1.908430905109889e-07   -6.006921162853105e-06
1.7366523589957702e-06   -1.908430905109889e-07   -6.006921162853105e-06
1.7366523589957702e-06   -1.908430905109889e-07   -6.006921162853105e-06
1.7366523589957702e-06   -1.908430905109889e-07   -6.006921162853105e-06
5.353993819416662e-07   -1.0344199200109988e-07   -4.057273526868749e-06
5.353993819416662e-07   -1.0344199200109988e-07   -4.057273526868749e-06
5.353993819416662e-07   -1.0344199200109988e-07   -4.057273526868749e-06
5.353993819416662e-07   -1.0344199200109988e-07   -4.057273526868749e-06
1.7366523589957736e-06   5.794552781004936e-08   -2.2282514357010964e-06
1.7366523589957736e-06   5.794552781004936e-08   -2.2282514357010964e-06
1.7366523589957736e-06   5.794552781004936e-08   -2.2282514357010964e-06
1.7366523589957736e-06   5.794552781004936e-08   -2.2282514357010964e-06
-5.305494772954511e-07   -1.908430905109889e-07   -6.156194333845755e-06
-5.305494772954511e-07   -1.908430905109889e-07   -6.156194333845755e-06
-5.305494772954511e-07   -1.908430905109889e-07   -6.156194333845755e-06
-5.305494772954511e-07   -1.908430905109889e-07   -6.156194333845755e-06
-4.5515552015371944e-07   2.0173614128033215e-07   -2.464960803834099e-06
-4.5515552015371944e-07   2.0173614128033215e-07   -2.464960803834099e-06
-4.5515552015371944e-07   2.0173614128033215e-07   -2.464960803834099e-06
-4.5515552015371944e-07   2.0173614128033215e-07   -2.464960803834099e-06
1.8201224578162325e-06   -6.290626873849429e-08   -6.098305321106107e-06
1.8201224578162325e-06   -6.290626873849429e-08   -6.098305321106107e-06
1.8201224578162325e-06   -6.290626873849429e-08   -6.098305321106107e-06
1.8201224578162325e-06   -6.290626873849429e-08   -6.098305321106107e-06
6.203515992977764e-07   -1.0759138556752819e-08   -4.129975501684463e-06
6.203515992977764e-07   -1.0759138556752819e-08   -4.129975501684463e-06
6.203515992977764e-07   -1.0759138556752819e-08   -4.129975501684463e-06
6.203515992977764e-07   -1.0759138556752819e-08   -4.129975501684463e-06
-6.964748442637269e-07   1.5722592338490455e-07   -3.003699582043674e-06
-6.964748442637269e-07   1.5722592338490455e-07   -3.003699582043674e-06
-6.964748442637269e-07   1.5722592338490455e-07   -3.003699582043674e-06
-6.964748442637269e-07   1.5722592338490455e-07   -3.003699582043674e-06
-2.8925175688469745e-06   1.0149163271296535e-07   -6.6972113640855835e-06
-2.8925175688469745e-06   1.0149163271296535e-07   -6.6972113640855835e-06
-2.8925175688469745e-06   1.0149163271296535e-07   -6.6972113640855835e-06
-2.8925175688469745e-06   1.0149163271296535e-07   -6.6972113640855835e-06
-2.801367889599374e-06   2.8114834546252073e-07   -2.9738783160085196e-06
-2.801367889599374e-06   2.8114834546252073e-07   -2.9738783160085196e-06
-2.801367889599374e-06   2.8114834546252073e-07   -2.9738783160085196e-06
-2.801367889599374e-06   2.8114834546252073e-07   -2.9738783160085196e-06
-6.115579045351257e-07   1.9580930258602733e-07   -6.5723581987230436e-06
-6.115579045351257e-07   1.9580930258602733e-07   -6.5723581987230436e-06
-6.115579045351257e-07   1.9580930258602733e-07   -6.5723581987230436e-06
-6.115579045351257e-07   1.9580930258602733e-07   -6.5723581987230436e-06
-1.7391631816574572e-06   2.1693211924722492e-07   -4.7056897601825e-06
-1.7391631816574572e-06   2.1693211924722492e-07   -4.7056897601825e-06
-1.7391631816574572e-06   2.1693211924722492e-07   -4.7056897601825e-06
-1.7391631816574572e-06   2.1693211924722492e-07   -4.7056897601825e-06
-6.115579045351257e-07   2.8114834546257494e-07   -2.92267489028264e-06
-6.115579045351257e-07   2.8114834546257494e-07   -2.92267489028264e-06
-6.115579045351257e-07   2.8114834546257494e-07   -2.92267489028264e-06
-6.115579045351257e-07   2.8114834546257494e-07   -2.92267489028264e-06
-2.801367889599374e-06   1.9580930258602733e-07   -6.62356162444894e-06
-2.801367889599374e-06   1.9580930258602733e-07   -6.62356162444894e-06
-2.801367889599374e-06   1.9580930258602733e-07   -6.62356162444894e-06
-2.801367889599374e-06   1.9580930258602733e-07   -6.62356162444894e-06
-2.7130107728495925e-06   4.11533887089777e-07   -2.9695479126949967e-06
-2.7130107728495925e-06   4.11533887089777e-07   -2.9695479126949967e-06
-2.7130107728495925e-06   4.11533887089777e-07   -2.9695479126949967e-06
-2.7130107728495925e-06   4.11533887089777e-07   -2.9695479126949967e-06
-5.305494772954511e-07   3.0318710628993465e-07   -6.541975336805366e-06
-5.305494772954511e-07   3.0318710628993465e-07   -6.541975336805366e-06
-5.305494772954511e-07   3.0318710628993465e-07   -6.541975336805366e-06
-5.305494772954511e-07   3.0318710628993465e-07   -6.541975336805366e-06
-1.661668486645697e-06   3.055695641362294e-07   -4.658206462596052e-06
-1.661668486645697e-06   3.055695641362294e-07   -4.658206462596052e-06
-1.661668486645697e-06   3.055695641362294e-07   -4.658206462596052e-06
-1.661668486645697e-06   3.055695641362294e-07   -4.658206462596052e-06
-5.305494772954511e-07   4.115338870897228e-07   -2.9045398442151455e-06
-5.305494772954511e-07   4.115338870897228e-07   -2.9045398442151455e-06
-5.305494772954511e-07   4.115338870897228e-07   -2.9045398442151455e-06
-5.305494772954511e-07   4.115338870897228e-07   -2.9045398442151455e-06
-2.7130107728495925e-06   3.0318710628993465e-07   -6.606983405285275e-06
-2.7130107728495925e-06   3.0318710628993465e-07   -6.606983405285275e-06
-2.7130107728495925e-06   3.0318710628993465e-07   -6.606983405285275e-06
-2.7130107728495925e-06   3.0318710628993465e-07   -6.606983405285275e-06
-2.63143977153213e-06   5.442643670658907e-07   -3.043141167826199e-06
-2.63143977153213e-06   5.442643670658907e-07   -3.043141167826199e-06
-2.63143977153213e-06   5.442643670658907e-07   -3.043141167826199e-06
-2.63143977153213e-06   5.442643670658907e-07   -3.043141167826199e-06
-4.5515552015372283e-07   4.1380934782573545e-07   -6.592008575246149e-06
-4.5515552015372283e-07   4.1380934782573545e-07   -6.592008575246149e-06
-4.5515552015372283e-07   4.1380934782573545e-07   -6.592008575246149e-06
-4.5515552015372283e-07   4.1380934782573545e-07   -6.592008575246149e-06
-1.5932590790149988e-06   3.964659535163318e-07   -4.684763273891744e-06
-1.5932590790149988e-06   3.964659535163318e-07   -4.684763273891744e-06
-1.5932590790149988e-06   3.964659535163318e-07   -4.684763273891744e-06
-1.5932590790149988e-06   3.964659535163318e-07   -4.684763273891744e-06
-2.8925175688469805e-06   4.868870461222736e-07   -2.4209394933767247e-06
-2.8925175688469805e-06   4.868870461222736e-07   -2.4209394933767247e-06
-2.8925175688469805e-06   4.868870461222736e-07   -2.4209394933767247e-06
-2.8925175688469805e-06   4.868870461222736e-07   -2.4209394933767247e-06
-5.067093527554478e-06   5.951678050570034e-07   -5.980264302528397e-06
-5.067093527554478e-06   5.951678050570034e-07   -5.980264302528397e-06
-5.067093527554478e-06   5.951678050570034e-07   -5.980264302528397e-06
-5.067093527554478e-06   5.951678050570034e-07   -5.980264302528397e-06
-4.956015854455923e-06   6.19304844342737e-07   -2.256439996725239e-06
-4.956015854455923e-06   6.19304844342737e-07   -2.256439996725239e-06
-4.956015854455923e-06   6.19304844342737e-07   -2.256439996725239e-06
-4.956015854455923e-06   6.19304844342737e-07   -2.256439996725239e-06
-2.80136788959938e-06   7.126301652410501e-07   -5.9035151306918285e-06
-2.80136788959938e-06   7.126301652410501e-07   -5.9035151306918285e-06
-2.80136788959938e-06   7.126301652410501e-07   -5.9035151306918285e-06
-2.80136788959938e-06   7.126301652410501e-07   -5.9035151306918285e-06
-3.900935787275113e-06   6.253707358411438e-07   -4.018546310258978e-06
-3.900935787275113e-06   6.253707358411438e-07   -4.018546310258978e-06
-3.900935787275113e-06   6.253707358411438e-07   -4.018546310258978e-06
-3.900935787275113e-06   6.253707358411438e-07   -4.018546310258978e-06
-2.80136788959938e-06   6.19304844342737e-07   -2.3124351892642647e-06
-2.80136788959938e-06   6.19304844342737e-07   -2.3124351892642647e-06
-2.80136788959938e-06   6.19304844342737e-07   -2.3124351892642647e-06
-2.80136788959938e-06   6.19304844342737e-07   -2.3124351892642647e-06
-4.956015854455931e-06   7.126301652410501e-07   -5.847519938152821e-06
-4.956015854455931e-06   7.126301652410501e-07   -5.847519938152821e-06
-4.956015854455931e-06   7.126301652410501e-07   -5.847519938152821e-06
-4.956015854455931e-06   7.126301652410501e-07   -5.847519938152821e-06
-4.830425959269957e-06   7.376199483028747e-07   -2.1644695476930736e-06
-4.830425959269957e-06   7.376199483028747e-07   -2.1644695476930736e-06
-4.830425959269957e-06   7.376199483028747e-07   -2.1644695476930736e-06
-4.830425959269957e-06   7.376199483028747e-07   -2.1644695476930736e-06
-2.7130107728495984e-06   8.134379407248702e-07   -5.738985653846903e-06
-2.7130107728495984e-06   8.134379407248702e-07   -5.738985653846903e-06
-2.7130107728495984e-06   8.134379407248702e-07   -5.738985653846903e-06
-2.7130107728495984e-06   8.134379407248702e-07   -5.738985653846903e-06
-3.7858377395466755e-06   7.182693618321308e-07   -3.893839562016106e-06
-3.7858377395466755e-06   7.182693618321308e-07   -3.893839562016106e-06
-3.7858377395466755e-06   7.182693618321308e-07   -3.893839562016106e-06
-3.7858377395466755e-06   7.182693618321308e-07   -3.893839562016106e-06
-2.713010772849596e-06   7.376199483028747e-07   -2.2099603431462926e-06
-2.713010772849596e-06   7.376199483028747e-07   -2.2099603431462926e-06
-2.713010772849596e-06   7.376199483028747e-07   -2.2099603431462926e-06
-2.713010772849596e-06   7.376199483028747e-07   -2.2099603431462926e-06
-4.830425959269957e-06   8.134379407248702e-07   -5.6934948583937115e-06
-4.830425959269957e-06   8.134379407248702e-07   -5.6934948583937115e-06
-4.830425959269957e-06   8.134379407248702e-07   -5.6934948583937115e-06
-4.830425959269957e-06   8.134379407248702e-07   -5.6934948583937115e-06
-4.725006608025601e-06   8.679028384493909e-07   -2.2157085197371752e-06
-4.725006608025601e-06   8.679028384493909e-07   -2.2157085197371752e-06
-4.725006608025601e-06   8.679028384493909e-07   -2.2157085197371752e-06
-4.725006608025601e-06   8.679028384493909e-07   -2.2157085197371752e-06
-2.6314397715321343e-06   9.231334086299051e-07   -5.738124922667905e-06
-2.6314397715321343e-06   9.231334086299051e-07   -5.738124922667905e-06
-2.6314397715321343e-06   9.231334086299051e-07   -5.738124922667905e-06
-2.6314397715321343e-06   9.231334086299051e-07   -5.738124922667905e-06
-3.7208611241092065e-06   8.031168953047548e-07   -3.850412760377699e-06
-3.7208611241092065e-06   8.031168953047548e-07   -3.850412760377699e-06
-3.7208611241092065e-06   8.031168953047548e-07   -3.850412760377699e-06
-3.7208611241092065e-06   8.031168953047548e-07   -3.850412760377699e-06
-5.067093527554478e-06   8.400625067533256e-07   -1.1961190234467992e-06
-5.067093527554478e-06   8.400625067533256e-07   -1.1961190234467992e-06
-5.067093527554478e-06   8.400625067533256e-07   -1.1961190234467992e-06
-5.067093527554478e-06   8.400625067533256e-07   -1.1961190234467992e-06
-7.383909689009356e-06   1.1428200592922115e-06   -4.87582476101496e-06
-7.383909689009356e-06   1.1428200592922115e-06   -4.87582476101496e-06
-7.383909689009356e-06   1.1428200592922115e-06   -4.87582476101496e-06
-7.383909689009356e-06   1.1428200592922115e-06   -4.87582476101496e-06
-7.110073723087383e-06   9.79247028627038e-07   -2.770422604326725e-07
-7.110073723087383e-06   9.79247028627038e-07   -2.770422604326725e-07
-7.110073723087383e-06   9.79247028627038e-07   -2.770422604326725e-07
-7.110073723087383e-06   9.79247028627038e-07   -2.770422604326725e-07
-4.956015854455923e-06   1.2992339991406096e-06   -4.059130890459911e-06
-4.956015854455923e-06   1.2992339991406096e-06   -4.059130890459911e-06
-4.956015854455923e-06   1.2992339991406096e-06   -4.059130890459911e-06
-4.956015854455923e-06   1.2992339991406096e-06   -4.059130890459911e-06
-5.876986639119976e-06   1.0877826640881463e-06   -2.3973087816550583e-06
-5.876986639119976e-06   1.0877826640881463e-06   -2.3973087816550583e-06
-5.876986639119976e-06   1.0877826640881463e-06   -2.3973087816550583e-06
-5.876986639119976e-06   1.0877826640881463e-06   -2.3973087816550583e-06
-4.956015854455928e-06   9.792470286270108e-07   -4.690344427407721e-07
-4.956015854455928e-06   9.792470286270108e-07   -4.690344427407721e-07
-4.956015854455928e-06   9.792470286270108e-07   -4.690344427407721e-07
-4.956015854455928e-06   9.792470286270108e-07   -4.690344427407721e-07
-7.110073723087371e-06   1.2992339991406096e-06   -3.867138708151771e-06
-7.110073723087371e-06   1.2992339991406096e-06   -3.867138708151771e-06
-7.110073723087371e-06   1.2992339991406096e-06   -3.867138708151771e-06
-7.110073723087371e-06   1.2992339991406096e-06   -3.867138708151771e-06
-6.885112022817803e-06   1.0296794710706826e-06   1.1608214949259538e-07
-6.885112022817803e-06   1.0296794710706826e-06   1.1608214949259538e-07
-6.885112022817803e-06   1.0296794710706826e-06   1.1608214949259538e-07
-6.885112022817803e-06   1.0296794710706826e-06   1.1608214949259538e-07
-4.830425959269957e-06   1.341423845086225e-06   -3.4954412474964844e-06
-4.830425959269957e-06   1.341423845086225e-06   -3.4954412474964844e-06
-4.830425959269957e-06   1.341423845086225e-06   -3.4954412474964844e-06
-4.830425959269957e-06   1.341423845086225e-06   -3.4954412474964844e-06
-5.798674898111308e-06   1.1534797419167592e-06   -1.7689265541925057e-06
-5.798674898111308e-06   1.1534797419167592e-06   -1.7689265541925057e-06
-5.798674898111308e-06   1.1534797419167592e-06   -1.7689265541925057e-06
-5.798674898111308e-06   1.1534797419167592e-06   -1.7689265541925057e-06
-4.830425959269957e-06   1.0296794710706826e-06   -7.096447491672462e-08
-4.830425959269957e-06   1.0296794710706826e-06   -7.096447491672462e-08
-4.830425959269957e-06   1.0296794710706826e-06   -7.096447491672462e-08
-4.830425959269957e-06   1.0296794710706826e-06   -7.096447491672462e-08
-6.885112022817781e-06   1.341423845086225e-06   -3.308394623087154e-06
-6.885112022817781e-06   1.341423845086225e-06   -3.308394623087154e-06
-6.885112022817781e-06   1.341423845086225e-06   -3.308394623087154e-06
-6.885112022817781e-06   1.341423845086225e-06   -3.308394623087154e-06
-6.637687204411903e-06   1.0886737227649957e-06   6.264038065523139e-07
-6.637687204411903e-06   1.0886737227649957e-06   6.264038065523139e-07
-6.637687204411903e-06   1.0886737227649957e-06   6.264038065523139e-07
-6.637687204411903e-06   1.0886737227649957e-06   6.264038065523139e-07
-4.725006608025601e-06   1.3721476164108752e-06   -2.7314815236123777e-06
-4.725006608025601e-06   1.3721476164108752e-06   -2.7314815236123777e-06
-4.725006608025601e-06   1.3721476164108752e-06   -2.7314815236123777e-06
-4.725006608025601e-06   1.3721476164108752e-06   -2.7314815236123777e-06
-5.562352140314846e-06   1.1633600494583896e-06   -1.2106330962922116e-06
-5.562352140314846e-06   1.1633600494583896e-06   -1.2106330962922116e-06
-5.562352140314846e-06   1.1633600494583896e-06   -1.2106330962922116e-06
-5.562352140314846e-06   1.1633600494583896e-06   -1.2106330962922116e-06
6.063588091952251e-06   -8.35689701366956e-07   1.370740028502611e-06
6.063588091952251e-06   -8.35689701366956e-07   1.370740028502611e-06
6.063588091952251e-06   -8.35689701366956e-07   1.370740028502611e-06
6.063588091952251e-06   -8.35689701366956e-07   1.370740028502611e-06
2.8843904755838786e-06   -1.2119043422990027e-06   -4.1536514500039256e-06
2.8843904755838786e-06   -1.2119043422990027e-06   -4.1536514500039256e-06
2.8843904755838786e-06   -1.2119043422990027e-06   -4.1536514500039256e-06
2.8843904755838786e-06   -1.2119043422990027e-06   -4.1536514500039256e-06
2.9867844100863083e-06   -7.797913287910826e-07   7.497713871574944e-07
2.9867844100863083e-06   -7.797913287910826e-07   7.497713871574944e-07
2.9867844100863083e-06   -7.797913287910826e-07   7.497713871574944e-07
2.9867844100863083e-06   -7.797913287910826e-07   7.497713871574944e-07
6.316252698907879e-06   -1.1866079190989837e-06   -4.555252473360428e-06
6.316252698907879e-06   -1.1866079190989837e-06   -4.555252473360428e-06
6.316252698907879e-06   -1.1866079190989837e-06   -4.555252473360428e-06
6.316252698907879e-06   -1.1866079190989837e-06   -4.555252473360428e-06
4.375461852895083e-06   -9.093132769661099e-07   -1.4869778486188419e-06
4.375461852895083e-06   -9.093132769661099e-07   -1.4869778486188419e-06
4.375461852895083e-06   -9.093132769661099e-07   -1.4869778486188419e-06
4.375461852895083e-06   -9.093132769661099e-07   -1.4869778486188419e-06
6.316252698907886e-06   -7.797913287910826e-07   9.938613413421863e-07
6.316252698907886e-06   -7.797913287910826e-07   9.938613413421863e-07
6.316252698907886e-06   -7.797913287910826e-07   9.938613413421863e-07
6.316252698907886e-06   -7.797913287910826e-07   9.938613413421863e-07
2.986784410086305e-06   -1.1866079190989837e-06   -4.79934242754516e-06
2.986784410086305e-06   -1.1866079190989837e-06   -4.79934242754516e-06
2.986784410086305e-06   -1.1866079190989837e-06   -4.79934242754516e-06
2.986784410086305e-06   -1.1866079190989837e-06   -4.79934242754516e-06
3.089050610487596e-06   -7.285047235425527e-07   4.389324976714309e-07
3.089050610487596e-06   -7.285047235425527e-07   4.389324976714309e-07
3.089050610487596e-06   -7.285047235425527e-07   4.389324976714309e-07
3.089050610487596e-06   -7.285047235425527e-07   4.389324976714309e-07
6.507901205058337e-06   -1.144400234165757e-06   -5.009614520239225e-06
6.507901205058337e-06   -1.144400234165757e-06   -5.009614520239225e-06
6.507901205058337e-06   -1.144400234165757e-06   -5.009614520239225e-06
6.507901205058337e-06   -1.144400234165757e-06   -5.009614520239225e-06
4.590716360391972e-06   -9.056573561542027e-07   -1.9575521726021924e-06
4.590716360391972e-06   -9.056573561542027e-07   -1.9575521726021924e-06
4.590716360391972e-06   -9.056573561542027e-07   -1.9575521726021924e-06
4.590716360391972e-06   -9.056573561542027e-07   -1.9575521726021924e-06
6.507901205058337e-06   -7.285047235425527e-07   6.88469804045348e-07
6.507901205058337e-06   -7.285047235425527e-07   6.88469804045348e-07
6.507901205058337e-06   -7.285047235425527e-07   6.88469804045348e-07
6.507901205058337e-06   -7.285047235425527e-07   6.88469804045348e-07
3.089050610487596e-06   -1.144400234165757e-06   -5.259151826613129e-06
3.089050610487596e-06   -1.144400234165757e-06   -5.259151826613129e-06
3.089050610487596e-06   -1.144400234165757e-06   -5.259151826613129e-06
3.089050610487596e-06   -1.144400234165757e-06   -5.259151826613129e-06
3.1559383888018874e-06   -5.699643350548034e-07   -1.7525168840058043e-07
3.1559383888018874e-06   -5.699643350548034e-07   -1.7525168840058043e-07
3.1559383888018874e-06   -5.699643350548034e-07   -1.7525168840058043e-07
3.1559383888018874e-06   -5.699643350548034e-07   -1.7525168840058043e-07
6.711403774932659e-06   -9.834421164536095e-07   -5.8529406631125725e-06
6.711403774932659e-06   -9.834421164536095e-07   -5.8529406631125725e-06
6.711403774932659e-06   -9.834421164536095e-07   -5.8529406631125725e-06
6.711403774932659e-06   -9.834421164536095e-07   -5.8529406631125725e-06
4.6393629759499416e-06   -8.341223813920339e-07   -2.489131172511671e-06
4.6393629759499416e-06   -8.341223813920339e-07   -2.489131172511671e-06
4.6393629759499416e-06   -8.341223813920339e-07   -2.489131172511671e-06
4.6393629759499416e-06   -8.341223813920339e-07   -2.489131172511671e-06
2.884390475583882e-06   -3.744856870964777e-07   -1.2323157849679356e-06
2.884390475583882e-06   -3.744856870964777e-07   -1.2323157849679356e-06
2.884390475583882e-06   -3.744856870964777e-07   -1.2323157849679356e-06
2.884390475583882e-06   -3.744856870964777e-07   -1.2323157849679356e-06
-2.424233666197349e-07   -7.445221613422729e-07   -6.665694073188102e-06
-2.424233666197349e-07   -7.445221613422729e-07   -6.665694073188102e-06
-2.424233666197349e-07   -7.445221613422729e-07   -6.665694073188102e-06
-2.424233666197349e-07   -7.445221613422729e-07   -6.665694073188102e-06
-1.3879711912474982e-07   -2.916331883322525e-07   -1.3670154510799252e-06
-1.3879711912474982e-07   -2.916331883322525e-07   -1.3670154510799252e-06
-1.3879711912474982e-07   -2.916331883322525e-07   -1.3670154510799252e-06
-1.3879711912474982e-07   -2.916331883322525e-07   -1.3670154510799252e-06
2.9867844100863083e-06   -7.031904105871557e-07   -6.329383666412056e-06
2.9867844100863083e-06   -7.031904105871557e-07   -6.329383666412056e-06
2.9867844100863083e-06   -7.031904105871557e-07   -6.329383666412056e-06
2.9867844100863083e-06   -7.031904105871557e-07   -6.329383666412056e-06
1.3753146373134325e-06   -4.5230349026293814e-07   -3.794132863985179e-06
1.3753146373134325e-06   -4.5230349026293814e-07   -3.794132863985179e-06
1.3753146373134325e-06   -4.5230349026293814e-07   -3.794132863985179e-06
1.3753146373134325e-06   -4.5230349026293814e-07   -3.794132863985179e-06
2.9867844100863083e-06   -2.916331883322525e-07   -1.1200811177269725e-06
2.9867844100863083e-06   -2.916331883322525e-07   -1.1200811177269725e-06
2.9867844100863083e-06   -2.916331883322525e-07   -1.1200811177269725e-06
2.9867844100863083e-06   -2.916331883322525e-07   -1.1200811177269725e-06
-1.3879711912474982e-07   -7.031904105871557e-07   -6.576317999765002e-06
-1.3879711912474982e-07   -7.031904105871557e-07   -6.576317999765002e-06
-1.3879711912474982e-07   -7.031904105871557e-07   -6.576317999765002e-06
-1.3879711912474982e-07   -7.031904105871557e-07   -6.576317999765002e-06
-4.7871292089293836e-08   -1.908430905109889e-07   -1.4120380479850704e-06
-4.7871292089293836e-08   -1.908430905109889e-07   -1.4120380479850704e-06
-4.7871292089293836e-08   -1.908430905109889e-07   -1.4120380479850704e-06
-4.7871292089293836e-08   -1.908430905109889e-07   -1.4120380479850704e-06
3.089050610487596e-06   -6.304145418927821e-07   -6.376498348117494e-06
3.089050610487596e-06   -6.304145418927821e-07   -6.376498348117494e-06
3.089050610487596e-06   -6.304145418927821e-07   -6.376498348117494e-06
3.089050610487596e-06   -6.304145418927821e-07   -6.376498348117494e-06
1.4423087137098495e-06   -4.091248999459518e-07   -3.764702305322574e-06
1.4423087137098495e-06   -4.091248999459518e-07   -3.764702305322574e-06
1.4423087137098495e-06   -4.091248999459518e-07   -3.764702305322574e-06
1.4423087137098495e-06   -4.091248999459518e-07   -3.764702305322574e-06
3.089050610487596e-06   -1.908430905109889e-07   -1.148295177155989e-06
3.089050610487596e-06   -1.908430905109889e-07   -1.148295177155989e-06
3.089050610487596e-06   -1.908430905109889e-07   -1.148295177155989e-06
3.089050610487596e-06   -1.908430905109889e-07   -1.148295177155989e-06
-4.7871292089293836e-08   -6.304145418927821e-07   -6.640241218946568e-06
-4.7871292089293836e-08   -6.304145418927821e-07   -6.640241218946568e-06
-4.7871292089293836e-08   -6.304145418927821e-07   -6.640241218946568e-06
-4.7871292089293836e-08   -6.304145418927821e-07   -6.640241218946568e-06
1.5571472888459812e-08   -6.290626873849429e-08   -1.4802570881813568e-06
1.5571472888459812e-08   -6.290626873849429e-08   -1.4802570881813568e-06
1.5571472888459812e-08   -6.290626873849429e-08   -1.4802570881813568e-06
1.5571472888459812e-08   -6.290626873849429e-08   -1.4802570881813568e-06
3.1559383888018976e-06   -5.265465326471973e-07   -6.43601778969185e-06
3.1559383888018976e-06   -5.265465326471973e-07   -6.43601778969185e-06
3.1559383888018976e-06   -5.265465326471973e-07   -6.43601778969185e-06
3.1559383888018976e-06   -5.265465326471973e-07   -6.43601778969185e-06
1.5278761507254087e-06   -3.3563490836098237e-07   -3.837127700802892e-06
1.5278761507254087e-06   -3.3563490836098237e-07   -3.837127700802892e-06
1.5278761507254087e-06   -3.3563490836098237e-07   -3.837127700802892e-06
1.5278761507254087e-06   -3.3563490836098237e-07   -3.837127700802892e-06
-2.424233666197349e-07   1.0149163271296535e-07   -1.97943413260873e-06
-2.424233666197349e-07   1.0149163271296535e-07   -1.97943413260873e-06
-2.424233666197349e-07   1.0149163271296535e-07   -1.97943413260873e-06
-2.424233666197349e-07   1.0149163271296535e-07   -1.97943413260873e-06
-3.323244781654451e-06   -3.2755113917314364e-07   -7.371562154131562e-06
-3.323244781654451e-06   -3.2755113917314364e-07   -7.371562154131562e-06
-3.323244781654451e-06   -3.2755113917314364e-07   -7.371562154131562e-06
-3.323244781654451e-06   -3.2755113917314364e-07   -7.371562154131562e-06
-3.198361978213165e-06   1.9580930258602733e-07   -2.1413174383767917e-06
-3.198361978213165e-06   1.9580930258602733e-07   -2.1413174383767917e-06
-3.198361978213165e-06   1.9580930258602733e-07   -2.1413174383767917e-06
-3.198361978213165e-06   1.9580930258602733e-07   -2.1413174383767917e-06
-1.3879711912474982e-07   -2.770698819182563e-07   -6.956864692821505e-06
-1.3879711912474982e-07   -2.770698819182563e-07   -6.956864692821505e-06
-1.3879711912474982e-07   -2.770698819182563e-07   -6.956864692821505e-06
-1.3879711912474982e-07   -2.770698819182563e-07   -6.956864692821505e-06
-1.7075181173828544e-06   -2.201494002829381e-08   -4.49536266085867e-06
-1.7075181173828544e-06   -2.201494002829381e-08   -4.49536266085867e-06
-1.7075181173828544e-06   -2.201494002829381e-08   -4.49536266085867e-06
-1.7075181173828544e-06   -2.201494002829381e-08   -4.49536266085867e-06
-1.3879711912474982e-07   1.9580930258602733e-07   -1.8575899276741402e-06
-1.3879711912474982e-07   1.9580930258602733e-07   -1.8575899276741402e-06
-1.3879711912474982e-07   1.9580930258602733e-07   -1.8575899276741402e-06
-1.3879711912474982e-07   1.9580930258602733e-07   -1.8575899276741402e-06
-3.198361978213165e-06   -2.7706988191831053e-07   -7.240592203524139e-06
-3.198361978213165e-06   -2.7706988191831053e-07   -7.240592203524139e-06
-3.198361978213165e-06   -2.7706988191831053e-07   -7.240592203524139e-06
-3.198361978213165e-06   -2.7706988191831053e-07   -7.240592203524139e-06
-3.0838551233553458e-06   3.0318710628998886e-07   -2.1024275335384396e-06
-3.0838551233553458e-06   3.0318710628998886e-07   -2.1024275335384396e-06
-3.0838551233553458e-06   3.0318710628998886e-07   -2.1024275335384396e-06
-3.0838551233553458e-06   3.0318710628998886e-07   -2.1024275335384396e-06
-4.7871292089293836e-08   -2.044936980328269e-07   -6.857792103054818e-06
-4.7871292089293836e-08   -2.044936980328269e-07   -6.857792103054818e-06
-4.7871292089293836e-08   -2.044936980328269e-07   -6.857792103054818e-06
-4.7871292089293836e-08   -2.044936980328269e-07   -6.857792103054818e-06
-1.6070359244383323e-06   3.354965287972068e-08   -4.402010393020625e-06
-1.6070359244383323e-06   3.354965287972068e-08   -4.402010393020625e-06
-1.6070359244383323e-06   3.354965287972068e-08   -4.402010393020625e-06
-1.6070359244383323e-06   3.354965287972068e-08   -4.402010393020625e-06
-4.7871292089293836e-08   3.0318710628998886e-07   -1.7978190509447393e-06
-4.7871292089293836e-08   3.0318710628998886e-07   -1.7978190509447393e-06
-4.7871292089293836e-08   3.0318710628998886e-07   -1.7978190509447393e-06
-4.7871292089293836e-08   3.0318710628998886e-07   -1.7978190509447393e-06
-3.083855123355351e-06   -2.044936980328811e-07   -7.1624005856485114e-06
-3.083855123355351e-06   -2.044936980328811e-07   -7.1624005856485114e-06
-3.083855123355351e-06   -2.044936980328811e-07   -7.1624005856485114e-06
-3.083855123355351e-06   -2.044936980328811e-07   -7.1624005856485114e-06
-3.0071571652787875e-06   4.1380934782578966e-07   -2.1443534700723156e-06
-3.0071571652787875e-06   4.1380934782578966e-07   -2.1443534700723156e-06
-3.0071571652787875e-06   4.1380934782578966e-07   -2.1443534700723156e-06
-3.0071571652787875e-06   4.1380934782578966e-07   -2.1443534700723156e-06
1.5571472888459812e-08   -1.3482160844468594e-07   -6.853055959922138e-06
1.5571472888459812e-08   -1.3482160844468594e-07   -6.853055959922138e-06
1.5571472888459812e-08   -1.3482160844468594e-07   -6.853055959922138e-06
1.5571472888459812e-08   -1.3482160844468594e-07   -6.853055959922138e-06
-1.5366901611973818e-06   9.520824587733439e-08   -4.403971149039033e-06
-1.5366901611973818e-06   9.520824587733439e-08   -4.403971149039033e-06
-1.5366901611973818e-06   9.520824587733439e-08   -4.403971149039033e-06
-1.5366901611973818e-06   9.520824587733439e-08   -4.403971149039033e-06
-3.323244781654446e-06   5.951678050569492e-07   -1.5848811895439986e-06
-3.323244781654446e-06   5.951678050569492e-07   -1.5848811895439986e-06
-3.323244781654446e-06   5.951678050569492e-07   -1.5848811895439986e-06
-3.323244781654446e-06   5.951678050569492e-07   -1.5848811895439986e-06
-6.45541034554584e-06   2.1911973619679346e-07   -7.030785970679076e-06
-6.45541034554584e-06   2.1911973619679346e-07   -7.030785970679076e-06
-6.45541034554584e-06   2.1911973619679346e-07   -7.030785970679076e-06
-6.45541034554584e-06   2.1911973619679346e-07   -7.030785970679076e-06
-6.27695237258881e-06   7.126301652410501e-07   -1.6664336952459426e-06
-6.27695237258881e-06   7.126301652410501e-07   -1.6664336952459426e-06
-6.27695237258881e-06   7.126301652410501e-07   -1.6664336952459426e-06
-6.27695237258881e-06   7.126301652410501e-07   -1.6664336952459426e-06
-3.1983619782131597e-06   3.0402558086383216e-07   -6.552254935245732e-06
-3.1983619782131597e-06   3.0402558086383216e-07   -6.552254935245732e-06
-3.1983619782131597e-06   3.0402558086383216e-07   -6.552254935245732e-06
-3.1983619782131597e-06   3.0402558086383216e-07   -6.552254935245732e-06
-4.766803655819813e-06   4.93452671225655e-07   -4.051841726785048e-06
-4.766803655819813e-06   4.93452671225655e-07   -4.051841726785048e-06
-4.766803655819813e-06   4.93452671225655e-07   -4.051841726785048e-06
-4.766803655819813e-06   4.93452671225655e-07   -4.051841726785048e-06
-3.1983619782131597e-06   7.126301652410501e-07   -1.4212709446196443e-06
-3.1983619782131597e-06   7.126301652410501e-07   -1.4212709446196443e-06
-3.1983619782131597e-06   7.126301652410501e-07   -1.4212709446196443e-06
-3.1983619782131597e-06   7.126301652410501e-07   -1.4212709446196443e-06
-6.276952372588821e-06   3.0402558086388637e-07   -6.7974176858720645e-06
-6.276952372588821e-06   3.0402558086388637e-07   -6.7974176858720645e-06
-6.276952372588821e-06   3.0402558086388637e-07   -6.7974176858720645e-06
-6.276952372588821e-06   3.0402558086388637e-07   -6.7974176858720645e-06
-6.101601259836093e-06   8.134379407248159e-07   -1.4937091745475444e-06
-6.101601259836093e-06   8.134379407248159e-07   -1.4937091745475444e-06
-6.101601259836093e-06   8.134379407248159e-07   -1.4937091745475444e-06
-6.101601259836093e-06   8.134379407248159e-07   -1.4937091745475444e-06
-3.083855123355351e-06   3.8130561997901276e-07   -6.2640066762346245e-06
-3.083855123355351e-06   3.8130561997901276e-07   -6.2640066762346245e-06
-3.083855123355351e-06   3.8130561997901276e-07   -6.2640066762346245e-06
-3.083855123355351e-06   3.8130561997901276e-07   -6.2640066762346245e-06
-4.6013060449185376e-06   5.674589333038316e-07   -3.846613794957565e-06
-4.6013060449185376e-06   5.674589333038316e-07   -3.846613794957565e-06
-4.6013060449185376e-06   5.674589333038316e-07   -3.846613794957565e-06
-4.6013060449185376e-06   5.674589333038316e-07   -3.846613794957565e-06
-3.083855123355344e-06   8.134379407248159e-07   -1.2344297821000137e-06
-3.083855123355344e-06   8.134379407248159e-07   -1.2344297821000137e-06
-3.083855123355344e-06   8.134379407248159e-07   -1.2344297821000137e-06
-3.083855123355344e-06   8.134379407248159e-07   -1.2344297821000137e-06
-6.101601259836104e-06   3.8130561997901276e-07   -6.523286068682148e-06
-6.101601259836104e-06   3.8130561997901276e-07   -6.523286068682148e-06
-6.101601259836104e-06   3.8130561997901276e-07   -6.523286068682148e-06
-6.101601259836104e-06   3.8130561997901276e-07   -6.523286068682148e-06
-5.97270914831197e-06   9.231334086298509e-07   -1.4992037984046323e-06
-5.97270914831197e-06   9.231334086298509e-07   -1.4992037984046323e-06
-5.97270914831197e-06   9.231334086298509e-07   -1.4992037984046323e-06
-5.97270914831197e-06   9.231334086298509e-07   -1.4992037984046323e-06
-3.0071571652787926e-06   4.447884212055442e-07   -6.154783444338635e-06
-3.0071571652787926e-06   4.447884212055442e-07   -6.154783444338635e-06
-3.0071571652787926e-06   4.447884212055442e-07   -6.154783444338635e-06
-3.0071571652787926e-06   4.447884212055442e-07   -6.154783444338635e-06
-4.518210394541815e-06   6.196636019460602e-07   -3.7412865040112573e-06
-4.518210394541815e-06   6.196636019460602e-07   -3.7412865040112573e-06
-4.518210394541815e-06   6.196636019460602e-07   -3.7412865040112573e-06
-4.518210394541815e-06   6.196636019460602e-07   -3.7412865040112573e-06
-6.45541034554584e-06   1.1428200592922115e-06   -8.877250208700076e-07
-6.45541034554584e-06   1.1428200592922115e-06   -8.877250208700076e-07
-6.45541034554584e-06   1.1428200592922115e-06   -8.877250208700076e-07
-6.45541034554584e-06   1.1428200592922115e-06   -8.877250208700076e-07
-9.752303978146305e-06   1.1052964520655837e-06   -6.405061906206795e-06
-9.752303978146305e-06   1.1052964520655837e-06   -6.405061906206795e-06
-9.752303978146305e-06   1.1052964520655837e-06   -6.405061906206795e-06
-9.752303978146305e-06   1.1052964520655837e-06   -6.405061906206795e-06
-9.377592213800656e-06   1.2992339991405553e-06   1.6030962884103824e-07
-9.377592213800656e-06   1.2992339991405553e-06   1.6030962884103824e-07
-9.377592213800656e-06   1.2992339991405553e-06   1.6030962884103824e-07
-9.377592213800656e-06   1.2992339991405553e-06   1.6030962884103824e-07
-6.2769523725887995e-06   1.3631577931306604e-06   -5.0457777162394716e-06
-6.2769523725887995e-06   1.3631577931306604e-06   -5.0457777162394716e-06
-6.2769523725887995e-06   1.3631577931306604e-06   -5.0457777162394716e-06
-6.2769523725887995e-06   1.3631577931306604e-06   -5.0457777162394716e-06
-7.6235251470605804e-06   1.2805666467181963e-06   -2.7519350709390472e-06
-7.6235251470605804e-06   1.2805666467181963e-06   -2.7519350709390472e-06
-7.6235251470605804e-06   1.2805666467181963e-06   -2.7519350709390472e-06
-7.6235251470605804e-06   1.2805666467181963e-06   -2.7519350709390472e-06
-6.276952372588816e-06   1.2992339991406096e-06   1.2195535244695355e-07
-6.276952372588816e-06   1.2992339991406096e-06   1.2195535244695355e-07
-6.276952372588816e-06   1.2992339991406096e-06   1.2195535244695355e-07
-6.276952372588816e-06   1.2992339991406096e-06   1.2195535244695355e-07
-9.377592213800656e-06   1.3631577931306604e-06   -5.007423439845404e-06
-9.377592213800656e-06   1.3631577931306604e-06   -5.007423439845404e-06
-9.377592213800656e-06   1.3631577931306604e-06   -5.007423439845404e-06
-9.377592213800656e-06   1.3631577931306604e-06   -5.007423439845404e-06
-9.0702328034022e-06   1.3414238450862792e-06   7.531366841056683e-07
-9.0702328034022e-06   1.3414238450862792e-06   7.531366841056683e-07
-9.0702328034022e-06   1.3414238450862792e-06   7.531366841056683e-07
-9.0702328034022e-06   1.3414238450862792e-06   7.531366841056683e-07
-6.101601259836093e-06   1.422744258012859e-06   -4.243374802927187e-06
-6.101601259836093e-06   1.422744258012859e-06   -4.243374802927187e-06
-6.101601259836093e-06   1.422744258012859e-06   -4.243374802927187e-06
-6.101601259836093e-06   1.422744258012859e-06   -4.243374802927187e-06
-7.502017644928133e-06   1.3697163010862419e-06   -1.8775307202844047e-06
-7.502017644928133e-06   1.3697163010862419e-06   -1.8775307202844047e-06
-7.502017644928133e-06   1.3697163010862419e-06   -1.8775307202844047e-06
-7.502017644928133e-06   1.3697163010862419e-06   -1.8775307202844047e-06
-6.101601259836104e-06   1.341423845086225e-06   7.043444363496391e-07
-6.101601259836104e-06   1.341423845086225e-06   7.043444363496391e-07
-6.101601259836104e-06   1.341423845086225e-06   7.043444363496391e-07
-6.101601259836104e-06   1.341423845086225e-06   7.043444363496391e-07
-9.070232803402183e-06   1.4227442580128048e-06   -4.194582555171211e-06
-9.070232803402183e-06   1.4227442580128048e-06   -4.194582555171211e-06
-9.070232803402183e-06   1.4227442580128048e-06   -4.194582555171211e-06
-9.070232803402183e-06   1.4227442580128048e-06   -4.194582555171211e-06
-8.74514475110923e-06   1.3721476164108752e-06   1.5595778062341907e-06
-8.74514475110923e-06   1.3721476164108752e-06   1.5595778062341907e-06
-8.74514475110923e-06   1.3721476164108752e-06   1.5595778062341907e-06
-8.74514475110923e-06   1.3721476164108752e-06   1.5595778062341907e-06
-5.97270914831197e-06   1.5142751958968181e-06   -3.146424746119527e-06
-5.97270914831197e-06   1.5142751958968181e-06   -3.146424746119527e-06
-5.97270914831197e-06   1.5142751958968181e-06   -3.146424746119527e-06
-5.97270914831197e-06   1.5142751958968181e-06   -3.146424746119527e-06
-7.180665830365824e-06   1.3952936081331499e-06   -1.0617746567049653e-06
-7.180665830365824e-06   1.3952936081331499e-06   -1.0617746567049653e-06
-7.180665830365824e-06   1.3952936081331499e-06   -1.0617746567049653e-06
-7.180665830365824e-06   1.3952936081331499e-06   -1.0617746567049653e-06
8.193118907275662e-06   -1.2119043422990027e-06   2.928268936348502e-06
8.193118907275662e-06   -1.2119043422990027e-06   2.928268936348502e-06
8.193118907275662e-06   -1.2119043422990027e-06   2.928268936348502e-06
8.193118907275662e-06   -1.2119043422990027e-06   2.928268936348502e-06
4.0778689403747985e-06   -1.5127167944780024e-06   -4.110968479793689e-06
4.0778689403747985e-06   -1.5127167944780024e-06   -4.110968479793689e-06
4.0778689403747985e-06   -1.5127167944780024e-06   -4.110968479793689e-06
4.0778689403747985e-06   -1.5127167944780024e-06   -4.110968479793689e-06
4.1640416275232595e-06   -1.1866079190989837e-06   2.1331545679536255e-06
4.1640416275232595e-06   -1.1866079190989837e-06   2.1331545679536255e-06
4.1640416275232595e-06   -1.1866079190989837e-06   2.1331545679536255e-06
4.1640416275232595e-06   -1.1866079190989837e-06   2.1331545679536255e-06
8.37982675419083e-06   -1.550696592307881e-06   -4.674700772566972e-06
8.37982675419083e-06   -1.550696592307881e-06   -4.674700772566972e-06
8.37982675419083e-06   -1.550696592307881e-06   -4.674700772566972e-06
8.37982675419083e-06   -1.550696592307881e-06   -4.674700772566972e-06
5.9537205330486655e-06   -1.2372410644979686e-06   -8.19263720682587e-07
5.9537205330486655e-06   -1.2372410644979686e-06   -8.19263720682587e-07
5.9537205330486655e-06   -1.2372410644979686e-06   -8.19263720682587e-07
5.9537205330486655e-06   -1.2372410644979686e-06   -8.19263720682587e-07
8.37982675419083e-06   -1.1866079190989837e-06   2.3516077718789856e-06
8.37982675419083e-06   -1.1866079190989837e-06   2.3516077718789856e-06
8.37982675419083e-06   -1.1866079190989837e-06   2.3516077718789856e-06
8.37982675419083e-06   -1.1866079190989837e-06   2.3516077718789856e-06
4.1640416275232595e-06   -1.550696592307881e-06   -4.893153976492291e-06
4.1640416275232595e-06   -1.550696592307881e-06   -4.893153976492291e-06
4.1640416275232595e-06   -1.550696592307881e-06   -4.893153976492291e-06
4.1640416275232595e-06   -1.550696592307881e-06   -4.893153976492291e-06
4.236562745070935e-06   -1.144400234165757e-06   1.7004146537685837e-06
4.236562745070935e-06   -1.144400234165757e-06   1.7004146537685837e-06
4.236562745070935e-06   -1.144400234165757e-06   1.7004146537685837e-06
4.236562745070935e-06   -1.144400234165757e-06   1.7004146537685837e-06
8.494814710923752e-06   -1.534021324210385e-06   -5.162899301959353e-06
8.494814710923752e-06   -1.534021324210385e-06   -5.162899301959353e-06
8.494814710923752e-06   -1.534021324210385e-06   -5.162899301959353e-06
8.494814710923752e-06   -1.534021324210385e-06   -5.162899301959353e-06
6.151568302450532e-06   -1.2730915440012066e-06   -1.4140464892961607e-06
6.151568302450532e-06   -1.2730915440012066e-06   -1.4140464892961607e-06
6.151568302450532e-06   -1.2730915440012066e-06   -1.4140464892961607e-06
6.151568302450532e-06   -1.2730915440012066e-06   -1.4140464892961607e-06
8.494814710923752e-06   -1.144400234165757e-06   1.9341873077953714e-06
8.494814710923752e-06   -1.144400234165757e-06   1.9341873077953714e-06
8.494814710923752e-06   -1.144400234165757e-06   1.9341873077953714e-06
8.494814710923752e-06   -1.144400234165757e-06   1.9341873077953714e-06
4.236562745070935e-06   -1.534021324210385e-06   -5.3966719559861475e-06
4.236562745070935e-06   -1.534021324210385e-06   -5.3966719559861475e-06
4.236562745070935e-06   -1.534021324210385e-06   -5.3966719559861475e-06
4.236562745070935e-06   -1.534021324210385e-06   -5.3966719559861475e-06
4.3103518638814604e-06   -9.834421164535553e-07   8.761482791878341e-07
4.3103518638814604e-06   -9.834421164535553e-07   8.761482791878341e-07
4.3103518638814604e-06   -9.834421164535553e-07   8.761482791878341e-07
4.3103518638814604e-06   -9.834421164535553e-07   8.761482791878341e-07
8.608199659741078e-06   -1.441048288285075e-06   -6.012367677479286e-06
8.608199659741078e-06   -1.441048288285075e-06   -6.012367677479286e-06
8.608199659741078e-06   -1.441048288285075e-06   -6.012367677479286e-06
8.608199659741078e-06   -1.441048288285075e-06   -6.012367677479286e-06
6.141719070642412e-06   -1.2209975414821076e-06   -2.0335971437300177e-06
6.141719070642412e-06   -1.2209975414821076e-06   -2.0335971437300177e-06
6.141719070642412e-06   -1.2209975414821076e-06   -2.0335971437300177e-06
6.141719070642412e-06   -1.2209975414821076e-06   -2.0335971437300177e-06
4.0778689403747985e-06   -7.445221613422729e-07   4.577607264043542e-07
4.0778689403747985e-06   -7.445221613422729e-07   4.577607264043542e-07
4.0778689403747985e-06   -7.445221613422729e-07   4.577607264043542e-07
4.0778689403747985e-06   -7.445221613422729e-07   4.577607264043542e-07
3.753783291182156e-07   -1.4195104753584437e-06   -6.118049947432961e-06
3.753783291182156e-07   -1.4195104753584437e-06   -6.118049947432961e-06
3.753783291182156e-07   -1.4195104753584437e-06   -6.118049947432961e-06
3.753783291182156e-07   -1.4195104753584437e-06   -6.118049947432961e-06
4.7452656058041584e-07   -7.031904105872099e-07   1.808155659890258e-07
4.7452656058041584e-07   -7.031904105872099e-07   1.808155659890258e-07
4.7452656058041584e-07   -7.031904105872099e-07   1.808155659890258e-07
4.7452656058041584e-07   -7.031904105872099e-07   1.808155659890258e-07
4.164041627523266e-06   -1.4070200157500524e-06   -5.546078449151354e-06
4.164041627523266e-06   -1.4070200157500524e-06   -5.546078449151354e-06
4.164041627523266e-06   -1.4070200157500524e-06   -5.546078449151354e-06
4.164041627523266e-06   -1.4070200157500524e-06   -5.546078449151354e-06
2.279331866057753e-06   -9.633497962557467e-07   -2.6710976450720973e-06
2.279331866057753e-06   -9.633497962557467e-07   -2.6710976450720973e-06
2.279331866057753e-06   -9.633497962557467e-07   -2.6710976450720973e-06
2.279331866057753e-06   -9.633497962557467e-07   -2.6710976450720973e-06
4.164041627523253e-06   -7.031904105871557e-07   6.031133290867639e-07
4.164041627523253e-06   -7.031904105871557e-07   6.031133290867639e-07
4.164041627523253e-06   -7.031904105871557e-07   6.031133290867639e-07
4.164041627523253e-06   -7.031904105871557e-07   6.031133290867639e-07
4.7452656058041584e-07   -1.4070200157500524e-06   -5.968376212249038e-06
4.7452656058041584e-07   -1.4070200157500524e-06   -5.968376212249038e-06
4.7452656058041584e-07   -1.4070200157500524e-06   -5.968376212249038e-06
4.7452656058041584e-07   -1.4070200157500524e-06   -5.968376212249038e-06
5.638625043754577e-07   -6.304145418927821e-07   1.3264711113070366e-07
5.638625043754577e-07   -6.304145418927821e-07   1.3264711113070366e-07
5.638625043754577e-07   -6.304145418927821e-07   1.3264711113070366e-07
5.638625043754577e-07   -6.304145418927821e-07   1.3264711113070366e-07
4.236562745070935e-06   -1.3811162437820214e-06   -5.538098935561573e-06
4.236562745070935e-06   -1.3811162437820214e-06   -5.538098935561573e-06
4.236562745070935e-06   -1.3811162437820214e-06   -5.538098935561573e-06
4.236562745070935e-06   -1.3811162437820214e-06   -5.538098935561573e-06
2.3311340339777883e-06   -9.676964579489761e-07   -2.610436288572724e-06
2.3311340339777883e-06   -9.676964579489761e-07   -2.610436288572724e-06
2.3311340339777883e-06   -9.676964579489761e-07   -2.610436288572724e-06
2.3311340339777883e-06   -9.676964579489761e-07   -2.610436288572724e-06
4.236562745070935e-06   -6.304145418927821e-07   5.830681322641985e-07
4.236562745070935e-06   -6.304145418927821e-07   5.830681322641985e-07
4.236562745070935e-06   -6.304145418927821e-07   5.830681322641985e-07
4.236562745070935e-06   -6.304145418927821e-07   5.830681322641985e-07
5.638625043754577e-07   -1.3811162437820214e-06   -5.988519956695088e-06
5.638625043754577e-07   -1.3811162437820214e-06   -5.988519956695088e-06
5.638625043754577e-07   -1.3811162437820214e-06   -5.988519956695088e-06
5.638625043754577e-07   -1.3811162437820214e-06   -5.988519956695088e-06
6.982802271065907e-07   -5.265465326471973e-07   5.673788337312406e-08
6.982802271065907e-07   -5.265465326471973e-07   5.673788337312406e-08
6.982802271065907e-07   -5.265465326471973e-07   5.673788337312406e-08
6.982802271065907e-07   -5.265465326471973e-07   5.673788337312406e-08
4.310351863881457e-06   -1.333913096105083e-06   -5.478961573176963e-06
4.310351863881457e-06   -1.333913096105083e-06   -5.478961573176963e-06
4.310351863881457e-06   -1.333913096105083e-06   -5.478961573176963e-06
4.310351863881457e-06   -1.333913096105083e-06   -5.478961573176963e-06
2.4412640884578747e-06   -9.444296401490428e-07   -2.5975053543779417e-06
2.4412640884578747e-06   -9.444296401490428e-07   -2.5975053543779417e-06
2.4412640884578747e-06   -9.444296401490428e-07   -2.5975053543779417e-06
2.4412640884578747e-06   -9.444296401490428e-07   -2.5975053543779417e-06
3.753783291182156e-07   -3.2755113917308943e-07   -3.9567467981715346e-07
3.753783291182156e-07   -3.2755113917308943e-07   -3.9567467981715346e-07
3.753783291182156e-07   -3.2755113917308943e-07   -3.9567467981715346e-07
3.753783291182156e-07   -3.2755113917308943e-07   -3.9567467981715346e-07
-3.2843063660075035e-06   -1.608487086423064e-06   -7.263710740043345e-06
-3.2843063660075035e-06   -1.608487086423064e-06   -7.263710740043345e-06
-3.2843063660075035e-06   -1.608487086423064e-06   -7.263710740043345e-06
-3.2843063660075035e-06   -1.608487086423064e-06   -7.263710740043345e-06
-3.128683979075273e-06   -2.7706988191831053e-07   -1.015134536229477e-06
-3.128683979075273e-06   -2.7706988191831053e-07   -1.015134536229477e-06
-3.128683979075273e-06   -2.7706988191831053e-07   -1.015134536229477e-06
-3.128683979075273e-06   -2.7706988191831053e-07   -1.015134536229477e-06
4.7452656058041584e-07   -1.6360755638549873e-06   -6.205082026493598e-06
4.7452656058041584e-07   -1.6360755638549873e-06   -6.205082026493598e-06
4.7452656058041584e-07   -1.6360755638549873e-06   -6.205082026493598e-06
4.7452656058041584e-07   -1.6360755638549873e-06   -6.205082026493598e-06
-1.3531499919717852e-06   -8.838127047969312e-07   -3.6103121543414388e-06
-1.3531499919717852e-06   -8.838127047969312e-07   -3.6103121543414388e-06
-1.3531499919717852e-06   -8.838127047969312e-07   -3.6103121543414388e-06
-1.3531499919717852e-06   -8.838127047969312e-07   -3.6103121543414388e-06
4.7452656058041584e-07   -2.7706988191831053e-07   -1.9973112706746015e-07
4.7452656058041584e-07   -2.7706988191831053e-07   -1.9973112706746015e-07
4.7452656058041584e-07   -2.7706988191831053e-07   -1.9973112706746015e-07
4.7452656058041584e-07   -2.7706988191831053e-07   -1.9973112706746015e-07
-3.128683979075278e-06   -1.6360755638549873e-06   -7.020485435655646e-06
-3.128683979075278e-06   -1.6360755638549873e-06   -7.020485435655646e-06
-3.128683979075278e-06   -1.6360755638549873e-06   -7.020485435655646e-06
-3.128683979075278e-06   -1.6360755638549873e-06   -7.020485435655646e-06
-2.993227149718531e-06   -2.044936980328811e-07   -9.334815765293318e-07
-2.993227149718531e-06   -2.044936980328811e-07   -9.334815765293318e-07
-2.993227149718531e-06   -2.044936980328811e-07   -9.334815765293318e-07
-2.993227149718531e-06   -2.044936980328811e-07   -9.334815765293318e-07
5.638625043754577e-07   -1.6187900372858057e-06   -6.013386529800864e-06
5.638625043754577e-07   -1.6187900372858057e-06   -6.013386529800864e-06
5.638625043754577e-07   -1.6187900372858057e-06   -6.013386529800864e-06
5.638625043754577e-07   -1.6187900372858057e-06   -6.013386529800864e-06
-1.2432695838561664e-06   -8.969091387295899e-07   -3.4346282552152004e-06
-1.2432695838561664e-06   -8.969091387295899e-07   -3.4346282552152004e-06
-1.2432695838561664e-06   -8.969091387295899e-07   -3.4346282552152004e-06
-1.2432695838561664e-06   -8.969091387295899e-07   -3.4346282552152004e-06
5.638625043754577e-07   -2.044936980328811e-07   -8.490377297753907e-08
5.638625043754577e-07   -2.044936980328811e-07   -8.490377297753907e-08
5.638625043754577e-07   -2.044936980328811e-07   -8.490377297753907e-08
5.638625043754577e-07   -2.044936980328811e-07   -8.490377297753907e-08
-2.993227149718541e-06   -1.6187900372858057e-06   -6.86196433335266e-06
-2.993227149718541e-06   -1.6187900372858057e-06   -6.86196433335266e-06
-2.993227149718541e-06   -1.6187900372858057e-06   -6.86196433335266e-06
-2.993227149718541e-06   -1.6187900372858057e-06   -6.86196433335266e-06
-2.7586668838013023e-06   -1.3482160844463173e-07   -9.316701935789594e-07
-2.7586668838013023e-06   -1.3482160844463173e-07   -9.316701935789594e-07
-2.7586668838013023e-06   -1.3482160844463173e-07   -9.316701935789594e-07
-2.7586668838013023e-06   -1.3482160844463173e-07   -9.316701935789594e-07
6.982802271065907e-07   -1.5507450502229704e-06   -5.8436946466917895e-06
6.982802271065907e-07   -1.5507450502229704e-06   -5.8436946466917895e-06
6.982802271065907e-07   -1.5507450502229704e-06   -5.8436946466917895e-06
6.982802271065907e-07   -1.5507450502229704e-06   -5.8436946466917895e-06
-1.0999505256768611e-06   -8.68217626062305e-07   -3.2561598465491074e-06
-1.0999505256768611e-06   -8.68217626062305e-07   -3.2561598465491074e-06
-1.0999505256768611e-06   -8.68217626062305e-07   -3.2561598465491074e-06
-1.0999505256768611e-06   -8.68217626062305e-07   -3.2561598465491074e-06
-3.2843063660074984e-06   2.1911973619679346e-07   -5.978312233985374e-07
-3.2843063660074984e-06   2.1911973619679346e-07   -5.978312233985374e-07
-3.2843063660074984e-06   2.1911973619679346e-07   -5.978312233985374e-07
-3.2843063660074984e-06   2.1911973619679346e-07   -5.978312233985374e-07
-7.325490504993188e-06   -1.9040460282143353e-06   -8.607037580354675e-06
-7.325490504993188e-06   -1.9040460282143353e-06   -8.607037580354675e-06
-7.325490504993188e-06   -1.9040460282143353e-06   -8.607037580354675e-06
-7.325490504993188e-06   -1.9040460282143353e-06   -8.607037580354675e-06
-7.131630440276889e-06   3.0402558086383216e-07   -1.8097078929096508e-06
-7.131630440276889e-06   3.0402558086383216e-07   -1.8097078929096508e-06
-7.131630440276889e-06   3.0402558086383216e-07   -1.8097078929096508e-06
-7.131630440276889e-06   3.0402558086383216e-07   -1.8097078929096508e-06
-3.128683979075273e-06   -2.1674921274004305e-06   -6.9983747032870815e-06
-3.128683979075273e-06   -2.1674921274004305e-06   -6.9983747032870815e-06
-3.128683979075273e-06   -2.1674921274004305e-06   -6.9983747032870815e-06
-3.128683979075273e-06   -2.1674921274004305e-06   -6.9983747032870815e-06
-5.1478858970825055e-06   -9.152204162281167e-07   -4.384401199978452e-06
-5.1478858970825055e-06   -9.152204162281167e-07   -4.384401199978452e-06
-5.1478858970825055e-06   -9.152204162281167e-07   -4.384401199978452e-06
-5.1478858970825055e-06   -9.152204162281167e-07   -4.384401199978452e-06
-3.128683979075273e-06   3.0402558086388637e-07   -3.267972679510769e-07
-3.128683979075273e-06   3.0402558086388637e-07   -3.267972679510769e-07
-3.128683979075273e-06   3.0402558086388637e-07   -3.267972679510769e-07
-3.128683979075273e-06   3.0402558086388637e-07   -3.267972679510769e-07
-7.131630440276889e-06   -2.1674921274004305e-06   -8.481285328245693e-06
-7.131630440276889e-06   -2.1674921274004305e-06   -8.481285328245693e-06
-7.131630440276889e-06   -2.1674921274004305e-06   -8.481285328245693e-06
-7.131630440276889e-06   -2.1674921274004305e-06   -8.481285328245693e-06
-6.946690370611449e-06   3.8130561997906697e-07   -1.5657732277841855e-06
-6.946690370611449e-06   3.8130561997906697e-07   -1.5657732277841855e-06
-6.946690370611449e-06   3.8130561997906697e-07   -1.5657732277841855e-06
-6.946690370611449e-06   3.8130561997906697e-07   -1.5657732277841855e-06
-2.9932271497185377e-06   -2.1698369811356025e-06   -6.624193035270297e-06
-2.9932271497185377e-06   -2.1698369811356025e-06   -6.624193035270297e-06
-2.9932271497185377e-06   -2.1698369811356025e-06   -6.624193035270297e-06
-2.9932271497185377e-06   -2.1698369811356025e-06   -6.624193035270297e-06
-4.958589471789821e-06   -9.095302079215137e-07   -4.104773229079913e-06
-4.958589471789821e-06   -9.095302079215137e-07   -4.104773229079913e-06
-4.958589471789821e-06   -9.095302079215137e-07   -4.104773229079913e-06
-4.958589471789821e-06   -9.095302079215137e-07   -4.104773229079913e-06
-2.9932271497185327e-06   3.8130561997906697e-07   -3.508766711543803e-08
-2.9932271497185327e-06   3.8130561997906697e-07   -3.508766711543803e-08
-2.9932271497185327e-06   3.8130561997906697e-07   -3.508766711543803e-08
-2.9932271497185327e-06   3.8130561997906697e-07   -3.508766711543803e-08
-6.9466903706114616e-06   -2.1698369811356025e-06   -8.154878595939048e-06
-6.9466903706114616e-06   -2.1698369811356025e-06   -8.154878595939048e-06
-6.9466903706114616e-06   -2.1698369811356025e-06   -8.154878595939048e-06
-6.9466903706114616e-06   -2.1698369811356025e-06   -8.154878595939048e-06
-6.637370820869353e-06   4.447884212055442e-07   -1.3243532280635551e-06
-6.637370820869353e-06   4.447884212055442e-07   -1.3243532280635551e-06
-6.637370820869353e-06   4.447884212055442e-07   -1.3243532280635551e-06
-6.637370820869353e-06   4.447884212055442e-07   -1.3243532280635551e-06
-2.7586668838013107e-06   -1.9221017851784434e-06   -6.368725666013283e-06
-2.7586668838013107e-06   -1.9221017851784434e-06   -6.368725666013283e-06
-2.7586668838013107e-06   -1.9221017851784434e-06   -6.368725666013283e-06
-2.7586668838013107e-06   -1.9221017851784434e-06   -6.368725666013283e-06
-4.779130167278318e-06   -7.618098857968287e-07   -3.6974619998471368e-06
-4.779130167278318e-06   -7.618098857968287e-07   -3.6974619998471368e-06
-4.779130167278318e-06   -7.618098857968287e-07   -3.6974619998471368e-06
-4.779130167278318e-06   -7.618098857968287e-07   -3.6974619998471368e-06
-7.325490504993188e-06   1.1052964520655837e-06   -1.2234924532369734e-06
-7.325490504993188e-06   1.1052964520655837e-06   -1.2234924532369734e-06
-7.325490504993188e-06   1.1052964520655837e-06   -1.2234924532369734e-06
-7.325490504993188e-06   1.1052964520655837e-06   -1.2234924532369734e-06
-1.2387208762958814e-05   0.0   -1.032286742108578e-05
-1.2387208762958814e-05   0.0   -1.032286742108578e-05
-1.2387208762958814e-05   0.0   -1.032286742108578e-05
-1.2387208762958814e-05   0.0   -1.032286742108578e-05
-1.2110883604841953e-05   1.3631577931306604e-06   -8.759625991555035e-07
-1.2110883604841953e-05   1.3631577931306604e-06   -8.759625991555035e-07
-1.2110883604841953e-05   1.3631577931306604e-06   -8.759625991555035e-07
-1.2110883604841953e-05   1.3631577931306604e-06   -8.759625991555035e-07
-7.131630440276877e-06   0.0   -8.356823197552218e-06
-7.131630440276877e-06   0.0   -8.356823197552218e-06
-7.131630440276877e-06   0.0   -8.356823197552218e-06
-7.131630440276877e-06   0.0   -8.356823197552218e-06
-9.327084026610579e-06   4.374380334799268e-07   -4.9601967070840235e-06
-9.327084026610579e-06   4.374380334799268e-07   -4.9601967070840235e-06
-9.327084026610579e-06   4.374380334799268e-07   -4.9601967070840235e-06
-9.327084026610579e-06   4.374380334799268e-07   -4.9601967070840235e-06
-7.131630440276883e-06   1.3631577931306604e-06   -5.806792327710188e-08
-7.131630440276883e-06   1.3631577931306604e-06   -5.806792327710188e-08
-7.131630440276883e-06   1.3631577931306604e-06   -5.806792327710188e-08
-7.131630440276883e-06   1.3631577931306604e-06   -5.806792327710188e-08
-1.2110883604841933e-05   0.0   -9.174717873430626e-06
-1.2110883604841933e-05   0.0   -9.174717873430626e-06
-1.2110883604841933e-05   0.0   -9.174717873430626e-06
-1.2110883604841933e-05   0.0   -9.174717873430626e-06
-1.1872425845010199e-05   1.422744258012859e-06   -1.395085168369762e-07
-1.1872425845010199e-05   1.422744258012859e-06   -1.395085168369762e-07
-1.1872425845010199e-05   1.422744258012859e-06   -1.395085168369762e-07
-1.1872425845010199e-05   1.422744258012859e-06   -1.395085168369762e-07
-6.9466903706114616e-06   0.0   -7.495421086027187e-06
-6.9466903706114616e-06   0.0   -7.495421086027187e-06
-6.9466903706114616e-06   0.0   -7.495421086027187e-06
-6.9466903706114616e-06   0.0   -7.495421086027187e-06
-9.264449050753282e-06   6.651419423545253e-07   -4.031575117870061e-06
-9.264449050753282e-06   6.651419423545253e-07   -4.031575117870061e-06
-9.264449050753282e-06   6.651419423545253e-07   -4.031575117870061e-06
-9.264449050753282e-06   6.651419423545253e-07   -4.031575117870061e-06
-6.9466903706114616e-06   1.422744258012859e-06   7.1413803797075e-07
-6.9466903706114616e-06   1.422744258012859e-06   7.1413803797075e-07
-6.9466903706114616e-06   1.422744258012859e-06   7.1413803797075e-07
-6.9466903706114616e-06   1.422744258012859e-06   7.1413803797075e-07
-1.1872425845010178e-05   0.0   -8.349067640834907e-06
-1.1872425845010178e-05   0.0   -8.349067640834907e-06
-1.1872425845010178e-05   0.0   -8.349067640834907e-06
-1.1872425845010178e-05   0.0   -8.349067640834907e-06
-1.1391855755313398e-05   1.5142751958968181e-06   1.0624473450720616e-06
-1.1391855755313398e-05   1.5142751958968181e-06   1.0624473450720616e-06
-1.1391855755313398e-05   1.5142751958968181e-06   1.0624473450720616e-06
-1.1391855755313398e-05   1.5142751958968181e-06   1.0624473450720616e-06
-6.637370820869364e-06   0.0   -5.953129094796585e-06
-6.637370820869364e-06   0.0   -5.953129094796585e-06
-6.637370820869364e-06   0.0   -5.953129094796585e-06
-6.637370820869364e-06   0.0   -5.953129094796585e-06
-8.828467917471162e-06   8.120865231746842e-07   -2.788552514365024e-06
-8.828467917471162e-06   8.120865231746842e-07   -2.788552514365024e-06
-8.828467917471162e-06   8.120865231746842e-07   -2.788552514365024e-06
-8.828467917471162e-06   8.120865231746842e-07   -2.788552514365024e-06
9.060968009607708e-06   -1.5127167944780024e-06   5.329427323181766e-06
9.060968009607708e-06   -1.5127167944780024e-06   5.329427323181766e-06
9.060968009607708e-06   -1.5127167944780024e-06   5.329427323181766e-06
9.060968009607708e-06   -1.5127167944780024e-06   5.329427323181766e-06
4.649787394960732e-06   -1.2053136020139313e-06   -1.8380984524180846e-06
4.649787394960732e-06   -1.2053136020139313e-06   -1.8380984524180846e-06
4.649787394960732e-06   -1.2053136020139313e-06   -1.8380984524180846e-06
4.649787394960732e-06   -1.2053136020139313e-06   -1.8380984524180846e-06
4.543286135188582e-06   -1.550696592307881e-06   4.660623087816287e-06
4.543286135188582e-06   -1.550696592307881e-06   4.660623087816287e-06
4.543286135188582e-06   -1.550696592307881e-06   4.660623087816287e-06
4.543286135188582e-06   -1.550696592307881e-06   4.660623087816287e-06
8.978572636545586e-06   -1.31778538232073e-06   -2.8712678071043635e-06
8.978572636545586e-06   -1.31778538232073e-06   -2.8712678071043635e-06
8.978572636545586e-06   -1.31778538232073e-06   -2.8712678071043635e-06
8.978572636545586e-06   -1.31778538232073e-06   -2.8712678071043635e-06
6.526999758163996e-06   -1.3248010166581978e-06   1.2188963708007871e-06
6.526999758163996e-06   -1.3248010166581978e-06   1.2188963708007871e-06
6.526999758163996e-06   -1.3248010166581978e-06   1.2188963708007871e-06
6.526999758163996e-06   -1.3248010166581978e-06   1.2188963708007871e-06
8.978572636545586e-06   -1.550696592307881e-06   4.5208763618239745e-06
8.978572636545586e-06   -1.550696592307881e-06   4.5208763618239745e-06
8.978572636545586e-06   -1.550696592307881e-06   4.5208763618239745e-06
8.978572636545586e-06   -1.550696592307881e-06   4.5208763618239745e-06
4.543286135188582e-06   -1.31778538232073e-06   -2.7315210811120817e-06
4.543286135188582e-06   -1.31778538232073e-06   -2.7315210811120817e-06
4.543286135188582e-06   -1.31778538232073e-06   -2.7315210811120817e-06
4.543286135188582e-06   -1.31778538232073e-06   -2.7315210811120817e-06
4.4459607673004095e-06   -1.534021324210385e-06   4.161072996890599e-06
4.4459607673004095e-06   -1.534021324210385e-06   4.161072996890599e-06
4.4459607673004095e-06   -1.534021324210385e-06   4.161072996890599e-06
4.4459607673004095e-06   -1.534021324210385e-06   4.161072996890599e-06
8.879506581201083e-06   -1.3251328087749824e-06   -3.35350313553842e-06
8.879506581201083e-06   -1.3251328087749824e-06   -3.35350313553842e-06
8.879506581201083e-06   -1.3251328087749824e-06   -3.35350313553842e-06
8.879506581201083e-06   -1.3251328087749824e-06   -3.35350313553842e-06
6.534406835150024e-06   -1.3481399102231381e-06   5.688007020822356e-07
6.534406835150024e-06   -1.3481399102231381e-06   5.688007020822356e-07
6.534406835150024e-06   -1.3481399102231381e-06   5.688007020822356e-07
6.534406835150024e-06   -1.3481399102231381e-06   5.688007020822356e-07
8.8795065812011e-06   -1.5340213242103309e-06   4.035739887629352e-06
8.8795065812011e-06   -1.5340213242103309e-06   4.035739887629352e-06
8.8795065812011e-06   -1.5340213242103309e-06   4.035739887629352e-06
8.8795065812011e-06   -1.5340213242103309e-06   4.035739887629352e-06
4.4459607673004095e-06   -1.3251328087749824e-06   -3.2281700262771595e-06
4.4459607673004095e-06   -1.3251328087749824e-06   -3.2281700262771595e-06
4.4459607673004095e-06   -1.3251328087749824e-06   -3.2281700262771595e-06
4.4459607673004095e-06   -1.3251328087749824e-06   -3.2281700262771595e-06
4.326690905273813e-06   -1.441048288285075e-06   3.3482279243022574e-06
4.326690905273813e-06   -1.441048288285075e-06   3.3482279243022574e-06
4.326690905273813e-06   -1.441048288285075e-06   3.3482279243022574e-06
4.326690905273813e-06   -1.441048288285075e-06   3.3482279243022574e-06
8.723940912378358e-06   -1.2872737830111171e-06   -4.0727867907030415e-06
8.723940912378358e-06   -1.2872737830111171e-06   -4.0727867907030415e-06
8.723940912378358e-06   -1.2872737830111171e-06   -4.0727867907030415e-06
8.723940912378358e-06   -1.2872737830111171e-06   -4.0727867907030415e-06
6.322436611473857e-06   -1.2808444096769887e-06   -7.413724652933679e-08
6.322436611473857e-06   -1.2808444096769887e-06   -7.413724652933679e-08
6.322436611473857e-06   -1.2808444096769887e-06   -7.413724652933679e-08
6.322436611473857e-06   -1.2808444096769887e-06   -7.413724652933679e-08
4.649787394960732e-06   -1.4195104753584437e-06   3.911780759430656e-06
4.649787394960732e-06   -1.4195104753584437e-06   3.911780759430656e-06
4.649787394960732e-06   -1.4195104753584437e-06   3.911780759430656e-06
4.649787394960732e-06   -1.4195104753584437e-06   3.911780759430656e-06
8.452105816072389e-07   -6.998128690764672e-07   -1.9973620323893387e-06
8.452105816072389e-07   -6.998128690764672e-07   -1.9973620323893387e-06
8.452105816072389e-07   -6.998128690764672e-07   -1.9973620323893387e-06
8.452105816072389e-07   -6.998128690764672e-07   -1.9973620323893387e-06
6.768910777085667e-07   -1.4070200157500524e-06   4.408462598360052e-06
6.768910777085667e-07   -1.4070200157500524e-06   4.408462598360052e-06
6.768910777085667e-07   -1.4070200157500524e-06   4.408462598360052e-06
6.768910777085667e-07   -1.4070200157500524e-06   4.408462598360052e-06
4.543286135188582e-06   -7.390800437453212e-07   -2.436293147309448e-06
4.543286135188582e-06   -7.390800437453212e-07   -2.436293147309448e-06
4.543286135188582e-06   -7.390800437453212e-07   -2.436293147309448e-06
4.543286135188582e-06   -7.390800437453212e-07   -2.436293147309448e-06
2.6729611240716646e-06   -1.0260911790492284e-06   8.531218857344021e-07
2.6729611240716646e-06   -1.0260911790492284e-06   8.531218857344021e-07
2.6729611240716646e-06   -1.0260911790492284e-06   8.531218857344021e-07
2.6729611240716646e-06   -1.0260911790492284e-06   8.531218857344021e-07
4.5432861351885855e-06   -1.4070200157500524e-06   4.007698615157251e-06
4.5432861351885855e-06   -1.4070200157500524e-06   4.007698615157251e-06
4.5432861351885855e-06   -1.4070200157500524e-06   4.007698615157251e-06
4.5432861351885855e-06   -1.4070200157500524e-06   4.007698615157251e-06
6.768910777085667e-07   -7.390800437453212e-07   -2.0355291641066336e-06
6.768910777085667e-07   -7.390800437453212e-07   -2.0355291641066336e-06
6.768910777085667e-07   -7.390800437453212e-07   -2.0355291641066336e-06
6.768910777085667e-07   -7.390800437453212e-07   -2.0355291641066336e-06
5.55260869815059e-07   -1.3811162437820214e-06   4.3967930377528065e-06
5.55260869815059e-07   -1.3811162437820214e-06   4.3967930377528065e-06
5.55260869815059e-07   -1.3811162437820214e-06   4.3967930377528065e-06
5.55260869815059e-07   -1.3811162437820214e-06   4.3967930377528065e-06
4.4459607673004095e-06   -7.525378763859232e-07   -2.4648538118270753e-06
4.4459607673004095e-06   -7.525378763859232e-07   -2.4648538118270753e-06
4.4459607673004095e-06   -7.525378763859232e-07   -2.4648538118270753e-06
4.4459607673004095e-06   -7.525378763859232e-07   -2.4648538118270753e-06
2.52486288365393e-06   -1.0020155030255684e-06   8.866625702342646e-07
2.52486288365393e-06   -1.0020155030255684e-06   8.866625702342646e-07
2.52486288365393e-06   -1.0020155030255684e-06   8.866625702342646e-07
2.52486288365393e-06   -1.0020155030255684e-06   8.866625702342646e-07
4.445960767300423e-06   -1.3811162437820214e-06   4.019646017315153e-06
4.445960767300423e-06   -1.3811162437820214e-06   4.019646017315153e-06
4.445960767300423e-06   -1.3811162437820214e-06   4.019646017315153e-06
4.445960767300423e-06   -1.3811162437820214e-06   4.019646017315153e-06
5.55260869815059e-07   -7.525378763859232e-07   -2.087706791389449e-06
5.55260869815059e-07   -7.525378763859232e-07   -2.087706791389449e-06
5.55260869815059e-07   -7.525378763859232e-07   -2.087706791389449e-06
5.55260869815059e-07   -7.525378763859232e-07   -2.087706791389449e-06
4.2061812397768146e-07   -1.333913096105083e-06   4.519479902529583e-06
4.2061812397768146e-07   -1.333913096105083e-06   4.519479902529583e-06
4.2061812397768146e-07   -1.333913096105083e-06   4.519479902529583e-06
4.2061812397768146e-07   -1.333913096105083e-06   4.519479902529583e-06
4.326690905273808e-06   -7.284428113949436e-07   -2.353923570456728e-06
4.326690905273808e-06   -7.284428113949436e-07   -2.353923570456728e-06
4.326690905273808e-06   -7.284428113949436e-07   -2.353923570456728e-06
4.326690905273808e-06   -7.284428113949436e-07   -2.353923570456728e-06
2.4374463499684645e-06   -9.525333887354425e-07   9.292717014565036e-07
2.4374463499684645e-06   -9.525333887354425e-07   9.292717014565036e-07
2.4374463499684645e-06   -9.525333887354425e-07   9.292717014565036e-07
2.4374463499684645e-06   -9.525333887354425e-07   9.292717014565036e-07
8.452105816072389e-07   -1.608487086423064e-06   3.966500098939442e-06
8.452105816072389e-07   -1.608487086423064e-06   3.966500098939442e-06
8.452105816072389e-07   -1.608487086423064e-06   3.966500098939442e-06
8.452105816072389e-07   -1.608487086423064e-06   3.966500098939442e-06
-2.8199645966175124e-06   -2.241007558364573e-07   -1.3114933997498371e-06
-2.8199645966175124e-06   -2.241007558364573e-07   -1.3114933997498371e-06
-2.8199645966175124e-06   -2.241007558364573e-07   -1.3114933997498371e-06
-2.8199645966175124e-06   -2.241007558364573e-07   -1.3114933997498371e-06
-3.0806037310296613e-06   -1.6360755638549873e-06   5.012756881955858e-06
-3.0806037310296613e-06   -1.6360755638549873e-06   5.012756881955858e-06
-3.0806037310296613e-06   -1.6360755638549873e-06   5.012756881955858e-06
-3.0806037310296613e-06   -1.6360755638549873e-06   5.012756881955858e-06
6.768910777085667e-07   -2.3440873412098294e-07   -2.090734563781562e-06
6.768910777085667e-07   -2.3440873412098294e-07   -2.090734563781562e-06
6.768910777085667e-07   -2.3440873412098294e-07   -2.090734563781562e-06
6.768910777085667e-07   -2.3440873412098294e-07   -2.090734563781562e-06
-1.0659566639694526e-06   -8.941226469079649e-07   1.209840020020653e-06
-1.0659566639694526e-06   -8.941226469079649e-07   1.209840020020653e-06
-1.0659566639694526e-06   -8.941226469079649e-07   1.209840020020653e-06
-1.0659566639694526e-06   -8.941226469079649e-07   1.209840020020653e-06
6.768910777085667e-07   -1.6360755638549873e-06   4.171756784115488e-06
6.768910777085667e-07   -1.6360755638549873e-06   4.171756784115488e-06
6.768910777085667e-07   -1.6360755638549873e-06   4.171756784115488e-06
6.768910777085667e-07   -1.6360755638549873e-06   4.171756784115488e-06
-3.080603731029656e-06   -2.3440873412103715e-07   -1.2497344659411782e-06
-3.080603731029656e-06   -2.3440873412103715e-07   -1.2497344659411782e-06
-3.080603731029656e-06   -2.3440873412103715e-07   -1.2497344659411782e-06
-3.080603731029656e-06   -2.3440873412103715e-07   -1.2497344659411782e-06
-3.242561936781372e-06   -1.6187900372858057e-06   5.194331716115247e-06
-3.242561936781372e-06   -1.6187900372858057e-06   5.194331716115247e-06
-3.242561936781372e-06   -1.6187900372858057e-06   5.194331716115247e-06
-3.242561936781372e-06   -1.6187900372858057e-06   5.194331716115247e-06
5.55260869815059e-07   -2.4811461817210575e-07   -1.9577782130136853e-06
5.55260869815059e-07   -2.4811461817210575e-07   -1.9577782130136853e-06
5.55260869815059e-07   -2.4811461817210575e-07   -1.9577782130136853e-06
5.55260869815059e-07   -2.4811461817210575e-07   -1.9577782130136853e-06
-1.2436942760426579e-06   -8.840124502754437e-07   1.4220190626778491e-06
-1.2436942760426579e-06   -8.840124502754437e-07   1.4220190626778491e-06
-1.2436942760426579e-06   -8.840124502754437e-07   1.4220190626778491e-06
-1.2436942760426579e-06   -8.840124502754437e-07   1.4220190626778491e-06
5.55260869815059e-07   -1.6187900372858057e-06   4.371926464647027e-06
5.55260869815059e-07   -1.6187900372858057e-06   4.371926464647027e-06
5.55260869815059e-07   -1.6187900372858057e-06   4.371926464647027e-06
5.55260869815059e-07   -1.6187900372858057e-06   4.371926464647027e-06
-3.242561936781365e-06   -2.4811461817210575e-07   -1.135372961545472e-06
-3.242561936781365e-06   -2.4811461817210575e-07   -1.135372961545472e-06
-3.242561936781365e-06   -2.4811461817210575e-07   -1.135372961545472e-06
-3.242561936781365e-06   -2.4811461817210575e-07   -1.135372961545472e-06
-3.429892966057162e-06   -1.5507450502229704e-06   5.425067718275387e-06
-3.429892966057162e-06   -1.5507450502229704e-06   5.425067718275387e-06
-3.429892966057162e-06   -1.5507450502229704e-06   5.425067718275387e-06
-3.429892966057162e-06   -1.5507450502229704e-06   5.425067718275387e-06
4.2061812397768146e-07   -2.409101315797857e-07   -1.7783517163019422e-06
4.2061812397768146e-07   -2.409101315797857e-07   -1.7783517163019422e-06
4.2061812397768146e-07   -2.409101315797857e-07   -1.7783517163019422e-06
4.2061812397768146e-07   -2.409101315797857e-07   -1.7783517163019422e-06
-1.3897931124919358e-06   -8.391579869226808e-07   1.5979490576865295e-06
-1.3897931124919358e-06   -8.391579869226808e-07   1.5979490576865295e-06
-1.3897931124919358e-06   -8.391579869226808e-07   1.5979490576865295e-06
-1.3897931124919358e-06   -8.391579869226808e-07   1.5979490576865295e-06
-2.8199645966175175e-06   -1.9040460282143353e-06   4.727704515626743e-06
-2.8199645966175175e-06   -1.9040460282143353e-06   4.727704515626743e-06
-2.8199645966175175e-06   -1.9040460282143353e-06   4.727704515626743e-06
-2.8199645966175175e-06   -1.9040460282143353e-06   4.727704515626743e-06
-6.914857369101198e-06   4.415089378570318e-07   -6.897837922032119e-07
-6.914857369101198e-06   4.415089378570318e-07   -6.897837922032119e-07
-6.914857369101198e-06   4.415089378570318e-07   -6.897837922032119e-07
-6.914857369101198e-06   4.415089378570318e-07   -6.897837922032119e-07
-7.237945325823048e-06   -2.1674921274004305e-06   6.595382547701335e-06
-7.237945325823048e-06   -2.1674921274004305e-06   6.595382547701335e-06
-7.237945325823048e-06   -2.1674921274004305e-06   6.595382547701335e-06
-7.237945325823048e-06   -2.1674921274004305e-06   6.595382547701335e-06
-3.080603731029656e-06   4.333660948944041e-07   -1.8940350436645873e-06
-3.080603731029656e-06   4.333660948944041e-07   -1.8940350436645873e-06
-3.080603731029656e-06   4.333660948944041e-07   -1.8940350436645873e-06
-3.080603731029656e-06   4.333660948944041e-07   -1.8940350436645873e-06
-4.9497536162685636e-06   -6.993744537222625e-07   1.9008590942369167e-06
-4.9497536162685636e-06   -6.993744537222625e-07   1.9008590942369167e-06
-4.9497536162685636e-06   -6.993744537222625e-07   1.9008590942369167e-06
-4.9497536162685636e-06   -6.993744537222625e-07   1.9008590942369167e-06
-3.0806037310296613e-06   -2.1674921274004305e-06   5.034867614324412e-06
-3.0806037310296613e-06   -2.1674921274004305e-06   5.034867614324412e-06
-3.0806037310296613e-06   -2.1674921274004305e-06   5.034867614324412e-06
-3.0806037310296613e-06   -2.1674921274004305e-06   5.034867614324412e-06
-7.237945325823048e-06   4.333660948944041e-07   -3.3352011028766823e-07
-7.237945325823048e-06   4.333660948944041e-07   -3.3352011028766823e-07
-7.237945325823048e-06   4.333660948944041e-07   -3.3352011028766823e-07
-7.237945325823048e-06   4.333660948944041e-07   -3.3352011028766823e-07
-7.432904205235115e-06   -2.1698369811356025e-06   6.977434224005085e-06
-7.432904205235115e-06   -2.1698369811356025e-06   6.977434224005085e-06
-7.432904205235115e-06   -2.1698369811356025e-06   6.977434224005085e-06
-7.432904205235115e-06   -2.1698369811356025e-06   6.977434224005085e-06
-3.242561936781365e-06   4.0571503521022066e-07   -1.5518007665586417e-06
-3.242561936781365e-06   4.0571503521022066e-07   -1.5518007665586417e-06
-3.242561936781365e-06   4.0571503521022066e-07   -1.5518007665586417e-06
-3.242561936781365e-06   4.0571503521022066e-07   -1.5518007665586417e-06
-5.152914644924492e-06   -8.38301610667073e-07   2.3785304012063066e-06
-5.152914644924492e-06   -8.38301610667073e-07   2.3785304012063066e-06
-5.152914644924492e-06   -8.38301610667073e-07   2.3785304012063066e-06
-5.152914644924492e-06   -8.38301610667073e-07   2.3785304012063066e-06
-3.2425619367813617e-06   -2.1698369811356025e-06   5.43210301419758e-06
-3.2425619367813617e-06   -2.1698369811356025e-06   5.43210301419758e-06
-3.2425619367813617e-06   -2.1698369811356025e-06   5.43210301419758e-06
-3.2425619367813617e-06   -2.1698369811356025e-06   5.43210301419758e-06
-7.432904205235101e-06   4.0571503521022066e-07   -6.4695567511606315e-09
-7.432904205235101e-06   4.0571503521022066e-07   -6.4695567511606315e-09
-7.432904205235101e-06   4.0571503521022066e-07   -6.4695567511606315e-09
-7.432904205235101e-06   4.0571503521022066e-07   -6.4695567511606315e-09
-7.645233413255645e-06   -1.9221017851784434e-06   7.126511508339305e-06
-7.645233413255645e-06   -1.9221017851784434e-06   7.126511508339305e-06
-7.645233413255645e-06   -1.9221017851784434e-06   7.126511508339305e-06
-7.645233413255645e-06   -1.9221017851784434e-06   7.126511508339305e-06
-3.429892966057147e-06   3.7276612201896315e-07   -1.2759766479765898e-06
-3.429892966057147e-06   3.7276612201896315e-07   -1.2759766479765898e-06
-3.429892966057147e-06   3.7276612201896315e-07   -1.2759766479765898e-06
-3.429892966057147e-06   3.7276612201896315e-07   -1.2759766479765898e-06
-5.370349215090435e-06   -8.382635822835709e-07   2.684734922993796e-06
-5.370349215090435e-06   -8.382635822835709e-07   2.684734922993796e-06
-5.370349215090435e-06   -8.382635822835709e-07   2.684734922993796e-06
-5.370349215090435e-06   -8.382635822835709e-07   2.684734922993796e-06
-6.914857369101174e-06   0.0   5.082385525777809e-06
-6.914857369101174e-06   0.0   5.082385525777809e-06
-6.914857369101174e-06   0.0   5.082385525777809e-06
-6.914857369101174e-06   0.0   5.082385525777809e-06
-1.1944347197639923e-05   1.5930653551296027e-06   -2.3442583087089934e-06
-1.1944347197639923e-05   1.5930653551296027e-06   -2.3442583087089934e-06
-1.1944347197639923e-05   1.5930653551296027e-06   -2.3442583087089934e-06
-1.1944347197639923e-05   1.5930653551296027e-06   -2.3442583087089934e-06
-1.2371269832292278e-05   0.0   7.65574878559781e-06
-1.2371269832292278e-05   0.0   7.65574878559781e-06
-1.2371269832292278e-05   0.0   7.65574878559781e-06
-1.2371269832292278e-05   0.0   7.65574878559781e-06
-7.2379453258230346e-06   1.5598401786717417e-06   -1.8356961657207247e-06
-7.2379453258230346e-06   1.5598401786717417e-06   -1.8356961657207247e-06
-7.2379453258230346e-06   1.5598401786717417e-06   -1.8356961657207247e-06
-7.2379453258230346e-06   1.5598401786717417e-06   -1.8356961657207247e-06
-9.210728025689464e-06   9.435372303852807e-07   1.8220567696951905e-06
-9.210728025689464e-06   9.435372303852807e-07   1.8220567696951905e-06
-9.210728025689464e-06   9.435372303852807e-07   1.8220567696951905e-06
-9.210728025689464e-06   9.435372303852807e-07   1.8220567696951905e-06
-7.237945325823028e-06   0.0   6.719844678394749e-06
-7.237945325823028e-06   0.0   6.719844678394749e-06
-7.237945325823028e-06   0.0   6.719844678394749e-06
-7.237945325823028e-06   0.0   6.719844678394749e-06
-1.2371269832292297e-05   1.5598401786717417e-06   -8.997920585176566e-07
-1.2371269832292297e-05   1.5598401786717417e-06   -8.997920585176566e-07
-1.2371269832292297e-05   1.5598401786717417e-06   -8.997920585176566e-07
-1.2371269832292297e-05   1.5598401786717417e-06   -8.997920585176566e-07
-1.2583989353461218e-05   0.0   8.553758010100662e-06
-1.2583989353461218e-05   0.0   8.553758010100662e-06
-1.2583989353461218e-05   0.0   8.553758010100662e-06
-1.2583989353461218e-05   0.0   8.553758010100662e-06
-7.432904205235101e-06   1.5281104603061474e-06   -9.482501797932825e-07
-7.432904205235101e-06   1.5281104603061474e-06   -9.482501797932825e-07
-7.432904205235101e-06   1.5281104603061474e-06   -9.482501797932825e-07
-7.432904205235101e-06   1.5281104603061474e-06   -9.482501797932825e-07
-9.646629402668712e-06   7.939890626065186e-07   3.181764654549276e-06
-9.646629402668712e-06   7.939890626065186e-07   3.181764654549276e-06
-9.646629402668712e-06   7.939890626065186e-07   3.181764654549276e-06
-9.646629402668712e-06   7.939890626065186e-07   3.181764654549276e-06
-7.432904205235101e-06   0.0   7.636891733916952e-06
-7.432904205235101e-06   0.0   7.636891733916952e-06
-7.432904205235101e-06   0.0   7.636891733916952e-06
-7.432904205235101e-06   0.0   7.636891733916952e-06
-1.2583989353461262e-05   1.5281104603061474e-06   -3.138390360955877e-08
-1.2583989353461262e-05   1.5281104603061474e-06   -3.138390360955877e-08
-1.2583989353461262e-05   1.5281104603061474e-06   -3.138390360955877e-08
-1.2583989353461262e-05   1.5281104603061474e-06   -3.138390360955877e-08
-1.2812086978113973e-05   0.0   9.746642872811501e-06
-1.2812086978113973e-05   0.0   9.746642872811501e-06
-1.2812086978113973e-05   0.0   9.746642872811501e-06
-1.2812086978113973e-05   0.0   9.746642872811501e-06
-7.645233413255645e-06   1.3073344490419536e-06   3.5081959528906876e-07
-7.645233413255645e-06   1.3073344490419536e-06   3.5081959528906876e-07
-7.645233413255645e-06   1.3073344490419536e-06   3.5081959528906876e-07
-7.645233413255645e-06   1.3073344490419536e-06   3.5081959528906876e-07
-9.696065176205934e-06   5.735970172214902e-07   4.209114992631804e-06
-9.696065176205934e-06   5.735970172214902e-07   4.209114992631804e-06
-9.696065176205934e-06   5.735970172214902e-07   4.209114992631804e-06
-9.696065176205934e-06   5.735970172214902e-07   4.209114992631804e-06
8.142488052038227e-06   -1.2053136020139313e-06   5.6292455965512576e-06
8.142488052038227e-06   -1.2053136020139313e-06   5.6292455965512576e-06
8.142488052038227e-06   -1.2053136020139313e-06   5.6292455965512576e-06
8.142488052038227e-06   -1.2053136020139313e-06   5.6292455965512576e-06
4.082083243753551e-06   -9.416026021793816e-07   -9.79869150689156e-07
4.082083243753551e-06   -9.416026021793816e-07   -9.79869150689156e-07
4.082083243753551e-06   -9.416026021793816e-07   -9.79869150689156e-07
4.082083243753551e-06   -9.416026021793816e-07   -9.79869150689156e-07
3.984448702882976e-06   -1.31778538232073e-06   4.880022112253591e-06
3.984448702882976e-06   -1.31778538232073e-06   4.880022112253591e-06
3.984448702882976e-06   -1.31778538232073e-06   4.880022112253591e-06
3.984448702882976e-06   -1.31778538232073e-06   4.880022112253591e-06
7.972592386992921e-06   -1.0584849881171737e-06   -1.922464264451747e-06
7.972592386992921e-06   -1.0584849881171737e-06   -1.922464264451747e-06
7.972592386992921e-06   -1.0584849881171737e-06   -1.922464264451747e-06
7.972592386992921e-06   -1.0584849881171737e-06   -1.922464264451747e-06
5.776288119871443e-06   -1.0881794580010315e-06   1.7558595293476863e-06
5.776288119871443e-06   -1.0881794580010315e-06   1.7558595293476863e-06
5.776288119871443e-06   -1.0881794580010315e-06   1.7558595293476863e-06
5.776288119871443e-06   -1.0881794580010315e-06   1.7558595293476863e-06
7.972592386992908e-06   -1.31778538232073e-06   4.72444187573143e-06
7.972592386992908e-06   -1.31778538232073e-06   4.72444187573143e-06
7.972592386992908e-06   -1.31778538232073e-06   4.72444187573143e-06
7.972592386992908e-06   -1.31778538232073e-06   4.72444187573143e-06
3.984448702882983e-06   -1.0584849881171737e-06   -1.766884027929632e-06
3.984448702882983e-06   -1.0584849881171737e-06   -1.766884027929632e-06
3.984448702882983e-06   -1.0584849881171737e-06   -1.766884027929632e-06
3.984448702882983e-06   -1.0584849881171737e-06   -1.766884027929632e-06
3.858837618349187e-06   -1.3251328087749824e-06   4.359845380797649e-06
3.858837618349187e-06   -1.3251328087749824e-06   4.359845380797649e-06
3.858837618349187e-06   -1.3251328087749824e-06   4.359845380797649e-06
3.858837618349187e-06   -1.3251328087749824e-06   4.359845380797649e-06
7.798700023266744e-06   -1.0737603330364213e-06   -2.357415446174742e-06
7.798700023266744e-06   -1.0737603330364213e-06   -2.357415446174742e-06
7.798700023266744e-06   -1.0737603330364213e-06   -2.357415446174742e-06
7.798700023266744e-06   -1.0737603330364213e-06   -2.357415446174742e-06
5.7387254796262364e-06   -1.133651943979329e-06   1.1118104264585163e-06
5.7387254796262364e-06   -1.133651943979329e-06   1.1118104264585163e-06
5.7387254796262364e-06   -1.133651943979329e-06   1.1118104264585163e-06
5.7387254796262364e-06   -1.133651943979329e-06   1.1118104264585163e-06
7.798700023266744e-06   -1.3251328087749824e-06   4.209021895354507e-06
7.798700023266744e-06   -1.3251328087749824e-06   4.209021895354507e-06
7.798700023266744e-06   -1.3251328087749824e-06   4.209021895354507e-06
7.798700023266744e-06   -1.3251328087749824e-06   4.209021895354507e-06
3.858837618349187e-06   -1.0737603330364213e-06   -2.206591960731612e-06
3.858837618349187e-06   -1.0737603330364213e-06   -2.206591960731612e-06
3.858837618349187e-06   -1.0737603330364213e-06   -2.206591960731612e-06
3.858837618349187e-06   -1.0737603330364213e-06   -2.206591960731612e-06
3.7262847116514746e-06   -1.2872737830111713e-06   3.580386559028537e-06
3.7262847116514746e-06   -1.2872737830111713e-06   3.580386559028537e-06
3.7262847116514746e-06   -1.2872737830111713e-06   3.580386559028537e-06
3.7262847116514746e-06   -1.2872737830111713e-06   3.580386559028537e-06
7.5803888185497305e-06   -1.0576462648160222e-06   -2.980896796718968e-06
7.5803888185497305e-06   -1.0576462648160222e-06   -2.980896796718968e-06
7.5803888185497305e-06   -1.0576462648160222e-06   -2.980896796718968e-06
7.5803888185497305e-06   -1.0576462648160222e-06   -2.980896796718968e-06
5.499978139093592e-06   -1.1008598862603672e-06   5.12382508574634e-07
5.499978139093592e-06   -1.1008598862603672e-06   5.12382508574634e-07
5.499978139093592e-06   -1.1008598862603672e-06   5.12382508574634e-07
5.499978139093592e-06   -1.1008598862603672e-06   5.12382508574634e-07
4.082083243753561e-06   -6.998128690765214e-07   5.19639005271152e-06
4.082083243753561e-06   -6.998128690765214e-07   5.19639005271152e-06
4.082083243753561e-06   -6.998128690765214e-07   5.19639005271152e-06
4.082083243753561e-06   -6.998128690765214e-07   5.19639005271152e-06
3.602746471202895e-07   -3.20883229774254e-07   -7.792664914292255e-07
3.602746471202895e-07   -3.20883229774254e-07   -7.792664914292255e-07
3.602746471202895e-07   -3.20883229774254e-07   -7.792664914292255e-07
3.602746471202895e-07   -3.20883229774254e-07   -7.792664914292255e-07
2.6226158399094394e-07   -7.390800437453754e-07   5.3897089809491565e-06
2.6226158399094394e-07   -7.390800437453754e-07   5.3897089809491565e-06
2.6226158399094394e-07   -7.390800437453754e-07   5.3897089809491565e-06
2.6226158399094394e-07   -7.390800437453754e-07   5.3897089809491565e-06
3.984448702882983e-06   -3.8164848559040345e-07   -1.028395152097178e-06
3.984448702882983e-06   -3.8164848559040345e-07   -1.028395152097178e-06
3.984448702882983e-06   -3.8164848559040345e-07   -1.028395152097178e-06
3.984448702882983e-06   -3.8164848559040345e-07   -1.028395152097178e-06
2.1508851795459963e-06   -4.99216143084384e-07   2.098084647960861e-06
2.1508851795459963e-06   -4.99216143084384e-07   2.098084647960861e-06
2.1508851795459963e-06   -4.99216143084384e-07   2.098084647960861e-06
2.1508851795459963e-06   -4.99216143084384e-07   2.098084647960861e-06
3.9844487028829795e-06   -7.390800437453754e-07   5.175250046056211e-06
3.9844487028829795e-06   -7.390800437453754e-07   5.175250046056211e-06
3.9844487028829795e-06   -7.390800437453754e-07   5.175250046056211e-06
3.9844487028829795e-06   -7.390800437453754e-07   5.175250046056211e-06
2.6226158399094394e-07   -3.8164848559040345e-07   -8.139362172042192e-07
2.6226158399094394e-07   -3.8164848559040345e-07   -8.139362172042192e-07
2.6226158399094394e-07   -3.8164848559040345e-07   -8.139362172042192e-07
2.6226158399094394e-07   -3.8164848559040345e-07   -8.139362172042192e-07
1.3824692640487495e-07   -7.525378763859774e-07   5.323475207359279e-06
1.3824692640487495e-07   -7.525378763859774e-07   5.323475207359279e-06
1.3824692640487495e-07   -7.525378763859774e-07   5.323475207359279e-06
1.3824692640487495e-07   -7.525378763859774e-07   5.323475207359279e-06
3.858837618349187e-06   -4.186818562000507e-07   -1.0778228913261113e-06
3.858837618349187e-06   -4.186818562000507e-07   -1.0778228913261113e-06
3.858837618349187e-06   -4.186818562000507e-07   -1.0778228913261113e-06
3.858837618349187e-06   -4.186818562000507e-07   -1.0778228913261113e-06
2.024784775793371e-06   -5.207239955060182e-07   2.0401571298505475e-06
2.024784775793371e-06   -5.207239955060182e-07   2.0401571298505475e-06
2.024784775793371e-06   -5.207239955060182e-07   2.0401571298505475e-06
2.024784775793371e-06   -5.207239955060182e-07   2.0401571298505475e-06
3.85883761834918e-06   -7.525378763859232e-07   5.123161595247761e-06
3.85883761834918e-06   -7.525378763859232e-07   5.123161595247761e-06
3.85883761834918e-06   -7.525378763859232e-07   5.123161595247761e-06
3.85883761834918e-06   -7.525378763859232e-07   5.123161595247761e-06
1.3824692640487495e-07   -4.186818562000507e-07   -8.775092792145966e-07
1.3824692640487495e-07   -4.186818562000507e-07   -8.775092792145966e-07
1.3824692640487495e-07   -4.186818562000507e-07   -8.775092792145966e-07
1.3824692640487495e-07   -4.186818562000507e-07   -8.775092792145966e-07
1.3747253047228613e-09   -7.284428113948894e-07   5.385780831994335e-06
1.3747253047228613e-09   -7.284428113948894e-07   5.385780831994335e-06
1.3747253047228613e-09   -7.284428113948894e-07   5.385780831994335e-06
1.3747253047228613e-09   -7.284428113948894e-07   5.385780831994335e-06
3.726284711651471e-06   -4.3044988492173643e-07   -1.001198234467486e-06
3.726284711651471e-06   -4.3044988492173643e-07   -1.001198234467486e-06
3.726284711651471e-06   -4.3044988492173643e-07   -1.001198234467486e-06
3.726284711651471e-06   -4.3044988492173643e-07   -1.001198234467486e-06
1.926576634250981e-06   -5.118367088904007e-07   2.047147322247977e-06
1.926576634250981e-06   -5.118367088904007e-07   2.047147322247977e-06
1.926576634250981e-06   -5.118367088904007e-07   2.047147322247977e-06
1.926576634250981e-06   -5.118367088904007e-07   2.047147322247977e-06
3.6027464712029287e-07   -2.241007558364031e-07   5.278984670580451e-06
3.6027464712029287e-07   -2.241007558364031e-07   5.278984670580451e-06
3.6027464712029287e-07   -2.241007558364031e-07   5.278984670580451e-06
3.6027464712029287e-07   -2.241007558364031e-07   5.278984670580451e-06
-3.253765396320709e-06   3.098272698124813e-07   -4.240585864318566e-07
-3.253765396320709e-06   3.098272698124813e-07   -4.240585864318566e-07
-3.253765396320709e-06   3.098272698124813e-07   -4.240585864318566e-07
-3.253765396320709e-06   3.098272698124813e-07   -4.240585864318566e-07
-3.3646160703567305e-06   -2.3440873412098294e-07   5.635365382104519e-06
-3.3646160703567305e-06   -2.3440873412098294e-07   5.635365382104519e-06
-3.3646160703567305e-06   -2.3440873412098294e-07   5.635365382104519e-06
-3.3646160703567305e-06   -2.3440873412098294e-07   5.635365382104519e-06
2.6226158399094394e-07   2.670276005959922e-07   -7.102925093051737e-07
2.6226158399094394e-07   2.670276005959922e-07   -7.102925093051737e-07
2.6226158399094394e-07   2.670276005959922e-07   -7.102925093051737e-07
2.6226158399094394e-07   2.670276005959922e-07   -7.102925093051737e-07
-1.4965906161331968e-06   5.222891605517104e-08   2.350007034959586e-06
-1.4965906161331968e-06   5.222891605517104e-08   2.350007034959586e-06
-1.4965906161331968e-06   5.222891605517104e-08   2.350007034959586e-06
-1.4965906161331968e-06   5.222891605517104e-08   2.350007034959586e-06
2.6226158399094394e-07   -2.3440873412098294e-07   5.334503581274269e-06
2.6226158399094394e-07   -2.3440873412098294e-07   5.334503581274269e-06
2.6226158399094394e-07   -2.3440873412098294e-07   5.334503581274269e-06
2.6226158399094394e-07   -2.3440873412098294e-07   5.334503581274269e-06
-3.3646160703567305e-06   2.670276005959922e-07   -4.094307084749236e-07
-3.3646160703567305e-06   2.670276005959922e-07   -4.094307084749236e-07
-3.3646160703567305e-06   2.670276005959922e-07   -4.094307084749236e-07
-3.3646160703567305e-06   2.670276005959922e-07   -4.094307084749236e-07
-3.510738194740946e-06   -2.4811461817210575e-07   5.738602295271659e-06
-3.510738194740946e-06   -2.4811461817210575e-07   5.738602295271659e-06
-3.510738194740946e-06   -2.4811461817210575e-07   5.738602295271659e-06
-3.510738194740946e-06   -2.4811461817210575e-07   5.738602295271659e-06
1.3824692640487495e-07   2.2721623105551817e-07   -6.282380828413121e-07
1.3824692640487495e-07   2.2721623105551817e-07   -6.282380828413121e-07
1.3824692640487495e-07   2.2721623105551817e-07   -6.282380828413121e-07
1.3824692640487495e-07   2.2721623105551817e-07   -6.282380828413121e-07
-1.6052611508103568e-06   4.277293394949408e-08   2.388274690781072e-06
-1.6052611508103568e-06   4.277293394949408e-08   2.388274690781072e-06
-1.6052611508103568e-06   4.277293394949408e-08   2.388274690781072e-06
-1.6052611508103568e-06   4.277293394949408e-08   2.388274690781072e-06
1.3824692640487495e-07   -2.4811461817210575e-07   5.4534037857350355e-06
1.3824692640487495e-07   -2.4811461817210575e-07   5.4534037857350355e-06
1.3824692640487495e-07   -2.4811461817210575e-07   5.4534037857350355e-06
1.3824692640487495e-07   -2.4811461817210575e-07   5.4534037857350355e-06
-3.510738194740939e-06   2.2721623105551817e-07   -3.430395733047093e-07
-3.510738194740939e-06   2.2721623105551817e-07   -3.430395733047093e-07
-3.510738194740939e-06   2.2721623105551817e-07   -3.430395733047093e-07
-3.510738194740939e-06   2.2721623105551817e-07   -3.430395733047093e-07
-3.666357638103904e-06   -2.409101315797857e-07   5.862293435252339e-06
-3.666357638103904e-06   -2.409101315797857e-07   5.862293435252339e-06
-3.666357638103904e-06   -2.409101315797857e-07   5.862293435252339e-06
-3.666357638103904e-06   -2.409101315797857e-07   5.862293435252339e-06
1.3747253047228613e-09   1.9946140163563768e-07   -5.148167570246591e-07
1.3747253047228613e-09   1.9946140163563768e-07   -5.148167570246591e-07
1.3747253047228613e-09   1.9946140163563768e-07   -5.148167570246591e-07
1.3747253047228613e-09   1.9946140163563768e-07   -5.148167570246591e-07
-1.7428765619396067e-06   3.739901663878109e-08   2.489506152714074e-06
-1.7428765619396067e-06   3.739901663878109e-08   2.489506152714074e-06
-1.7428765619396067e-06   3.739901663878109e-08   2.489506152714074e-06
-1.7428765619396067e-06   3.739901663878109e-08   2.489506152714074e-06
-3.253765396320699e-06   4.41508937857086e-07   4.813718113873538e-06
-3.253765396320699e-06   4.41508937857086e-07   4.813718113873538e-06
-3.253765396320699e-06   4.41508937857086e-07   4.813718113873538e-06
-3.253765396320699e-06   4.41508937857086e-07   4.813718113873538e-06
-6.82306918919018e-06   9.771699007694932e-07   -8.13724963161477e-07
-6.82306918919018e-06   9.771699007694932e-07   -8.13724963161477e-07
-6.82306918919018e-06   9.771699007694932e-07   -8.13724963161477e-07
-6.82306918919018e-06   9.771699007694932e-07   -8.13724963161477e-07
-6.979224456995476e-06   4.333660948944041e-07   5.292840321182324e-06
-6.979224456995476e-06   4.333660948944041e-07   5.292840321182324e-06
-6.979224456995476e-06   4.333660948944041e-07   5.292840321182324e-06
-6.979224456995476e-06   4.333660948944041e-07   5.292840321182324e-06
-3.364616070356717e-06   9.363252895631274e-07   -1.0332825066834673e-06
-3.364616070356717e-06   9.363252895631274e-07   -1.0332825066834673e-06
-3.364616070356717e-06   9.363252895631274e-07   -1.0332825066834673e-06
-3.364616070356717e-06   9.363252895631274e-07   -1.0332825066834673e-06
-5.068517992861218e-06   7.034367619195557e-07   1.946287147410177e-06
-5.068517992861218e-06   7.034367619195557e-07   1.946287147410177e-06
-5.068517992861218e-06   7.034367619195557e-07   1.946287147410177e-06
-5.068517992861218e-06   7.034367619195557e-07   1.946287147410177e-06
-3.3646160703567237e-06   4.333660948944041e-07   4.9910648043811066e-06
-3.3646160703567237e-06   4.333660948944041e-07   4.9910648043811066e-06
-3.3646160703567237e-06   4.333660948944041e-07   4.9910648043811066e-06
-3.3646160703567237e-06   4.333660948944041e-07   4.9910648043811066e-06
-6.979224456995466e-06   9.363252895631274e-07   -7.315069898822225e-07
-6.979224456995466e-06   9.363252895631274e-07   -7.315069898822225e-07
-6.979224456995466e-06   9.363252895631274e-07   -7.315069898822225e-07
-6.979224456995466e-06   9.363252895631274e-07   -7.315069898822225e-07
-7.1724101485348675e-06   4.0571503521027487e-07   5.6167383255505e-06
-7.1724101485348675e-06   4.0571503521027487e-07   5.6167383255505e-06
-7.1724101485348675e-06   4.0571503521027487e-07   5.6167383255505e-06
-7.1724101485348675e-06   4.0571503521027487e-07   5.6167383255505e-06
-3.510738194740939e-06   8.966547606969002e-07   -7.80612099398073e-07
-3.510738194740939e-06   8.966547606969002e-07   -7.80612099398073e-07
-3.510738194740939e-06   8.966547606969002e-07   -7.80612099398073e-07
-3.510738194740939e-06   8.966547606969002e-07   -7.80612099398073e-07
-5.181174123068091e-06   6.983268705331759e-07   2.122444515245431e-06
-5.181174123068091e-06   6.983268705331759e-07   2.122444515245431e-06
-5.181174123068091e-06   6.983268705331759e-07   2.122444515245431e-06
-5.181174123068091e-06   6.983268705331759e-07   2.122444515245431e-06
-3.510738194740939e-06   4.0571503521022066e-07   5.3221744902584925e-06
-3.510738194740939e-06   4.0571503521022066e-07   5.3221744902584925e-06
-3.510738194740939e-06   4.0571503521022066e-07   5.3221744902584925e-06
-3.510738194740939e-06   4.0571503521022066e-07   5.3221744902584925e-06
-7.1724101485348675e-06   8.966547606969002e-07   -4.86048264106045e-07
-7.1724101485348675e-06   8.966547606969002e-07   -4.86048264106045e-07
-7.1724101485348675e-06   8.966547606969002e-07   -4.86048264106045e-07
-7.1724101485348675e-06   8.966547606969002e-07   -4.86048264106045e-07
-7.374773858918895e-06   3.7276612201896315e-07   5.859805436201986e-06
-7.374773858918895e-06   3.7276612201896315e-07   5.859805436201986e-06
-7.374773858918895e-06   3.7276612201896315e-07   5.859805436201986e-06
-7.374773858918895e-06   3.7276612201896315e-07   5.859805436201986e-06
-3.6663576381038937e-06   8.41162595035974e-07   -6.019261489665625e-07
-3.6663576381038937e-06   8.41162595035974e-07   -6.019261489665625e-07
-3.6663576381038937e-06   8.41162595035974e-07   -6.019261489665625e-07
-3.6663576381038937e-06   8.41162595035974e-07   -6.019261489665625e-07
-5.381706656274224e-06   6.676847820240935e-07   2.361075569124661e-06
-5.381706656274224e-06   6.676847820240935e-07   2.361075569124661e-06
-5.381706656274224e-06   6.676847820240935e-07   2.361075569124661e-06
-5.381706656274224e-06   6.676847820240935e-07   2.361075569124661e-06
-6.82306918919018e-06   1.5930653551296027e-06   2.524800962037477e-06
-6.82306918919018e-06   1.5930653551296027e-06   2.524800962037477e-06
-6.82306918919018e-06   1.5930653551296027e-06   2.524800962037477e-06
-6.82306918919018e-06   1.5930653551296027e-06   2.524800962037477e-06
-1.0276939063213625e-05   1.5892836574951446e-06   -3.2339178465822947e-06
-1.0276939063213625e-05   1.5892836574951446e-06   -3.2339178465822947e-06
-1.0276939063213625e-05   1.5892836574951446e-06   -3.2339178465822947e-06
-1.0276939063213625e-05   1.5892836574951446e-06   -3.2339178465822947e-06
-1.0560297409058237e-05   1.559840178671796e-06   3.8323696101187155e-06
-1.0560297409058237e-05   1.559840178671796e-06   3.8323696101187155e-06
-1.0560297409058237e-05   1.559840178671796e-06   3.8323696101187155e-06
-1.0560297409058237e-05   1.559840178671796e-06   3.8323696101187155e-06
-6.979224456995466e-06   1.629349085954107e-06   -2.1777906543553717e-06
-6.979224456995466e-06   1.629349085954107e-06   -2.1777906543553717e-06
-6.979224456995466e-06   1.629349085954107e-06   -2.1777906543553717e-06
-6.979224456995466e-06   1.629349085954107e-06   -2.1777906543553717e-06
-8.311265063082202e-06   1.6093759846294619e-06   5.426088325068124e-08
-8.311265063082202e-06   1.6093759846294619e-06   5.426088325068124e-08
-8.311265063082202e-06   1.6093759846294619e-06   5.426088325068124e-08
-8.311265063082202e-06   1.6093759846294619e-06   5.426088325068124e-08
-6.979224456995459e-06   1.5598401786717417e-06   3.7906642657492746e-06
-6.979224456995459e-06   1.5598401786717417e-06   3.7906642657492746e-06
-6.979224456995459e-06   1.5598401786717417e-06   3.7906642657492746e-06
-6.979224456995459e-06   1.5598401786717417e-06   3.7906642657492746e-06
-1.0560297409058237e-05   1.629349085954107e-06   -2.136085309985958e-06
-1.0560297409058237e-05   1.629349085954107e-06   -2.136085309985958e-06
-1.0560297409058237e-05   1.629349085954107e-06   -2.136085309985958e-06
-1.0560297409058237e-05   1.629349085954107e-06   -2.136085309985958e-06
-1.0837957306655159e-05   1.5281104603062016e-06   4.730544038125873e-06
-1.0837957306655159e-05   1.5281104603062016e-06   4.730544038125873e-06
-1.0837957306655159e-05   1.5281104603062016e-06   4.730544038125873e-06
-1.0837957306655159e-05   1.5281104603062016e-06   4.730544038125873e-06
-7.172410148534857e-06   1.62075435300213e-06   -1.4342875610255423e-06
-7.172410148534857e-06   1.62075435300213e-06   -1.4342875610255423e-06
-7.172410148534857e-06   1.62075435300213e-06   -1.4342875610255423e-06
-7.172410148534857e-06   1.62075435300213e-06   -1.4342875610255423e-06
-8.653133265730331e-06   1.6176039739834377e-06   1.0354745283782405e-06
-8.653133265730331e-06   1.6176039739834377e-06   1.0354745283782405e-06
-8.653133265730331e-06   1.6176039739834377e-06   1.0354745283782405e-06
-8.653133265730331e-06   1.6176039739834377e-06   1.0354745283782405e-06
-7.172410148534857e-06   1.5281104603061474e-06   4.674957702508338e-06
-7.172410148534857e-06   1.5281104603061474e-06   4.674957702508338e-06
-7.172410148534857e-06   1.5281104603061474e-06   4.674957702508338e-06
-7.172410148534857e-06   1.5281104603061474e-06   4.674957702508338e-06
-1.0837957306655159e-05   1.62075435300213e-06   -1.3787012254079935e-06
-1.0837957306655159e-05   1.62075435300213e-06   -1.3787012254079935e-06
-1.0837957306655159e-05   1.62075435300213e-06   -1.3787012254079935e-06
-1.0837957306655159e-05   1.62075435300213e-06   -1.3787012254079935e-06
-1.1167026439455561e-05   1.3073344490419536e-06   6.226230686288422e-06
-1.1167026439455561e-05   1.3073344490419536e-06   6.226230686288422e-06
-1.1167026439455561e-05   1.3073344490419536e-06   6.226230686288422e-06
-1.1167026439455561e-05   1.3073344490419536e-06   6.226230686288422e-06
-7.3747738589188714e-06   1.501584034273903e-06   -2.1074003241193658e-07
-7.3747738589188714e-06   1.501584034273903e-06   -2.1074003241193658e-07
-7.3747738589188714e-06   1.501584034273903e-06   -2.1074003241193658e-07
-7.3747738589188714e-06   1.501584034273903e-06   -2.1074003241193658e-07
-8.751172086842717e-06   1.547821587956214e-06   2.055514481918507e-06
-8.751172086842717e-06   1.547821587956214e-06   2.055514481918507e-06
-8.751172086842717e-06   1.547821587956214e-06   2.055514481918507e-06
-8.751172086842717e-06   1.547821587956214e-06   2.055514481918507e-06
6.7939157261783665e-06   -9.416026021793816e-07   5.0863318579144785e-06
6.7939157261783665e-06   -9.416026021793816e-07   5.0863318579144785e-06
6.7939157261783665e-06   -9.416026021793816e-07   5.0863318579144785e-06
6.7939157261783665e-06   -9.416026021793816e-07   5.0863318579144785e-06
3.3342440135771535e-06   -7.155818515151933e-07   -5.44175212689003e-07
3.3342440135771535e-06   -7.155818515151933e-07   -5.44175212689003e-07
3.3342440135771535e-06   -7.155818515151933e-07   -5.44175212689003e-07
3.3342440135771535e-06   -7.155818515151933e-07   -5.44175212689003e-07
3.2212294926052173e-06   -1.0584849881171737e-06   4.399662239722434e-06
3.2212294926052173e-06   -1.0584849881171737e-06   4.399662239722434e-06
3.2212294926052173e-06   -1.0584849881171737e-06   4.399662239722434e-06
3.2212294926052173e-06   -1.0584849881171737e-06   4.399662239722434e-06
6.5874735937235875e-06   -8.22442581096107e-07   -1.3523700396874797e-06
6.5874735937235875e-06   -8.22442581096107e-07   -1.3523700396874797e-06
6.5874735937235875e-06   -8.22442581096107e-07   -1.3523700396874797e-06
6.5874735937235875e-06   -8.22442581096107e-07   -1.3523700396874797e-06
4.756522913889995e-06   -8.74908211692259e-07   1.7306938050594995e-06
4.756522913889995e-06   -8.74908211692259e-07   1.7306938050594995e-06
4.756522913889995e-06   -8.74908211692259e-07   1.7306938050594995e-06
4.756522913889995e-06   -8.74908211692259e-07   1.7306938050594995e-06
6.5874735937235765e-06   -1.0584849881171737e-06   4.258036795509767e-06
6.5874735937235765e-06   -1.0584849881171737e-06   4.258036795509767e-06
6.5874735937235765e-06   -1.0584849881171737e-06   4.258036795509767e-06
6.5874735937235765e-06   -1.0584849881171737e-06   4.258036795509767e-06
3.2212294926052275e-06   -8.22442581096107e-07   -1.210744595474874e-06
3.2212294926052275e-06   -8.22442581096107e-07   -1.210744595474874e-06
3.2212294926052275e-06   -8.22442581096107e-07   -1.210744595474874e-06
3.2212294926052275e-06   -8.22442581096107e-07   -1.210744595474874e-06
3.0947951901921114e-06   -1.0737603330364213e-06   3.927517343353844e-06
3.0947951901921114e-06   -1.0737603330364213e-06   3.927517343353844e-06
3.0947951901921114e-06   -1.0737603330364213e-06   3.927517343353844e-06
3.0947951901921114e-06   -1.0737603330364213e-06   3.927517343353844e-06
6.39875201666606e-06   -8.424830339368266e-07   -1.71784374689578e-06
6.39875201666606e-06   -8.424830339368266e-07   -1.71784374689578e-06
6.39875201666606e-06   -8.424830339368266e-07   -1.71784374689578e-06
6.39875201666606e-06   -8.424830339368266e-07   -1.71784374689578e-06
4.688285508509226e-06   -9.169753055717129e-07   1.177629129679824e-06
4.688285508509226e-06   -9.169753055717129e-07   1.177629129679824e-06
4.688285508509226e-06   -9.169753055717129e-07   1.177629129679824e-06
4.688285508509226e-06   -9.169753055717129e-07   1.177629129679824e-06
6.398752016666037e-06   -1.0737603330364213e-06   3.7887509638941357e-06
6.398752016666037e-06   -1.0737603330364213e-06   3.7887509638941357e-06
6.398752016666037e-06   -1.0737603330364213e-06   3.7887509638941357e-06
6.398752016666037e-06   -1.0737603330364213e-06   3.7887509638941357e-06
3.094795190192115e-06   -8.424830339368266e-07   -1.5790773674360318e-06
3.094795190192115e-06   -8.424830339368266e-07   -1.5790773674360318e-06
3.094795190192115e-06   -8.424830339368266e-07   -1.5790773674360318e-06
3.094795190192115e-06   -8.424830339368266e-07   -1.5790773674360318e-06
2.9723935444732e-06   -1.0576462648160222e-06   3.257263629074489e-06
2.9723935444732e-06   -1.0576462648160222e-06   3.257263629074489e-06
2.9723935444732e-06   -1.0576462648160222e-06   3.257263629074489e-06
2.9723935444732e-06   -1.0576462648160222e-06   3.257263629074489e-06
6.183329261126542e-06   -8.433098747119821e-07   -2.222897732743475e-06
6.183329261126542e-06   -8.433098747119821e-07   -2.222897732743475e-06
6.183329261126542e-06   -8.433098747119821e-07   -2.222897732743475e-06
6.183329261126542e-06   -8.433098747119821e-07   -2.222897732743475e-06
4.465937701213754e-06   -8.985119686205374e-07   6.725427901230979e-07
4.465937701213754e-06   -8.985119686205374e-07   6.725427901230979e-07
4.465937701213754e-06   -8.985119686205374e-07   6.725427901230979e-07
4.465937701213754e-06   -8.985119686205374e-07   6.725427901230979e-07
3.3342440135771535e-06   -3.20883229774254e-07   5.1951891839915995e-06
3.3342440135771535e-06   -3.20883229774254e-07   5.1951891839915995e-06
3.3342440135771535e-06   -3.20883229774254e-07   5.1951891839915995e-06
3.3342440135771535e-06   -3.20883229774254e-07   5.1951891839915995e-06
8.535846954483623e-08   -1.3974032750217616e-07   -1.1093431469906458e-07
8.535846954483623e-08   -1.3974032750217616e-07   -1.1093431469906458e-07
8.535846954483623e-08   -1.3974032750217616e-07   -1.1093431469906458e-07
8.535846954483623e-08   -1.3974032750217616e-07   -1.1093431469906458e-07
-2.4033952622992336e-08   -3.8164848559045766e-07   5.238927099506804e-06
-2.4033952622992336e-08   -3.8164848559045766e-07   5.238927099506804e-06
-2.4033952622992336e-08   -3.8164848559045766e-07   5.238927099506804e-06
-2.4033952622992336e-08   -3.8164848559045766e-07   5.238927099506804e-06
3.2212294926052275e-06   -2.1368851233719705e-07   -2.7062129315885134e-07
3.2212294926052275e-06   -2.1368851233719705e-07   -2.7062129315885134e-07
3.2212294926052275e-06   -2.1368851233719705e-07   -2.7062129315885134e-07
3.2212294926052275e-06   -2.1368851233719705e-07   -2.7062129315885134e-07
1.6336285350214433e-06   -2.5516066293174676e-07   2.400263593170868e-06
1.6336285350214433e-06   -2.5516066293174676e-07   2.400263593170868e-06
1.6336285350214433e-06   -2.5516066293174676e-07   2.400263593170868e-06
1.6336285350214433e-06   -2.5516066293174676e-07   2.400263593170868e-06
3.221229492605224e-06   -3.8164848559040345e-07   5.138151115554847e-06
3.221229492605224e-06   -3.8164848559040345e-07   5.138151115554847e-06
3.221229492605224e-06   -3.8164848559040345e-07   5.138151115554847e-06
3.221229492605224e-06   -3.8164848559040345e-07   5.138151115554847e-06
-2.4033952622992336e-08   -2.1368851233719705e-07   -1.698453092068865e-07
-2.4033952622992336e-08   -2.1368851233719705e-07   -1.698453092068865e-07
-2.4033952622992336e-08   -2.1368851233719705e-07   -1.698453092068865e-07
-2.4033952622992336e-08   -2.1368851233719705e-07   -1.698453092068865e-07
-1.3780724165722566e-07   -4.186818562001049e-07   5.147706224438193e-06
-1.3780724165722566e-07   -4.186818562001049e-07   5.147706224438193e-06
-1.3780724165722566e-07   -4.186818562001049e-07   5.147706224438193e-06
-1.3780724165722566e-07   -4.186818562001049e-07   5.147706224438193e-06
3.094795190192115e-06   -2.66315503402064e-07   -3.3138430698951527e-07
3.094795190192115e-06   -2.66315503402064e-07   -3.3138430698951527e-07
3.094795190192115e-06   -2.66315503402064e-07   -3.3138430698951527e-07
3.094795190192115e-06   -2.66315503402064e-07   -3.3138430698951527e-07
1.5059463000973038e-06   -2.928558430016553e-07   2.332621380261675e-06
1.5059463000973038e-06   -2.928558430016553e-07   2.332621380261675e-06
1.5059463000973038e-06   -2.928558430016553e-07   2.332621380261675e-06
1.5059463000973038e-06   -2.928558430016553e-07   2.332621380261675e-06
3.0947951901921114e-06   -4.186818562000507e-07   5.056286412759368e-06
3.0947951901921114e-06   -4.186818562000507e-07   5.056286412759368e-06
3.0947951901921114e-06   -4.186818562000507e-07   5.056286412759368e-06
3.0947951901921114e-06   -4.186818562000507e-07   5.056286412759368e-06
-1.3780724165722566e-07   -2.66315503402064e-07   -2.3996449531070766e-07
-1.3780724165722566e-07   -2.66315503402064e-07   -2.3996449531070766e-07
-1.3780724165722566e-07   -2.66315503402064e-07   -2.3996449531070766e-07
-1.3780724165722566e-07   -2.66315503402064e-07   -2.3996449531070766e-07
-2.5627861330616833e-07   -4.3044988492179064e-07   5.174420764163869e-06
-2.5627861330616833e-07   -4.3044988492179064e-07   5.174420764163869e-06
-2.5627861330616833e-07   -4.3044988492179064e-07   5.174420764163869e-06
-2.5627861330616833e-07   -4.3044988492179064e-07   5.174420764163869e-06
2.972393544473207e-06   -3.0505807866349237e-07   -2.8193458255673113e-07
2.972393544473207e-06   -3.0505807866349237e-07   -2.8193458255673113e-07
2.972393544473207e-06   -3.0505807866349237e-07   -2.8193458255673113e-07
2.972393544473207e-06   -3.0505807866349237e-07   -2.8193458255673113e-07
1.4135691036657727e-06   -3.103172866759387e-07   2.3192616769299103e-06
1.4135691036657727e-06   -3.103172866759387e-07   2.3192616769299103e-06
1.4135691036657727e-06   -3.103172866759387e-07   2.3192616769299103e-06
1.4135691036657727e-06   -3.103172866759387e-07   2.3192616769299103e-06
8.535846954483623e-08   3.098272698124271e-07   5.338726014962798e-06
8.535846954483623e-08   3.098272698124271e-07   5.338726014962798e-06
8.535846954483623e-08   3.098272698124271e-07   5.338726014962798e-06
8.535846954483623e-08   3.098272698124271e-07   5.338726014962798e-06
-3.074886013024241e-06   4.3115435255451076e-07   1.4444812699288792e-07
-3.074886013024241e-06   4.3115435255451076e-07   1.4444812699288792e-07
-3.074886013024241e-06   4.3115435255451076e-07   1.4444812699288792e-07
-3.074886013024241e-06   4.3115435255451076e-07   1.4444812699288792e-07
-3.189712901865446e-06   2.670276005960464e-07   5.405722407839e-06
-3.189712901865446e-06   2.670276005960464e-07   5.405722407839e-06
-3.189712901865446e-06   2.670276005960464e-07   5.405722407839e-06
-3.189712901865446e-06   2.670276005960464e-07   5.405722407839e-06
-2.4033952622992336e-08   3.7228026798460413e-07   6.643922533508729e-08
-2.4033952622992336e-08   3.7228026798460413e-07   6.643922533508729e-08
-2.4033952622992336e-08   3.7228026798460413e-07   6.643922533508729e-08
-2.4033952622992336e-08   3.7228026798460413e-07   6.643922533508729e-08
-1.5530159261286225e-06   3.4658751251305867e-07   2.6301581677940818e-06
-1.5530159261286225e-06   3.4658751251305867e-07   2.6301581677940818e-06
-1.5530159261286225e-06   3.4658751251305867e-07   2.6301581677940818e-06
-1.5530159261286225e-06   3.4658751251305867e-07   2.6301581677940818e-06
-2.4033952622992336e-08   2.670276005960464e-07   5.342570807405822e-06
-2.4033952622992336e-08   2.670276005960464e-07   5.342570807405822e-06
-2.4033952622992336e-08   2.670276005960464e-07   5.342570807405822e-06
-2.4033952622992336e-08   2.670276005960464e-07   5.342570807405822e-06
-3.189712901865446e-06   3.7228026798460413e-07   1.2959082576827208e-07
-3.189712901865446e-06   3.7228026798460413e-07   1.2959082576827208e-07
-3.189712901865446e-06   3.7228026798460413e-07   1.2959082576827208e-07
-3.189712901865446e-06   3.7228026798460413e-07   1.2959082576827208e-07
-3.3102621788639466e-06   2.2721623105557238e-07   5.449788021825996e-06
-3.3102621788639466e-06   2.2721623105557238e-07   5.449788021825996e-06
-3.3102621788639466e-06   2.2721623105557238e-07   5.449788021825996e-06
-3.3102621788639466e-06   2.2721623105557238e-07   5.449788021825996e-06
-1.3780724165722566e-07   3.152338994131024e-07   1.0955252546691614e-07
-1.3780724165722566e-07   3.152338994131024e-07   1.0955252546691614e-07
-1.3780724165722566e-07   3.152338994131024e-07   1.0955252546691614e-07
-1.3780724165722566e-07   3.152338994131024e-07   1.0955252546691614e-07
-1.659224644577902e-06   3.144600912715701e-07   2.6457124818863207e-06
-1.659224644577902e-06   3.144600912715701e-07   2.6457124818863207e-06
-1.659224644577902e-06   3.144600912715701e-07   2.6457124818863207e-06
-1.659224644577902e-06   3.144600912715701e-07   2.6457124818863207e-06
-1.3780724165722566e-07   2.2721623105551817e-07   5.396977420811457e-06
-1.3780724165722566e-07   2.2721623105551817e-07   5.396977420811457e-06
-1.3780724165722566e-07   2.2721623105551817e-07   5.396977420811457e-06
-1.3780724165722566e-07   2.2721623105551817e-07   5.396977420811457e-06
-3.31026217886395e-06   3.152338994131024e-07   1.623631264814152e-07
-3.31026217886395e-06   3.152338994131024e-07   1.623631264814152e-07
-3.31026217886395e-06   3.152338994131024e-07   1.623631264814152e-07
-3.31026217886395e-06   3.152338994131024e-07   1.623631264814152e-07
-3.43425699144074e-06   1.9946140163563768e-07   5.521103462220186e-06
-3.43425699144074e-06   1.9946140163563768e-07   5.521103462220186e-06
-3.43425699144074e-06   1.9946140163563768e-07   5.521103462220186e-06
-3.43425699144074e-06   1.9946140163563768e-07   5.521103462220186e-06
-2.5627861330616833e-07   2.646230291313608e-07   1.8537585549850444e-07
-2.5627861330616833e-07   2.646230291313608e-07   1.8537585549850444e-07
-2.5627861330616833e-07   2.646230291313608e-07   1.8537585549850444e-07
-2.5627861330616833e-07   2.646230291313608e-07   1.8537585549850444e-07
-1.7742269437704848e-06   2.83985037579401e-07   2.703672534536949e-06
-1.7742269437704848e-06   2.83985037579401e-07   2.703672534536949e-06
-1.7742269437704848e-06   2.83985037579401e-07   2.703672534536949e-06
-1.7742269437704848e-06   2.83985037579401e-07   2.703672534536949e-06
-3.0748860130242514e-06   9.771699007694932e-07   4.700459310130978e-06
-3.0748860130242514e-06   9.771699007694932e-07   4.700459310130978e-06
-3.0748860130242514e-06   9.771699007694932e-07   4.700459310130978e-06
-3.0748860130242514e-06   9.771699007694932e-07   4.700459310130978e-06
-6.162762337072703e-06   9.901736924496128e-07   -4.3819895494169874e-07
-6.162762337072703e-06   9.901736924496128e-07   -4.3819895494169874e-07
-6.162762337072703e-06   9.901736924496128e-07   -4.3819895494169874e-07
-6.162762337072703e-06   9.901736924496128e-07   -4.3819895494169874e-07
-6.295721651331889e-06   9.363252895631274e-07   4.7818691088381544e-06
-6.295721651331889e-06   9.363252895631274e-07   4.7818691088381544e-06
-6.295721651331889e-06   9.363252895631274e-07   4.7818691088381544e-06
-6.295721651331889e-06   9.363252895631274e-07   4.7818691088381544e-06
-3.1897129018654528e-06   9.363227882425249e-07   -3.948106394802348e-07
-3.1897129018654528e-06   9.363227882425249e-07   -3.948106394802348e-07
-3.1897129018654528e-06   9.363227882425249e-07   -3.948106394802348e-07
-3.1897129018654528e-06   9.363227882425249e-07   -3.948106394802348e-07
-4.659979195265823e-06   9.542428804438434e-07   2.044881127532946e-06
-4.659979195265823e-06   9.542428804438434e-07   2.044881127532946e-06
-4.659979195265823e-06   9.542428804438434e-07   2.044881127532946e-06
-4.659979195265823e-06   9.542428804438434e-07   2.044881127532946e-06
-3.1897129018654528e-06   9.363252895631274e-07   4.781870609630483e-06
-3.1897129018654528e-06   9.363252895631274e-07   4.781870609630483e-06
-3.1897129018654528e-06   9.363252895631274e-07   4.781870609630483e-06
-3.1897129018654528e-06   9.363252895631274e-07   4.781870609630483e-06
-6.295721651331879e-06   9.363227882425249e-07   -3.948121402725909e-07
-6.295721651331879e-06   9.363227882425249e-07   -3.948121402725909e-07
-6.295721651331879e-06   9.363227882425249e-07   -3.948121402725909e-07
-6.295721651331879e-06   9.363227882425249e-07   -3.948121402725909e-07
-6.4417694604488636e-06   8.966547606969002e-07   5.005006709768846e-06
-6.4417694604488636e-06   8.966547606969002e-07   5.005006709768846e-06
-6.4417694604488636e-06   8.966547606969002e-07   5.005006709768846e-06
-6.4417694604488636e-06   8.966547606969002e-07   5.005006709768846e-06
-3.31026217886395e-06   8.846401174238973e-07   -2.0696330690887522e-07
-3.31026217886395e-06   8.846401174238973e-07   -2.0696330690887522e-07
-3.31026217886395e-06   8.846401174238973e-07   -2.0696330690887522e-07
-3.31026217886395e-06   8.846401174238973e-07   -2.0696330690887522e-07
-4.751933978357038e-06   9.251945452449671e-07   2.1714903688869723e-06
-4.751933978357038e-06   9.251945452449671e-07   2.1714903688869723e-06
-4.751933978357038e-06   9.251945452449671e-07   2.1714903688869723e-06
-4.751933978357038e-06   9.251945452449671e-07   2.1714903688869723e-06
-3.3102621788639466e-06   8.966547606969002e-07   5.012215495732653e-06
-3.3102621788639466e-06   8.966547606969002e-07   5.012215495732653e-06
-3.3102621788639466e-06   8.966547606969002e-07   5.012215495732653e-06
-3.3102621788639466e-06   8.966547606969002e-07   5.012215495732653e-06
-6.441769460448853e-06   8.846401174238973e-07   -2.1417209287264848e-07
-6.441769460448853e-06   8.846401174238973e-07   -2.1417209287264848e-07
-6.441769460448853e-06   8.846401174238973e-07   -2.1417209287264848e-07
-6.441769460448853e-06   8.846401174238973e-07   -2.1417209287264848e-07
-6.580174847056319e-06   8.411625950359197e-07   5.156877972885179e-06
-6.580174847056319e-06   8.411625950359197e-07   5.156877972885179e-06
-6.580174847056319e-06   8.411625950359197e-07   5.156877972885179e-06
-6.580174847056319e-06   8.411625950359197e-07   5.156877972885179e-06
-3.4342569914407534e-06   8.196739659294995e-07   -7.342527567688807e-08
-3.4342569914407534e-06   8.196739659294995e-07   -7.342527567688807e-08
-3.4342569914407534e-06   8.196739659294995e-07   -7.342527567688807e-08
-3.4342569914407534e-06   8.196739659294995e-07   -7.342527567688807e-08
-4.907541275914969e-06   8.84801750368285e-07   2.342971861117108e-06
-4.907541275914969e-06   8.84801750368285e-07   2.342971861117108e-06
-4.907541275914969e-06   8.84801750368285e-07   2.342971861117108e-06
-4.907541275914969e-06   8.84801750368285e-07   2.342971861117108e-06
-6.162762337072693e-06   1.5892836574951446e-06   2.2903377202988632e-06
-6.162762337072693e-06   1.5892836574951446e-06   2.2903377202988632e-06
-6.162762337072693e-06   1.5892836574951446e-06   2.2903377202988632e-06
-6.162762337072693e-06   1.5892836574951446e-06   2.2903377202988632e-06
-9.144911877438663e-06   1.4488507347973096e-06   -2.764171267263083e-06
-9.144911877438663e-06   1.4488507347973096e-06   -2.764171267263083e-06
-9.144911877438663e-06   1.4488507347973096e-06   -2.764171267263083e-06
-9.144911877438663e-06   1.4488507347973096e-06   -2.764171267263083e-06
-9.354859979568391e-06   1.629349085954107e-06   3.2409963900550747e-06
-9.354859979568391e-06   1.629349085954107e-06   3.2409963900550747e-06
-9.354859979568391e-06   1.629349085954107e-06   3.2409963900550747e-06
-9.354859979568391e-06   1.629349085954107e-06   3.2409963900550747e-06
-6.295721651331889e-06   1.471700662104196e-06   -1.7629784360291862e-06
-6.295721651331889e-06   1.471700662104196e-06   -1.7629784360291862e-06
-6.295721651331889e-06   1.471700662104196e-06   -1.7629784360291862e-06
-6.295721651331889e-06   1.471700662104196e-06   -1.7629784360291862e-06
-7.4419944612982e-06   1.5214855492371978e-06   1.1760531496823992e-07
-7.4419944612982e-06   1.5214855492371978e-06   1.1760531496823992e-07
-7.4419944612982e-06   1.5214855492371978e-06   1.1760531496823992e-07
-7.4419944612982e-06   1.5214855492371978e-06   1.1760531496823992e-07
-6.2957216513318756e-06   1.629349085954107e-06   3.3355854443650323e-06
-6.2957216513318756e-06   1.629349085954107e-06   3.3355854443650323e-06
-6.2957216513318756e-06   1.629349085954107e-06   3.3355854443650323e-06
-6.2957216513318756e-06   1.629349085954107e-06   3.3355854443650323e-06
-9.354859979568425e-06   1.471700662104196e-06   -1.8575674903391234e-06
-9.354859979568425e-06   1.471700662104196e-06   -1.8575674903391234e-06
-9.354859979568425e-06   1.471700662104196e-06   -1.8575674903391234e-06
-9.354859979568425e-06   1.471700662104196e-06   -1.8575674903391234e-06
-9.557909132019995e-06   1.62075435300213e-06   3.958875131533055e-06
-9.557909132019995e-06   1.62075435300213e-06   3.958875131533055e-06
-9.557909132019995e-06   1.62075435300213e-06   3.958875131533055e-06
-9.557909132019995e-06   1.62075435300213e-06   3.958875131533055e-06
-6.4417694604488636e-06   1.4576005508083116e-06   -1.1367987064358798e-06
-6.4417694604488636e-06   1.4576005508083116e-06   -1.1367987064358798e-06
-6.4417694604488636e-06   1.4576005508083116e-06   -1.1367987064358798e-06
-6.4417694604488636e-06   1.4576005508083116e-06   -1.1367987064358798e-06
-7.713594878609714e-06   1.5521805891564639e-06   9.261623008234403e-07
-7.713594878609714e-06   1.5521805891564639e-06   9.261623008234403e-07
-7.713594878609714e-06   1.5521805891564639e-06   9.261623008234403e-07
-7.713594878609714e-06   1.5521805891564639e-06   9.261623008234403e-07
-6.4417694604488636e-06   1.62075435300213e-06   4.056767412849389e-06
-6.4417694604488636e-06   1.62075435300213e-06   4.056767412849389e-06
-6.4417694604488636e-06   1.62075435300213e-06   4.056767412849389e-06
-6.4417694604488636e-06   1.62075435300213e-06   4.056767412849389e-06
-9.557909132020029e-06   1.4576005508083116e-06   -1.2346909877522007e-06
-9.557909132020029e-06   1.4576005508083116e-06   -1.2346909877522007e-06
-9.557909132020029e-06   1.4576005508083116e-06   -1.2346909877522007e-06
-9.557909132020029e-06   1.4576005508083116e-06   -1.2346909877522007e-06
-9.79307930787764e-06   1.501584034273903e-06   5.176399029856919e-06
-9.79307930787764e-06   1.501584034273903e-06   5.176399029856919e-06
-9.79307930787764e-06   1.501584034273903e-06   5.176399029856919e-06
-9.79307930787764e-06   1.501584034273903e-06   5.176399029856919e-06
-6.580174847056319e-06   1.350538741319465e-06   -8.78145624060188e-08
-6.580174847056319e-06   1.350538741319465e-06   -8.78145624060188e-08
-6.580174847056319e-06   1.350538741319465e-06   -8.78145624060188e-08
-6.580174847056319e-06   1.350538741319465e-06   -8.78145624060188e-08
-7.762230888218946e-06   1.5075469412990927e-06   1.788073919544033e-06
-7.762230888218946e-06   1.5075469412990927e-06   1.788073919544033e-06
-7.762230888218946e-06   1.5075469412990927e-06   1.788073919544033e-06
-7.762230888218946e-06   1.5075469412990927e-06   1.788073919544033e-06
5.3382624635004754e-06   -7.155818515151933e-07   4.376530185369349e-06
5.3382624635004754e-06   -7.155818515151933e-07   4.376530185369349e-06
5.3382624635004754e-06   -7.155818515151933e-07   4.376530185369349e-06
5.3382624635004754e-06   -7.155818515151933e-07   4.376530185369349e-06
2.4969306814266043e-06   -4.952010831043652e-07   -2.2679432370721316e-07
2.4969306814266043e-06   -4.952010831043652e-07   -2.2679432370721316e-07
2.4969306814266043e-06   -4.952010831043652e-07   -2.2679432370721316e-07
2.4969306814266043e-06   -4.952010831043652e-07   -2.2679432370721316e-07
2.3944633586326446e-06   -8.22442581096107e-07   3.826281264068365e-06
2.3944633586326446e-06   -8.22442581096107e-07   3.826281264068365e-06
2.3944633586326446e-06   -8.22442581096107e-07   3.826281264068365e-06
2.3944633586326446e-06   -8.22442581096107e-07   3.826281264068365e-06
5.138755821938362e-06   -5.928866698233352e-07   -8.852730548714814e-07
5.138755821938362e-06   -5.928866698233352e-07   -8.852730548714814e-07
5.138755821938362e-06   -5.928866698233352e-07   -8.852730548714814e-07
5.138755821938362e-06   -5.928866698233352e-07   -8.852730548714814e-07
3.6620270213061947e-06   -6.599532902776305e-07   1.6161815851214047e-06
3.6620270213061947e-06   -6.599532902776305e-07   1.6161815851214047e-06
3.6620270213061947e-06   -6.599532902776305e-07   1.6161815851214047e-06
3.6620270213061947e-06   -6.599532902776305e-07   1.6161815851214047e-06
5.138755821938362e-06   -8.22442581096107e-07   3.688547717304707e-06
5.138755821938362e-06   -8.22442581096107e-07   3.688547717304707e-06
5.138755821938362e-06   -8.22442581096107e-07   3.688547717304707e-06
5.138755821938362e-06   -8.22442581096107e-07   3.688547717304707e-06
2.394463358632649e-06   -5.928866698233352e-07   -7.475395081078101e-07
2.394463358632649e-06   -5.928866698233352e-07   -7.475395081078101e-07
2.394463358632649e-06   -5.928866698233352e-07   -7.475395081078101e-07
2.394463358632649e-06   -5.928866698233352e-07   -7.475395081078101e-07
2.280145652115511e-06   -8.424830339368266e-07   3.4415001665382284e-06
2.280145652115511e-06   -8.424830339368266e-07   3.4415001665382284e-06
2.280145652115511e-06   -8.424830339368266e-07   3.4415001665382284e-06
2.280145652115511e-06   -8.424830339368266e-07   3.4415001665382284e-06
4.962362129239973e-06   -6.177680589921231e-07   -1.1636896136360242e-06
4.962362129239973e-06   -6.177680589921231e-07   -1.1636896136360242e-06
4.962362129239973e-06   -6.177680589921231e-07   -1.1636896136360242e-06
4.962362129239973e-06   -6.177680589921231e-07   -1.1636896136360242e-06
3.5877454909005235e-06   -7.002656383594706e-07   1.1768366645502151e-06
3.5877454909005235e-06   -7.002656383594706e-07   1.1768366645502151e-06
3.5877454909005235e-06   -7.002656383594706e-07   1.1768366645502151e-06
3.5877454909005235e-06   -7.002656383594706e-07   1.1768366645502151e-06
4.962362129239965e-06   -8.424830339368266e-07   3.3066711815714334e-06
4.962362129239965e-06   -8.424830339368266e-07   3.3066711815714334e-06
4.962362129239965e-06   -8.424830339368266e-07   3.3066711815714334e-06
4.962362129239965e-06   -8.424830339368266e-07   3.3066711815714334e-06
2.2801456521155162e-06   -6.177680589921231e-07   -1.028860628669192e-06
2.2801456521155162e-06   -6.177680589921231e-07   -1.028860628669192e-06
2.2801456521155162e-06   -6.177680589921231e-07   -1.028860628669192e-06
2.2801456521155162e-06   -6.177680589921231e-07   -1.028860628669192e-06
2.173901325229242e-06   -8.433098747119821e-07   2.908995184980437e-06
2.173901325229242e-06   -8.433098747119821e-07   2.908995184980437e-06
2.173901325229242e-06   -8.433098747119821e-07   2.908995184980437e-06
2.173901325229242e-06   -8.433098747119821e-07   2.908995184980437e-06
4.763017236172813e-06   -6.353835451246119e-07   -1.5309537976778697e-06
4.763017236172813e-06   -6.353835451246119e-07   -1.5309537976778697e-06
4.763017236172813e-06   -6.353835451246119e-07   -1.5309537976778697e-06
4.763017236172813e-06   -6.353835451246119e-07   -1.5309537976778697e-06
3.395007202789036e-06   -6.933916613567907e-07   7.838677943678038e-07
3.395007202789036e-06   -6.933916613567907e-07   7.838677943678038e-07
3.395007202789036e-06   -6.933916613567907e-07   7.838677943678038e-07
3.395007202789036e-06   -6.933916613567907e-07   7.838677943678038e-07
2.496930681426596e-06   -1.3974032750217616e-07   4.8333138030425915e-06
2.496930681426596e-06   -1.3974032750217616e-07   4.8333138030425915e-06
2.496930681426596e-06   -1.3974032750217616e-07   4.8333138030425915e-06
2.496930681426596e-06   -1.3974032750217616e-07   4.8333138030425915e-06
-1.8324993163959475e-07   -1.4267343327004512e-08   4.416299051040746e-07
-1.8324993163959475e-07   -1.4267343327004512e-08   4.416299051040746e-07
-1.8324993163959475e-07   -1.4267343327004512e-08   4.416299051040746e-07
-1.8324993163959475e-07   -1.4267343327004512e-08   4.416299051040746e-07
-2.8026505624614435e-07   -2.1368851233719705e-07   4.836354397616836e-06
-2.8026505624614435e-07   -2.1368851233719705e-07   4.836354397616836e-06
-2.8026505624614435e-07   -2.1368851233719705e-07   4.836354397616836e-06
-2.8026505624614435e-07   -2.1368851233719705e-07   4.836354397616836e-06
2.394463358632649e-06   -9.710546028314808e-08   3.085238749197453e-07
2.394463358632649e-06   -9.710546028314808e-08   3.085238749197453e-07
2.394463358632649e-06   -9.710546028314808e-08   3.085238749197453e-07
2.394463358632649e-06   -9.710546028314808e-08   3.085238749197453e-07
1.0886673665366418e-06   -1.1955435207013781e-07   2.4983198634852423e-06
1.0886673665366418e-06   -1.1955435207013781e-07   2.4983198634852423e-06
1.0886673665366418e-06   -1.1955435207013781e-07   2.4983198634852423e-06
1.0886673665366418e-06   -1.1955435207013781e-07   2.4983198634852423e-06
2.394463358632643e-06   -2.1368851233719705e-07   4.766404566384396e-06
2.394463358632643e-06   -2.1368851233719705e-07   4.766404566384396e-06
2.394463358632643e-06   -2.1368851233719705e-07   4.766404566384396e-06
2.394463358632643e-06   -2.1368851233719705e-07   4.766404566384396e-06
-2.8026505624614435e-07   -9.710546028320229e-08   3.784737061521737e-07
-2.8026505624614435e-07   -9.710546028320229e-08   3.784737061521737e-07
-2.8026505624614435e-07   -9.710546028320229e-08   3.784737061521737e-07
-2.8026505624614435e-07   -9.710546028320229e-08   3.784737061521737e-07
-3.796229844527358e-07   -2.66315503402064e-07   4.752763531175173e-06
-3.796229844527358e-07   -2.66315503402064e-07   4.752763531175173e-06
-3.796229844527358e-07   -2.66315503402064e-07   4.752763531175173e-06
-3.796229844527358e-07   -2.66315503402064e-07   4.752763531175173e-06
2.2801456521155162e-06   -1.6036499641804364e-07   2.5624549937098874e-07
2.2801456521155162e-06   -1.6036499641804364e-07   2.5624549937098874e-07
2.2801456521155162e-06   -1.6036499641804364e-07   2.5624549937098874e-07
2.2801456521155162e-06   -1.6036499641804364e-07   2.5624549937098874e-07
9.779858684027004e-07   -1.696075408569829e-07   2.432057332222594e-06
9.779858684027004e-07   -1.696075408569829e-07   2.432057332222594e-06
9.779858684027004e-07   -1.696075408569829e-07   2.432057332222594e-06
9.779858684027004e-07   -1.696075408569829e-07   2.432057332222594e-06
2.280145652115511e-06   -2.663155034021182e-07   4.689193226984728e-06
2.280145652115511e-06   -2.663155034021182e-07   4.689193226984728e-06
2.280145652115511e-06   -2.663155034021182e-07   4.689193226984728e-06
2.280145652115511e-06   -2.663155034021182e-07   4.689193226984728e-06
-3.796229844527358e-07   -1.6036499641798943e-07   3.198158035614047e-07
-3.796229844527358e-07   -1.6036499641798943e-07   3.198158035614047e-07
-3.796229844527358e-07   -1.6036499641798943e-07   3.198158035614047e-07
-3.796229844527358e-07   -1.6036499641798943e-07   3.198158035614047e-07
-4.796905916260464e-07   -3.0505807866349237e-07   4.774534002817692e-06
-4.796905916260464e-07   -3.0505807866349237e-07   4.774534002817692e-06
-4.796905916260464e-07   -3.0505807866349237e-07   4.774534002817692e-06
-4.796905916260464e-07   -3.0505807866349237e-07   4.774534002817692e-06
2.1739013252292445e-06   -2.1642890914207527e-07   2.9870330634597836e-07
2.1739013252292445e-06   -2.1642890914207527e-07   2.9870330634597836e-07
2.1739013252292445e-06   -2.1642890914207527e-07   2.9870330634597836e-07
2.1739013252292445e-06   -2.1642890914207527e-07   2.9870330634597836e-07
8.965034825025171e-07   -2.0422490077678067e-07   2.420377305871497e-06
8.965034825025171e-07   -2.0422490077678067e-07   2.420377305871497e-06
8.965034825025171e-07   -2.0422490077678067e-07   2.420377305871497e-06
8.965034825025171e-07   -2.0422490077678067e-07   2.420377305871497e-06
-1.8324993163959814e-07   4.3115435255451076e-07   5.0911837855944185e-06
-1.8324993163959814e-07   4.3115435255451076e-07   5.0911837855944185e-06
-1.8324993163959814e-07   4.3115435255451076e-07   5.0911837855944185e-06
-1.8324993163959814e-07   4.3115435255451076e-07   5.0911837855944185e-06
-2.806923258351874e-06   4.483534480606479e-07   7.287143650443022e-07
-2.806923258351874e-06   4.483534480606479e-07   7.287143650443022e-07
-2.806923258351874e-06   4.483534480606479e-07   7.287143650443022e-07
-2.806923258351874e-06   4.483534480606479e-07   7.287143650443022e-07
-2.9051473002997484e-06   3.7228026798460413e-07   5.075978752801084e-06
-2.9051473002997484e-06   3.7228026798460413e-07   5.075978752801084e-06
-2.9051473002997484e-06   3.7228026798460413e-07   5.075978752801084e-06
-2.9051473002997484e-06   3.7228026798460413e-07   5.075978752801084e-06
-2.8026505624614435e-07   3.7784663572184305e-07   6.978351920694788e-07
-2.8026505624614435e-07   3.7784663572184305e-07   6.978351920694788e-07
-2.8026505624614435e-07   3.7784663572184305e-07   6.978351920694788e-07
-2.8026505624614435e-07   3.7784663572184305e-07   6.978351920694788e-07
-1.547754559274674e-06   3.9892406990011276e-07   2.7976712366100236e-06
-1.547754559274674e-06   3.9892406990011276e-07   2.7976712366100236e-06
-1.547754559274674e-06   3.9892406990011276e-07   2.7976712366100236e-06
-1.547754559274674e-06   3.9892406990011276e-07   2.7976712366100236e-06
-2.8026505624614435e-07   3.7228026798460413e-07   5.072638932158844e-06
-2.8026505624614435e-07   3.7228026798460413e-07   5.072638932158844e-06
-2.8026505624614435e-07   3.7228026798460413e-07   5.072638932158844e-06
-2.8026505624614435e-07   3.7228026798460413e-07   5.072638932158844e-06
-2.9051473002997484e-06   3.7784663572184305e-07   7.011750127117395e-07
-2.9051473002997484e-06   3.7784663572184305e-07   7.011750127117395e-07
-2.9051473002997484e-06   3.7784663572184305e-07   7.011750127117395e-07
-2.9051473002997484e-06   3.7784663572184305e-07   7.011750127117395e-07
-3.00545075845775e-06   3.152338994131024e-07   5.098279463864523e-06
-3.00545075845775e-06   3.152338994131024e-07   5.098279463864523e-06
-3.00545075845775e-06   3.152338994131024e-07   5.098279463864523e-06
-3.00545075845775e-06   3.152338994131024e-07   5.098279463864523e-06
-3.796229844527358e-07   3.0856541926601146e-07   7.259009286111064e-07
-3.796229844527358e-07   3.0856541926601146e-07   7.259009286111064e-07
-3.796229844527358e-07   3.0856541926601146e-07   7.259009286111064e-07
-3.796229844527358e-07   3.0856541926601146e-07   7.259009286111064e-07
-1.6383224801685133e-06   3.5252578461095804e-07   2.7973572022638957e-06
-1.6383224801685133e-06   3.5252578461095804e-07   2.7973572022638957e-06
-1.6383224801685133e-06   3.5252578461095804e-07   2.7973572022638957e-06
-1.6383224801685133e-06   3.5252578461095804e-07   2.7973572022638957e-06
-3.796229844527358e-07   3.1523389941315663e-07   5.10228055195281e-06
-3.796229844527358e-07   3.1523389941315663e-07   5.10228055195281e-06
-3.796229844527358e-07   3.1523389941315663e-07   5.10228055195281e-06
-3.796229844527358e-07   3.1523389941315663e-07   5.10228055195281e-06
-3.00545075845775e-06   3.0856541926595725e-07   7.218998405228362e-07
-3.00545075845775e-06   3.0856541926595725e-07   7.218998405228362e-07
-3.00545075845775e-06   3.0856541926595725e-07   7.218998405228362e-07
-3.00545075845775e-06   3.0856541926595725e-07   7.218998405228362e-07
-3.105372890029799e-06   2.646230291313608e-07   5.153635274536978e-06
-3.105372890029799e-06   2.646230291313608e-07   5.153635274536978e-06
-3.105372890029799e-06   2.646230291313608e-07   5.153635274536978e-06
-3.105372890029799e-06   2.646230291313608e-07   5.153635274536978e-06
-4.796905916260464e-07   2.4299955816314313e-07   7.904721931116793e-07
-4.796905916260464e-07   2.4299955816314313e-07   7.904721931116793e-07
-4.796905916260464e-07   2.4299955816314313e-07   7.904721931116793e-07
-4.796905916260464e-07   2.4299955816314313e-07   7.904721931116793e-07
-1.7334544849266982e-06   3.076033655520288e-07   2.841316397512833e-06
-1.7334544849266982e-06   3.076033655520288e-07   2.841316397512833e-06
-1.7334544849266982e-06   3.076033655520288e-07   2.841316397512833e-06
-1.7334544849266982e-06   3.076033655520288e-07   2.841316397512833e-06
-2.8069232583518673e-06   9.901736924496128e-07   4.511053885955442e-06
-2.8069232583518673e-06   9.901736924496128e-07   4.511053885955442e-06
-2.8069232583518673e-06   9.901736924496128e-07   4.511053885955442e-06
-2.8069232583518673e-06   9.901736924496128e-07   4.511053885955442e-06
-5.392091354550916e-06   8.967944736818423e-07   1.464128610297147e-07
-5.392091354550916e-06   8.967944736818423e-07   1.464128610297147e-07
-5.392091354550916e-06   8.967944736818423e-07   1.464128610297147e-07
-5.392091354550916e-06   8.967944736818423e-07   1.464128610297147e-07
-5.498364026211593e-06   9.363227882425249e-07   4.4885307848378775e-06
-5.498364026211593e-06   9.363227882425249e-07   4.4885307848378775e-06
-5.498364026211593e-06   9.363227882425249e-07   4.4885307848378775e-06
-5.498364026211593e-06   9.363227882425249e-07   4.4885307848378775e-06
-2.905147300299752e-06   8.312452837179441e-07   2.295494110329181e-07
-2.905147300299752e-06   8.312452837179441e-07   2.295494110329181e-07
-2.905147300299752e-06   8.312452837179441e-07   2.295494110329181e-07
-2.905147300299752e-06   8.312452837179441e-07   2.295494110329181e-07
-4.13638521807848e-06   8.993166999612381e-07   2.2407697575847662e-06
-4.13638521807848e-06   8.993166999612381e-07   2.2407697575847662e-06
-4.13638521807848e-06   8.993166999612381e-07   2.2407697575847662e-06
-4.13638521807848e-06   8.993166999612381e-07   2.2407697575847662e-06
-2.9051473002997484e-06   9.363227882425249e-07   4.5515772875526315e-06
-2.9051473002997484e-06   9.363227882425249e-07   4.5515772875526315e-06
-2.9051473002997484e-06   9.363227882425249e-07   4.5515772875526315e-06
-2.9051473002997484e-06   9.363227882425249e-07   4.5515772875526315e-06
-5.498364026211593e-06   8.312452837179441e-07   1.6650290831813708e-07
-5.498364026211593e-06   8.312452837179441e-07   1.6650290831813708e-07
-5.498364026211593e-06   8.312452837179441e-07   1.6650290831813708e-07
-5.498364026211593e-06   8.312452837179441e-07   1.6650290831813708e-07
-5.6144210648016076e-06   8.846401174238973e-07   4.659163166272252e-06
-5.6144210648016076e-06   8.846401174238973e-07   4.659163166272252e-06
-5.6144210648016076e-06   8.846401174238973e-07   4.659163166272252e-06
-5.6144210648016076e-06   8.846401174238973e-07   4.659163166272252e-06
-3.0054507584577567e-06   7.683236770873064e-07   3.806691865678054e-07
-3.0054507584577567e-06   7.683236770873064e-07   3.806691865678054e-07
-3.0054507584577567e-06   7.683236770873064e-07   3.806691865678054e-07
-3.0054507584577567e-06   7.683236770873064e-07   3.806691865678054e-07
-4.208726245809788e-06   8.583087497083738e-07   2.332137288582003e-06
-4.208726245809788e-06   8.583087497083738e-07   2.332137288582003e-06
-4.208726245809788e-06   8.583087497083738e-07   2.332137288582003e-06
-4.208726245809788e-06   8.583087497083738e-07   2.332137288582003e-06
-3.0054507584577533e-06   8.846401174238973e-07   4.728953030474185e-06
-3.0054507584577533e-06   8.846401174238973e-07   4.728953030474185e-06
-3.0054507584577533e-06   8.846401174238973e-07   4.728953030474185e-06
-3.0054507584577533e-06   8.846401174238973e-07   4.728953030474185e-06
-5.6144210648016076e-06   7.683236770873064e-07   3.108793223658183e-07
-5.6144210648016076e-06   7.683236770873064e-07   3.108793223658183e-07
-5.6144210648016076e-06   7.683236770873064e-07   3.108793223658183e-07
-5.6144210648016076e-06   7.683236770873064e-07   3.108793223658183e-07
-5.719433584201763e-06   8.196739659294995e-07   4.7799456547574384e-06
-5.719433584201763e-06   8.196739659294995e-07   4.7799456547574384e-06
-5.719433584201763e-06   8.196739659294995e-07   4.7799456547574384e-06
-5.719433584201763e-06   8.196739659294995e-07   4.7799456547574384e-06
-3.105372890029806e-06   6.933547790849773e-07   4.989693432442505e-07
-3.105372890029806e-06   6.933547790849773e-07   4.989693432442505e-07
-3.105372890029806e-06   6.933547790849773e-07   4.989693432442505e-07
-3.105372890029806e-06   6.933547790849773e-07   4.989693432442505e-07
-4.331970221299907e-06   8.1000658960778e-07   2.473307142380934e-06
-4.331970221299907e-06   8.1000658960778e-07   2.473307142380934e-06
-4.331970221299907e-06   8.1000658960778e-07   2.473307142380934e-06
-4.331970221299907e-06   8.1000658960778e-07   2.473307142380934e-06
-5.392091354550916e-06   1.4488507347973096e-06   2.2133137959921075e-06
-5.392091354550916e-06   1.4488507347973096e-06   2.2133137959921075e-06
-5.392091354550916e-06   1.4488507347973096e-06   2.2133137959921075e-06
-5.392091354550916e-06   1.4488507347973096e-06   2.2133137959921075e-06
-7.891714657848053e-06   1.2601583653405334e-06   -2.0659404645105637e-06
-7.891714657848053e-06   1.2601583653405334e-06   -2.0659404645105637e-06
-7.891714657848053e-06   1.2601583653405334e-06   -2.0659404645105637e-06
-7.891714657848053e-06   1.2601583653405334e-06   -2.0659404645105637e-06
-8.084909405904544e-06   1.471700662104196e-06   2.9939346425557768e-06
-8.084909405904544e-06   1.471700662104196e-06   2.9939346425557768e-06
-8.084909405904544e-06   1.471700662104196e-06   2.9939346425557768e-06
-8.084909405904544e-06   1.471700662104196e-06   2.9939346425557768e-06
-5.498364026211593e-06   1.2609842512284778e-06   -1.1905444770737047e-06
-5.498364026211593e-06   1.2609842512284778e-06   -1.1905444770737047e-06
-5.498364026211593e-06   1.2609842512284778e-06   -1.1905444770737047e-06
-5.498364026211593e-06   1.2609842512284778e-06   -1.1905444770737047e-06
-6.460178077140662e-06   1.3376755620120567e-06   3.6646415467133883e-07
-6.460178077140662e-06   1.3376755620120567e-06   3.6646415467133883e-07
-6.460178077140662e-06   1.3376755620120567e-06   3.6646415467133883e-07
-6.460178077140662e-06   1.3376755620120567e-06   3.6646415467133883e-07
-5.498364026211593e-06   1.471700662104196e-06   3.1203644890812347e-06
-5.498364026211593e-06   1.471700662104196e-06   3.1203644890812347e-06
-5.498364026211593e-06   1.471700662104196e-06   3.1203644890812347e-06
-5.498364026211593e-06   1.471700662104196e-06   3.1203644890812347e-06
-8.08490940590455e-06   1.2609842512284778e-06   -1.3169743235991356e-06
-8.08490940590455e-06   1.2609842512284778e-06   -1.3169743235991356e-06
-8.08490940590455e-06   1.2609842512284778e-06   -1.3169743235991356e-06
-8.08490940590455e-06   1.2609842512284778e-06   -1.3169743235991356e-06
-8.255837338626402e-06   1.4576005508083116e-06   3.604570607291602e-06
-8.255837338626402e-06   1.4576005508083116e-06   3.604570607291602e-06
-8.255837338626402e-06   1.4576005508083116e-06   3.604570607291602e-06
-8.255837338626402e-06   1.4576005508083116e-06   3.604570607291602e-06
-5.6144210648016076e-06   1.2376573084459152e-06   -6.658239036656913e-07
-5.6144210648016076e-06   1.2376573084459152e-06   -6.658239036656913e-07
-5.6144210648016076e-06   1.2376573084459152e-06   -6.658239036656913e-07
-5.6144210648016076e-06   1.2376573084459152e-06   -6.658239036656913e-07
-6.69238084102008e-06   1.3550450344124816e-06   1.0603430877853748e-06
-6.69238084102008e-06   1.3550450344124816e-06   1.0603430877853748e-06
-6.69238084102008e-06   1.3550450344124816e-06   1.0603430877853748e-06
-6.69238084102008e-06   1.3550450344124816e-06   1.0603430877853748e-06
-5.6144210648016076e-06   1.4576005508082574e-06   3.7365365527090345e-06
-5.6144210648016076e-06   1.4576005508082574e-06   3.7365365527090345e-06
-5.6144210648016076e-06   1.4576005508082574e-06   3.7365365527090345e-06
-5.6144210648016076e-06   1.4576005508082574e-06   3.7365365527090345e-06
-8.255837338626423e-06   1.2376573084459152e-06   -7.977898490831237e-07
-8.255837338626423e-06   1.2376573084459152e-06   -7.977898490831237e-07
-8.255837338626423e-06   1.2376573084459152e-06   -7.977898490831237e-07
-8.255837338626423e-06   1.2376573084459152e-06   -7.977898490831237e-07
-8.450278357393642e-06   1.350538741319465e-06   4.645565879283516e-06
-8.450278357393642e-06   1.350538741319465e-06   4.645565879283516e-06
-8.450278357393642e-06   1.350538741319465e-06   4.645565879283516e-06
-8.450278357393642e-06   1.350538741319465e-06   4.645565879283516e-06
-5.719433584201763e-06   1.1290659643050315e-06   2.2704159017232885e-07
-5.719433584201763e-06   1.1290659643050315e-06   2.2704159017232885e-07
-5.719433584201763e-06   1.1290659643050315e-06   2.2704159017232885e-07
-5.719433584201763e-06   1.1290659643050315e-06   2.2704159017232885e-07
-6.725538609778408e-06   1.3093410256560757e-06   1.7957182626562938e-06
-6.725538609778408e-06   1.3093410256560757e-06   1.7957182626562938e-06
-6.725538609778408e-06   1.3093410256560757e-06   1.7957182626562938e-06
-6.725538609778408e-06   1.3093410256560757e-06   1.7957182626562938e-06
3.849386463369856e-06   -4.95201083104311e-07   3.679917972068317e-06
3.849386463369856e-06   -4.95201083104311e-07   3.679917972068317e-06
3.849386463369856e-06   -4.95201083104311e-07   3.679917972068317e-06
3.849386463369856e-06   -4.95201083104311e-07   3.679917972068317e-06
1.608024954137173e-06   -2.6802768375539876e-07   8.061949628989122e-08
1.608024954137173e-06   -2.6802768375539876e-07   8.061949628989122e-08
1.608024954137173e-06   -2.6802768375539876e-07   8.061949628989122e-08
1.608024954137173e-06   -2.6802768375539876e-07   8.061949628989122e-08
1.52343444940568e-06   -5.928866698233352e-07   3.2886986895519607e-06
1.52343444940568e-06   -5.928866698233352e-07   3.2886986895519607e-06
1.52343444940568e-06   -5.928866698233352e-07   3.2886986895519607e-06
1.52343444940568e-06   -5.928866698233352e-07   3.2886986895519607e-06
3.6665220467400375e-06   -3.581118333929954e-07   -4.2397887453019594e-07
3.6665220467400375e-06   -3.581118333929954e-07   -4.2397887453019594e-07
3.6665220467400375e-06   -3.581118333929954e-07   -4.2397887453019594e-07
3.6665220467400375e-06   -3.581118333929954e-07   -4.2397887453019594e-07
2.5305942260114807e-06   -4.372370830710531e-07   1.516709309824268e-06
2.5305942260114807e-06   -4.372370830710531e-07   1.516709309824268e-06
2.5305942260114807e-06   -4.372370830710531e-07   1.516709309824268e-06
2.5305942260114807e-06   -4.372370830710531e-07   1.516709309824268e-06
3.6665220467400443e-06   -5.928866698233352e-07   3.1478337876937297e-06
3.6665220467400443e-06   -5.928866698233352e-07   3.1478337876937297e-06
3.6665220467400443e-06   -5.928866698233352e-07   3.1478337876937297e-06
3.6665220467400443e-06   -5.928866698233352e-07   3.1478337876937297e-06
1.523434449405675e-06   -3.581118333929954e-07   -2.8311397267199545e-07
1.523434449405675e-06   -3.581118333929954e-07   -2.8311397267199545e-07
1.523434449405675e-06   -3.581118333929954e-07   -2.8311397267199545e-07
1.523434449405675e-06   -3.581118333929954e-07   -2.8311397267199545e-07
1.427042529788368e-06   -6.177680589921231e-07   3.0008460888122305e-06
1.427042529788368e-06   -6.177680589921231e-07   3.0008460888122305e-06
1.427042529788368e-06   -6.177680589921231e-07   3.0008460888122305e-06
1.427042529788368e-06   -6.177680589921231e-07   3.0008460888122305e-06
3.5081254615265524e-06   -3.8767157232988663e-07   -6.056833560820938e-07
3.5081254615265524e-06   -3.8767157232988663e-07   -6.056833560820938e-07
3.5081254615265524e-06   -3.8767157232988663e-07   -6.056833560820938e-07
3.5081254615265524e-06   -3.8767157232988663e-07   -6.056833560820938e-07
2.456115035228425e-06   -4.759636328206178e-07   1.2006425907092636e-06
2.456115035228425e-06   -4.759636328206178e-07   1.2006425907092636e-06
2.456115035228425e-06   -4.759636328206178e-07   1.2006425907092636e-06
2.456115035228425e-06   -4.759636328206178e-07   1.2006425907092636e-06
3.5081254615265583e-06   -6.177680589921231e-07   2.8627881968148507e-06
3.5081254615265583e-06   -6.177680589921231e-07   2.8627881968148507e-06
3.5081254615265583e-06   -6.177680589921231e-07   2.8627881968148507e-06
3.5081254615265583e-06   -6.177680589921231e-07   2.8627881968148507e-06
1.4270425297883662e-06   -3.8767157232988663e-07   -4.676254640847207e-07
1.4270425297883662e-06   -3.8767157232988663e-07   -4.676254640847207e-07
1.4270425297883662e-06   -3.8767157232988663e-07   -4.676254640847207e-07
1.4270425297883662e-06   -3.8767157232988663e-07   -4.676254640847207e-07
1.3400516087304227e-06   -6.353835451246119e-07   2.6163345206337853e-06
1.3400516087304227e-06   -6.353835451246119e-07   2.6163345206337853e-06
1.3400516087304227e-06   -6.353835451246119e-07   2.6163345206337853e-06
1.3400516087304227e-06   -6.353835451246119e-07   2.6163345206337853e-06
3.3260565087417726e-06   -4.2208232167424784e-07   -8.21654380122034e-07
3.3260565087417726e-06   -4.2208232167424784e-07   -8.21654380122034e-07
3.3260565087417726e-06   -4.2208232167424784e-07   -8.21654380122034e-07
3.3260565087417726e-06   -4.2208232167424784e-07   -8.21654380122034e-07
2.2975142937733674e-06   -4.803587506672707e-07   9.275485022211264e-07
2.2975142937733674e-06   -4.803587506672707e-07   9.275485022211264e-07
2.2975142937733674e-06   -4.803587506672707e-07   9.275485022211264e-07
2.2975142937733674e-06   -4.803587506672707e-07   9.275485022211264e-07
1.6080249541371797e-06   -1.4267343326950302e-08   4.409362449983876e-06
1.6080249541371797e-06   -1.4267343326950302e-08   4.409362449983876e-06
1.6080249541371797e-06   -1.4267343326950302e-08   4.409362449983876e-06
1.6080249541371797e-06   -1.4267343326950302e-08   4.409362449983876e-06
-4.823936969082275e-07   1.0505161019338659e-07   9.969227370204613e-07
-4.823936969082275e-07   1.0505161019338659e-07   9.969227370204613e-07
-4.823936969082275e-07   1.0505161019338659e-07   9.969227370204613e-07
-4.823936969082275e-07   1.0505161019338659e-07   9.969227370204613e-07
-5.607254472517815e-07   -9.710546028320229e-08   4.4128801419545955e-06
-5.607254472517815e-07   -9.710546028320229e-08   4.4128801419545955e-06
-5.607254472517815e-07   -9.710546028320229e-08   4.4128801419545955e-06
-5.607254472517815e-07   -9.710546028320229e-08   4.4128801419545955e-06
1.523434449405675e-06   1.6424655342067197e-08   8.711622448170608e-07
1.523434449405675e-06   1.6424655342067197e-08   8.711622448170608e-07
1.523434449405675e-06   1.6424655342067197e-08   8.711622448170608e-07
1.523434449405675e-06   1.6424655342067197e-08   8.711622448170608e-07
5.067104064828143e-07   -5.701250274127694e-09   2.578977859724927e-06
5.067104064828143e-07   -5.701250274127694e-09   2.578977859724927e-06
5.067104064828143e-07   -5.701250274127694e-09   2.578977859724927e-06
5.067104064828143e-07   -5.701250274127694e-09   2.578977859724927e-06
1.5234344494056784e-06   -9.710546028314808e-08   4.344762072579504e-06
1.5234344494056784e-06   -9.710546028314808e-08   4.344762072579504e-06
1.5234344494056784e-06   -9.710546028314808e-08   4.344762072579504e-06
1.5234344494056784e-06   -9.710546028314808e-08   4.344762072579504e-06
-5.607254472517815e-07   1.6424655342094302e-08   9.392803141921994e-07
-5.607254472517815e-07   1.6424655342094302e-08   9.392803141921994e-07
-5.607254472517815e-07   1.6424655342094302e-08   9.392803141921994e-07
-5.607254472517815e-07   1.6424655342094302e-08   9.392803141921994e-07
-6.411254294926957e-07   -1.6036499641798943e-07   4.349670281094417e-06
-6.411254294926957e-07   -1.6036499641798943e-07   4.349670281094417e-06
-6.411254294926957e-07   -1.6036499641798943e-07   4.349670281094417e-06
-6.411254294926957e-07   -1.6036499641798943e-07   4.349670281094417e-06
1.4270425297883662e-06   -5.4168222681291863e-08   8.390056180506701e-07
1.4270425297883662e-06   -5.4168222681291863e-08   8.390056180506701e-07
1.4270425297883662e-06   -5.4168222681291863e-08   8.390056180506701e-07
1.4270425297883662e-06   -5.4168222681291863e-08   8.390056180506701e-07
4.192000804245075e-07   -6.366052811025138e-08   2.5244384169146003e-06
4.192000804245075e-07   -6.366052811025138e-08   2.5244384169146003e-06
4.192000804245075e-07   -6.366052811025138e-08   2.5244384169146003e-06
4.192000804245075e-07   -6.366052811025138e-08   2.5244384169146003e-06
1.4270425297883696e-06   -1.6036499641804364e-07   4.2859522168524095e-06
1.4270425297883696e-06   -1.6036499641804364e-07   4.2859522168524095e-06
1.4270425297883696e-06   -1.6036499641804364e-07   4.2859522168524095e-06
1.4270425297883696e-06   -1.6036499641804364e-07   4.2859522168524095e-06
-6.411254294926991e-07   -5.4168222681291863e-08   9.027236822926931e-07
-6.411254294926991e-07   -5.4168222681291863e-08   9.027236822926931e-07
-6.411254294926991e-07   -5.4168222681291863e-08   9.027236822926931e-07
-6.411254294926991e-07   -5.4168222681291863e-08   9.027236822926931e-07
-7.2108678323713e-07   -2.1642890914207527e-07   4.378319978971953e-06
-7.2108678323713e-07   -2.1642890914207527e-07   4.378319978971953e-06
-7.2108678323713e-07   -2.1642890914207527e-07   4.378319978971953e-06
-7.2108678323713e-07   -2.1642890914207527e-07   4.378319978971953e-06
1.3400516087304167e-06   -1.2128865569749694e-07   8.860051736259977e-07
1.3400516087304167e-06   -1.2128865569749694e-07   8.860051736259977e-07
1.3400516087304167e-06   -1.2128865569749694e-07   8.860051736259977e-07
1.3400516087304167e-06   -1.2128865569749694e-07   8.860051736259977e-07
3.5234218538988e-07   -1.0965801799776463e-07   2.525209163240385e-06
3.5234218538988e-07   -1.0965801799776463e-07   2.525209163240385e-06
3.5234218538988e-07   -1.0965801799776463e-07   2.525209163240385e-06
3.5234218538988e-07   -1.0965801799776463e-07   2.525209163240385e-06
-4.823936969082241e-07   4.483534480606479e-07   4.757718824732683e-06
-4.823936969082241e-07   4.483534480606479e-07   4.757718824732683e-06
-4.823936969082241e-07   4.483534480606479e-07   4.757718824732683e-06
-4.823936969082241e-07   4.483534480606479e-07   4.757718824732683e-06
-2.5335199113399875e-06   4.477875397171057e-07   1.3388355890069694e-06
-2.5335199113399875e-06   4.477875397171057e-07   1.3388355890069694e-06
-2.5335199113399875e-06   4.477875397171057e-07   1.3388355890069694e-06
-2.5335199113399875e-06   4.477875397171057e-07   1.3388355890069694e-06
-2.611479907923926e-06   3.7784663572184305e-07   4.727173757717467e-06
-2.611479907923926e-06   3.7784663572184305e-07   4.727173757717467e-06
-2.611479907923926e-06   3.7784663572184305e-07   4.727173757717467e-06
-2.611479907923926e-06   3.7784663572184305e-07   4.727173757717467e-06
-5.607254472517781e-07   3.6940018546444717e-07   1.314317526751672e-06
-5.607254472517781e-07   3.6940018546444717e-07   1.314317526751672e-06
-5.607254472517781e-07   3.6940018546444717e-07   1.314317526751672e-06
-5.607254472517781e-07   3.6940018546444717e-07   1.314317526751672e-06
-1.5510972043917416e-06   3.992024915333548e-07   2.9470557383437136e-06
-1.5510972043917416e-06   3.992024915333548e-07   2.9470557383437136e-06
-1.5510972043917416e-06   3.992024915333548e-07   2.9470557383437136e-06
-1.5510972043917416e-06   3.992024915333548e-07   2.9470557383437136e-06
-5.607254472517815e-07   3.7784663572184305e-07   4.732241627871921e-06
-5.607254472517815e-07   3.7784663572184305e-07   4.732241627871921e-06
-5.607254472517815e-07   3.7784663572184305e-07   4.732241627871921e-06
-5.607254472517815e-07   3.7784663572184305e-07   4.732241627871921e-06
-2.611479907923926e-06   3.6940018546444717e-07   1.3092496565972588e-06
-2.611479907923926e-06   3.6940018546444717e-07   1.3092496565972588e-06
-2.611479907923926e-06   3.6940018546444717e-07   1.3092496565972588e-06
-2.611479907923926e-06   3.6940018546444717e-07   1.3092496565972588e-06
-2.6910399789285117e-06   3.0856541926601146e-07   4.74580411364688e-06
-2.6910399789285117e-06   3.0856541926601146e-07   4.74580411364688e-06
-2.6910399789285117e-06   3.0856541926601146e-07   4.74580411364688e-06
-2.6910399789285117e-06   3.0856541926601146e-07   4.74580411364688e-06
-6.411254294926957e-07   2.9197993177063064e-07   1.339231157084429e-06
-6.411254294926957e-07   2.9197993177063064e-07   1.339231157084429e-06
-6.411254294926957e-07   2.9197993177063064e-07   1.339231157084429e-06
-6.411254294926957e-07   2.9197993177063064e-07   1.339231157084429e-06
-1.621820050882416e-06   3.432229261739195e-07   2.9429763960920707e-06
-1.621820050882416e-06   3.432229261739195e-07   2.9429763960920707e-06
-1.621820050882416e-06   3.432229261739195e-07   2.9429763960920707e-06
-1.621820050882416e-06   3.432229261739195e-07   2.9429763960920707e-06
-6.411254294926991e-07   3.0856541926601146e-07   4.755755406144109e-06
-6.411254294926991e-07   3.0856541926601146e-07   4.755755406144109e-06
-6.411254294926991e-07   3.0856541926601146e-07   4.755755406144109e-06
-6.411254294926991e-07   3.0856541926601146e-07   4.755755406144109e-06
-2.6910399789285117e-06   2.9197993177063064e-07   1.3292798645872208e-06
-2.6910399789285117e-06   2.9197993177063064e-07   1.3292798645872208e-06
-2.6910399789285117e-06   2.9197993177063064e-07   1.3292798645872208e-06
-2.6910399789285117e-06   2.9197993177063064e-07   1.3292798645872208e-06
-2.7693994062659276e-06   2.4299955816314313e-07   4.801764321197421e-06
-2.7693994062659276e-06   2.4299955816314313e-07   4.801764321197421e-06
-2.7693994062659276e-06   2.4299955816314313e-07   4.801764321197421e-06
-2.7693994062659276e-06   2.4299955816314313e-07   4.801764321197421e-06
-7.210867832371266e-07   2.1775448678414003e-07   1.4030569923101259e-06
-7.210867832371266e-07   2.1775448678414003e-07   1.4030569923101259e-06
-7.210867832371266e-07   2.1775448678414003e-07   1.4030569923101259e-06
-7.210867832371266e-07   2.1775448678414003e-07   1.4030569923101259e-06
-1.6961462277641065e-06   2.8880050093895403e-07   2.9855284580288755e-06
-1.6961462277641065e-06   2.8880050093895403e-07   2.9855284580288755e-06
-1.6961462277641065e-06   2.8880050093895403e-07   2.9855284580288755e-06
-1.6961462277641065e-06   2.8880050093895403e-07   2.9855284580288755e-06
-2.5335199113399875e-06   8.967944736818423e-07   4.231105306972636e-06
-2.5335199113399875e-06   8.967944736818423e-07   4.231105306972636e-06
-2.5335199113399875e-06   8.967944736818423e-07   4.231105306972636e-06
-2.5335199113399875e-06   8.967944736818423e-07   4.231105306972636e-06
-4.564458292642001e-06   7.828640637337918e-07   7.778497588337429e-07
-4.564458292642001e-06   7.828640637337918e-07   7.778497588337429e-07
-4.564458292642001e-06   7.828640637337918e-07   7.778497588337429e-07
-4.564458292642001e-06   7.828640637337918e-07   7.778497588337429e-07
-4.648892062646266e-06   8.312452837179441e-07   4.1814750703207215e-06
-4.648892062646266e-06   8.312452837179441e-07   4.1814750703207215e-06
-4.648892062646266e-06   8.312452837179441e-07   4.1814750703207215e-06
-4.648892062646266e-06   8.312452837179441e-07   4.1814750703207215e-06
-2.6114799079239194e-06   7.077901408547821e-07   8.598612315014042e-07
-2.6114799079239194e-06   7.077901408547821e-07   8.598612315014042e-07
-2.6114799079239194e-06   7.077901408547821e-07   8.598612315014042e-07
-2.6114799079239194e-06   7.077901408547821e-07   8.598612315014042e-07
-3.578971877646268e-06   7.88677711082179e-07   2.4238153055689617e-06
-3.578971877646268e-06   7.88677711082179e-07   2.4238153055689617e-06
-3.578971877646268e-06   7.88677711082179e-07   2.4238153055689617e-06
-3.578971877646268e-06   7.88677711082179e-07   2.4238153055689617e-06
-2.611479907923926e-06   8.312452837179441e-07   4.255548156038646e-06
-2.611479907923926e-06   8.312452837179441e-07   4.255548156038646e-06
-2.611479907923926e-06   8.312452837179441e-07   4.255548156038646e-06
-2.611479907923926e-06   8.312452837179441e-07   4.255548156038646e-06
-4.648892062646252e-06   7.077901408547821e-07   7.857881457835273e-07
-4.648892062646252e-06   7.077901408547821e-07   7.857881457835273e-07
-4.648892062646252e-06   7.077901408547821e-07   7.857881457835273e-07
-4.648892062646252e-06   7.077901408547821e-07   7.857881457835273e-07
-4.743171289869284e-06   7.683236770873064e-07   4.325616486935567e-06
-4.743171289869284e-06   7.683236770873064e-07   4.325616486935567e-06
-4.743171289869284e-06   7.683236770873064e-07   4.325616486935567e-06
-4.743171289869284e-06   7.683236770873064e-07   4.325616486935567e-06
-2.691039978928505e-06   6.36728722493439e-07   9.843546081239412e-07
-2.691039978928505e-06   6.36728722493439e-07   9.843546081239412e-07
-2.691039978928505e-06   6.36728722493439e-07   9.843546081239412e-07
-2.691039978928505e-06   6.36728722493439e-07   9.843546081239412e-07
-3.63414445237172e-06   7.382271269144088e-07   2.4952963545434807e-06
-3.63414445237172e-06   7.382271269144088e-07   2.4952963545434807e-06
-3.63414445237172e-06   7.382271269144088e-07   2.4952963545434807e-06
-3.63414445237172e-06   7.382271269144088e-07   2.4952963545434807e-06
-2.6910399789285117e-06   7.683236770873064e-07   4.4045734596918494e-06
-2.6910399789285117e-06   7.683236770873064e-07   4.4045734596918494e-06
-2.6910399789285117e-06   7.683236770873064e-07   4.4045734596918494e-06
-2.6910399789285117e-06   7.683236770873064e-07   4.4045734596918494e-06
-4.743171289869277e-06   6.36728722493439e-07   9.053976353676316e-07
-4.743171289869277e-06   6.36728722493439e-07   9.053976353676316e-07
-4.743171289869277e-06   6.36728722493439e-07   9.053976353676316e-07
-4.743171289869277e-06   6.36728722493439e-07   9.053976353676316e-07
-4.825805676127412e-06   6.933547790849773e-07   4.440653130260655e-06
-4.825805676127412e-06   6.933547790849773e-07   4.440653130260655e-06
-4.825805676127412e-06   6.933547790849773e-07   4.440653130260655e-06
-4.825805676127412e-06   6.933547790849773e-07   4.440653130260655e-06
-2.7693994062659208e-06   5.557174063344902e-07   1.095891770808479e-06
-2.7693994062659208e-06   5.557174063344902e-07   1.095891770808479e-06
-2.7693994062659208e-06   5.557174063344902e-07   1.095891770808479e-06
-2.7693994062659208e-06   5.557174063344902e-07   1.095891770808479e-06
-3.730496071412167e-06   6.833312976829925e-07   2.6211512112432074e-06
-3.730496071412167e-06   6.833312976829925e-07   2.6211512112432074e-06
-3.730496071412167e-06   6.833312976829925e-07   2.6211512112432074e-06
-3.730496071412167e-06   6.833312976829925e-07   2.6211512112432074e-06
-4.564458292642001e-06   1.2601583653405334e-06   2.0636091571375845e-06
-4.564458292642001e-06   1.2601583653405334e-06   2.0636091571375845e-06
-4.564458292642001e-06   1.2601583653405334e-06   2.0636091571375845e-06
-4.564458292642001e-06   1.2601583653405334e-06   2.0636091571375845e-06
-6.51120921547162e-06   1.0502074571683317e-06   -1.306946259148448e-06
-6.51120921547162e-06   1.0502074571683317e-06   -1.306946259148448e-06
-6.51120921547162e-06   1.0502074571683317e-06   -1.306946259148448e-06
-6.51120921547162e-06   1.0502074571683317e-06   -1.306946259148448e-06
-6.690816884537998e-06   1.2609842512284778e-06   2.685956145691043e-06
-6.690816884537998e-06   1.2609842512284778e-06   2.685956145691043e-06
-6.690816884537998e-06   1.2609842512284778e-06   2.685956145691043e-06
-6.690816884537998e-06   1.2609842512284778e-06   2.685956145691043e-06
-4.648892062646245e-06   1.0301983524987142e-06   -5.787803515573594e-07
-4.648892062646245e-06   1.0301983524987142e-06   -5.787803515573594e-07
-4.648892062646245e-06   1.0301983524987142e-06   -5.787803515573594e-07
-4.648892062646245e-06   1.0301983524987142e-06   -5.787803515573594e-07
-5.392776323700849e-06   1.1268013962759484e-06   6.030649239341021e-07
-5.392776323700849e-06   1.1268013962759484e-06   6.030649239341021e-07
-5.392776323700849e-06   1.1268013962759484e-06   6.030649239341021e-07
-5.392776323700849e-06   1.1268013962759484e-06   6.030649239341021e-07
-4.648892062646259e-06   1.2609842512284778e-06   2.824427684928907e-06
-4.648892062646259e-06   1.2609842512284778e-06   2.824427684928907e-06
-4.648892062646259e-06   1.2609842512284778e-06   2.824427684928907e-06
-4.648892062646259e-06   1.2609842512284778e-06   2.824427684928907e-06
-6.690816884538012e-06   1.0301983524987142e-06   -7.172518907951823e-07
-6.690816884538012e-06   1.0301983524987142e-06   -7.172518907951823e-07
-6.690816884538012e-06   1.0301983524987142e-06   -7.172518907951823e-07
-6.690816884538012e-06   1.0301983524987142e-06   -7.172518907951823e-07
-6.845479166479145e-06   1.2376573084459152e-06   3.206149398571486e-06
-6.845479166479145e-06   1.2376573084459152e-06   3.206149398571486e-06
-6.845479166479145e-06   1.2376573084459152e-06   3.206149398571486e-06
-6.845479166479145e-06   1.2376573084459152e-06   3.206149398571486e-06
-4.74317128986927e-06   9.997175378916338e-07   -1.5493320011241243e-07
-4.74317128986927e-06   9.997175378916338e-07   -1.5493320011241243e-07
-4.74317128986927e-06   9.997175378916338e-07   -1.5493320011241243e-07
-4.74317128986927e-06   9.997175378916338e-07   -1.5493320011241243e-07
-5.58990122022971e-06   1.1305211125034204e-06   1.1778012057214163e-06
-5.58990122022971e-06   1.1305211125034204e-06   1.1778012057214163e-06
-5.58990122022971e-06   1.1305211125034204e-06   1.1778012057214163e-06
-5.58990122022971e-06   1.1305211125034204e-06   1.1778012057214163e-06
-4.743171289869284e-06   1.2376573084459152e-06   3.348913260904044e-06
-4.743171289869284e-06   1.2376573084459152e-06   3.348913260904044e-06
-4.743171289869284e-06   1.2376573084459152e-06   3.348913260904044e-06
-4.743171289869284e-06   1.2376573084459152e-06   3.348913260904044e-06
-6.845479166479145e-06   9.997175378916338e-07   -2.976970624449704e-07
-6.845479166479145e-06   9.997175378916338e-07   -2.976970624449704e-07
-6.845479166479145e-06   9.997175378916338e-07   -2.976970624449704e-07
-6.845479166479145e-06   9.997175378916338e-07   -2.976970624449704e-07
-7.0231056784804085e-06   1.1290659643050315e-06   4.102718808121934e-06
-7.0231056784804085e-06   1.1290659643050315e-06   4.102718808121934e-06
-7.0231056784804085e-06   1.1290659643050315e-06   4.102718808121934e-06
-7.0231056784804085e-06   1.1290659643050315e-06   4.102718808121934e-06
-4.825805676127398e-06   8.9273582901586e-07   5.823502187071321e-07
-4.825805676127398e-06   8.9273582901586e-07   5.823502187071321e-07
-4.825805676127398e-06   8.9273582901586e-07   5.823502187071321e-07
-4.825805676127398e-06   8.9273582901586e-07   5.823502187071321e-07
-5.6210416325391715e-06   1.083486115624672e-06   1.7932933074281106e-06
-5.6210416325391715e-06   1.083486115624672e-06   1.7932933074281106e-06
-5.6210416325391715e-06   1.083486115624672e-06   1.7932933074281106e-06
-5.6210416325391715e-06   1.083486115624672e-06   1.7932933074281106e-06
2.3220146081402123e-06   -2.6802768375539876e-07   2.9999801455003825e-06
2.3220146081402123e-06   -2.6802768375539876e-07   2.9999801455003825e-06
2.3220146081402123e-06   -2.6802768375539876e-07   2.9999801455003825e-06
2.3220146081402123e-06   -2.6802768375539876e-07   2.9999801455003825e-06
6.787219946616394e-07   -3.506292549067345e-08   4.0093797799495355e-07
6.787219946616394e-07   -3.506292549067345e-08   4.0093797799495355e-07
6.787219946616394e-07   -3.506292549067345e-08   4.0093797799495355e-07
6.787219946616394e-07   -3.506292549067345e-08   4.0093797799495355e-07
6.1249815513722e-07   -3.581118333929954e-07   2.772475112509075e-06
6.1249815513722e-07   -3.581118333929954e-07   2.772475112509075e-06
6.1249815513722e-07   -3.581118333929954e-07   2.772475112509075e-06
6.1249815513722e-07   -3.581118333929954e-07   2.772475112509075e-06
2.1562083711124917e-06   -1.1756351072180794e-07   5.529575894763525e-08
2.1562083711124917e-06   -1.1756351072180794e-07   5.529575894763525e-08
2.1562083711124917e-06   -1.1756351072180794e-07   5.529575894763525e-08
2.1562083711124917e-06   -1.1756351072180794e-07   5.529575894763525e-08
1.3605771072115882e-06   -2.0632596821362108e-07   1.4346053399443178e-06
1.3605771072115882e-06   -2.0632596821362108e-07   1.4346053399443178e-06
1.3605771072115882e-06   -2.0632596821362108e-07   1.4346053399443178e-06
1.3605771072115882e-06   -2.0632596821362108e-07   1.4346053399443178e-06
2.156208371112495e-06   -3.581118333929954e-07   2.628146118906406e-06
2.156208371112495e-06   -3.581118333929954e-07   2.628146118906406e-06
2.156208371112495e-06   -3.581118333929954e-07   2.628146118906406e-06
2.156208371112495e-06   -3.581118333929954e-07   2.628146118906406e-06
6.124981551372183e-07   -1.1756351072180794e-07   1.9962475255035517e-07
6.124981551372183e-07   -1.1756351072180794e-07   1.9962475255035517e-07
6.124981551372183e-07   -1.1756351072180794e-07   1.9962475255035517e-07
6.124981551372183e-07   -1.1756351072180794e-07   1.9962475255035517e-07
5.340159401942595e-07   -3.8767157232988663e-07   2.585684185467575e-06
5.340159401942595e-07   -3.8767157232988663e-07   2.585684185467575e-06
5.340159401942595e-07   -3.8767157232988663e-07   2.585684185467575e-06
5.340159401942595e-07   -3.8767157232988663e-07   2.585684185467575e-06
2.0143200526427674e-06   -1.510723676087782e-07   -2.344885811260419e-08
2.0143200526427674e-06   -1.510723676087782e-07   -2.344885811260419e-08
2.0143200526427674e-06   -1.510723676087782e-07   -2.344885811260419e-08
2.0143200526427674e-06   -1.510723676087782e-07   -2.344885811260419e-08
1.285447235415684e-06   -2.425407578446597e-07   1.246220204740732e-06
1.285447235415684e-06   -2.425407578446597e-07   1.246220204740732e-06
1.285447235415684e-06   -2.425407578446597e-07   1.246220204740732e-06
1.285447235415684e-06   -2.425407578446597e-07   1.246220204740732e-06
2.0143200526427708e-06   -3.8767157232988663e-07   2.4437246626349155e-06
2.0143200526427708e-06   -3.8767157232988663e-07   2.4437246626349155e-06
2.0143200526427708e-06   -3.8767157232988663e-07   2.4437246626349155e-06
2.0143200526427708e-06   -3.8767157232988663e-07   2.4437246626349155e-06
5.34015940194257e-07   -1.510723676087782e-07   1.1851066472005206e-07
5.34015940194257e-07   -1.510723676087782e-07   1.1851066472005206e-07
5.34015940194257e-07   -1.510723676087782e-07   1.1851066472005206e-07
5.34015940194257e-07   -1.510723676087782e-07   1.1851066472005206e-07
4.653384996234582e-07   -4.2208232167427495e-07   2.357180410217884e-06
4.653384996234582e-07   -4.2208232167427495e-07   2.357180410217884e-06
4.653384996234582e-07   -4.2208232167427495e-07   2.357180410217884e-06
4.653384996234582e-07   -4.2208232167427495e-07   2.357180410217884e-06
1.8460136750348617e-06   -2.0298777389223064e-07   -7.54016108036122e-08
1.8460136750348617e-06   -2.0298777389223064e-07   -7.54016108036122e-08
1.8460136750348617e-06   -2.0298777389223064e-07   -7.54016108036122e-08
1.8460136750348617e-06   -2.0298777389223064e-07   -7.54016108036122e-08
1.1607940506414087e-06   -2.5745486431695574e-07   1.0993113507736796e-06
1.1607940506414087e-06   -2.5745486431695574e-07   1.0993113507736796e-06
1.1607940506414087e-06   -2.5745486431695574e-07   1.0993113507736796e-06
1.1607940506414087e-06   -2.5745486431695574e-07   1.0993113507736796e-06
6.787219946616402e-07   1.0505161019338659e-07   3.9844708690775965e-06
6.787219946616402e-07   1.0505161019338659e-07   3.9844708690775965e-06
6.787219946616402e-07   1.0505161019338659e-07   3.9844708690775965e-06
6.787219946616402e-07   1.0505161019338659e-07   3.9844708690775965e-06
-8.063308491554236e-07   2.1476238042637558e-07   1.5752092581889672e-06
-8.063308491554236e-07   2.1476238042637558e-07   1.5752092581889672e-06
-8.063308491554236e-07   2.1476238042637558e-07   1.5752092581889672e-06
-8.063308491554236e-07   2.1476238042637558e-07   1.5752092581889672e-06
-8.65219778181283e-07   1.6424655342067197e-08   3.9914649289403816e-06
-8.65219778181283e-07   1.6424655342067197e-08   3.9914649289403816e-06
-8.65219778181283e-07   1.6424655342067197e-08   3.9914649289403816e-06
-8.65219778181283e-07   1.6424655342067197e-08   3.9914649289403816e-06
6.124981551372183e-07   1.2428065357915352e-07   1.4638881078006806e-06
6.124981551372183e-07   1.2428065357915352e-07   1.4638881078006806e-06
6.124981551372183e-07   1.2428065357915352e-07   1.4638881078006806e-06
6.124981551372183e-07   1.2428065357915352e-07   1.4638881078006806e-06
-1.070588615257334e-07   1.0492754311445629e-07   2.674761668517857e-06
-1.070588615257334e-07   1.0492754311445629e-07   2.674761668517857e-06
-1.070588615257334e-07   1.0492754311445629e-07   2.674761668517857e-06
-1.070588615257334e-07   1.0492754311445629e-07   2.674761668517857e-06
6.124981551372192e-07   1.6424655342067197e-08   3.926751329998124e-06
6.124981551372192e-07   1.6424655342067197e-08   3.926751329998124e-06
6.124981551372192e-07   1.6424655342067197e-08   3.926751329998124e-06
6.124981551372192e-07   1.6424655342067197e-08   3.926751329998124e-06
-8.65219778181283e-07   1.2428065357915352e-07   1.5286017067429192e-06
-8.65219778181283e-07   1.2428065357915352e-07   1.5286017067429192e-06
-8.65219778181283e-07   1.2428065357915352e-07   1.5286017067429192e-06
-8.65219778181283e-07   1.2428065357915352e-07   1.5286017067429192e-06
-9.261277276782208e-07   -5.4168222681291863e-08   3.9545946932420485e-06
-9.261277276782208e-07   -5.4168222681291863e-08   3.9545946932420485e-06
-9.261277276782208e-07   -5.4168222681291863e-08   3.9545946932420485e-06
-9.261277276782208e-07   -5.4168222681291863e-08   3.9545946932420485e-06
5.34015940194257e-07   4.963082005058641e-08   1.4587424878155053e-06
5.34015940194257e-07   4.963082005058641e-08   1.4587424878155053e-06
5.34015940194257e-07   4.963082005058641e-08   1.4587424878155053e-06
5.34015940194257e-07   4.963082005058641e-08   1.4587424878155053e-06
-1.707732471142861e-07   4.310452137752793e-08   2.6373069125336314e-06
-1.707732471142861e-07   4.310452137752793e-08   2.6373069125336314e-06
-1.707732471142861e-07   4.310452137752793e-08   2.6373069125336314e-06
-1.707732471142861e-07   4.310452137752793e-08   2.6373069125336314e-06
5.340159401942595e-07   -5.4168222681291863e-08   3.892315267602954e-06
5.340159401942595e-07   -5.4168222681291863e-08   3.892315267602954e-06
5.340159401942595e-07   -5.4168222681291863e-08   3.892315267602954e-06
5.340159401942595e-07   -5.4168222681291863e-08   3.892315267602954e-06
-9.261277276782208e-07   4.963082005058641e-08   1.5210219134546133e-06
-9.261277276782208e-07   4.963082005058641e-08   1.5210219134546133e-06
-9.261277276782208e-07   4.963082005058641e-08   1.5210219134546133e-06
-9.261277276782208e-07   4.963082005058641e-08   1.5210219134546133e-06
-9.86468921536038e-07   -1.2128865569749694e-07   3.995131735762481e-06
-9.86468921536038e-07   -1.2128865569749694e-07   3.995131735762481e-06
-9.86468921536038e-07   -1.2128865569749694e-07   3.995131735762481e-06
-9.86468921536038e-07   -1.2128865569749694e-07   3.995131735762481e-06
4.6533849962345735e-07   -2.416781258619957e-08   1.5171801946298914e-06
4.6533849962345735e-07   -2.416781258619957e-08   1.5171801946298914e-06
4.6533849962345735e-07   -2.416781258619957e-08   1.5171801946298914e-06
4.6533849962345735e-07   -2.416781258619957e-08   1.5171801946298914e-06
-2.2334739489987406e-07   -1.0045537309161332e-08   2.656516653669279e-06
-2.2334739489987406e-07   -1.0045537309161332e-08   2.656516653669279e-06
-2.2334739489987406e-07   -1.0045537309161332e-08   2.656516653669279e-06
-2.2334739489987406e-07   -1.0045537309161332e-08   2.656516653669279e-06
-8.063308491554236e-07   4.477875397171057e-07   4.392549728210037e-06
-8.063308491554236e-07   4.477875397171057e-07   4.392549728210037e-06
-8.063308491554236e-07   4.477875397171057e-07   4.392549728210037e-06
-8.063308491554236e-07   4.477875397171057e-07   4.392549728210037e-06
-2.258249715900567e-06   4.285890335868972e-07   1.9611658466233306e-06
-2.258249715900567e-06   4.285890335868972e-07   1.9611658466233306e-06
-2.258249715900567e-06   4.285890335868972e-07   1.9611658466233306e-06
-2.258249715900567e-06   4.285890335868972e-07   1.9611658466233306e-06
-2.315389395948934e-06   3.6940018546444717e-07   4.353210877545776e-06
-2.315389395948934e-06   3.6940018546444717e-07   4.353210877545776e-06
-2.315389395948934e-06   3.6940018546444717e-07   4.353210877545776e-06
-2.315389395948934e-06   3.6940018546444717e-07   4.353210877545776e-06
-8.65219778181283e-07   3.472480788742718e-07   1.9495527785538346e-06
-8.65219778181283e-07   3.472480788742718e-07   1.9495527785538346e-06
-8.65219778181283e-07   3.472480788742718e-07   1.9495527785538346e-06
-8.65219778181283e-07   3.472480788742718e-07   1.9495527785538346e-06
-1.5648346476480342e-06   3.868518345259101e-07   3.091815307607561e-06
-1.5648346476480342e-06   3.868518345259101e-07   3.091815307607561e-06
-1.5648346476480342e-06   3.868518345259101e-07   3.091815307607561e-06
-1.5648346476480342e-06   3.868518345259101e-07   3.091815307607561e-06
-8.65219778181283e-07   3.6940018546444717e-07   4.366502141499881e-06
-8.65219778181283e-07   3.6940018546444717e-07   4.366502141499881e-06
-8.65219778181283e-07   3.6940018546444717e-07   4.366502141499881e-06
-8.65219778181283e-07   3.6940018546444717e-07   4.366502141499881e-06
-2.3153893959489307e-06   3.472480788742718e-07   1.9362615145997056e-06
-2.3153893959489307e-06   3.472480788742718e-07   1.9362615145997056e-06
-2.3153893959489307e-06   3.472480788742718e-07   1.9362615145997056e-06
-2.3153893959489307e-06   3.472480788742718e-07   1.9362615145997056e-06
-2.374156559941875e-06   2.9197993177063064e-07   4.375745097009033e-06
-2.374156559941875e-06   2.9197993177063064e-07   4.375745097009033e-06
-2.374156559941875e-06   2.9197993177063064e-07   4.375745097009033e-06
-2.374156559941875e-06   2.9197993177063064e-07   4.375745097009033e-06
-9.261277276782174e-07   2.6638481339595187e-07   1.977720780927773e-06
-9.261277276782174e-07   2.6638481339595187e-07   1.977720780927773e-06
-9.261277276782174e-07   2.6638481339595187e-07   1.977720780927773e-06
-9.261277276782174e-07   2.6638481339595187e-07   1.977720780927773e-06
-1.615205551235684e-06   3.259408053588237e-07   3.09045022501249e-06
-1.615205551235684e-06   3.259408053588237e-07   3.09045022501249e-06
-1.615205551235684e-06   3.259408053588237e-07   3.09045022501249e-06
-1.615205551235684e-06   3.259408053588237e-07   3.09045022501249e-06
-9.261277276782208e-07   2.9197993177063064e-07   4.391102168033818e-06
-9.261277276782208e-07   2.9197993177063064e-07   4.391102168033818e-06
-9.261277276782208e-07   2.9197993177063064e-07   4.391102168033818e-06
-9.261277276782208e-07   2.9197993177063064e-07   4.391102168033818e-06
-2.3741565599418716e-06   2.66384813395979e-07   1.962363709902967e-06
-2.3741565599418716e-06   2.66384813395979e-07   1.962363709902967e-06
-2.3741565599418716e-06   2.66384813395979e-07   1.962363709902967e-06
-2.3741565599418716e-06   2.66384813395979e-07   1.962363709902967e-06
-2.4318382225340544e-06   2.1775448678414003e-07   4.4381457468879205e-06
-2.4318382225340544e-06   2.1775448678414003e-07   4.4381457468879205e-06
-2.4318382225340544e-06   2.1775448678414003e-07   4.4381457468879205e-06
-2.4318382225340544e-06   2.1775448678414003e-07   4.4381457468879205e-06
-9.86468921536038e-07   1.894983942975334e-07   2.0461505673832417e-06
-9.86468921536038e-07   1.894983942975334e-07   2.0461505673832417e-06
-9.86468921536038e-07   1.894983942975334e-07   2.0461505673832417e-06
-9.86468921536038e-07   1.894983942975334e-07   2.0461505673832417e-06
-1.669065821787425e-06   2.6652254354834885e-07   3.137597578251775e-06
-1.669065821787425e-06   2.6652254354834885e-07   3.137597578251775e-06
-1.669065821787425e-06   2.6652254354834885e-07   3.137597578251775e-06
-1.669065821787425e-06   2.6652254354834885e-07   3.137597578251775e-06
-2.258249715900567e-06   7.828640637337918e-07   3.888403040327526e-06
-2.258249715900567e-06   7.828640637337918e-07   3.888403040327526e-06
-2.258249715900567e-06   7.828640637337918e-07   3.888403040327526e-06
-2.258249715900567e-06   7.828640637337918e-07   3.888403040327526e-06
-3.6950016227063886e-06   6.509663685519548e-07   1.4146779118753952e-06
-3.6950016227063886e-06   6.509663685519548e-07   1.4146779118753952e-06
-3.6950016227063886e-06   6.509663685519548e-07   1.4146779118753952e-06
-3.6950016227063886e-06   6.509663685519548e-07   1.4146779118753952e-06
-3.7579847848702596e-06   7.077901408547821e-07   3.821080090924604e-06
-3.7579847848702596e-06   7.077901408547821e-07   3.821080090924604e-06
-3.7579847848702596e-06   7.077901408547821e-07   3.821080090924604e-06
-3.7579847848702596e-06   7.077901408547821e-07   3.821080090924604e-06
-2.3153893959489273e-06   5.698862049792334e-07   1.4994968042477314e-06
-2.3153893959489273e-06   5.698862049792334e-07   1.4994968042477314e-06
-2.3153893959489273e-06   5.698862049792334e-07   1.4994968042477314e-06
-2.3153893959489273e-06   5.698862049792334e-07   1.4994968042477314e-06
-2.999120027748716e-06   6.642323593567911e-07   2.5824401646210162e-06
-2.999120027748716e-06   6.642323593567911e-07   2.5824401646210162e-06
-2.999120027748716e-06   6.642323593567911e-07   2.5824401646210162e-06
-2.999120027748716e-06   6.642323593567911e-07   2.5824401646210162e-06
-2.315389395948934e-06   7.077901408547821e-07   3.903822452449928e-06
-2.315389395948934e-06   7.077901408547821e-07   3.903822452449928e-06
-2.315389395948934e-06   7.077901408547821e-07   3.903822452449928e-06
-2.315389395948934e-06   7.077901408547821e-07   3.903822452449928e-06
-3.757984784870253e-06   5.698862049792605e-07   1.4167544427224414e-06
-3.757984784870253e-06   5.698862049792605e-07   1.4167544427224414e-06
-3.757984784870253e-06   5.698862049792605e-07   1.4167544427224414e-06
-3.757984784870253e-06   5.698862049792605e-07   1.4167544427224414e-06
-3.831732966943499e-06   6.36728722493439e-07   3.945671301090769e-06
-3.831732966943499e-06   6.36728722493439e-07   3.945671301090769e-06
-3.831732966943499e-06   6.36728722493439e-07   3.945671301090769e-06
-3.831732966943499e-06   6.36728722493439e-07   3.945671301090769e-06
-2.374156559941868e-06   4.948144900684341e-07   1.6015258288763792e-06
-2.374156559941868e-06   4.948144900684341e-07   1.6015258288763792e-06
-2.374156559941868e-06   4.948144900684341e-07   1.6015258288763792e-06
-2.374156559941868e-06   4.948144900684341e-07   1.6015258288763792e-06
-3.037739613030551e-06   6.076291154979399e-07   2.6398088087664753e-06
-3.037739613030551e-06   6.076291154979399e-07   2.6398088087664753e-06
-3.037739613030551e-06   6.076291154979399e-07   2.6398088087664753e-06
-3.037739613030551e-06   6.076291154979399e-07   2.6398088087664753e-06
-2.3741565599418716e-06   6.36728722493439e-07   4.030819840545712e-06
-2.3741565599418716e-06   6.36728722493439e-07   4.030819840545712e-06
-2.3741565599418716e-06   6.36728722493439e-07   4.030819840545712e-06
-2.3741565599418716e-06   6.36728722493439e-07   4.030819840545712e-06
-3.831732966943485e-06   4.948144900684341e-07   1.516377289421368e-06
-3.831732966943485e-06   4.948144900684341e-07   1.516377289421368e-06
-3.831732966943485e-06   4.948144900684341e-07   1.516377289421368e-06
-3.831732966943485e-06   4.948144900684341e-07   1.516377289421368e-06
-3.89395609237084e-06   5.557174063344902e-07   4.060589911179379e-06
-3.89395609237084e-06   5.557174063344902e-07   4.060589911179379e-06
-3.89395609237084e-06   5.557174063344902e-07   4.060589911179379e-06
-3.89395609237084e-06   5.557174063344902e-07   4.060589911179379e-06
-2.4318382225340476e-06   4.1315464461072677e-07   1.7092644518190586e-06
-2.4318382225340476e-06   4.1315464461072677e-07   1.7092644518190586e-06
-2.4318382225340476e-06   4.1315464461072677e-07   1.7092644518190586e-06
-2.4318382225340476e-06   4.1315464461072677e-07   1.7092644518190586e-06
-3.1082670495009156e-06   5.493945770103858e-07   2.7549018706575084e-06
-3.1082670495009156e-06   5.493945770103858e-07   2.7549018706575084e-06
-3.1082670495009156e-06   5.493945770103858e-07   2.7549018706575084e-06
-3.1082670495009156e-06   5.493945770103858e-07   2.7549018706575084e-06
-3.695001622706402e-06   1.0502074571683317e-06   1.8504389501395734e-06
-3.695001622706402e-06   1.0502074571683317e-06   1.8504389501395734e-06
-3.695001622706402e-06   1.0502074571683317e-06   1.8504389501395734e-06
-3.695001622706402e-06   1.0502074571683317e-06   1.8504389501395734e-06
-5.034120466998654e-06   8.231511731689558e-07   -5.176595607471322e-07
-5.034120466998654e-06   8.231511731689558e-07   -5.176595607471322e-07
-5.034120466998654e-06   8.231511731689558e-07   -5.176595607471322e-07
-5.034120466998654e-06   8.231511731689558e-07   -5.176595607471322e-07
-5.1974668628985445e-06   1.0301983524987142e-06   2.308690657692135e-06
-5.1974668628985445e-06   1.0301983524987142e-06   2.308690657692135e-06
-5.1974668628985445e-06   1.0301983524987142e-06   2.308690657692135e-06
-5.1974668628985445e-06   1.0301983524987142e-06   2.308690657692135e-06
-3.757984784870246e-06   7.838301260127659e-07   5.7374796869920754e-08
-3.757984784870246e-06   7.838301260127659e-07   5.7374796869920754e-08
-3.757984784870246e-06   7.838301260127659e-07   5.7374796869920754e-08
-3.757984784870246e-06   7.838301260127659e-07   5.7374796869920754e-08
-4.258959927444379e-06   9.018728962439308e-07   8.215077056882795e-07
-4.258959927444379e-06   9.018728962439308e-07   8.215077056882795e-07
-4.258959927444379e-06   9.018728962439308e-07   8.215077056882795e-07
-4.258959927444379e-06   9.018728962439308e-07   8.215077056882795e-07
-3.757984784870246e-06   1.0301983524987142e-06   2.456511593583704e-06
-3.757984784870246e-06   1.0301983524987142e-06   2.456511593583704e-06
-3.757984784870246e-06   1.0301983524987142e-06   2.456511593583704e-06
-3.757984784870246e-06   1.0301983524987142e-06   2.456511593583704e-06
-5.1974668628985445e-06   7.838301260127659e-07   -9.044613902164825e-08
-5.1974668628985445e-06   7.838301260127659e-07   -9.044613902164825e-08
-5.1974668628985445e-06   7.838301260127659e-07   -9.044613902164825e-08
-5.1974668628985445e-06   7.838301260127659e-07   -9.044613902164825e-08
-5.336183876965531e-06   9.997175378916338e-07   2.7344311978931785e-06
-5.336183876965531e-06   9.997175378916338e-07   2.7344311978931785e-06
-5.336183876965531e-06   9.997175378916338e-07   2.7344311978931785e-06
-5.336183876965531e-06   9.997175378916338e-07   2.7344311978931785e-06
-3.831732966943485e-06   7.482020916958223e-07   3.779222822406094e-07
-3.831732966943485e-06   7.482020916958223e-07   3.779222822406094e-07
-3.831732966943485e-06   7.482020916958223e-07   3.779222822406094e-07
-3.831732966943485e-06   7.482020916958223e-07   3.779222822406094e-07
-4.419991463943961e-06   8.93521873858872e-07   1.271161241276985e-06
-4.419991463943961e-06   8.93521873858872e-07   1.271161241276985e-06
-4.419991463943961e-06   8.93521873858872e-07   1.271161241276985e-06
-4.419991463943961e-06   8.93521873858872e-07   1.271161241276985e-06
-3.831732966943492e-06   9.997175378916338e-07   2.885340465610698e-06
-3.831732966943492e-06   9.997175378916338e-07   2.885340465610698e-06
-3.831732966943492e-06   9.997175378916338e-07   2.885340465610698e-06
-3.831732966943492e-06   9.997175378916338e-07   2.885340465610698e-06
-5.336183876965531e-06   7.482020916958223e-07   2.270130145231306e-07
-5.336183876965531e-06   7.482020916958223e-07   2.270130145231306e-07
-5.336183876965531e-06   7.482020916958223e-07   2.270130145231306e-07
-5.336183876965531e-06   7.482020916958223e-07   2.270130145231306e-07
-5.500071619434563e-06   8.9273582901586e-07   3.4820574750489357e-06
-5.500071619434563e-06   8.9273582901586e-07   3.4820574750489357e-06
-5.500071619434563e-06   8.9273582901586e-07   3.4820574750489357e-06
-5.500071619434563e-06   8.9273582901586e-07   3.4820574750489357e-06
-3.893956092370827e-06   6.467803162168951e-07   9.527715709554426e-07
-3.893956092370827e-06   6.467803162168951e-07   9.527715709554426e-07
-3.893956092370827e-06   6.467803162168951e-07   9.527715709554426e-07
-3.893956092370827e-06   6.467803162168951e-07   9.527715709554426e-07
-4.451301504424924e-06   8.473775558632017e-07   1.7613222472578888e-06
-4.451301504424924e-06   8.473775558632017e-07   1.7613222472578888e-06
-4.451301504424924e-06   8.473775558632017e-07   1.7613222472578888e-06
-4.451301504424924e-06   8.473775558632017e-07   1.7613222472578888e-06
7.388443027161405e-07   -3.506292549064634e-08   2.335582476942612e-06
7.388443027161405e-07   -3.506292549064634e-08   2.335582476942612e-06
7.388443027161405e-07   -3.506292549064634e-08   2.335582476942612e-06
7.388443027161405e-07   -3.506292549064634e-08   2.335582476942612e-06
-2.8336952891682434e-07   1.9543469444540437e-07   7.701913295159592e-07
-2.8336952891682434e-07   1.9543469444540437e-07   7.701913295159592e-07
-2.8336952891682434e-07   1.9543469444540437e-07   7.701913295159592e-07
-2.8336952891682434e-07   1.9543469444540437e-07   7.701913295159592e-07
-3.3445488502667356e-07   -1.1756351072180794e-07   2.268738937803239e-06
-3.3445488502667356e-07   -1.1756351072180794e-07   2.268738937803239e-06
-3.3445488502667356e-07   -1.1756351072180794e-07   2.268738937803239e-06
-3.3445488502667356e-07   -1.1756351072180794e-07   2.268738937803239e-06
5.868042785301779e-07   1.181865611504134e-07   5.9185695541848e-07
5.868042785301779e-07   1.181865611504134e-07   5.9185695541848e-07
5.868042785301779e-07   1.181865611504134e-07   5.9185695541848e-07
5.868042785301779e-07   1.181865611504134e-07   5.9185695541848e-07
1.4530663316925405e-07   2.600626504284929e-08   1.3829945420179012e-06
1.4530663316925405e-07   2.600626504284929e-08   1.3829945420179012e-06
1.4530663316925405e-07   2.600626504284929e-08   1.3829945420179012e-06
1.4530663316925405e-07   2.600626504284929e-08   1.3829945420179012e-06
5.868042785301779e-07   -1.1756351072180794e-07   2.1272888946798817e-06
5.868042785301779e-07   -1.1756351072180794e-07   2.1272888946798817e-06
5.868042785301779e-07   -1.1756351072180794e-07   2.1272888946798817e-06
5.868042785301779e-07   -1.1756351072180794e-07   2.1272888946798817e-06
-3.3445488502667356e-07   1.181865611504134e-07   7.333069985418305e-07
-3.3445488502667356e-07   1.181865611504134e-07   7.333069985418305e-07
-3.3445488502667356e-07   1.181865611504134e-07   7.333069985418305e-07
-3.3445488502667356e-07   1.181865611504134e-07   7.333069985418305e-07
-3.9826350067152964e-07   -1.510723676087782e-07   2.18724040911911e-06
-3.9826350067152964e-07   -1.510723676087782e-07   2.18724040911911e-06
-3.9826350067152964e-07   -1.510723676087782e-07   2.18724040911911e-06
-3.9826350067152964e-07   -1.510723676087782e-07   2.18724040911911e-06
4.530377179070436e-07   7.859157257026229e-08   6.306066807140607e-07
4.530377179070436e-07   7.859157257026229e-08   6.306066807140607e-07
4.530377179070436e-07   7.859157257026229e-08   6.306066807140607e-07
4.530377179070436e-07   7.859157257026229e-08   6.306066807140607e-07
6.630852045501307e-08   -6.686486926237066e-09   1.326322178831989e-06
6.630852045501307e-08   -6.686486926237066e-09   1.326322178831989e-06
6.630852045501307e-08   -6.686486926237066e-09   1.326322178831989e-06
6.630852045501307e-08   -6.686486926237066e-09   1.326322178831989e-06
4.530377179070436e-07   -1.510723676088053e-07   2.0494420450116587e-06
4.530377179070436e-07   -1.510723676088053e-07   2.0494420450116587e-06
4.530377179070436e-07   -1.510723676088053e-07   2.0494420450116587e-06
4.530377179070436e-07   -1.510723676088053e-07   2.0494420450116587e-06
-3.982635006715288e-07   7.859157257026229e-08   7.68405044821485e-07
-3.982635006715288e-07   7.859157257026229e-08   7.68405044821485e-07
-3.982635006715288e-07   7.859157257026229e-08   7.68405044821485e-07
-3.982635006715288e-07   7.859157257026229e-08   7.68405044821485e-07
-4.5277957646468456e-07   -2.0298777389225774e-07   2.1256402131159983e-06
-4.5277957646468456e-07   -2.0298777389225774e-07   2.1256402131159983e-06
-4.5277957646468456e-07   -2.0298777389225774e-07   2.1256402131159983e-06
-4.5277957646468456e-07   -2.0298777389225774e-07   2.1256402131159983e-06
2.8377178865941037e-07   -2.5537152910707055e-09   7.777941694151562e-07
2.8377178865941037e-07   -2.5537152910707055e-09   7.777941694151562e-07
2.8377178865941037e-07   -2.5537152910707055e-09   7.777941694151562e-07
2.8377178865941037e-07   -2.5537152910707055e-09   7.777941694151562e-07
-2.909168625197407e-08   -3.236282796037341e-08   1.3171187618690247e-06
-2.909168625197407e-08   -3.236282796037341e-08   1.3171187618690247e-06
-2.909168625197407e-08   -3.236282796037341e-08   1.3171187618690247e-06
-2.909168625197407e-08   -3.236282796037341e-08   1.3171187618690247e-06
-2.8336952891682434e-07   2.1476238042637558e-07   3.582325866958438e-06
-2.8336952891682434e-07   2.1476238042637558e-07   3.582325866958438e-06
-2.8336952891682434e-07   2.1476238042637558e-07   3.582325866958438e-06
-2.8336952891682434e-07   2.1476238042637558e-07   3.582325866958438e-06
-1.1331820174544475e-06   2.6582075988017023e-07   2.196606747068011e-06
-1.1331820174544475e-06   2.6582075988017023e-07   2.196606747068011e-06
-1.1331820174544475e-06   2.6582075988017023e-07   2.196606747068011e-06
-1.1331820174544475e-06   2.6582075988017023e-07   2.196606747068011e-06
-1.173181726938155e-06   1.2428065357915352e-07   3.567114291851443e-06
-1.173181726938155e-06   1.2428065357915352e-07   3.567114291851443e-06
-1.173181726938155e-06   1.2428065357915352e-07   3.567114291851443e-06
-1.173181726938155e-06   1.2428065357915352e-07   3.567114291851443e-06
-3.3445488502667356e-07   1.8113398490886496e-07   2.1351242232011267e-06
-3.3445488502667356e-07   1.8113398490886496e-07   2.1351242232011267e-06
-3.3445488502667356e-07   1.8113398490886496e-07   2.1351242232011267e-06
-3.3445488502667356e-07   1.8113398490886496e-07   2.1351242232011267e-06
-7.384181424441197e-07   1.8501885584867135e-07   2.8060653963329953e-06
-7.384181424441197e-07   1.8501885584867135e-07   2.8060653963329953e-06
-7.384181424441197e-07   1.8501885584867135e-07   2.8060653963329953e-06
-7.384181424441197e-07   1.8501885584867135e-07   2.8060653963329953e-06
-3.3445488502667356e-07   1.2428065357915352e-07   3.5330022930535863e-06
-3.3445488502667356e-07   1.2428065357915352e-07   3.5330022930535863e-06
-3.3445488502667356e-07   1.2428065357915352e-07   3.5330022930535863e-06
-3.3445488502667356e-07   1.2428065357915352e-07   3.5330022930535863e-06
-1.1731817269381517e-06   1.8113398490886496e-07   2.169236221998951e-06
-1.1731817269381517e-06   1.8113398490886496e-07   2.169236221998951e-06
-1.1731817269381517e-06   1.8113398490886496e-07   2.169236221998951e-06
-1.1731817269381517e-06   1.8113398490886496e-07   2.169236221998951e-06
-1.2146504891820628e-06   4.96308200505593e-08   3.5610506401691976e-06
-1.2146504891820628e-06   4.96308200505593e-08   3.5610506401691976e-06
-1.2146504891820628e-06   4.96308200505593e-08   3.5610506401691976e-06
-1.2146504891820628e-06   4.96308200505593e-08   3.5610506401691976e-06
-3.982635006715288e-07   1.0559483330834169e-07   2.166827251363654e-06
-3.982635006715288e-07   1.0559483330834169e-07   2.166827251363654e-06
-3.982635006715288e-07   1.0559483330834169e-07   2.166827251363654e-06
-3.982635006715288e-07   1.0559483330834169e-07   2.166827251363654e-06
-7.797240152251417e-07   1.2469415974672004e-07   2.791135179756692e-06
-7.797240152251417e-07   1.2469415974672004e-07   2.791135179756692e-06
-7.797240152251417e-07   1.2469415974672004e-07   2.791135179756692e-06
-7.797240152251417e-07   1.2469415974672004e-07   2.791135179756692e-06
-3.9826350067152964e-07   4.963082005058641e-08   3.52747223221455e-06
-3.9826350067152964e-07   4.963082005058641e-08   3.52747223221455e-06
-3.9826350067152964e-07   4.963082005058641e-08   3.52747223221455e-06
-3.9826350067152964e-07   4.963082005058641e-08   3.52747223221455e-06
-1.2146504891820628e-06   1.0559483330834169e-07   2.2004056593183103e-06
-1.2146504891820628e-06   1.0559483330834169e-07   2.2004056593183103e-06
-1.2146504891820628e-06   1.0559483330834169e-07   2.2004056593183103e-06
-1.2146504891820628e-06   1.0559483330834169e-07   2.2004056593183103e-06
-1.2558866308481342e-06   -2.416781258619957e-08   3.617198944990218e-06
-1.2558866308481342e-06   -2.416781258619957e-08   3.617198944990218e-06
-1.2558866308481342e-06   -2.416781258619957e-08   3.617198944990218e-06
-1.2558866308481342e-06   -2.416781258619957e-08   3.617198944990218e-06
-4.5277957646468456e-07   2.65549459303033e-08   2.2482535325745727e-06
-4.5277957646468456e-07   2.65549459303033e-08   2.2482535325745727e-06
-4.5277957646468456e-07   2.65549459303033e-08   2.2482535325745727e-06
-4.5277957646468456e-07   2.65549459303033e-08   2.2482535325745727e-06
-8.20027846632326e-07   6.792815569105562e-08   2.8355100569975154e-06
-8.20027846632326e-07   6.792815569105562e-08   2.8355100569975154e-06
-8.20027846632326e-07   6.792815569105562e-08   2.8355100569975154e-06
-8.20027846632326e-07   6.792815569105562e-08   2.8355100569975154e-06
-1.133182017454444e-06   4.285890335868972e-07   4.010436586743209e-06
-1.133182017454444e-06   4.285890335868972e-07   4.010436586743209e-06
-1.133182017454444e-06   4.285890335868972e-07   4.010436586743209e-06
-1.133182017454444e-06   4.285890335868972e-07   4.010436586743209e-06
-1.9653649722261598e-06   3.361872314592369e-07   2.568023914180423e-06
-1.9653649722261598e-06   3.361872314592369e-07   2.568023914180423e-06
-1.9653649722261598e-06   3.361872314592369e-07   2.568023914180423e-06
-1.9653649722261598e-06   3.361872314592369e-07   2.568023914180423e-06
-2.0001914456988133e-06   3.472480788742718e-07   3.935594406385761e-06
-2.0001914456988133e-06   3.472480788742718e-07   3.935594406385761e-06
-2.0001914456988133e-06   3.472480788742718e-07   3.935594406385761e-06
-2.0001914456988133e-06   3.472480788742718e-07   3.935594406385761e-06
-1.1731817269381517e-06   2.5979648341333396e-07   2.609715832394562e-06
-1.1731817269381517e-06   2.5979648341333396e-07   2.609715832394562e-06
-1.1731817269381517e-06   2.5979648341333396e-07   2.609715832394562e-06
-1.1731817269381517e-06   2.5979648341333396e-07   2.609715832394562e-06
-1.5697866321837396e-06   3.3416090761909795e-07   3.226105353280393e-06
-1.5697866321837396e-06   3.3416090761909795e-07   3.226105353280393e-06
-1.5697866321837396e-06   3.3416090761909795e-07   3.226105353280393e-06
-1.5697866321837396e-06   3.3416090761909795e-07   3.226105353280393e-06
-1.1731817269381517e-06   3.472480788742718e-07   3.988065363662335e-06
-1.1731817269381517e-06   3.472480788742718e-07   3.988065363662335e-06
-1.1731817269381517e-06   3.472480788742718e-07   3.988065363662335e-06
-1.1731817269381517e-06   3.472480788742718e-07   3.988065363662335e-06
-2.0001914456988133e-06   2.5979648341333396e-07   2.557244875118002e-06
-2.0001914456988133e-06   2.5979648341333396e-07   2.557244875118002e-06
-2.0001914456988133e-06   2.5979648341333396e-07   2.557244875118002e-06
-2.0001914456988133e-06   2.5979648341333396e-07   2.557244875118002e-06
-2.03713333956953e-06   2.66384813395979e-07   3.967343504163927e-06
-2.03713333956953e-06   2.66384813395979e-07   3.967343504163927e-06
-2.03713333956953e-06   2.66384813395979e-07   3.967343504163927e-06
-2.03713333956953e-06   2.66384813395979e-07   3.967343504163927e-06
-1.2146504891820628e-06   1.8237480759857863e-07   2.646944756996554e-06
-1.2146504891820628e-06   1.8237480759857863e-07   2.646944756996554e-06
-1.2146504891820628e-06   1.8237480759857863e-07   2.646944756996554e-06
-1.2146504891820628e-06   1.8237480759857863e-07   2.646944756996554e-06
-1.5996045226759492e-06   2.741232005034331e-07   3.2334857770768293e-06
-1.5996045226759492e-06   2.741232005034331e-07   3.2334857770768293e-06
-1.5996045226759492e-06   2.741232005034331e-07   3.2334857770768293e-06
-1.5996045226759492e-06   2.741232005034331e-07   3.2334857770768293e-06
-1.2146504891820628e-06   2.66384813395979e-07   4.0177495076423235e-06
-1.2146504891820628e-06   2.66384813395979e-07   4.0177495076423235e-06
-1.2146504891820628e-06   2.66384813395979e-07   4.0177495076423235e-06
-1.2146504891820628e-06   2.66384813395979e-07   4.0177495076423235e-06
-2.0371333395695232e-06   1.8237480759860573e-07   2.5965387535181503e-06
-2.0371333395695232e-06   1.8237480759860573e-07   2.5965387535181503e-06
-2.0371333395695232e-06   1.8237480759860573e-07   2.5965387535181503e-06
-2.0371333395695232e-06   1.8237480759860573e-07   2.5965387535181503e-06
-2.073335805258009e-06   1.894983942975334e-07   4.040210260186183e-06
-2.073335805258009e-06   1.894983942975334e-07   4.040210260186183e-06
-2.073335805258009e-06   1.894983942975334e-07   4.040210260186183e-06
-2.073335805258009e-06   1.894983942975334e-07   4.040210260186183e-06
-1.2558866308481342e-06   1.1002080814651711e-07   2.7254815211936645e-06
-1.2558866308481342e-06   1.1002080814651711e-07   2.7254815211936645e-06
-1.2558866308481342e-06   1.1002080814651711e-07   2.7254815211936645e-06
-1.2558866308481342e-06   1.1002080814651711e-07   2.7254815211936645e-06
-1.6327462282685044e-06   2.154174561012868e-07   3.290342861454767e-06
-1.6327462282685044e-06   2.154174561012868e-07   3.290342861454767e-06
-1.6327462282685044e-06   2.154174561012868e-07   3.290342861454767e-06
-1.6327462282685044e-06   2.154174561012868e-07   3.290342861454767e-06
-1.9653649722261733e-06   6.509663685519819e-07   3.487646187827804e-06
-1.9653649722261733e-06   6.509663685519819e-07   3.487646187827804e-06
-1.9653649722261733e-06   6.509663685519819e-07   3.487646187827804e-06
-1.9653649722261733e-06   6.509663685519819e-07   3.487646187827804e-06
-2.790805377022829e-06   4.657850024080237e-07   2.0008033601469753e-06
-2.790805377022829e-06   4.657850024080237e-07   2.0008033601469753e-06
-2.790805377022829e-06   4.657850024080237e-07   2.0008033601469753e-06
-2.790805377022829e-06   4.657850024080237e-07   2.0008033601469753e-06
-2.829404246584777e-06   5.698862049792605e-07   3.3882997420256087e-06
-2.829404246584777e-06   5.698862049792605e-07   3.3882997420256087e-06
-2.829404246584777e-06   5.698862049792605e-07   3.3882997420256087e-06
-2.829404246584777e-06   5.698862049792605e-07   3.3882997420256087e-06
-2.0001914456988133e-06   3.856696149656257e-07   2.11680836122387e-06
-2.0001914456988133e-06   3.856696149656257e-07   2.11680836122387e-06
-2.0001914456988133e-06   3.856696149656257e-07   2.11680836122387e-06
-2.0001914456988133e-06   3.856696149656257e-07   2.11680836122387e-06
-2.3913091278265213e-06   5.107612442111745e-07   2.6936161872227158e-06
-2.3913091278265213e-06   5.107612442111745e-07   2.6936161872227158e-06
-2.3913091278265213e-06   5.107612442111745e-07   2.6936161872227158e-06
-2.3913091278265213e-06   5.107612442111745e-07   2.6936161872227158e-06
-2.0001914456988133e-06   5.698862049792605e-07   3.4988296960338004e-06
-2.0001914456988133e-06   5.698862049792605e-07   3.4988296960338004e-06
-2.0001914456988133e-06   5.698862049792605e-07   3.4988296960338004e-06
-2.0001914456988133e-06   5.698862049792605e-07   3.4988296960338004e-06
-2.8294042465847703e-06   3.856696149656257e-07   2.006278407215678e-06
-2.8294042465847703e-06   3.856696149656257e-07   2.006278407215678e-06
-2.8294042465847703e-06   3.856696149656257e-07   2.006278407215678e-06
-2.8294042465847703e-06   3.856696149656257e-07   2.006278407215678e-06
-2.880751321727488e-06   4.948144900684341e-07   3.497625117581868e-06
-2.880751321727488e-06   4.948144900684341e-07   3.497625117581868e-06
-2.880751321727488e-06   4.948144900684341e-07   3.497625117581868e-06
-2.880751321727488e-06   4.948144900684341e-07   3.497625117581868e-06
-2.03713333956953e-06   3.1334698080931435e-07   2.200475652874109e-06
-2.03713333956953e-06   3.1334698080931435e-07   2.200475652874109e-06
-2.03713333956953e-06   3.1334698080931435e-07   2.200475652874109e-06
-2.03713333956953e-06   3.1334698080931435e-07   2.200475652874109e-06
-2.412140324337643e-06   4.5264914499303695e-07   2.7419059956440464e-06
-2.412140324337643e-06   4.5264914499303695e-07   2.7419059956440464e-06
-2.412140324337643e-06   4.5264914499303695e-07   2.7419059956440464e-06
-2.412140324337643e-06   4.5264914499303695e-07   2.7419059956440464e-06
-2.03713333956953e-06   4.948144900684341e-07   3.6065056231373048e-06
-2.03713333956953e-06   4.948144900684341e-07   3.6065056231373048e-06
-2.03713333956953e-06   4.948144900684341e-07   3.6065056231373048e-06
-2.03713333956953e-06   4.948144900684341e-07   3.6065056231373048e-06
-2.8807513217274814e-06   3.1334698080931435e-07   2.091595147318618e-06
-2.8807513217274814e-06   3.1334698080931435e-07   2.091595147318618e-06
-2.8807513217274814e-06   3.1334698080931435e-07   2.091595147318618e-06
-2.8807513217274814e-06   3.1334698080931435e-07   2.091595147318618e-06
-2.921450929799937e-06   4.1315464461072677e-07   3.6155152942384298e-06
-2.921450929799937e-06   4.1315464461072677e-07   3.6155152942384298e-06
-2.921450929799937e-06   4.1315464461072677e-07   3.6155152942384298e-06
-2.921450929799937e-06   4.1315464461072677e-07   3.6155152942384298e-06
-2.073335805258009e-06   2.3855046815156387e-07   2.3067525925440718e-06
-2.073335805258009e-06   2.3855046815156387e-07   2.3067525925440718e-06
-2.073335805258009e-06   2.3855046815156387e-07   2.3067525925440718e-06
-2.073335805258009e-06   2.3855046815156387e-07   2.3067525925440718e-06
-2.455773589446881e-06   3.96163334263162e-07   2.8495811798586324e-06
-2.455773589446881e-06   3.96163334263162e-07   2.8495811798586324e-06
-2.455773589446881e-06   3.96163334263162e-07   2.8495811798586324e-06
-2.455773589446881e-06   3.96163334263162e-07   2.8495811798586324e-06
-2.790805377022829e-06   8.231511731689287e-07   1.5804336659184782e-06
-2.790805377022829e-06   8.231511731689287e-07   1.5804336659184782e-06
-2.790805377022829e-06   8.231511731689287e-07   1.5804336659184782e-06
-2.790805377022829e-06   8.231511731689287e-07   1.5804336659184782e-06
-3.4906541638620315e-06   5.699114746797636e-07   2.6207520209295767e-07
-3.4906541638620315e-06   5.699114746797636e-07   2.6207520209295767e-07
-3.4906541638620315e-06   5.699114746797636e-07   2.6207520209295767e-07
-3.4906541638620315e-06   5.699114746797636e-07   2.6207520209295767e-07
-3.630462662105856e-06   7.838301260127388e-07   1.8687594482312748e-06
-3.630462662105856e-06   7.838301260127388e-07   1.8687594482312748e-06
-3.630462662105856e-06   7.838301260127388e-07   1.8687594482312748e-06
-3.630462662105856e-06   7.838301260127388e-07   1.8687594482312748e-06
-2.8294042465847703e-06   5.168957127764037e-07   6.938227369712854e-07
-2.8294042465847703e-06   5.168957127764037e-07   6.938227369712854e-07
-2.8294042465847703e-06   5.168957127764037e-07   6.938227369712854e-07
-2.8294042465847703e-06   5.168957127764037e-07   6.938227369712854e-07
-3.0735413210742684e-06   6.629490834901986e-07   1.0130858386921642e-06
-3.0735413210742684e-06   6.629490834901986e-07   1.0130858386921642e-06
-3.0735413210742684e-06   6.629490834901986e-07   1.0130858386921642e-06
-3.0735413210742684e-06   6.629490834901986e-07   1.0130858386921642e-06
-2.8294042465847703e-06   7.838301260127388e-07   2.028920096173054e-06
-2.8294042465847703e-06   7.838301260127388e-07   2.028920096173054e-06
-2.8294042465847703e-06   7.838301260127388e-07   2.028920096173054e-06
-2.8294042465847703e-06   7.838301260127388e-07   2.028920096173054e-06
-3.630462662105856e-06   5.168957127764037e-07   5.336620890294925e-07
-3.630462662105856e-06   5.168957127764037e-07   5.336620890294925e-07
-3.630462662105856e-06   5.168957127764037e-07   5.336620890294925e-07
-3.630462662105856e-06   5.168957127764037e-07   5.336620890294925e-07
-3.7489869580382236e-06   7.482020916958223e-07   2.1979622063003743e-06
-3.7489869580382236e-06   7.482020916958223e-07   2.1979622063003743e-06
-3.7489869580382236e-06   7.482020916958223e-07   2.1979622063003743e-06
-3.7489869580382236e-06   7.482020916958223e-07   2.1979622063003743e-06
-2.880751321727488e-06   4.795222515279461e-07   9.121107165498544e-07
-2.880751321727488e-06   4.795222515279461e-07   9.121107165498544e-07
-2.880751321727488e-06   4.795222515279461e-07   9.121107165498544e-07
-2.880751321727488e-06   4.795222515279461e-07   9.121107165498544e-07
-3.1945871513344395e-06   6.440832812463495e-07   1.3364338147304783e-06
-3.1945871513344395e-06   6.440832812463495e-07   1.3364338147304783e-06
-3.1945871513344395e-06   6.440832812463495e-07   1.3364338147304783e-06
-3.1945871513344395e-06   6.440832812463495e-07   1.3364338147304783e-06
-2.880751321727488e-06   7.482020916958223e-07   2.359170110401089e-06
-2.880751321727488e-06   7.482020916958223e-07   2.359170110401089e-06
-2.880751321727488e-06   7.482020916958223e-07   2.359170110401089e-06
-2.880751321727488e-06   7.482020916958223e-07   2.359170110401089e-06
-3.748986958038237e-06   4.795222515279461e-07   7.509028124491667e-07
-3.748986958038237e-06   4.795222515279461e-07   7.509028124491667e-07
-3.748986958038237e-06   4.795222515279461e-07   7.509028124491667e-07
-3.748986958038237e-06   4.795222515279461e-07   7.509028124491667e-07
-3.89657808248894e-06   6.467803162168951e-07   2.7898624697974606e-06
-3.89657808248894e-06   6.467803162168951e-07   2.7898624697974606e-06
-3.89657808248894e-06   6.467803162168951e-07   2.7898624697974606e-06
-3.89657808248894e-06   6.467803162168951e-07   2.7898624697974606e-06
-2.9214509297999304e-06   3.889509818642031e-07   1.3193481492607551e-06
-2.9214509297999304e-06   3.889509818642031e-07   1.3193481492607551e-06
-2.9214509297999304e-06   3.889509818642031e-07   1.3193481492607551e-06
-2.9214509297999304e-06   3.889509818642031e-07   1.3193481492607551e-06
-3.2248962218649587e-06   6.014890583331677e-07   1.6975674568210826e-06
-3.2248962218649587e-06   6.014890583331677e-07   1.6975674568210826e-06
-3.2248962218649587e-06   6.014890583331677e-07   1.6975674568210826e-06
-3.2248962218649587e-06   6.014890583331677e-07   1.6975674568210826e-06
-9.616013811158073e-07   1.9543469444540437e-07   1.7584289099885727e-06
-9.616013811158073e-07   1.9543469444540437e-07   1.7584289099885727e-06
-9.616013811158073e-07   1.9543469444540437e-07   1.7584289099885727e-06
-9.616013811158073e-07   1.9543469444540437e-07   1.7584289099885727e-06
-1.2555977822568086e-06   4.062665710331874e-07   1.3949340340396e-06
-1.2555977822568086e-06   4.062665710331874e-07   1.3949340340396e-06
-1.2555977822568086e-06   4.062665710331874e-07   1.3949340340396e-06
-1.2555977822568086e-06   4.062665710331874e-07   1.3949340340396e-06
-1.298148373839847e-06   1.181865611504134e-07   1.8330865101741812e-06
-1.298148373839847e-06   1.181865611504134e-07   1.8330865101741812e-06
-1.298148373839847e-06   1.181865611504134e-07   1.8330865101741812e-06
-1.298148373839847e-06   1.181865611504134e-07   1.8330865101741812e-06
-1.120488302664924e-06   3.099983433330788e-07   1.4218993222397304e-06
-1.120488302664924e-06   3.099983433330788e-07   1.4218993222397304e-06
-1.120488302664924e-06   3.099983433330788e-07   1.4218993222397304e-06
-1.120488302664924e-06   3.099983433330788e-07   1.4218993222397304e-06
-1.13628561911525e-06   2.3683291027875447e-07   1.4921274428228636e-06
-1.13628561911525e-06   2.3683291027875447e-07   1.4921274428228636e-06
-1.13628561911525e-06   2.3683291027875447e-07   1.4921274428228636e-06
-1.13628561911525e-06   2.3683291027875447e-07   1.4921274428228636e-06
-1.1204883026649275e-06   1.1818656115044051e-07   1.7179994408645792e-06
-1.1204883026649275e-06   1.1818656115044051e-07   1.7179994408645792e-06
-1.1204883026649275e-06   1.1818656115044051e-07   1.7179994408645792e-06
-1.1204883026649275e-06   1.1818656115044051e-07   1.7179994408645792e-06
-1.298148373839847e-06   3.099983433330788e-07   1.5369863915493256e-06
-1.298148373839847e-06   3.099983433330788e-07   1.5369863915493256e-06
-1.298148373839847e-06   3.099983433330788e-07   1.5369863915493256e-06
-1.298148373839847e-06   3.099983433330788e-07   1.5369863915493256e-06
-1.3529805668568895e-06   7.859157257026229e-08   1.8587430741727175e-06
-1.3529805668568895e-06   7.859157257026229e-08   1.8587430741727175e-06
-1.3529805668568895e-06   7.859157257026229e-08   1.8587430741727175e-06
-1.3529805668568895e-06   7.859157257026229e-08   1.8587430741727175e-06
-1.2773895630046097e-06   2.4637215158648156e-07   1.6320897203424808e-06
-1.2773895630046097e-06   2.4637215158648156e-07   1.6320897203424808e-06
-1.2773895630046097e-06   2.4637215158648156e-07   1.6320897203424808e-06
-1.2773895630046097e-06   2.4637215158648156e-07   1.6320897203424808e-06
-1.2297173307460808e-06   1.9618347235359824e-07   1.5827492074512843e-06
-1.2297173307460808e-06   1.9618347235359824e-07   1.5827492074512843e-06
-1.2297173307460808e-06   1.9618347235359824e-07   1.5827492074512843e-06
-1.2297173307460808e-06   1.9618347235359824e-07   1.5827492074512843e-06
-1.2773895630046114e-06   7.859157257026229e-08   1.7580747267629371e-06
-1.2773895630046114e-06   7.859157257026229e-08   1.7580747267629371e-06
-1.2773895630046114e-06   7.859157257026229e-08   1.7580747267629371e-06
-1.2773895630046114e-06   7.859157257026229e-08   1.7580747267629371e-06
-1.3529805668568895e-06   2.4637215158648156e-07   1.7327580677522104e-06
-1.3529805668568895e-06   2.4637215158648156e-07   1.7327580677522104e-06
-1.3529805668568895e-06   2.4637215158648156e-07   1.7327580677522104e-06
-1.3529805668568895e-06   2.4637215158648156e-07   1.7327580677522104e-06
-1.3916012873681676e-06   -2.5537152910436005e-09   1.9862700649741453e-06
-1.3916012873681676e-06   -2.5537152910436005e-09   1.9862700649741453e-06
-1.3916012873681676e-06   -2.5537152910436005e-09   1.9862700649741453e-06
-1.3916012873681676e-06   -2.5537152910436005e-09   1.9862700649741453e-06
-1.4459437733372185e-06   9.149520375279668e-08   2.0204115234962196e-06
-1.4459437733372185e-06   9.149520375279668e-08   2.0204115234962196e-06
-1.4459437733372185e-06   9.149520375279668e-08   2.0204115234962196e-06
-1.4459437733372185e-06   9.149520375279668e-08   2.0204115234962196e-06
-1.3063412554323027e-06   1.49975683387478e-07   1.7526523725405203e-06
-1.3063412554323027e-06   1.49975683387478e-07   1.7526523725405203e-06
-1.3063412554323027e-06   1.49975683387478e-07   1.7526523725405203e-06
-1.3063412554323027e-06   1.49975683387478e-07   1.7526523725405203e-06
-1.2555977822568052e-06   2.6582075988017023e-07   3.2807084258210123e-06
-1.2555977822568052e-06   2.6582075988017023e-07   3.2807084258210123e-06
-1.2555977822568052e-06   2.6582075988017023e-07   3.2807084258210123e-06
-1.2555977822568052e-06   2.6582075988017023e-07   3.2807084258210123e-06
-1.397530694103761e-06   1.070485364414311e-07   2.948890238679513e-06
-1.397530694103761e-06   1.070485364414311e-07   2.948890238679513e-06
-1.397530694103761e-06   1.070485364414311e-07   2.948890238679513e-06
-1.397530694103761e-06   1.070485364414311e-07   2.948890238679513e-06
-1.4161964383923347e-06   1.8113398490886496e-07   3.153630035713137e-06
-1.4161964383923347e-06   1.8113398490886496e-07   3.153630035713137e-06
-1.4161964383923347e-06   1.8113398490886496e-07   3.153630035713137e-06
-1.4161964383923347e-06   1.8113398490886496e-07   3.153630035713137e-06
-1.298148373839847e-06   4.567781970828339e-08   3.038156960579354e-06
-1.298148373839847e-06   4.567781970828339e-08   3.038156960579354e-06
-1.298148373839847e-06   4.567781970828339e-08   3.038156960579354e-06
-1.298148373839847e-06   4.567781970828339e-08   3.038156960579354e-06
-1.3404968015281317e-06   1.3035563398116734e-07   3.0579309848294144e-06
-1.3404968015281317e-06   1.3035563398116734e-07   3.0579309848294144e-06
-1.3404968015281317e-06   1.3035563398116734e-07   3.0579309848294144e-06
-1.3404968015281317e-06   1.3035563398116734e-07   3.0579309848294144e-06
-1.298148373839847e-06   1.8113398490886496e-07   3.2349037348334316e-06
-1.298148373839847e-06   1.8113398490886496e-07   3.2349037348334316e-06
-1.298148373839847e-06   1.8113398490886496e-07   3.2349037348334316e-06
-1.298148373839847e-06   1.8113398490886496e-07   3.2349037348334316e-06
-1.4161964383923314e-06   4.567781970828339e-08   2.9568832614589917e-06
-1.4161964383923314e-06   4.567781970828339e-08   2.9568832614589917e-06
-1.4161964383923314e-06   4.567781970828339e-08   2.9568832614589917e-06
-1.4161964383923314e-06   4.567781970828339e-08   2.9568832614589917e-06
-1.4382492809852807e-06   1.0559483330831458e-07   3.181593208053963e-06
-1.4382492809852807e-06   1.0559483330831458e-07   3.181593208053963e-06
-1.4382492809852807e-06   1.0559483330831458e-07   3.181593208053963e-06
-1.4382492809852807e-06   1.0559483330831458e-07   3.181593208053963e-06
-1.3529805668568895e-06   -2.0358621126586088e-08   3.1150507571675406e-06
-1.3529805668568895e-06   -2.0358621126586088e-08   3.1150507571675406e-06
-1.3529805668568895e-06   -2.0358621126586088e-08   3.1150507571675406e-06
-1.3529805668568895e-06   -2.0358621126586088e-08   3.1150507571675406e-06
-1.3622002288328636e-06   8.227619629305359e-08   3.068835970009015e-06
-1.3622002288328636e-06   8.227619629305359e-08   3.068835970009015e-06
-1.3622002288328636e-06   8.227619629305359e-08   3.068835970009015e-06
-1.3622002288328636e-06   8.227619629305359e-08   3.068835970009015e-06
-1.3529805668568895e-06   1.0559483330831458e-07   3.257165280714841e-06
-1.3529805668568895e-06   1.0559483330831458e-07   3.257165280714841e-06
-1.3529805668568895e-06   1.0559483330831458e-07   3.257165280714841e-06
-1.3529805668568895e-06   1.0559483330831458e-07   3.257165280714841e-06
-1.4382492809852773e-06   -2.0358621126586088e-08   3.0394786845066e-06
-1.4382492809852773e-06   -2.0358621126586088e-08   3.0394786845066e-06
-1.4382492809852773e-06   -2.0358621126586088e-08   3.0394786845066e-06
-1.4382492809852773e-06   -2.0358621126586088e-08   3.0394786845066e-06
-1.4574212315906677e-06   2.6554945930276196e-08   3.2581472122689473e-06
-1.4574212315906677e-06   2.6554945930276196e-08   3.2581472122689473e-06
-1.4574212315906677e-06   2.6554945930276196e-08   3.2581472122689473e-06
-1.4574212315906677e-06   2.6554945930276196e-08   3.2581472122689473e-06
-1.3916012873681667e-06   -1.0398135524294048e-07   3.2267690859353477e-06
-1.3916012873681667e-06   -1.0398135524294048e-07   3.2267690859353477e-06
-1.3916012873681667e-06   -1.0398135524294048e-07   3.2267690859353477e-06
-1.3916012873681667e-06   -1.0398135524294048e-07   3.2267690859353477e-06
-1.3915137130327296e-06   2.887320427245963e-08   3.1469103930003085e-06
-1.3915137130327296e-06   2.887320427245963e-08   3.1469103930003085e-06
-1.3915137130327296e-06   2.887320427245963e-08   3.1469103930003085e-06
-1.3915137130327296e-06   2.887320427245963e-08   3.1469103930003085e-06
-1.3975306941037678e-06   3.36187231459264e-07   3.6123033401467755e-06
-1.3975306941037678e-06   3.36187231459264e-07   3.6123033401467755e-06
-1.3975306941037678e-06   3.36187231459264e-07   3.6123033401467755e-06
-1.3975306941037678e-06   3.36187231459264e-07   3.6123033401467755e-06
-1.6057230383093894e-06   3.247732152834729e-08   3.083090153845534e-06
-1.6057230383093894e-06   3.247732152834729e-08   3.083090153845534e-06
-1.6057230383093894e-06   3.247732152834729e-08   3.083090153845534e-06
-1.6057230383093894e-06   3.247732152834729e-08   3.083090153845534e-06
-1.6174573529021812e-06   2.5979648341333396e-07   3.428518803532654e-06
-1.6174573529021812e-06   2.5979648341333396e-07   3.428518803532654e-06
-1.6174573529021812e-06   2.5979648341333396e-07   3.428518803532654e-06
-1.6174573529021812e-06   2.5979648341333396e-07   3.428518803532654e-06
-1.4161964383923314e-06   -1.6188254213441193e-08   3.2586747885923143e-06
-1.4161964383923314e-06   -1.6188254213441193e-08   3.2586747885923143e-06
-1.4161964383923314e-06   -1.6188254213441193e-08   3.2586747885923143e-06
-1.4161964383923314e-06   -1.6188254213441193e-08   3.2586747885923143e-06
-1.5080073061045533e-06   1.462638619289375e-07   3.3142216317605947e-06
-1.5080073061045533e-06   1.462638619289375e-07   3.3142216317605947e-06
-1.5080073061045533e-06   1.462638619289375e-07   3.3142216317605947e-06
-1.5080073061045533e-06   1.462638619289375e-07   3.3142216317605947e-06
-1.4161964383923347e-06   2.5979648341333396e-07   3.594109646108714e-06
-1.4161964383923347e-06   2.5979648341333396e-07   3.594109646108714e-06
-1.4161964383923347e-06   2.5979648341333396e-07   3.594109646108714e-06
-1.4161964383923347e-06   2.5979648341333396e-07   3.594109646108714e-06
-1.6174573529021677e-06   -1.6188254213441193e-08   3.0930839460162546e-06
-1.6174573529021677e-06   -1.6188254213441193e-08   3.0930839460162546e-06
-1.6174573529021677e-06   -1.6188254213441193e-08   3.0930839460162546e-06
-1.6174573529021677e-06   -1.6188254213441193e-08   3.0930839460162546e-06
-1.6324883906961853e-06   1.8237480759860573e-07   3.474173028328103e-06
-1.6324883906961853e-06   1.8237480759860573e-07   3.474173028328103e-06
-1.6324883906961853e-06   1.8237480759860573e-07   3.474173028328103e-06
-1.6324883906961853e-06   1.8237480759860573e-07   3.474173028328103e-06
-1.4382492809852807e-06   -7.42239880748729e-08   3.304400456214007e-06
-1.4382492809852807e-06   -7.42239880748729e-08   3.304400456214007e-06
-1.4382492809852807e-06   -7.42239880748729e-08   3.304400456214007e-06
-1.4382492809852807e-06   -7.42239880748729e-08   3.304400456214007e-06
-1.5165259697797661e-06   9.942611745397158e-08   3.3306715408874024e-06
-1.5165259697797661e-06   9.942611745397158e-08   3.3306715408874024e-06
-1.5165259697797661e-06   9.942611745397158e-08   3.3306715408874024e-06
-1.5165259697797661e-06   9.942611745397158e-08   3.3306715408874024e-06
-1.4382492809852807e-06   1.8237480759860573e-07   3.6281323057321522e-06
-1.4382492809852807e-06   1.8237480759860573e-07   3.6281323057321522e-06
-1.4382492809852807e-06   1.8237480759860573e-07   3.6281323057321522e-06
-1.4382492809852807e-06   1.8237480759860573e-07   3.6281323057321522e-06
-1.6324883906961786e-06   -7.42239880748729e-08   3.1504411788099037e-06
-1.6324883906961786e-06   -7.42239880748729e-08   3.1504411788099037e-06
-1.6324883906961786e-06   -7.42239880748729e-08   3.1504411788099037e-06
-1.6324883906961786e-06   -7.42239880748729e-08   3.1504411788099037e-06
-1.6452554892578376e-06   1.1002080814654421e-07   3.560623363872009e-06
-1.6452554892578376e-06   1.1002080814654421e-07   3.560623363872009e-06
-1.6452554892578376e-06   1.1002080814654421e-07   3.560623363872009e-06
-1.6452554892578376e-06   1.1002080814654421e-07   3.560623363872009e-06
-1.4574212315906643e-06   -1.305094950302993e-07   3.391884449666163e-06
-1.4574212315906643e-06   -1.305094950302993e-07   3.391884449666163e-06
-1.4574212315906643e-06   -1.305094950302993e-07   3.391884449666163e-06
-1.4574212315906643e-06   -1.305094950302993e-07   3.391884449666163e-06
-1.5279886281812247e-06   5.170769815476101e-08   3.4001664614059535e-06
-1.5279886281812247e-06   5.170769815476101e-08   3.4001664614059535e-06
-1.5279886281812247e-06   5.170769815476101e-08   3.4001664614059535e-06
-1.5279886281812247e-06   5.170769815476101e-08   3.4001664614059535e-06
-1.6057230383093894e-06   4.657850024080237e-07   2.9739656598411663e-06
-1.6057230383093894e-06   4.657850024080237e-07   2.9739656598411663e-06
-1.6057230383093894e-06   4.657850024080237e-07   2.9739656598411663e-06
-1.6057230383093894e-06   4.657850024080237e-07   2.9739656598411663e-06
-1.862374715781099e-06   1.5839913728986376e-07   2.361781344984115e-06
-1.862374715781099e-06   1.5839913728986376e-07   2.361781344984115e-06
-1.862374715781099e-06   1.5839913728986376e-07   2.361781344984115e-06
-1.862374715781099e-06   1.5839913728986376e-07   2.361781344984115e-06
-1.873627901813823e-06   3.8566961496559857e-07   2.81260014514819e-06
-1.873627901813823e-06   3.8566961496559857e-07   2.81260014514819e-06
-1.873627901813823e-06   3.8566961496559857e-07   2.81260014514819e-06
-1.873627901813823e-06   3.8566961496559857e-07   2.81260014514819e-06
-1.6174573529021812e-06   9.319937414833566e-08   2.5611313747857904e-06
-1.6174573529021812e-06   9.319937414833566e-08   2.5611313747857904e-06
-1.6174573529021812e-06   9.319937414833566e-08   2.5611313747857904e-06
-1.6174573529021812e-06   9.319937414833566e-08   2.5611313747857904e-06
-1.7354861865273062e-06   2.796191477362562e-07   2.645994233341597e-06
-1.7354861865273062e-06   2.796191477362562e-07   2.645994233341597e-06
-1.7354861865273062e-06   2.796191477362562e-07   2.645994233341597e-06
-1.7354861865273062e-06   2.796191477362562e-07   2.645994233341597e-06
-1.6174573529021812e-06   3.856696149656257e-07   2.9880822896385017e-06
-1.6174573529021812e-06   3.856696149656257e-07   2.9880822896385017e-06
-1.6174573529021812e-06   3.856696149656257e-07   2.9880822896385017e-06
-1.6174573529021812e-06   3.856696149656257e-07   2.9880822896385017e-06
-1.873627901813823e-06   9.319937414833566e-08   2.385649230295438e-06
-1.873627901813823e-06   9.319937414833566e-08   2.385649230295438e-06
-1.873627901813823e-06   9.319937414833566e-08   2.385649230295438e-06
-1.873627901813823e-06   9.319937414833566e-08   2.385649230295438e-06
-1.9005922507445052e-06   3.1334698080931435e-07   2.9121596149731368e-06
-1.9005922507445052e-06   3.1334698080931435e-07   2.9121596149731368e-06
-1.9005922507445052e-06   3.1334698080931435e-07   2.9121596149731368e-06
-1.9005922507445052e-06   3.1334698080931435e-07   2.9121596149731368e-06
-1.6324883906961786e-06   3.67631262911198e-08   2.6312701609368234e-06
-1.6324883906961786e-06   3.67631262911198e-08   2.6312701609368234e-06
-1.6324883906961786e-06   3.67631262911198e-08   2.6312701609368234e-06
-1.6324883906961786e-06   3.67631262911198e-08   2.6312701609368234e-06
-1.7378963330838258e-06   2.2754921138976882e-07   2.692478413856932e-06
-1.7378963330838258e-06   2.2754921138976882e-07   2.692478413856932e-06
-1.7378963330838258e-06   2.2754921138976882e-07   2.692478413856932e-06
-1.7378963330838258e-06   2.2754921138976882e-07   2.692478413856932e-06
-1.6324883906961786e-06   3.1334698080928724e-07   3.0781099276839803e-06
-1.6324883906961786e-06   3.1334698080928724e-07   3.0781099276839803e-06
-1.6324883906961786e-06   3.1334698080928724e-07   3.0781099276839803e-06
-1.6324883906961786e-06   3.1334698080928724e-07   3.0781099276839803e-06
-1.9005922507445052e-06   3.6763126291133354e-08   2.465319848225939e-06
-1.9005922507445052e-06   3.6763126291133354e-08   2.465319848225939e-06
-1.9005922507445052e-06   3.6763126291133354e-08   2.465319848225939e-06
-1.9005922507445052e-06   3.6763126291133354e-08   2.465319848225939e-06
-1.918908381041669e-06   2.3855046815156387e-07   3.03413514532108e-06
-1.918908381041669e-06   2.3855046815156387e-07   3.03413514532108e-06
-1.918908381041669e-06   2.3855046815156387e-07   3.03413514532108e-06
-1.918908381041669e-06   2.3855046815156387e-07   3.03413514532108e-06
-1.645255489257824e-06   -2.0525934501722503e-08   2.733492833939961e-06
-1.645255489257824e-06   -2.0525934501722503e-08   2.733492833939961e-06
-1.645255489257824e-06   -2.0525934501722503e-08   2.733492833939961e-06
-1.645255489257824e-06   -2.0525934501722503e-08   2.733492833939961e-06
-1.7544284118230597e-06   1.8021981127270094e-07   2.7950002574172593e-06
-1.7544284118230597e-06   1.8021981127270094e-07   2.7950002574172593e-06
-1.7544284118230597e-06   1.8021981127270094e-07   2.7950002574172593e-06
-1.7544284118230597e-06   1.8021981127270094e-07   2.7950002574172593e-06
-1.862374715781099e-06   5.699114746797636e-07   1.2027498018097856e-06
-1.862374715781099e-06   5.699114746797636e-07   1.2027498018097856e-06
-1.862374715781099e-06   5.699114746797636e-07   1.2027498018097856e-06
-1.862374715781099e-06   5.699114746797636e-07   1.2027498018097856e-06
-1.955121077790322e-06   2.7479325116317886e-07   8.711015976844608e-07
-1.955121077790322e-06   2.7479325116317886e-07   8.711015976844608e-07
-1.955121077790322e-06   2.7479325116317886e-07   8.711015976844608e-07
-1.955121077790322e-06   2.7479325116317886e-07   8.711015976844608e-07
-2.0562304520258792e-06   5.168957127764037e-07   1.326155266069567e-06
-2.0562304520258792e-06   5.168957127764037e-07   1.326155266069567e-06
-2.0562304520258792e-06   5.168957127764037e-07   1.326155266069567e-06
-2.0562304520258792e-06   5.168957127764037e-07   1.326155266069567e-06
-1.873627901813823e-06   2.2691369805267765e-07   1.1958068912170142e-06
-1.873627901813823e-06   2.2691369805267765e-07   1.1958068912170142e-06
-1.873627901813823e-06   2.2691369805267765e-07   1.1958068912170142e-06
-1.873627901813823e-06   2.2691369805267765e-07   1.1958068912170142e-06
-1.8728146997543567e-06   4.059973579747389e-07   1.0870013584979884e-06
-1.8728146997543567e-06   4.059973579747389e-07   1.0870013584979884e-06
-1.8728146997543567e-06   4.059973579747389e-07   1.0870013584979884e-06
-1.8728146997543567e-06   4.059973579747389e-07   1.0870013584979884e-06
-1.8736279018138162e-06   5.168957127764037e-07   1.5001444749037566e-06
-1.8736279018138162e-06   5.168957127764037e-07   1.5001444749037566e-06
-1.8736279018138162e-06   5.168957127764037e-07   1.5001444749037566e-06
-1.8736279018138162e-06   5.168957127764037e-07   1.5001444749037566e-06
-2.0562304520258928e-06   2.2691369805267765e-07   1.0218176823827637e-06
-2.0562304520258928e-06   2.2691369805267765e-07   1.0218176823827637e-06
-2.0562304520258928e-06   2.2691369805267765e-07   1.0218176823827637e-06
-2.0562304520258928e-06   2.2691369805267765e-07   1.0218176823827637e-06
-2.1441322233304547e-06   4.795222515279461e-07   1.5625880880985464e-06
-2.1441322233304547e-06   4.795222515279461e-07   1.5625880880985464e-06
-2.1441322233304547e-06   4.795222515279461e-07   1.5625880880985464e-06
-2.1441322233304547e-06   4.795222515279461e-07   1.5625880880985464e-06
-1.9005922507444917e-06   1.9604375801821462e-07   1.3267752298944596e-06
-1.9005922507444917e-06   1.9604375801821462e-07   1.3267752298944596e-06
-1.9005922507444917e-06   1.9604375801821462e-07   1.3267752298944596e-06
-1.9005922507444917e-06   1.9604375801821462e-07   1.3267752298944596e-06
-1.9478602219898995e-06   3.80745769308253e-07   1.294733975196015e-06
-1.9478602219898995e-06   3.80745769308253e-07   1.294733975196015e-06
-1.9478602219898995e-06   3.80745769308253e-07   1.294733975196015e-06
-1.9478602219898995e-06   3.80745769308253e-07   1.294733975196015e-06
-1.9005922507444917e-06   4.795222515279461e-07   1.7326751842043663e-06
-1.9005922507444917e-06   4.795222515279461e-07   1.7326751842043663e-06
-1.9005922507444917e-06   4.795222515279461e-07   1.7326751842043663e-06
-1.9005922507444917e-06   4.795222515279461e-07   1.7326751842043663e-06
-2.1441322233304547e-06   1.9604375801820107e-07   1.156688133788599e-06
-2.1441322233304547e-06   1.9604375801820107e-07   1.156688133788599e-06
-2.1441322233304547e-06   1.9604375801820107e-07   1.156688133788599e-06
-2.1441322233304547e-06   1.9604375801820107e-07   1.156688133788599e-06
-2.2678838011312214e-06   3.88950981864176e-07   1.995453943118931e-06
-2.2678838011312214e-06   3.88950981864176e-07   1.995453943118931e-06
-2.2678838011312214e-06   3.88950981864176e-07   1.995453943118931e-06
-2.2678838011312214e-06   3.88950981864176e-07   1.995453943118931e-06
-1.918908381041669e-06   1.2888554054027934e-07   1.5698675077639593e-06
-1.918908381041669e-06   1.2888554054027934e-07   1.5698675077639593e-06
-1.918908381041669e-06   1.2888554054027934e-07   1.5698675077639593e-06
-1.918908381041669e-06   1.2888554054027934e-07   1.5698675077639593e-06
-1.9739153038837315e-06   3.4676691008548536e-07   1.5308168907734435e-06
-1.9739153038837315e-06   3.4676691008548536e-07   1.5308168907734435e-06
-1.9739153038837315e-06   3.4676691008548536e-07   1.5308168907734435e-06
-1.9739153038837315e-06   3.4676691008548536e-07   1.5308168907734435e-06
-3.0494691901475434e-06   4.062665710331874e-07   1.5454684272573233e-06
-3.0494691901475434e-06   4.062665710331874e-07   1.5454684272573233e-06
-3.0494691901475434e-06   4.062665710331874e-07   1.5454684272573233e-06
-3.0494691901475434e-06   4.062665710331874e-07   1.5454684272573233e-06
-2.15330213132701e-06   5.509457759125287e-07   3.1258877148858136e-06
-2.15330213132701e-06   5.509457759125287e-07   3.1258877148858136e-06
-2.15330213132701e-06   5.509457759125287e-07   3.1258877148858136e-06
-2.15330213132701e-06   5.509457759125287e-07   3.1258877148858136e-06
-2.1588456592161663e-06   3.099983433330788e-07   1.6669203011645877e-06
-2.1588456592161663e-06   3.099983433330788e-07   1.6669203011645877e-06
-2.1588456592161663e-06   3.099983433330788e-07   1.6669203011645877e-06
-2.1588456592161663e-06   3.099983433330788e-07   1.6669203011645877e-06
-3.411836312453512e-06   1.7619999223296548e-07   3.835517067220264e-06
-3.411836312453512e-06   1.7619999223296548e-07   3.835517067220264e-06
-3.411836312453512e-06   1.7619999223296548e-07   3.835517067220264e-06
-3.411836312453512e-06   1.7619999223296548e-07   3.835517067220264e-06
-2.552400001336243e-06   3.155717317013967e-07   2.3195001716770786e-06
-2.552400001336243e-06   3.155717317013967e-07   2.3195001716770786e-06
-2.552400001336243e-06   3.155717317013967e-07   2.3195001716770786e-06
-2.552400001336243e-06   3.155717317013967e-07   2.3195001716770786e-06
-3.411836312453518e-06   3.099983433330788e-07   1.7471993118246557e-06
-3.411836312453518e-06   3.099983433330788e-07   1.7471993118246557e-06
-3.411836312453518e-06   3.099983433330788e-07   1.7471993118246557e-06
-3.411836312453518e-06   3.099983433330788e-07   1.7471993118246557e-06
-2.1588456592161663e-06   1.7619999223296548e-07   3.7552380565601963e-06
-2.1588456592161663e-06   1.7619999223296548e-07   3.7552380565601963e-06
-2.1588456592161663e-06   1.7619999223296548e-07   3.7552380565601963e-06
-2.1588456592161663e-06   1.7619999223296548e-07   3.7552380565601963e-06
-2.2049785936994517e-06   2.4637215158648156e-07   1.8227149033179108e-06
-2.2049785936994517e-06   2.4637215158648156e-07   1.8227149033179108e-06
-2.2049785936994517e-06   2.4637215158648156e-07   1.8227149033179108e-06
-2.2049785936994517e-06   2.4637215158648156e-07   1.8227149033179108e-06
-3.4389720120359787e-06   1.0975603067027342e-07   3.961340273095164e-06
-3.4389720120359787e-06   1.0975603067027342e-07   3.961340273095164e-06
-3.4389720120359787e-06   1.0975603067027342e-07   3.961340273095164e-06
-3.4389720120359787e-06   1.0975603067027342e-07   3.961340273095164e-06
-2.750355815400335e-06   1.7986035793699276e-07   2.7715840156756926e-06
-2.750355815400335e-06   1.7986035793699276e-07   2.7715840156756926e-06
-2.750355815400335e-06   1.7986035793699276e-07   2.7715840156756926e-06
-2.750355815400335e-06   1.7986035793699276e-07   2.7715840156756926e-06
-3.4389720120359855e-06   2.4637215158648156e-07   1.904684575867633e-06
-3.4389720120359855e-06   2.4637215158648156e-07   1.904684575867633e-06
-3.4389720120359855e-06   2.4637215158648156e-07   1.904684575867633e-06
-3.4389720120359855e-06   2.4637215158648156e-07   1.904684575867633e-06
-2.2049785936994466e-06   1.0975603067027342e-07   3.879370600545445e-06
-2.2049785936994466e-06   1.0975603067027342e-07   3.879370600545445e-06
-2.2049785936994466e-06   1.0975603067027342e-07   3.879370600545445e-06
-2.2049785936994466e-06   1.0975603067027342e-07   3.879370600545445e-06
-2.1978776861611475e-06   9.149520375279668e-08   2.0919767232937332e-06
-2.1978776861611475e-06   9.149520375279668e-08   2.0919767232937332e-06
-2.1978776861611475e-06   9.149520375279668e-08   2.0919767232937332e-06
-2.1978776861611475e-06   9.149520375279668e-08   2.0919767232937332e-06
-3.5022839333581674e-06   -1.826631361686367e-07   4.430482139241612e-06
-3.5022839333581674e-06   -1.826631361686367e-07   4.430482139241612e-06
-3.5022839333581674e-06   -1.826631361686367e-07   4.430482139241612e-06
-3.5022839333581674e-06   -1.826631361686367e-07   4.430482139241612e-06
-2.725303934433815e-06   6.634125978930295e-08   2.986112836792935e-06
-2.725303934433815e-06   6.634125978930295e-08   2.986112836792935e-06
-2.725303934433815e-06   6.634125978930295e-08   2.986112836792935e-06
-2.725303934433815e-06   6.634125978930295e-08   2.986112836792935e-06
-2.1533021313270127e-06   1.070485364414311e-07   3.28149548888809e-06
-2.1533021313270127e-06   1.070485364414311e-07   3.28149548888809e-06
-2.1533021313270127e-06   1.070485364414311e-07   3.28149548888809e-06
-2.1533021313270127e-06   1.070485364414311e-07   3.28149548888809e-06
-1.3666941174354178e-06   -7.732582474600521e-07   4.064324775033202e-06
-1.3666941174354178e-06   -7.732582474600521e-07   4.064324775033202e-06
-1.3666941174354178e-06   -7.732582474600521e-07   4.064324775033202e-06
-1.3666941174354178e-06   -7.732582474600521e-07   4.064324775033202e-06
-1.3801405406369084e-06   4.567781970828339e-08   2.7518158545812143e-06
-1.3801405406369084e-06   4.567781970828339e-08   2.7518158545812143e-06
-1.3801405406369084e-06   4.567781970828339e-08   2.7518158545812143e-06
-1.3801405406369084e-06   4.567781970828339e-08   2.7518158545812143e-06
-2.1588456592161663e-06   -6.481138729807516e-07   4.465932734493417e-06
-2.1588456592161663e-06   -6.481138729807516e-07   4.465932734493417e-06
-2.1588456592161663e-06   -6.481138729807516e-07   4.465932734493417e-06
-2.1588456592161663e-06   -6.481138729807516e-07   4.465932734493417e-06
-1.759378603538284e-06   -3.8543299619105717e-07   3.6425457822898154e-06
-1.759378603538284e-06   -3.8543299619105717e-07   3.6425457822898154e-06
-1.759378603538284e-06   -3.8543299619105717e-07   3.6425457822898154e-06
-1.759378603538284e-06   -3.8543299619105717e-07   3.6425457822898154e-06
-2.158845659216168e-06   4.567781970828339e-08   3.1680908701946028e-06
-2.158845659216168e-06   4.567781970828339e-08   3.1680908701946028e-06
-2.158845659216168e-06   4.567781970828339e-08   3.1680908701946028e-06
-2.158845659216168e-06   4.567781970828339e-08   3.1680908701946028e-06
-1.380140540636905e-06   -6.481138729807516e-07   4.049657718880002e-06
-1.380140540636905e-06   -6.481138729807516e-07   4.049657718880002e-06
-1.380140540636905e-06   -6.481138729807516e-07   4.049657718880002e-06
-1.380140540636905e-06   -6.481138729807516e-07   4.049657718880002e-06
-1.4007746259544282e-06   -2.0358621126586088e-08   2.822544031016438e-06
-1.4007746259544282e-06   -2.0358621126586088e-08   2.822544031016438e-06
-1.4007746259544282e-06   -2.0358621126586088e-08   2.822544031016438e-06
-1.4007746259544282e-06   -2.0358621126586088e-08   2.822544031016438e-06
-2.2049785936994466e-06   -6.577978906545858e-07   4.5453475389749135e-06
-2.2049785936994466e-06   -6.577978906545858e-07   4.5453475389749135e-06
-2.2049785936994466e-06   -6.577978906545858e-07   4.5453475389749135e-06
-2.2049785936994466e-06   -6.577978906545858e-07   4.5453475389749135e-06
-1.7574218687935526e-06   -3.3748574944586843e-07   3.6072323794065138e-06
-1.7574218687935526e-06   -3.3748574944586843e-07   3.6072323794065138e-06
-1.7574218687935526e-06   -3.3748574944586843e-07   3.6072323794065138e-06
-1.7574218687935526e-06   -3.3748574944586843e-07   3.6072323794065138e-06
-2.2049785936994517e-06   -2.0358621126586088e-08   3.2050075927332394e-06
-2.2049785936994517e-06   -2.0358621126586088e-08   3.2050075927332394e-06
-2.2049785936994517e-06   -2.0358621126586088e-08   3.2050075927332394e-06
-2.2049785936994517e-06   -2.0358621126586088e-08   3.2050075927332394e-06
-1.4007746259544282e-06   -6.577978906545858e-07   4.162883977258111e-06
-1.4007746259544282e-06   -6.577978906545858e-07   4.162883977258111e-06
-1.4007746259544282e-06   -6.577978906545858e-07   4.162883977258111e-06
-1.4007746259544282e-06   -6.577978906545858e-07   4.162883977258111e-06
-1.4053522612613229e-06   -1.0398135524294048e-07   2.914444174604574e-06
-1.4053522612613229e-06   -1.0398135524294048e-07   2.914444174604574e-06
-1.4053522612613229e-06   -1.0398135524294048e-07   2.914444174604574e-06
-1.4053522612613229e-06   -1.0398135524294048e-07   2.914444174604574e-06
-2.1978776861611407e-06   -6.497492880795465e-07   4.562780642472886e-06
-2.1978776861611407e-06   -6.497492880795465e-07   4.562780642472886e-06
-2.1978776861611407e-06   -6.497492880795465e-07   4.562780642472886e-06
-2.1978776861611407e-06   -6.497492880795465e-07   4.562780642472886e-06
-1.781753856336391e-06   -3.69338312025295e-07   3.700994340465768e-06
-1.781753856336391e-06   -3.69338312025295e-07   3.700994340465768e-06
-1.781753856336391e-06   -3.69338312025295e-07   3.700994340465768e-06
-1.781753856336391e-06   -3.69338312025295e-07   3.700994340465768e-06
-1.3666941174354178e-06   3.247732152836084e-08   3.069737279671763e-06
-1.3666941174354178e-06   3.247732152836084e-08   3.069737279671763e-06
-1.3666941174354178e-06   3.247732152836084e-08   3.069737279671763e-06
-1.3666941174354178e-06   3.247732152836084e-08   3.069737279671763e-06
-1.0596825444736358e-06   -6.057075654229449e-07   3.198512302437294e-06
-1.0596825444736358e-06   -6.057075654229449e-07   3.198512302437294e-06
-1.0596825444736358e-06   -6.057075654229449e-07   3.198512302437294e-06
-1.0596825444736358e-06   -6.057075654229449e-07   3.198512302437294e-06
-1.0623963441184589e-06   -1.6188254213441193e-08   2.706353398280526e-06
-1.0623963441184589e-06   -1.6188254213441193e-08   2.706353398280526e-06
-1.0623963441184589e-06   -1.6188254213441193e-08   2.706353398280526e-06
-1.0623963441184589e-06   -1.6188254213441193e-08   2.706353398280526e-06
-1.380140540636905e-06   -5.949448932701147e-07   3.58318104257865e-06
-1.380140540636905e-06   -5.949448932701147e-07   3.58318104257865e-06
-1.380140540636905e-06   -5.949448932701147e-07   3.58318104257865e-06
-1.380140540636905e-06   -5.949448932701147e-07   3.58318104257865e-06
-1.211592798530628e-06   -3.0287656818604974e-07   3.1270271440177725e-06
-1.211592798530628e-06   -3.0287656818604974e-07   3.1270271440177725e-06
-1.211592798530628e-06   -3.0287656818604974e-07   3.1270271440177725e-06
-1.211592798530628e-06   -3.0287656818604974e-07   3.1270271440177725e-06
-1.380140540636905e-06   -1.6188254213441193e-08   3.05360738171453e-06
-1.380140540636905e-06   -1.6188254213441193e-08   3.05360738171453e-06
-1.380140540636905e-06   -1.6188254213441193e-08   3.05360738171453e-06
-1.380140540636905e-06   -1.6188254213441193e-08   3.05360738171453e-06
-1.0623963441184521e-06   -5.949448932701147e-07   3.235927059144639e-06
-1.0623963441184521e-06   -5.949448932701147e-07   3.235927059144639e-06
-1.0623963441184521e-06   -5.949448932701147e-07   3.235927059144639e-06
-1.0623963441184521e-06   -5.949448932701147e-07   3.235927059144639e-06
-1.068829528719265e-06   -7.42239880748729e-08   2.765870268362858e-06
-1.068829528719265e-06   -7.42239880748729e-08   2.765870268362858e-06
-1.068829528719265e-06   -7.42239880748729e-08   2.765870268362858e-06
-1.068829528719265e-06   -7.42239880748729e-08   2.765870268362858e-06
-1.4007746259544282e-06   -6.102165453431829e-07   3.6407076314491028e-06
-1.4007746259544282e-06   -6.102165453431829e-07   3.6407076314491028e-06
-1.4007746259544282e-06   -6.102165453431829e-07   3.6407076314491028e-06
-1.4007746259544282e-06   -6.102165453431829e-07   3.6407076314491028e-06
-1.213157687514122e-06   -3.1645190217052517e-07   3.1517539481449344e-06
-1.213157687514122e-06   -3.1645190217052517e-07   3.1517539481449344e-06
-1.213157687514122e-06   -3.1645190217052517e-07   3.1517539481449344e-06
-1.213157687514122e-06   -3.1645190217052517e-07   3.1517539481449344e-06
-1.4007746259544282e-06   -7.42239880748729e-08   3.0874658027238387e-06
-1.4007746259544282e-06   -7.42239880748729e-08   3.0874658027238387e-06
-1.4007746259544282e-06   -7.42239880748729e-08   3.0874658027238387e-06
-1.4007746259544282e-06   -7.42239880748729e-08   3.0874658027238387e-06
-1.0688295287192582e-06   -6.102165453431897e-07   3.319112097088119e-06
-1.0688295287192582e-06   -6.102165453431897e-07   3.319112097088119e-06
-1.0688295287192582e-06   -6.102165453431897e-07   3.319112097088119e-06
-1.0688295287192582e-06   -6.102165453431897e-07   3.319112097088119e-06
-1.0649747994528633e-06   -1.305094950302993e-07   2.8599155248429565e-06
-1.0649747994528633e-06   -1.305094950302993e-07   2.8599155248429565e-06
-1.0649747994528633e-06   -1.305094950302993e-07   2.8599155248429565e-06
-1.0649747994528633e-06   -1.305094950302993e-07   2.8599155248429565e-06
-1.4053522612613229e-06   -6.271191520242653e-07   3.725177088720074e-06
-1.4053522612613229e-06   -6.271191520242653e-07   3.725177088720074e-06
-1.4053522612613229e-06   -6.271191520242653e-07   3.725177088720074e-06
-1.4053522612613229e-06   -6.271191520242653e-07   3.725177088720074e-06
-1.215908529741449e-06   -3.3912025912610094e-07   3.2366382004480628e-06
-1.215908529741449e-06   -3.3912025912610094e-07   3.2366382004480628e-06
-1.215908529741449e-06   -3.3912025912610094e-07   3.2366382004480628e-06
-1.215908529741449e-06   -3.3912025912610094e-07   3.2366382004480628e-06
-1.0596825444736358e-06   1.5839913728986376e-07   2.1499490577104403e-06
-1.0596825444736358e-06   1.5839913728986376e-07   2.1499490577104403e-06
-1.0596825444736358e-06   1.5839913728986376e-07   2.1499490577104403e-06
-1.0596825444736358e-06   1.5839913728986376e-07   2.1499490577104403e-06
-9.472559243107518e-07   -2.5401284952515613e-07   2.089879565892891e-06
-9.472559243107518e-07   -2.5401284952515613e-07   2.089879565892891e-06
-9.472559243107518e-07   -2.5401284952515613e-07   2.089879565892891e-06
-9.472559243107518e-07   -2.5401284952515613e-07   2.089879565892891e-06
-9.409332626152199e-07   9.319937414833566e-08   1.943145884985683e-06
-9.409332626152199e-07   9.319937414833566e-08   1.943145884985683e-06
-9.409332626152199e-07   9.319937414833566e-08   1.943145884985683e-06
-9.409332626152199e-07   9.319937414833566e-08   1.943145884985683e-06
-1.0623963441184589e-06   -2.9222552929230694e-07   2.3768392962221404e-06
-1.0623963441184589e-06   -2.9222552929230694e-07   2.3768392962221404e-06
-1.0623963441184589e-06   -2.9222552929230694e-07   2.3768392962221404e-06
-1.0623963441184589e-06   -2.9222552929230694e-07   2.3768392962221404e-06
-9.958780557300939e-07   -5.884185436908504e-08   2.1259452772876626e-06
-9.958780557300939e-07   -5.884185436908504e-08   2.1259452772876626e-06
-9.958780557300939e-07   -5.884185436908504e-08   2.1259452772876626e-06
-9.958780557300939e-07   -5.884185436908504e-08   2.1259452772876626e-06
-1.0623963441184589e-06   9.319937414833566e-08   2.174400827050062e-06
-1.0623963441184589e-06   9.319937414833566e-08   2.174400827050062e-06
-1.0623963441184589e-06   9.319937414833566e-08   2.174400827050062e-06
-1.0623963441184589e-06   9.319937414833566e-08   2.174400827050062e-06
-9.409332626152199e-07   -2.9222552929230694e-07   2.1455843541577616e-06
-9.409332626152199e-07   -2.9222552929230694e-07   2.1455843541577616e-06
-9.409332626152199e-07   -2.9222552929230694e-07   2.1455843541577616e-06
-9.409332626152199e-07   -2.9222552929230694e-07   2.1455843541577616e-06
-9.462223443878633e-07   3.6763126291133354e-08   2.031131715541978e-06
-9.462223443878633e-07   3.6763126291133354e-08   2.031131715541978e-06
-9.462223443878633e-07   3.6763126291133354e-08   2.031131715541978e-06
-9.462223443878633e-07   3.6763126291133354e-08   2.031131715541978e-06
-1.068829528719265e-06   -3.2251609862186834e-07   2.4510445577087536e-06
-1.068829528719265e-06   -3.2251609862186834e-07   2.4510445577087536e-06
-1.068829528719265e-06   -3.2251609862186834e-07   2.4510445577087536e-06
-1.068829528719265e-06   -3.2251609862186834e-07   2.4510445577087536e-06
-9.891475310819828e-07   -9.652582373479433e-08   2.1826470633809584e-06
-9.891475310819828e-07   -9.652582373479433e-08   2.1826470633809584e-06
-9.891475310819828e-07   -9.652582373479433e-08   2.1826470633809584e-06
-9.891475310819828e-07   -9.652582373479433e-08   2.1826470633809584e-06
-1.0688295287192582e-06   3.6763126291133354e-08   2.2466992504897575e-06
-1.0688295287192582e-06   3.6763126291133354e-08   2.2466992504897575e-06
-1.0688295287192582e-06   3.6763126291133354e-08   2.2466992504897575e-06
-1.0688295287192582e-06   3.6763126291133354e-08   2.2466992504897575e-06
-9.462223443878633e-07   -3.2251609862186834e-07   2.235477022760954e-06
-9.462223443878633e-07   -3.2251609862186834e-07   2.235477022760954e-06
-9.462223443878633e-07   -3.2251609862186834e-07   2.235477022760954e-06
-9.462223443878633e-07   -3.2251609862186834e-07   2.235477022760954e-06
-9.460574559223719e-07   -2.0525934501722503e-08   2.1415830448987433e-06
-9.460574559223719e-07   -2.0525934501722503e-08   2.1415830448987433e-06
-9.460574559223719e-07   -2.0525934501722503e-08   2.1415830448987433e-06
-9.460574559223719e-07   -2.0525934501722503e-08   2.1415830448987433e-06
-1.0649747994528633e-06   -3.609576780418659e-07   2.54403766357363e-06
-1.0649747994528633e-06   -3.609576780418659e-07   2.54403766357363e-06
-1.0649747994528633e-06   -3.609576780418659e-07   2.54403766357363e-06
-1.0649747994528633e-06   -3.609576780418659e-07   2.54403766357363e-06
-9.889480341427102e-07   -1.3085451481471594e-07   2.279264490120489e-06
-9.889480341427102e-07   -1.3085451481471594e-07   2.279264490120489e-06
-9.889480341427102e-07   -1.3085451481471594e-07   2.279264490120489e-06
-9.889480341427102e-07   -1.3085451481471594e-07   2.279264490120489e-06
-9.472559243107518e-07   2.7479325116317886e-07   5.888930524317236e-07
-9.472559243107518e-07   2.7479325116317886e-07   5.888930524317236e-07
-9.472559243107518e-07   2.7479325116317886e-07   5.888930524317236e-07
-9.472559243107518e-07   2.7479325116317886e-07   5.888930524317236e-07
-6.464971455907062e-07   -1.9559864899511596e-08   9.135458139942243e-07
-6.464971455907062e-07   -1.9559864899511596e-08   9.135458139942243e-07
-6.464971455907062e-07   -1.9559864899511596e-08   9.135458139942243e-07
-6.464971455907062e-07   -1.9559864899511596e-08   9.135458139942243e-07
-6.942281648149941e-07   2.2691369805267765e-07   5.985655747198801e-07
-6.942281648149941e-07   2.2691369805267765e-07   5.985655747198801e-07
-6.942281648149941e-07   2.2691369805267765e-07   5.985655747198801e-07
-6.942281648149941e-07   2.2691369805267765e-07   5.985655747198801e-07
-9.409332626152199e-07   -3.09829205929384e-08   1.1644787089076558e-06
-9.409332626152199e-07   -3.09829205929384e-08   1.1644787089076558e-06
-9.409332626152199e-07   -3.09829205929384e-08   1.1644787089076558e-06
-9.409332626152199e-07   -3.09829205929384e-08   1.1644787089076558e-06
-7.791822545151607e-07   1.4347004860443865e-07   7.902219138891854e-07
-7.791822545151607e-07   1.4347004860443865e-07   7.902219138891854e-07
-7.791822545151607e-07   1.4347004860443865e-07   7.902219138891854e-07
-7.791822545151607e-07   1.4347004860443865e-07   7.902219138891854e-07
-9.409332626152199e-07   2.2691369805267765e-07   7.533035459072253e-07
-9.409332626152199e-07   2.2691369805267765e-07   7.533035459072253e-07
-9.409332626152199e-07   2.2691369805267765e-07   7.533035459072253e-07
-9.409332626152199e-07   2.2691369805267765e-07   7.533035459072253e-07
-6.942281648149941e-07   -3.09829205929384e-08   1.009740737720297e-06
-6.942281648149941e-07   -3.09829205929384e-08   1.009740737720297e-06
-6.942281648149941e-07   -3.09829205929384e-08   1.009740737720297e-06
-6.942281648149941e-07   -3.09829205929384e-08   1.009740737720297e-06
-7.352168267527726e-07   1.9604375801821462e-07   7.478325440981942e-07
-7.352168267527726e-07   1.9604375801821462e-07   7.478325440981942e-07
-7.352168267527726e-07   1.9604375801821462e-07   7.478325440981942e-07
-7.352168267527726e-07   1.9604375801821462e-07   7.478325440981942e-07
-9.462223443878633e-07   -4.521383050228587e-08   1.2442629599356225e-06
-9.462223443878633e-07   -4.521383050228587e-08   1.2442629599356225e-06
-9.462223443878633e-07   -4.521383050228587e-08   1.2442629599356225e-06
-9.462223443878633e-07   -4.521383050228587e-08   1.2442629599356225e-06
-8.075239152887103e-07   1.2205531154098836e-07   9.127374262110313e-07
-8.075239152887103e-07   1.2205531154098836e-07   9.127374262110313e-07
-8.075239152887103e-07   1.2205531154098836e-07   9.127374262110313e-07
-8.075239152887103e-07   1.2205531154098836e-07   9.127374262110313e-07
-9.462223443878633e-07   1.9604375801820107e-07   8.925870972105053e-07
-9.462223443878633e-07   1.9604375801820107e-07   8.925870972105053e-07
-9.462223443878633e-07   1.9604375801820107e-07   8.925870972105053e-07
-9.462223443878633e-07   1.9604375801820107e-07   8.925870972105053e-07
-7.352168267527726e-07   -4.521383050228587e-08   1.099508406823325e-06
-7.352168267527726e-07   -4.521383050228587e-08   1.099508406823325e-06
-7.352168267527726e-07   -4.521383050228587e-08   1.099508406823325e-06
-7.352168267527726e-07   -4.521383050228587e-08   1.099508406823325e-06
-8.120417596723447e-07   1.2888554054027934e-07   1.0160728022603192e-06
-8.120417596723447e-07   1.2888554054027934e-07   1.0160728022603192e-06
-8.120417596723447e-07   1.2888554054027934e-07   1.0160728022603192e-06
-8.120417596723447e-07   1.2888554054027934e-07   1.0160728022603192e-06
-9.460574559223719e-07   -6.666572288370915e-08   1.35676305406475e-06
-9.460574559223719e-07   -6.666572288370915e-08   1.35676305406475e-06
-9.460574559223719e-07   -6.666572288370915e-08   1.35676305406475e-06
-9.460574559223719e-07   -6.666572288370915e-08   1.35676305406475e-06
-8.215270537277735e-07   1.0535551931430511e-07   1.0459996384216415e-06
-8.215270537277735e-07   1.0535551931430511e-07   1.0459996384216415e-06
-8.215270537277735e-07   1.0535551931430511e-07   1.0459996384216415e-06
-8.215270537277735e-07   1.0535551931430511e-07   1.0459996384216415e-06
-7.670263122317974e-06   5.509457759125287e-07   3.904831378358615e-06
-7.670263122317974e-06   5.509457759125287e-07   3.904831378358615e-06
-7.670263122317974e-06   5.509457759125287e-07   3.904831378358615e-06
-7.670263122317974e-06   5.509457759125287e-07   3.904831378358615e-06
-1.7320174687932861e-06   -4.50563754575475e-06   1.0767957474566068e-05
-1.7320174687932861e-06   -4.50563754575475e-06   1.0767957474566068e-05
-1.7320174687932861e-06   -4.50563754575475e-06   1.0767957474566068e-05
-1.7320174687932861e-06   -4.50563754575475e-06   1.0767957474566068e-05
-2.0816444108327796e-06   1.761999922329587e-07   2.0813495860418087e-06
-2.0816444108327796e-06   1.761999922329587e-07   2.0813495860418087e-06
-2.0816444108327796e-06   1.761999922329587e-07   2.0813495860418087e-06
-2.0816444108327796e-06   1.761999922329587e-07   2.0813495860418087e-06
-6.996000795832931e-06   -3.616423201390536e-06   1.2547517477216138e-05
-6.996000795832931e-06   -3.616423201390536e-06   1.2547517477216138e-05
-6.996000795832931e-06   -3.616423201390536e-06   1.2547517477216138e-05
-6.996000795832931e-06   -3.616423201390536e-06   1.2547517477216138e-05
-4.645784546021348e-06   -1.7953542221746725e-06   7.537849006667313e-06
-4.645784546021348e-06   -1.7953542221746725e-06   7.537849006667313e-06
-4.645784546021348e-06   -1.7953542221746725e-06   7.537849006667313e-06
-4.645784546021348e-06   -1.7953542221746725e-06   7.537849006667313e-06
-6.996000795832919e-06   1.761999922329587e-07   4.356923502215902e-06
-6.996000795832919e-06   1.761999922329587e-07   4.356923502215902e-06
-6.996000795832919e-06   1.761999922329587e-07   4.356923502215902e-06
-6.996000795832919e-06   1.761999922329587e-07   4.356923502215902e-06
-2.081644410832783e-06   -3.616423201390536e-06   1.027194356104204e-05
-2.081644410832783e-06   -3.616423201390536e-06   1.027194356104204e-05
-2.081644410832783e-06   -3.616423201390536e-06   1.027194356104204e-05
-2.081644410832783e-06   -3.616423201390536e-06   1.027194356104204e-05
-2.153056179122858e-06   1.0975603067026664e-07   2.2915396112282684e-06
-2.153056179122858e-06   1.0975603067026664e-07   2.2915396112282684e-06
-2.153056179122858e-06   1.0975603067026664e-07   2.2915396112282684e-06
-2.153056179122858e-06   1.0975603067026664e-07   2.2915396112282684e-06
-6.606286520005343e-06   -3.203213786183588e-06   1.170137206947804e-05
-6.606286520005343e-06   -3.203213786183588e-06   1.170137206947804e-05
-6.606286520005343e-06   -3.203213786183588e-06   1.170137206947804e-05
-6.606286520005343e-06   -3.203213786183588e-06   1.170137206947804e-05
-4.525975467252146e-06   -1.7130447316651412e-06   7.340085548844984e-06
-4.525975467252146e-06   -1.7130447316651412e-06   7.340085548844984e-06
-4.525975467252146e-06   -1.7130447316651412e-06   7.340085548844984e-06
-4.525975467252146e-06   -1.7130447316651412e-06   7.340085548844984e-06
-6.606286520005331e-06   1.0975603067026664e-07   4.279321501340579e-06
-6.606286520005331e-06   1.0975603067026664e-07   4.279321501340579e-06
-6.606286520005331e-06   1.0975603067026664e-07   4.279321501340579e-06
-6.606286520005331e-06   1.0975603067026664e-07   4.279321501340579e-06
-2.153056179122863e-06   -3.203213786183588e-06   9.713590179365726e-06
-2.153056179122863e-06   -3.203213786183588e-06   9.713590179365726e-06
-2.153056179122863e-06   -3.203213786183588e-06   9.713590179365726e-06
-2.153056179122863e-06   -3.203213786183588e-06   9.713590179365726e-06
-2.4081051930651584e-06   -1.826631361686367e-07   2.8467898550673507e-06
-2.4081051930651584e-06   -1.826631361686367e-07   2.8467898550673507e-06
-2.4081051930651584e-06   -1.826631361686367e-07   2.8467898550673507e-06
-2.4081051930651584e-06   -1.826631361686367e-07   2.8467898550673507e-06
-6.098588996662542e-06   -2.644685718359042e-06   1.0474809743710548e-05
-6.098588996662542e-06   -2.644685718359042e-06   1.0474809743710548e-05
-6.098588996662542e-06   -2.644685718359042e-06   1.0474809743710548e-05
-6.098588996662542e-06   -2.644685718359042e-06   1.0474809743710548e-05
-4.3788685274402475e-06   -1.5866947276852052e-06   6.973814367269092e-06
-4.3788685274402475e-06   -1.5866947276852052e-06   6.973814367269092e-06
-4.3788685274402475e-06   -1.5866947276852052e-06   6.973814367269092e-06
-4.3788685274402475e-06   -1.5866947276852052e-06   6.973814367269092e-06
-1.7320174687932827e-06   -7.732582474600521e-07   2.3375025158465188e-06
-1.7320174687932827e-06   -7.732582474600521e-07   2.3375025158465188e-06
-1.7320174687932827e-06   -7.732582474600521e-07   2.3375025158465188e-06
-1.7320174687932827e-06   -7.732582474600521e-07   2.3375025158465188e-06
-5.825103523578361e-07   -1.6060034474674265e-06   3.753700589901176e-06
-5.825103523578361e-07   -1.6060034474674265e-06   3.753700589901176e-06
-5.825103523578361e-07   -1.6060034474674265e-06   3.753700589901176e-06
-5.825103523578361e-07   -1.6060034474674265e-06   3.753700589901176e-06
-6.793537423215794e-07   -6.481138729807448e-07   1.9558124130330165e-06
-6.793537423215794e-07   -6.481138729807448e-07   1.9558124130330165e-06
-6.793537423215794e-07   -6.481138729807448e-07   1.9558124130330165e-06
-6.793537423215794e-07   -6.481138729807448e-07   1.9558124130330165e-06
-2.081644410832783e-06   -2.0418336245507667e-06   5.129195378160358e-06
-2.081644410832783e-06   -2.0418336245507667e-06   5.129195378160358e-06
-2.081644410832783e-06   -2.0418336245507667e-06   5.129195378160358e-06
-2.081644410832783e-06   -2.0418336245507667e-06   5.129195378160358e-06
-1.2022943207699208e-06   -1.038181381419188e-06   3.061420548843298e-06
-1.2022943207699208e-06   -1.038181381419188e-06   3.061420548843298e-06
-1.2022943207699208e-06   -1.038181381419188e-06   3.061420548843298e-06
-1.2022943207699208e-06   -1.038181381419188e-06   3.061420548843298e-06
-2.081644410832778e-06   -6.481138729807448e-07   2.792044263975006e-06
-2.081644410832778e-06   -6.481138729807448e-07   2.792044263975006e-06
-2.081644410832778e-06   -6.481138729807448e-07   2.792044263975006e-06
-2.081644410832778e-06   -6.481138729807448e-07   2.792044263975006e-06
-6.793537423215828e-07   -2.0418336245507667e-06   4.2929635272183445e-06
-6.793537423215828e-07   -2.0418336245507667e-06   4.2929635272183445e-06
-6.793537423215828e-07   -2.0418336245507667e-06   4.2929635272183445e-06
-6.793537423215828e-07   -2.0418336245507667e-06   4.2929635272183445e-06
-7.645229189743754e-07   -6.577978906545791e-07   2.2026654706239562e-06
-7.645229189743754e-07   -6.577978906545791e-07   2.2026654706239562e-06
-7.645229189743754e-07   -6.577978906545791e-07   2.2026654706239562e-06
-7.645229189743754e-07   -6.577978906545791e-07   2.2026654706239562e-06
-2.153056179122863e-06   -1.915883022377573e-06   5.271738649905209e-06
-2.153056179122863e-06   -1.915883022377573e-06   5.271738649905209e-06
-2.153056179122863e-06   -1.915883022377573e-06   5.271738649905209e-06
-2.153056179122863e-06   -1.915883022377573e-06   5.271738649905209e-06
-1.38794596652895e-06   -1.2417095939841683e-06   3.5920509052126713e-06
-1.38794596652895e-06   -1.2417095939841683e-06   3.5920509052126713e-06
-1.38794596652895e-06   -1.2417095939841683e-06   3.5920509052126713e-06
-1.38794596652895e-06   -1.2417095939841683e-06   3.5920509052126713e-06
-2.153056179122858e-06   -6.577978906545791e-07   2.9575165496577455e-06
-2.153056179122858e-06   -6.577978906545791e-07   2.9575165496577455e-06
-2.153056179122858e-06   -6.577978906545791e-07   2.9575165496577455e-06
-2.153056179122858e-06   -6.577978906545791e-07   2.9575165496577455e-06
-7.645229189743754e-07   -1.915883022377573e-06   4.516887570871416e-06
-7.645229189743754e-07   -1.915883022377573e-06   4.516887570871416e-06
-7.645229189743754e-07   -1.915883022377573e-06   4.516887570871416e-06
-7.645229189743754e-07   -1.915883022377573e-06   4.516887570871416e-06
-9.078544617467359e-07   -6.497492880795465e-07   2.4346549172811772e-06
-9.078544617467359e-07   -6.497492880795465e-07   2.4346549172811772e-06
-9.078544617467359e-07   -6.497492880795465e-07   2.4346549172811772e-06
-9.078544617467359e-07   -6.497492880795465e-07   2.4346549172811772e-06
-2.4081051930651618e-06   -1.8312966963634187e-06   5.644001247782187e-06
-2.4081051930651618e-06   -1.8312966963634187e-06   5.644001247782187e-06
-2.4081051930651618e-06   -1.8312966963634187e-06   5.644001247782187e-06
-2.4081051930651618e-06   -1.8312966963634187e-06   5.644001247782187e-06
-1.5128830207133993e-06   -1.1383035600180934e-06   3.7361684120553884e-06
-1.5128830207133993e-06   -1.1383035600180934e-06   3.7361684120553884e-06
-1.5128830207133993e-06   -1.1383035600180934e-06   3.7361684120553884e-06
-1.5128830207133993e-06   -1.1383035600180934e-06   3.7361684120553884e-06
-5.825103523578361e-07   -6.057075654229449e-07   1.3549538554169585e-06
-5.825103523578361e-07   -6.057075654229449e-07   1.3549538554169585e-06
-5.825103523578361e-07   -6.057075654229449e-07   1.3549538554169585e-06
-5.825103523578361e-07   -6.057075654229449e-07   1.3549538554169585e-06
-3.3788025438672933e-07   -5.670278578502411e-07   1.7858785099124374e-06
-3.3788025438672933e-07   -5.670278578502411e-07   1.7858785099124374e-06
-3.3788025438672933e-07   -5.670278578502411e-07   1.7858785099124374e-06
-3.3788025438672933e-07   -5.670278578502411e-07   1.7858785099124374e-06
-3.39639909231904e-07   -5.949448932701147e-07   1.4242913254490128e-06
-3.39639909231904e-07   -5.949448932701147e-07   1.4242913254490128e-06
-3.39639909231904e-07   -5.949448932701147e-07   1.4242913254490128e-06
-3.39639909231904e-07   -5.949448932701147e-07   1.4242913254490128e-06
-6.793537423215828e-07   -7.033522454078805e-07   2.0555254585477668e-06
-6.793537423215828e-07   -7.033522454078805e-07   2.0555254585477668e-06
-6.793537423215828e-07   -7.033522454078805e-07   2.0555254585477668e-06
-6.793537423215828e-07   -7.033522454078805e-07   2.0555254585477668e-06
-4.527563867702292e-07   -5.656526266105179e-07   1.5952434280170838e-06
-4.527563867702292e-07   -5.656526266105179e-07   1.5952434280170838e-06
-4.527563867702292e-07   -5.656526266105179e-07   1.5952434280170838e-06
-4.527563867702292e-07   -5.656526266105179e-07   1.5952434280170838e-06
-6.793537423215794e-07   -5.949448932701147e-07   1.4893357367316547e-06
-6.793537423215794e-07   -5.949448932701147e-07   1.4893357367316547e-06
-6.793537423215794e-07   -5.949448932701147e-07   1.4893357367316547e-06
-6.793537423215794e-07   -5.949448932701147e-07   1.4893357367316547e-06
-3.39639909231904e-07   -7.033522454078805e-07   1.990481047265118e-06
-3.39639909231904e-07   -7.033522454078805e-07   1.990481047265118e-06
-3.39639909231904e-07   -7.033522454078805e-07   1.990481047265118e-06
-3.39639909231904e-07   -7.033522454078805e-07   1.990481047265118e-06
-3.554834925248852e-07   -6.102165453431897e-07   1.5328090655684727e-06
-3.554834925248852e-07   -6.102165453431897e-07   1.5328090655684727e-06
-3.554834925248852e-07   -6.102165453431897e-07   1.5328090655684727e-06
-3.554834925248852e-07   -6.102165453431897e-07   1.5328090655684727e-06
-7.645229189743754e-07   -8.56349977420635e-07   2.3622215022307304e-06
-7.645229189743754e-07   -8.56349977420635e-07   2.3622215022307304e-06
-7.645229189743754e-07   -8.56349977420635e-07   2.3622215022307304e-06
-7.645229189743754e-07   -8.56349977420635e-07   2.3622215022307304e-06
-4.98990819900914e-07   -6.175412717268694e-07   1.776382780358711e-06
-4.98990819900914e-07   -6.175412717268694e-07   1.776382780358711e-06
-4.98990819900914e-07   -6.175412717268694e-07   1.776382780358711e-06
-4.98990819900914e-07   -6.175412717268694e-07   1.776382780358711e-06
-7.645229189743754e-07   -6.102165453431897e-07   1.680489124814928e-06
-7.645229189743754e-07   -6.102165453431897e-07   1.680489124814928e-06
-7.645229189743754e-07   -6.102165453431897e-07   1.680489124814928e-06
-7.645229189743754e-07   -6.102165453431897e-07   1.680489124814928e-06
-3.554834925248852e-07   -8.56349977420635e-07   2.2145414429842683e-06
-3.554834925248852e-07   -8.56349977420635e-07   2.2145414429842683e-06
-3.554834925248852e-07   -8.56349977420635e-07   2.2145414429842683e-06
-3.554834925248852e-07   -8.56349977420635e-07   2.2145414429842683e-06
-3.884566747482934e-07   -6.271191520242653e-07   1.7011123710188513e-06
-3.884566747482934e-07   -6.271191520242653e-07   1.7011123710188513e-06
-3.884566747482934e-07   -6.271191520242653e-07   1.7011123710188513e-06
-3.884566747482934e-07   -6.271191520242653e-07   1.7011123710188513e-06
-9.078544617467359e-07   -9.994520723767002e-07   2.7901751015610164e-06
-9.078544617467359e-07   -9.994520723767002e-07   2.7901751015610164e-06
-9.078544617467359e-07   -9.994520723767002e-07   2.7901751015610164e-06
-9.078544617467359e-07   -9.994520723767002e-07   2.7901751015610164e-06
-5.553074316124929e-07   -6.603217136494783e-07   1.999118502767629e-06
-5.553074316124929e-07   -6.603217136494783e-07   1.999118502767629e-06
-5.553074316124929e-07   -6.603217136494783e-07   1.999118502767629e-06
-5.553074316124929e-07   -6.603217136494783e-07   1.999118502767629e-06
-3.3788025438672933e-07   -2.5401284952515613e-07   5.169761355052101e-07
-3.3788025438672933e-07   -2.5401284952515613e-07   5.169761355052101e-07
-3.3788025438672933e-07   -2.5401284952515613e-07   5.169761355052101e-07
-3.3788025438672933e-07   -2.5401284952515613e-07   5.169761355052101e-07
-2.7993152970810174e-07   -3.755543252820506e-08   7.434317935010699e-07
-2.7993152970810174e-07   -3.755543252820506e-08   7.434317935010699e-07
-2.7993152970810174e-07   -3.755543252820506e-08   7.434317935010699e-07
-2.7993152970810174e-07   -3.755543252820506e-08   7.434317935010699e-07
-2.3921124807111467e-07   -2.922255292923137e-07   6.823714673447767e-07
-2.3921124807111467e-07   -2.922255292923137e-07   6.823714673447767e-07
-2.3921124807111467e-07   -2.922255292923137e-07   6.823714673447767e-07
-2.3921124807111467e-07   -2.922255292923137e-07   6.823714673447767e-07
-3.39639909231904e-07   -9.694568792855913e-08   7.325846644611517e-07
-3.39639909231904e-07   -9.694568792855913e-08   7.325846644611517e-07
-3.39639909231904e-07   -9.694568792855913e-08   7.325846644611517e-07
-3.39639909231904e-07   -9.694568792855913e-08   7.325846644611517e-07
-2.795976727444105e-07   -1.6014551977719933e-07   6.704341694244848e-07
-2.795976727444105e-07   -1.6014551977719933e-07   6.704341694244848e-07
-2.795976727444105e-07   -1.6014551977719933e-07   6.704341694244848e-07
-2.795976727444105e-07   -1.6014551977719933e-07   6.704341694244848e-07
-3.39639909231904e-07   -2.922255292923137e-07   5.652035625265277e-07
-3.39639909231904e-07   -2.922255292923137e-07   5.652035625265277e-07
-3.39639909231904e-07   -2.922255292923137e-07   5.652035625265277e-07
-3.39639909231904e-07   -2.922255292923137e-07   5.652035625265277e-07
-2.3921124807111467e-07   -9.694568792855913e-08   8.497525692794075e-07
-2.3921124807111467e-07   -9.694568792855913e-08   8.497525692794075e-07
-2.3921124807111467e-07   -9.694568792855913e-08   8.497525692794075e-07
-2.3921124807111467e-07   -9.694568792855913e-08   8.497525692794075e-07
-2.2232141368356325e-07   -3.2251609862186834e-07   7.509722834752122e-07
-2.2232141368356325e-07   -3.2251609862186834e-07   7.509722834752122e-07
-2.2232141368356325e-07   -3.2251609862186834e-07   7.509722834752122e-07
-2.2232141368356325e-07   -3.2251609862186834e-07   7.509722834752122e-07
-3.554834925248852e-07   -1.7879816981169168e-07   8.866783242579877e-07
-3.554834925248852e-07   -1.7879816981169168e-07   8.866783242579877e-07
-3.554834925248852e-07   -1.7879816981169168e-07   8.866783242579877e-07
-3.554834925248852e-07   -1.7879816981169168e-07   8.866783242579877e-07
-2.6524679687247395e-07   -1.962687259033353e-07   7.467661651589408e-07
-2.6524679687247395e-07   -1.962687259033353e-07   7.467661651589408e-07
-2.6524679687247395e-07   -1.962687259033353e-07   7.467661651589408e-07
-2.6524679687247395e-07   -1.962687259033353e-07   7.467661651589408e-07
-3.5548349252487844e-07   -3.2251609862186834e-07   6.647415261890872e-07
-3.5548349252487844e-07   -3.2251609862186834e-07   6.647415261890872e-07
-3.5548349252487844e-07   -3.2251609862186834e-07   6.647415261890872e-07
-3.5548349252487844e-07   -3.2251609862186834e-07   6.647415261890872e-07
-2.2232141368356325e-07   -1.7879816981169168e-07   9.729090815440821e-07
-2.2232141368356325e-07   -1.7879816981169168e-07   9.729090815440821e-07
-2.2232141368356325e-07   -1.7879816981169168e-07   9.729090815440821e-07
-2.2232141368356325e-07   -1.7879816981169168e-07   9.729090815440821e-07
-1.9720127591219526e-07   -3.6095767804187267e-07   8.356034911025784e-07
-1.9720127591219526e-07   -3.6095767804187267e-07   8.356034911025784e-07
-1.9720127591219526e-07   -3.6095767804187267e-07   8.356034911025784e-07
-1.9720127591219526e-07   -3.6095767804187267e-07   8.356034911025784e-07
-3.884566747482934e-07   -3.315164263188878e-07   1.1366977381289359e-06
-3.884566747482934e-07   -3.315164263188878e-07   1.1366977381289359e-06
-3.884566747482934e-07   -3.315164263188878e-07   1.1366977381289359e-06
-3.884566747482934e-07   -3.315164263188878e-07   1.1366977381289359e-06
-2.596918464408871e-07   -2.4560341139740543e-07   8.705418819970613e-07
-2.596918464408871e-07   -2.4560341139740543e-07   8.705418819970613e-07
-2.596918464408871e-07   -2.4560341139740543e-07   8.705418819970613e-07
-2.596918464408871e-07   -2.4560341139740543e-07   8.705418819970613e-07
-2.7993152970810174e-07   -1.9559864899511596e-08   -3.5287129655768533e-07
-2.7993152970810174e-07   -1.9559864899511596e-08   -3.5287129655768533e-07
-2.7993152970810174e-07   -1.9559864899511596e-08   -3.5287129655768533e-07
-2.7993152970810174e-07   -1.9559864899511596e-08   -3.5287129655768533e-07
-8.274669131388599e-08   2.7747016145701574e-08   4.154229393127243e-09
-8.274669131388599e-08   2.7747016145701574e-08   4.154229393127243e-09
-8.274669131388599e-08   2.7747016145701574e-08   4.154229393127243e-09
-8.274669131388599e-08   2.7747016145701574e-08   4.154229393127243e-09
-4.389022455528581e-08   -3.09829205929384e-08   -2.5426713443245505e-07
-4.389022455528581e-08   -3.09829205929384e-08   -2.5426713443245505e-07
-4.389022455528581e-08   -3.09829205929384e-08   -2.5426713443245505e-07
-4.389022455528581e-08   -3.09829205929384e-08   -2.5426713443245505e-07
-2.3921124807111467e-07   4.312881852850429e-08   2.6800861287716712e-08
-2.3921124807111467e-07   4.312881852850429e-08   2.6800861287716712e-08
-2.3921124807111467e-07   4.312881852850429e-08   2.6800861287716712e-08
-2.3921124807111467e-07   4.312881852850429e-08   2.6800861287716712e-08
-1.4737792754388805e-07   1.6529437947555137e-08   -1.1029504457579081e-07
-1.4737792754388805e-07   1.6529437947555137e-08   -1.1029504457579081e-07
-1.4737792754388805e-07   1.6529437947555137e-08   -1.1029504457579081e-07
-1.4737792754388805e-07   1.6529437947555137e-08   -1.1029504457579081e-07
-2.3921124807111467e-07   -3.09829205929384e-08   -2.9873417790534946e-07
-2.3921124807111467e-07   -3.09829205929384e-08   -2.9873417790534946e-07
-2.3921124807111467e-07   -3.09829205929384e-08   -2.9873417790534946e-07
-2.3921124807111467e-07   -3.09829205929384e-08   -2.9873417790534946e-07
-4.389022455527226e-08   4.312881852850429e-08   7.126790476059757e-08
-4.389022455527226e-08   4.312881852850429e-08   7.126790476059757e-08
-4.389022455527226e-08   4.312881852850429e-08   7.126790476059757e-08
-4.389022455527226e-08   4.312881852850429e-08   7.126790476059757e-08
-2.9247455537705362e-08   -4.521383050228587e-08   -1.9904253464158304e-07
-2.9247455537705362e-08   -4.521383050228587e-08   -1.9904253464158304e-07
-2.9247455537705362e-08   -4.521383050228587e-08   -1.9904253464158304e-07
-2.9247455537705362e-08   -4.521383050228587e-08   -1.9904253464158304e-07
-2.2232141368356325e-07   2.3451577345283523e-08   8.154815089293657e-08
-2.2232141368356325e-07   2.3451577345283523e-08   8.154815089293657e-08
-2.2232141368356325e-07   2.3451577345283523e-08   8.154815089293657e-08
-2.2232141368356325e-07   2.3451577345283523e-08   8.154815089293657e-08
-1.215280124916916e-07   9.696495748048444e-09   -7.818780213509832e-08
-1.215280124916916e-07   9.696495748048444e-09   -7.818780213509832e-08
-1.215280124916916e-07   9.696495748048444e-09   -7.818780213509832e-08
-1.215280124916916e-07   9.696495748048444e-09   -7.818780213509832e-08
-2.2232141368356325e-07   -4.521383050228587e-08   -2.4024177935011925e-07
-2.2232141368356325e-07   -4.521383050228587e-08   -2.4024177935011925e-07
-2.2232141368356325e-07   -4.521383050228587e-08   -2.4024177935011925e-07
-2.2232141368356325e-07   -4.521383050228587e-08   -2.4024177935011925e-07
-2.9247455537705362e-08   2.3451577345283523e-08   1.2274739560148634e-07
-2.9247455537705362e-08   2.3451577345283523e-08   1.2274739560148634e-07
-2.9247455537705362e-08   2.3451577345283523e-08   1.2274739560148634e-07
-2.9247455537705362e-08   2.3451577345283523e-08   1.2274739560148634e-07
-1.4791397508253095e-08   -6.666572288370915e-08   -1.1081492708423944e-07
-1.4791397508253095e-08   -6.666572288370915e-08   -1.1081492708423944e-07
-1.4791397508253095e-08   -6.666572288370915e-08   -1.1081492708423944e-07
-1.4791397508253095e-08   -6.666572288370915e-08   -1.1081492708423944e-07
-1.9720127591219526e-07   -5.670480887109747e-09   1.5660439172433414e-07
-1.9720127591219526e-07   -5.670480887109747e-09   1.5660439172433414e-07
-1.9720127591219526e-07   -5.670480887109747e-09   1.5660439172433414e-07
-1.9720127591219526e-07   -5.670480887109747e-09   1.5660439172433414e-07
-9.944631798610267e-08   -1.1676431653227554e-09   -9.022240785526957e-09
-9.944631798610267e-08   -1.1676431653227554e-09   -9.022240785526957e-09
-9.944631798610267e-08   -1.1676431653227554e-09   -9.022240785526957e-09
-9.944631798610267e-08   -1.1676431653227554e-09   -9.022240785526957e-09
              </DataArray>   
             <DataArray type="Float64" NumberOfComponents="3" Name="Stress" format="ascii">   
-0.4091415526352154   -0.10228538815880385   -0.10228538815880385
-0.4091415526352154   -0.10228538815880385   -0.10228538815880385
-0.4091415526352154   -0.10228538815880385   -0.10228538815880385
-0.4091415526352154   -0.10228538815880385   -0.10228538815880385
-0.23636122434021142   -0.008342731897105791   -0.005073982425247307
-0.23636122434021142   -0.008342731897105791   -0.005073982425247307
-0.23636122434021142   -0.008342731897105791   -0.005073982425247307
-0.23636122434021142   -0.008342731897105791   -0.005073982425247307
-0.2540218708356496   -0.0635054677089124   -0.0635054677089124
-0.2540218708356496   -0.0635054677089124   -0.0635054677089124
-0.2540218708356496   -0.0635054677089124   -0.0635054677089124
-0.2540218708356496   -0.0635054677089124   -0.0635054677089124
-0.39400154623966166   -0.03302892073662514   -0.012842596875893845
-0.39400154623966166   -0.03302892073662514   -0.012842596875893845
-0.39400154623966166   -0.03302892073662514   -0.012842596875893845
-0.39400154623966166   -0.03302892073662514   -0.012842596875893845
-0.3088086599225472   -0.05102624813810714   -0.0008993486651849725
-0.3088086599225472   -0.05102624813810714   -0.0008993486651849725
-0.3088086599225472   -0.05102624813810714   -0.0008993486651849725
-0.3088086599225472   -0.05102624813810714   -0.0008993486651849725
-0.4275858252412873   -0.10689645631032182   -0.10689645631032182
-0.4275858252412873   -0.10689645631032182   -0.10689645631032182
-0.4275858252412873   -0.10689645631032182   -0.10689645631032182
-0.4275858252412873   -0.10689645631032182   -0.10689645631032182
-0.22847132187311028   0.002328337825698662   -0.0015865284308269317
-0.22847132187311028   0.002328337825698662   -0.0015865284308269317
-0.22847132187311028   0.002328337825698662   -0.0015865284308269317
-0.22847132187311028   0.002328337825698662   -0.0015865284308269317
-0.25421344631343407   -0.06355336157835852   -0.06355336157835852
-0.25421344631343407   -0.06355336157835852   -0.06355336157835852
-0.25421344631343407   -0.06355336157835852   -0.06355336157835852
-0.25421344631343407   -0.06355336157835852   -0.06355336157835852
-0.40665378009740316   -0.03318088717371046   -0.018746442713410284
-0.40665378009740316   -0.03318088717371046   -0.018746442713410284
-0.40665378009740316   -0.03318088717371046   -0.018746442713410284
-0.40665378009740316   -0.03318088717371046   -0.018746442713410284
-0.3197634491670539   -0.047852594900275186   -0.01691628993687405
-0.3197634491670539   -0.047852594900275186   -0.01691628993687405
-0.3197634491670539   -0.047852594900275186   -0.01691628993687405
-0.3197634491670539   -0.047852594900275186   -0.01691628993687405
-0.4402981267999774   -0.11007453169999434   -0.11007453169999434
-0.4402981267999774   -0.11007453169999434   -0.11007453169999434
-0.4402981267999774   -0.11007453169999434   -0.11007453169999434
-0.4402981267999774   -0.11007453169999434   -0.11007453169999434
-0.22731783857047233   0.006591543988313464   0.0007797715697780774
-0.22731783857047233   0.006591543988313464   0.0007797715697780774
-0.22731783857047233   0.006591543988313464   0.0007797715697780774
-0.22731783857047233   0.006591543988313464   0.0007797715697780774
-0.25348821736876304   -0.06337205434219076   -0.06337205434219076
-0.25348821736876304   -0.06337205434219076   -0.06337205434219076
-0.25348821736876304   -0.06337205434219076   -0.06337205434219076
-0.25348821736876304   -0.06337205434219076   -0.06337205434219076
-0.4294341556755186   -0.0287239323643622   -0.01152549696787462
-0.4294341556755186   -0.0287239323643622   -0.01152549696787462
-0.4294341556755186   -0.0287239323643622   -0.01152549696787462
-0.4294341556755186   -0.0287239323643622   -0.01152549696787462
-0.32768694153333   -0.04694769477467581   -0.030467738512310733
-0.32768694153333   -0.04694769477467581   -0.030467738512310733
-0.32768694153333   -0.04694769477467581   -0.030467738512310733
-0.32768694153333   -0.04694769477467581   -0.030467738512310733
-0.2596420905286014   -0.06491052263215034   -0.06491052263215034
-0.2596420905286014   -0.06491052263215034   -0.06491052263215034
-0.2596420905286014   -0.06491052263215034   -0.06491052263215034
-0.2596420905286014   -0.06491052263215034   -0.06491052263215034
-0.1090254077744742   -0.0078164669766866   -0.002488641360709736
-0.1090254077744742   -0.0078164669766866   -0.002488641360709736
-0.1090254077744742   -0.0078164669766866   -0.002488641360709736
-0.1090254077744742   -0.0078164669766866   -0.002488641360709736
-0.11379609149419362   -0.028449022873548405   -0.028449022873548405
-0.11379609149419362   -0.028449022873548405   -0.028449022873548405
-0.11379609149419362   -0.028449022873548405   -0.028449022873548405
-0.11379609149419362   -0.028449022873548405   -0.028449022873548405
-0.23603012044188076   -0.02809414015235071   -0.008958043296630021
-0.23603012044188076   -0.02809414015235071   -0.008958043296630021
-0.23603012044188076   -0.02809414015235071   -0.008958043296630021
-0.23603012044188076   -0.02809414015235071   -0.008958043296630021
-0.1744397555413458   -0.03323798299186292   0.0012751148364210587
-0.1744397555413458   -0.03323798299186292   0.0012751148364210587
-0.1744397555413458   -0.03323798299186292   0.0012751148364210587
-0.1744397555413458   -0.03323798299186292   0.0012751148364210587
-0.25402187083564937   -0.06350546770891234   -0.06350546770891234
-0.25402187083564937   -0.06350546770891234   -0.06350546770891234
-0.25402187083564937   -0.06350546770891234   -0.06350546770891234
-0.25402187083564937   -0.06350546770891234   -0.06350546770891234
-0.10238530812761369   0.0003813376558243903   -0.00022546657002159212
-0.10238530812761369   0.0003813376558243903   -0.00022546657002159212
-0.10238530812761369   0.0003813376558243903   -0.00022546657002159212
-0.10238530812761369   0.0003813376558243903   -0.00022546657002159212
-0.11074351436110635   -0.02768587859027659   -0.02768587859027659
-0.11074351436110635   -0.02768587859027659   -0.02768587859027659
-0.11074351436110635   -0.02768587859027659   -0.02768587859027659
-0.11074351436110635   -0.02768587859027659   -0.02768587859027659
-0.23492781606039356   -0.022779230881742673   -0.007899341009771854
-0.23492781606039356   -0.022779230881742673   -0.007899341009771854
-0.23492781606039356   -0.022779230881742673   -0.007899341009771854
-0.23492781606039356   -0.022779230881742673   -0.007899341009771854
-0.17150174228239556   -0.027875973464101873   -0.008910621255176604
-0.17150174228239556   -0.027875973464101873   -0.008910621255176604
-0.17150174228239556   -0.027875973464101873   -0.008910621255176604
-0.17150174228239556   -0.027875973464101873   -0.008910621255176604
-0.25421344631343407   -0.06355336157835852   -0.06355336157835852
-0.25421344631343407   -0.06355336157835852   -0.06355336157835852
-0.25421344631343407   -0.06355336157835852   -0.06355336157835852
-0.25421344631343407   -0.06355336157835852   -0.06355336157835852
-0.09783300225978797   0.006713133954617145   0.0024676693714216448
-0.09783300225978797   0.006713133954617145   0.0024676693714216448
-0.09783300225978797   0.006713133954617145   0.0024676693714216448
-0.09783300225978797   0.006713133954617145   0.0024676693714216448
-0.10787720792812484   -0.02696930198203121   -0.02696930198203121
-0.10787720792812484   -0.02696930198203121   -0.02696930198203121
-0.10787720792812484   -0.02696930198203121   -0.02696930198203121
-0.10787720792812484   -0.02696930198203121   -0.02696930198203121
-0.2326431283592208   -0.01742922370919911   -0.00508943992747422
-0.2326431283592208   -0.01742922370919911   -0.00508943992747422
-0.2326431283592208   -0.01742922370919911   -0.00508943992747422
-0.2326431283592208   -0.01742922370919911   -0.00508943992747422
-0.17180032247207958   -0.024522737536248194   -0.019774902780642395
-0.17180032247207958   -0.024522737536248194   -0.019774902780642395
-0.17180032247207958   -0.024522737536248194   -0.019774902780642395
-0.17180032247207958   -0.024522737536248194   -0.019774902780642395
-0.11884931789666124   -0.02971232947416531   -0.02971232947416531
-0.11884931789666124   -0.02971232947416531   -0.02971232947416531
-0.11884931789666124   -0.02971232947416531   -0.02971232947416531
-0.11884931789666124   -0.02971232947416531   -0.02971232947416531
0.012486146842942376   0.0005432421070412736   0.00012552096069104544
0.012486146842942376   0.0005432421070412736   0.00012552096069104544
0.012486146842942376   0.0005432421070412736   0.00012552096069104544
0.012486146842942376   0.0005432421070412736   0.00012552096069104544
0.017193627874360334   0.004298406968590083   0.004298406968590083
0.017193627874360334   0.004298406968590083   0.004298406968590083
0.017193627874360334   0.004298406968590083   0.004298406968590083
0.017193627874360334   0.004298406968590083   0.004298406968590083
-0.10695173232667722   -0.01847136419475154   -0.004204885714763282
-0.10695173232667722   -0.01847136419475154   -0.004204885714763282
-0.10695173232667722   -0.01847136419475154   -0.004204885714763282
-0.10695173232667722   -0.01847136419475154   -0.004204885714763282
-0.04660182903576023   -0.011787817418468152   0.007503974789843492
-0.04660182903576023   -0.011787817418468152   0.007503974789843492
-0.04660182903576023   -0.011787817418468152   0.007503974789843492
-0.04660182903576023   -0.011787817418468152   0.007503974789843492
-0.11379609149419362   -0.028449022873548405   -0.028449022873548405
-0.11379609149419362   -0.028449022873548405   -0.028449022873548405
-0.11379609149419362   -0.028449022873548405   -0.028449022873548405
-0.11379609149419362   -0.028449022873548405   -0.028449022873548405
0.017577583585162617   0.00781566219067277   0.002700930300518671
0.017577583585162617   0.00781566219067277   0.002700930300518671
0.017577583585162617   0.00781566219067277   0.002700930300518671
0.017577583585162617   0.00781566219067277   0.002700930300518671
0.020000748194620072   0.005000187048655018   0.005000187048655018
0.020000748194620072   0.005000187048655018   0.005000187048655018
0.020000748194620072   0.005000187048655018   0.005000187048655018
0.020000748194620072   0.005000187048655018   0.005000187048655018
-0.10268484828980347   -0.012263987242012607   -0.002814439582026969
-0.10268484828980347   -0.012263987242012607   -0.002814439582026969
-0.10268484828980347   -0.012263987242012607   -0.002814439582026969
-0.10268484828980347   -0.012263987242012607   -0.002814439582026969
-0.04419604221353193   -0.007212215049597202   -0.002728473594022061
-0.04419604221353193   -0.007212215049597202   -0.002728473594022061
-0.04419604221353193   -0.007212215049597202   -0.002728473594022061
-0.04419604221353193   -0.007212215049597202   -0.002728473594022061
-0.11074351436110635   -0.02768587859027659   -0.02768587859027659
-0.11074351436110635   -0.02768587859027659   -0.02768587859027659
-0.11074351436110635   -0.02768587859027659   -0.02768587859027659
-0.11074351436110635   -0.02768587859027659   -0.02768587859027659
0.02173024540102286   0.01409290953201901   0.004554950597304791
0.02173024540102286   0.01409290953201901   0.004554950597304791
0.02173024540102286   0.01409290953201901   0.004554950597304791
0.02173024540102286   0.01409290953201901   0.004554950597304791
0.0236035277322096   0.0059008819330524   0.0059008819330524
0.0236035277322096   0.0059008819330524   0.0059008819330524
0.0236035277322096   0.0059008819330524   0.0059008819330524
0.0236035277322096   0.0059008819330524   0.0059008819330524
-0.09804981103822867   -0.004902750282826589   0.00010113076824471139
-0.09804981103822867   -0.004902750282826589   0.00010113076824471139
-0.09804981103822867   -0.004902750282826589   0.00010113076824471139
-0.09804981103822867   -0.004902750282826589   0.00010113076824471139
-0.0423468338601372   -0.002800422096187572   -0.012868777289481124
-0.0423468338601372   -0.002800422096187572   -0.012868777289481124
-0.0423468338601372   -0.002800422096187572   -0.012868777289481124
-0.0423468338601372   -0.002800422096187572   -0.012868777289481124
0.013724882477106591   0.0034312206192766478   0.0034312206192766478
0.013724882477106591   0.0034312206192766478   0.0034312206192766478
0.013724882477106591   0.0034312206192766478   0.0034312206192766478
0.013724882477106591   0.0034312206192766478   0.0034312206192766478
0.14592236126600658   0.013455527037757396   0.004802276180450682
0.14592236126600658   0.013455527037757396   0.004802276180450682
0.14592236126600658   0.013455527037757396   0.004802276180450682
0.14592236126600658   0.013455527037757396   0.004802276180450682
0.15901660495326256   0.03975415123831564   0.03975415123831564
0.15901660495326256   0.03975415123831564   0.03975415123831564
0.15901660495326256   0.03975415123831564   0.03975415123831564
0.15901660495326256   0.03975415123831564   0.03975415123831564
0.013046733404075798   -0.010222206888126854   -0.001915451526115895
0.013046733404075798   -0.010222206888126854   -0.001915451526115895
0.013046733404075798   -0.010222206888126854   -0.001915451526115895
0.013046733404075798   -0.010222206888126854   -0.001915451526115895
0.08278484037934902   0.010337672197709362   0.014918182980705238
0.08278484037934902   0.010337672197709362   0.014918182980705238
0.08278484037934902   0.010337672197709362   0.014918182980705238
0.08278484037934902   0.010337672197709362   0.014918182980705238
0.01719362787436039   0.004298406968590097   0.004298406968590097
0.01719362787436039   0.004298406968590097   0.004298406968590097
0.01719362787436039   0.004298406968590097   0.004298406968590097
0.01719362787436039   0.004298406968590097   0.004298406968590097
0.14828939311089007   0.01865322000951079   0.00721902325525805
0.14828939311089007   0.01865322000951079   0.00721902325525805
0.14828939311089007   0.01865322000951079   0.00721902325525805
0.14828939311089007   0.01865322000951079   0.00721902325525805
0.1589016182727522   0.03972540456818805   0.03972540456818805
0.1589016182727522   0.03972540456818805   0.03972540456818805
0.1589016182727522   0.03972540456818805   0.03972540456818805
0.1589016182727522   0.03972540456818805   0.03972540456818805
0.01722265781035673   -0.004130742109524807   0.0002406642855179537
0.01722265781035673   -0.004130742109524807   0.0002406642855179537
0.01722265781035673   -0.004130742109524807   0.0002406642855179537
0.01722265781035673   -0.004130742109524807   0.0002406642855179537
0.08275043261142595   0.01378221959025493   0.0037556396358714925
0.08275043261142595   0.01378221959025493   0.0037556396358714925
0.08275043261142595   0.01378221959025493   0.0037556396358714925
0.08275043261142595   0.01378221959025493   0.0037556396358714925
0.020000748194620093   0.005000187048655023   0.005000187048655023
0.020000748194620093   0.005000187048655023   0.005000187048655023
0.020000748194620093   0.005000187048655023   0.005000187048655023
0.020000748194620093   0.005000187048655023   0.005000187048655023
0.14960966097336   0.024080608494879426   0.008910414144535823
0.14960966097336   0.024080608494879426   0.008910414144535823
0.14960966097336   0.024080608494879426   0.008910414144535823
0.14960966097336   0.024080608494879426   0.008910414144535823
0.16252297141250785   0.04063074285312696   0.04063074285312696
0.16252297141250785   0.04063074285312696   0.04063074285312696
0.16252297141250785   0.04063074285312696   0.04063074285312696
0.16252297141250785   0.04063074285312696   0.04063074285312696
0.02255343516463803   0.003875245320518939   0.002676055707727811
0.02255343516463803   0.003875245320518939   0.002676055707727811
0.02255343516463803   0.003875245320518939   0.002676055707727811
0.02255343516463803   0.003875245320518939   0.002676055707727811
0.08458507849492106   0.018838215759399982   -0.006591192400832341
0.08458507849492106   0.018838215759399982   -0.006591192400832341
0.08458507849492106   0.018838215759399982   -0.006591192400832341
0.08458507849492106   0.018838215759399982   -0.006591192400832341
0.1580786673581833   0.039519666839545824   0.039519666839545824
0.1580786673581833   0.039519666839545824   0.039519666839545824
0.1580786673581833   0.039519666839545824   0.039519666839545824
0.1580786673581833   0.039519666839545824   0.039519666839545824
0.3312902911642532   0.025433954264901554   0.009405733864449102
0.3312902911642532   0.025433954264901554   0.009405733864449102
0.3312902911642532   0.025433954264901554   0.009405733864449102
0.3312902911642532   0.025433954264901554   0.009405733864449102
0.3392876729826461   0.08482191824566153   0.08482191824566153
0.3392876729826461   0.08482191824566153   0.08482191824566153
0.3392876729826461   0.08482191824566153   0.08482191824566153
0.3392876729826461   0.08482191824566153   0.08482191824566153
0.14148981670058697   -0.007791917205468318   -0.00033372158127840945
0.14148981670058697   -0.007791917205468318   -0.00033372158127840945
0.14148981670058697   -0.007791917205468318   -0.00033372158127840945
0.14148981670058697   -0.007791917205468318   -0.00033372158127840945
0.2358085362410854   0.03357132497727477   0.02639709046128593
0.2358085362410854   0.03357132497727477   0.02639709046128593
0.2358085362410854   0.03357132497727477   0.02639709046128593
0.2358085362410854   0.03357132497727477   0.02639709046128593
0.15901660495326242   0.039754151238315605   0.039754151238315605
0.15901660495326242   0.039754151238315605   0.039754151238315605
0.15901660495326242   0.039754151238315605   0.039754151238315605
0.15901660495326242   0.039754151238315605   0.039754151238315605
0.3146885193203867   0.030203484392294762   0.016444583787736514
0.3146885193203867   0.030203484392294762   0.016444583787736514
0.3146885193203867   0.030203484392294762   0.016444583787736514
0.3146885193203867   0.030203484392294762   0.016444583787736514
0.32982690688552163   0.08245672672138041   0.08245672672138041
0.32982690688552163   0.08245672672138041   0.08245672672138041
0.32982690688552163   0.08245672672138041   0.08245672672138041
0.32982690688552163   0.08245672672138041   0.08245672672138041
0.14251945980366715   -0.00399531316746702   0.001535329958417906
0.14251945980366715   -0.00399531316746702   0.001535329958417906
0.14251945980366715   -0.00399531316746702   0.001535329958417906
0.14251945980366715   -0.00399531316746702   0.001535329958417906
0.22944757861191356   0.034716346016296924   0.01262364540600709
0.22944757861191356   0.034716346016296924   0.01262364540600709
0.22944757861191356   0.034716346016296924   0.01262364540600709
0.22944757861191356   0.034716346016296924   0.01262364540600709
0.1589016182727522   0.03972540456818805   0.03972540456818805
0.1589016182727522   0.03972540456818805   0.03972540456818805
0.1589016182727522   0.03972540456818805   0.03972540456818805
0.1589016182727522   0.03972540456818805   0.03972540456818805
0.3051758252521594   0.030467085821449143   0.011190959454505779
0.3051758252521594   0.030467085821449143   0.011190959454505779
0.3051758252521594   0.030467085821449143   0.011190959454505779
0.3051758252521594   0.030467085821449143   0.011190959454505779
0.3153468444539101   0.07883671111347752   0.07883671111347752
0.3153468444539101   0.07883671111347752   0.07883671111347752
0.3153468444539101   0.07883671111347752   0.07883671111347752
0.3153468444539101   0.07883671111347752   0.07883671111347752
0.1483678431906556   0.005533263089978056   0.004952581507014589
0.1483678431906556   0.005533263089978056   0.004952581507014589
0.1483678431906556   0.005533263089978056   0.004952581507014589
0.1483678431906556   0.005533263089978056   0.004952581507014589
0.22028882293689311   0.03785042514785634   -0.00346535159838214
0.22028882293689311   0.03785042514785634   -0.00346535159838214
0.22028882293689311   0.03785042514785634   -0.00346535159838214
0.22028882293689311   0.03785042514785634   -0.00346535159838214
-0.3184780131022171   -0.022893452484035008   0.004289203402112954
-0.3184780131022171   -0.022893452484035008   0.004289203402112954
-0.3184780131022171   -0.022893452484035008   0.004289203402112954
-0.3184780131022171   -0.022893452484035008   0.004289203402112954
-0.2034092948784152   -0.005359595832505386   -0.001562231365131745
-0.2034092948784152   -0.005359595832505386   -0.001562231365131745
-0.2034092948784152   -0.005359595832505386   -0.001562231365131745
-0.2034092948784152   -0.005359595832505386   -0.001562231365131745
-0.2042242139949823   0.008436935720972365   0.0047093531674140925
-0.2042242139949823   0.008436935720972365   0.0047093531674140925
-0.2042242139949823   0.008436935720972365   0.0047093531674140925
-0.2042242139949823   0.008436935720972365   0.0047093531674140925
-0.3229351964131845   -0.022383583752575126   -0.0041350707080886374
-0.3229351964131845   -0.022383583752575126   -0.0041350707080886374
-0.3229351964131845   -0.022383583752575126   -0.0041350707080886374
-0.3229351964131845   -0.022383583752575126   -0.0041350707080886374
-0.25201200251336386   -0.008818013513301852   -0.0013605190800877066
-0.25201200251336386   -0.008818013513301852   -0.0013605190800877066
-0.25201200251336386   -0.008818013513301852   -0.0013605190800877066
-0.25201200251336386   -0.008818013513301852   -0.0013605190800877066
-0.3202681842935858   -0.015292039787304285   0.0021084459246343244
-0.3202681842935858   -0.015292039787304285   0.0021084459246343244
-0.3202681842935858   -0.015292039787304285   0.0021084459246343244
-0.3202681842935858   -0.015292039787304285   0.0021084459246343244
-0.20719622977389057   0.0010403880963928067   -0.00275417810254394
-0.20719622977389057   0.0010403880963928067   -0.00275417810254394
-0.20719622977389057   0.0010403880963928067   -0.00275417810254394
-0.20719622977389057   0.0010403880963928067   -0.00275417810254394
-0.204123128614421   0.012122937704918915   0.005242030196754902
-0.204123128614421   0.012122937704918915   0.005242030196754902
-0.204123128614421   0.012122937704918915   0.005242030196754902
-0.204123128614421   0.012122937704918915   0.005242030196754902
-0.3244092259430224   -0.019588199423643968   -0.005424096046889929
-0.3244092259430224   -0.019588199423643968   -0.005424096046889929
-0.3244092259430224   -0.019588199423643968   -0.005424096046889929
-0.3244092259430224   -0.019588199423643968   -0.005424096046889929
-0.2586577096660866   -0.005763456940185305   -0.0026277557827647374
-0.2586577096660866   -0.005763456940185305   -0.0026277557827647374
-0.2586577096660866   -0.005763456940185305   -0.0026277557827647374
-0.2586577096660866   -0.005763456940185305   -0.0026277557827647374
-0.31822827482419636   -0.008806671293056997   0.014699131416650673
-0.31822827482419636   -0.008806671293056997   0.014699131416650673
-0.31822827482419636   -0.008806671293056997   0.014699131416650673
-0.31822827482419636   -0.008806671293056997   0.014699131416650673
-0.20781541609485912   0.0038300732127196507   -0.004926542713235112
-0.20781541609485912   0.0038300732127196507   -0.004926542713235112
-0.20781541609485912   0.0038300732127196507   -0.004926542713235112
-0.20781541609485912   0.0038300732127196507   -0.004926542713235112
-0.20002286815666084   0.0212994957332914   0.009180356001535824
-0.20002286815666084   0.0212994957332914   0.009180356001535824
-0.20002286815666084   0.0212994957332914   0.009180356001535824
-0.20002286815666084   0.0212994957332914   0.009180356001535824
-0.3147205160775249   -0.015505067727683619   -0.008707866136770982
-0.3147205160775249   -0.015505067727683619   -0.008707866136770982
-0.3147205160775249   -0.015505067727683619   -0.008707866136770982
-0.3147205160775249   -0.015505067727683619   -0.008707866136770982
-0.24822745658957396   0.0026370794296440223   0.005617996655601466
-0.24822745658957396   0.0026370794296440223   0.005617996655601466
-0.24822745658957396   0.0026370794296440223   0.005617996655601466
-0.24822745658957396   0.0026370794296440223   0.005617996655601466
-0.20826293502305132   -0.027836874782019704   -0.0033531531387981234
-0.20826293502305132   -0.027836874782019704   -0.0033531531387981234
-0.20826293502305132   -0.027836874782019704   -0.0033531531387981234
-0.20826293502305132   -0.027836874782019704   -0.0033531531387981234
-0.09682354435745741   -0.0025896797096455725   0.0009232917227306832
-0.09682354435745741   -0.0025896797096455725   0.0009232917227306832
-0.09682354435745741   -0.0025896797096455725   0.0009232917227306832
-0.09682354435745741   -0.0025896797096455725   0.0009232917227306832
-0.09786523345981195   0.0016581075863552272   0.001638308414831079
-0.09786523345981195   0.0016581075863552272   0.001638308414831079
-0.09786523345981195   0.0016581075863552272   0.001638308414831079
-0.09786523345981195   0.0016581075863552272   0.001638308414831079
-0.21217700578574522   -0.020311513071109517   -0.006306156994318579
-0.21217700578574522   -0.020311513071109517   -0.006306156994318579
-0.21217700578574522   -0.020311513071109517   -0.006306156994318579
-0.21217700578574522   -0.020311513071109517   -0.006306156994318579
-0.15381049904385063   -0.012698179583970206   -0.00370496548434988
-0.15381049904385063   -0.012698179583970206   -0.00370496548434988
-0.15381049904385063   -0.012698179583970206   -0.00370496548434988
-0.15381049904385063   -0.012698179583970206   -0.00370496548434988
-0.21190786836573086   -0.02211039805905514   -0.0031615849063018776
-0.21190786836573086   -0.02211039805905514   -0.0031615849063018776
-0.21190786836573086   -0.02211039805905514   -0.0031615849063018776
-0.21190786836573086   -0.02211039805905514   -0.0031615849063018776
-0.09776367935614234   0.0038276840979848334   -2.349757844969866e-05
-0.09776367935614234   0.0038276840979848334   -2.349757844969866e-05
-0.09776367935614234   0.0038276840979848334   -2.349757844969866e-05
-0.09776367935614234   0.0038276840979848334   -2.349757844969866e-05
-0.09718725216355145   0.006767005747817981   0.002091278241189552
-0.09718725216355145   0.006767005747817981   0.002091278241189552
-0.09718725216355145   0.006767005747817981   0.002091278241189552
-0.09718725216355145   0.006767005747817981   0.002091278241189552
-0.21190730386433562   -0.014709531506656395   -0.006846376841242936
-0.21190730386433562   -0.014709531506656395   -0.006846376841242936
-0.21190730386433562   -0.014709531506656395   -0.006846376841242936
-0.21190730386433562   -0.014709531506656395   -0.006846376841242936
-0.1532000279306074   -0.006993783825158386   -0.0017747473673077078
-0.1532000279306074   -0.006993783825158386   -0.0017747473673077078
-0.1532000279306074   -0.006993783825158386   -0.0017747473673077078
-0.1532000279306074   -0.006993783825158386   -0.0017747473673077078
-0.21102034937792305   -0.016535080438717948   -0.0005860554771184865
-0.21102034937792305   -0.016535080438717948   -0.0005860554771184865
-0.21102034937792305   -0.016535080438717948   -0.0005860554771184865
-0.21102034937792305   -0.016535080438717948   -0.0005860554771184865
-0.09738158922453508   0.009285172105308943   -0.0013985734212177657
-0.09738158922453508   0.009285172105308943   -0.0013985734212177657
-0.09738158922453508   0.009285172105308943   -0.0013985734212177657
-0.09738158922453508   0.009285172105308943   -0.0013985734212177657
-0.09526507848171056   0.011866666373979706   0.004011960610909613
-0.09526507848171056   0.011866666373979706   0.004011960610909613
-0.09526507848171056   0.011866666373979706   0.004011960610909613
-0.09526507848171056   0.011866666373979706   0.004011960610909613
-0.2092919463548366   -0.008231396540231653   -0.007634142715820923
-0.2092919463548366   -0.008231396540231653   -0.007634142715820923
-0.2092919463548366   -0.008231396540231653   -0.007634142715820923
-0.2092919463548366   -0.008231396540231653   -0.007634142715820923
-0.15222317654669604   -0.001589235782372203   0.0007482438838044975
-0.15222317654669604   -0.001589235782372203   0.0007482438838044975
-0.15222317654669604   -0.001589235782372203   0.0007482438838044975
-0.15222317654669604   -0.001589235782372203   0.0007482438838044975
-0.10196122914012783   -0.023201916384803754   -0.004152895515463894
-0.10196122914012783   -0.023201916384803754   -0.004152895515463894
-0.10196122914012783   -0.023201916384803754   -0.004152895515463894
-0.10196122914012783   -0.023201916384803754   -0.004152895515463894
0.008859877952308703   0.0019961350249901033   0.003969718067140367
0.008859877952308703   0.0019961350249901033   0.003969718067140367
0.008859877952308703   0.0019961350249901033   0.003969718067140367
0.008859877952308703   0.0019961350249901033   0.003969718067140367
0.008691643390364897   0.005572794230586408   0.0003725306948845768
0.008691643390364897   0.005572794230586408   0.0003725306948845768
0.008691643390364897   0.005572794230586408   0.0003725306948845768
0.008691643390364897   0.005572794230586408   0.0003725306948845768
-0.10210748712767974   -0.015249409540640003   -0.0026654427975126693
-0.10210748712767974   -0.015249409540640003   -0.0026654427975126693
-0.10210748712767974   -0.015249409540640003   -0.0026654427975126693
-0.10210748712767974   -0.015249409540640003   -0.0026654427975126693
-0.04708585140133044   -0.00781261411762312   -0.001582339740289017
-0.04708585140133044   -0.00781261411762312   -0.001582339740289017
-0.04708585140133044   -0.00781261411762312   -0.001582339740289017
-0.04708585140133044   -0.00781261411762312   -0.001582339740289017
-0.10282299436175671   -0.017585930967101933   -0.00390645754143553
-0.10282299436175671   -0.017585930967101933   -0.00390645754143553
-0.10282299436175671   -0.017585930967101933   -0.00390645754143553
-0.10282299436175671   -0.017585930967101933   -0.00390645754143553
0.009779101510800572   0.008281266543407214   0.0031013489842421473
0.009779101510800572   0.008281266543407214   0.0031013489842421473
0.009779101510800572   0.008281266543407214   0.0031013489842421473
0.009779101510800572   0.008281266543407214   0.0031013489842421473
0.009801815798271895   0.011159127451051097   0.001814469795216192
0.009801815798271895   0.011159127451051097   0.001814469795216192
0.009801815798271895   0.011159127451051097   0.001814469795216192
0.009801815798271895   0.011159127451051097   0.001814469795216192
-0.10145172356246546   -0.009114524805209412   -0.0033495482003531724
-0.10145172356246546   -0.009114524805209412   -0.0033495482003531724
-0.10145172356246546   -0.009114524805209412   -0.0033495482003531724
-0.10145172356246546   -0.009114524805209412   -0.0033495482003531724
-0.04605317839442519   -0.0018969105381244408   0.00047684717243743615
-0.04605317839442519   -0.0018969105381244408   0.00047684717243743615
-0.04605317839442519   -0.0018969105381244408   0.00047684717243743615
-0.04605317839442519   -0.0018969105381244408   0.00047684717243743615
-0.10175225624461183   -0.011923273499856462   -0.002043462916437896
-0.10175225624461183   -0.011923273499856462   -0.002043462916437896
-0.10175225624461183   -0.011923273499856462   -0.002043462916437896
-0.10175225624461183   -0.011923273499856462   -0.002043462916437896
0.010505695352728427   0.014371223018008313   0.0021217720005415703
0.010505695352728427   0.014371223018008313   0.0021217720005415703
0.010505695352728427   0.014371223018008313   0.0021217720005415703
0.010505695352728427   0.014371223018008313   0.0021217720005415703
0.010356508899412174   0.017344387322050372   0.002930498854988926
0.010356508899412174   0.017344387322050372   0.002930498854988926
0.010356508899412174   0.017344387322050372   0.002930498854988926
0.010356508899412174   0.017344387322050372   0.002930498854988926
-0.09980835923967293   -0.002580679133012423   -0.004257097671909612
-0.09980835923967293   -0.002580679133012423   -0.004257097671909612
-0.09980835923967293   -0.002580679133012423   -0.004257097671909612
-0.09980835923967293   -0.002580679133012423   -0.004257097671909612
-0.04459321359098936   0.004288386826790589   0.0027319239762659004
-0.04459321359098936   0.004288386826790589   0.0027319239762659004
-0.04459321359098936   0.004288386826790589   0.0027319239762659004
-0.04459321359098936   0.004288386826790589   0.0027319239762659004
0.0031936311263029834   -0.0171031253615442   -0.005262255676353928
0.0031936311263029834   -0.0171031253615442   -0.005262255676353928
0.0031936311263029834   -0.0171031253615442   -0.005262255676353928
0.0031936311263029834   -0.0171031253615442   -0.005262255676353928
0.11805881147840845   0.007955218396275221   0.007393353996295683
0.11805881147840845   0.007955218396275221   0.007393353996295683
0.11805881147840845   0.007955218396275221   0.007393353996295683
0.11805881147840845   0.007955218396275221   0.007393353996295683
0.11818969056499692   0.010940002266479275   -0.0012473629140068517
0.11818969056499692   0.010940002266479275   -0.0012473629140068517
0.11818969056499692   0.010940002266479275   -0.0012473629140068517
0.11818969056499692   0.010940002266479275   -0.0012473629140068517
0.005674352740166663   -0.010062095287695142   0.0009209669621749587
0.005674352740166663   -0.010062095287695142   0.0009209669621749587
0.005674352740166663   -0.010062095287695142   0.0009209669621749587
0.005674352740166663   -0.010062095287695142   0.0009209669621749587
0.06050393825044102   -0.0016039074576258295   2.3241193760591573e-05
0.06050393825044102   -0.0016039074576258295   2.3241193760591573e-05
0.06050393825044102   -0.0016039074576258295   2.3241193760591573e-05
0.06050393825044102   -0.0016039074576258295   2.3241193760591573e-05
0.004217814306309889   -0.0124080537511813   -0.004015766743622688
0.004217814306309889   -0.0124080537511813   -0.004015766743622688
0.004217814306309889   -0.0124080537511813   -0.004015766743622688
0.004217814306309889   -0.0124080537511813   -0.004015766743622688
0.12033425332900284   0.013973985060114578   0.006441468112386422
0.12033425332900284   0.013973985060114578   0.006441468112386422
0.12033425332900284   0.013973985060114578   0.006441468112386422
0.12033425332900284   0.013973985060114578   0.006441468112386422
0.1195152608976689   0.016485787721850387   0.0010307103550817602
0.1195152608976689   0.016485787721850387   0.0010307103550817602
0.1195152608976689   0.016485787721850387   0.0010307103550817602
0.1195152608976689   0.016485787721850387   0.0010307103550817602
0.0062611047813421385   -0.004559545140042134   -0.00017041269833936116
0.0062611047813421385   -0.004559545140042134   -0.00017041269833936116
0.0062611047813421385   -0.004559545140042134   -0.00017041269833936116
0.0062611047813421385   -0.004559545140042134   -0.00017041269833936116
0.06169047903080631   0.00368417670937817   0.0025566099775024705
0.06169047903080631   0.00368417670937817   0.0025566099775024705
0.06169047903080631   0.00368417670937817   0.0025566099775024705
0.06169047903080631   0.00368417670937817   0.0025566099775024705
0.005165360688352888   -0.007193391709745592   -0.0030152865935821234
0.005165360688352888   -0.007193391709745592   -0.0030152865935821234
0.005165360688352888   -0.007193391709745592   -0.0030152865935821234
0.005165360688352888   -0.007193391709745592   -0.0030152865935821234
0.12111209803350573   0.019620727334401088   0.005879956421713163
0.12111209803350573   0.019620727334401088   0.005879956421713163
0.12111209803350573   0.019620727334401088   0.005879956421713163
0.12111209803350573   0.019620727334401088   0.005879956421713163
0.11790801510607894   0.02287681543925245   0.0023293263599542084
0.11790801510607894   0.02287681543925245   0.0023293263599542084
0.11790801510607894   0.02287681543925245   0.0023293263599542084
0.11790801510607894   0.02287681543925245   0.0023293263599542084
0.0065179311298793514   0.0021933523141709557   -0.0011113549847957644
0.0065179311298793514   0.0021933523141709557   -0.0011113549847957644
0.0065179311298793514   0.0021933523141709557   -0.0011113549847957644
0.0065179311298793514   0.0021933523141709557   -0.0011113549847957644
0.06297317981936175   0.00971759873610971   0.004921802017684731
0.06297317981936175   0.00971759873610971   0.004921802017684731
0.06297317981936175   0.00971759873610971   0.004921802017684731
0.06297317981936175   0.00971759873610971   0.004921802017684731
0.1083827321606767   -0.023029224289934282   -0.01000259990615356
0.1083827321606767   -0.023029224289934282   -0.01000259990615356
0.1083827321606767   -0.023029224289934282   -0.01000259990615356
0.1083827321606767   -0.023029224289934282   -0.01000259990615356
0.22480817087396218   0.014868417622546835   0.007522750310232628
0.22480817087396218   0.014868417622546835   0.007522750310232628
0.22480817087396218   0.014868417622546835   0.007522750310232628
0.22480817087396218   0.014868417622546835   0.007522750310232628
0.22776233293721232   0.0065125006576297745   -0.015084148502413554
0.22776233293721232   0.0065125006576297745   -0.015084148502413554
0.22776233293721232   0.0065125006576297745   -0.015084148502413554
0.22776233293721232   0.0065125006576297745   -0.015084148502413554
0.11632753060580567   -0.004228512155005061   0.004610351711519019
0.11632753060580567   -0.004228512155005061   0.004610351711519019
0.11632753060580567   -0.004228512155005061   0.004610351711519019
0.11632753060580567   -0.004228512155005061   0.004610351711519019
0.16083627164851433   -0.003169776645796797   -0.004294284652855656
0.16083627164851433   -0.003169776645796797   -0.004294284652855656
0.16083627164851433   -0.003169776645796797   -0.004294284652855656
0.16083627164851433   -0.003169776645796797   -0.004294284652855656
0.11189222643884952   -0.015003022664344223   -0.006791658613921017
0.11189222643884952   -0.015003022664344223   -0.006791658613921017
0.11189222643884952   -0.015003022664344223   -0.006791658613921017
0.11189222643884952   -0.015003022664344223   -0.006791658613921017
0.2343375893558103   0.019426963418611082   0.004877670829595081
0.2343375893558103   0.019426963418611082   0.004877670829595081
0.2343375893558103   0.019426963418611082   0.004877670829595081
0.2343375893558103   0.019426963418611082   0.004877670829595081
0.23086158863747402   0.012597652877239386   -0.0038419686518571684
0.23086158863747402   0.012597652877239386   -0.0038419686518571684
0.23086158863747402   0.012597652877239386   -0.0038419686518571684
0.23086158863747402   0.012597652877239386   -0.0038419686518571684
0.1162303878654954   -0.0014448042429994895   0.0025369371590621198
0.1162303878654954   -0.0014448042429994895   0.0025369371590621198
0.1162303878654954   -0.0014448042429994895   0.0025369371590621198
0.1162303878654954   -0.0014448042429994895   0.0025369371590621198
0.16990319318638303   0.004279136971011219   0.0028607964310356088
0.16990319318638303   0.004279136971011219   0.0028607964310356088
0.16990319318638303   0.004279136971011219   0.0028607964310356088
0.16990319318638303   0.004279136971011219   0.0028607964310356088
0.11261498173892633   -0.01140021192954592   -0.005584685787235965
0.11261498173892633   -0.01140021192954592   -0.005584685787235965
0.11261498173892633   -0.01140021192954592   -0.005584685787235965
0.11261498173892633   -0.01140021192954592   -0.005584685787235965
0.2342329002500114   0.02230896604975424   0.0033032762383147533
0.2342329002500114   0.02230896604975424   0.0033032762383147533
0.2342329002500114   0.02230896604975424   0.0033032762383147533
0.2342329002500114   0.02230896604975424   0.0033032762383147533
0.23114438355470793   0.01995448505367788   -0.005717849038538866
0.23114438355470793   0.01995448505367788   -0.005717849038538866
0.23114438355470793   0.01995448505367788   -0.005717849038538866
0.23114438355470793   0.01995448505367788   -0.005717849038538866
0.11414005363196228   0.004837443628414349   0.0015288908002071269
0.11414005363196228   0.004837443628414349   0.0015288908002071269
0.11414005363196228   0.004837443628414349   0.0015288908002071269
0.11414005363196228   0.004837443628414349   0.0015288908002071269
0.16602275274967027   0.00773324489565386   0.002336159803364793
0.16602275274967027   0.00773324489565386   0.002336159803364793
0.16602275274967027   0.00773324489565386   0.002336159803364793
0.16602275274967027   0.00773324489565386   0.002336159803364793
-0.24633215140499098   -0.010936739433313504   0.013474907157402483
-0.24633215140499098   -0.010936739433313504   0.013474907157402483
-0.24633215140499098   -0.010936739433313504   0.013474907157402483
-0.24633215140499098   -0.010936739433313504   0.013474907157402483
-0.16482226929401345   -0.006774785129075124   -0.00350578947069311
-0.16482226929401345   -0.006774785129075124   -0.00350578947069311
-0.16482226929401345   -0.006774785129075124   -0.00350578947069311
-0.16482226929401345   -0.006774785129075124   -0.00350578947069311
-0.15843913308127416   0.013586861549566863   0.011221092470710913
-0.15843913308127416   0.013586861549566863   0.011221092470710913
-0.15843913308127416   0.013586861549566863   0.011221092470710913
-0.15843913308127416   0.013586861549566863   0.011221092470710913
-0.24731014430106837   -0.017837802396095913   -0.005444266844695775
-0.24731014430106837   -0.017837802396095913   -0.005444266844695775
-0.24731014430106837   -0.017837802396095913   -0.005444266844695775
-0.24731014430106837   -0.017837802396095913   -0.005444266844695775
-0.19601621446635414   -0.0030203267096837044   -0.0007189809606605382
-0.19601621446635414   -0.0030203267096837044   -0.0007189809606605382
-0.19601621446635414   -0.0030203267096837044   -0.0007189809606605382
-0.19601621446635414   -0.0030203267096837044   -0.0007189809606605382
-0.24005807308708815   -0.0019879063165968644   0.014966193145706293
-0.24005807308708815   -0.0019879063165968644   0.014966193145706293
-0.24005807308708815   -0.0019879063165968644   0.014966193145706293
-0.24005807308708815   -0.0019879063165968644   0.014966193145706293
-0.1645569380566239   -0.0011287682913014158   -0.004652302565169663
-0.1645569380566239   -0.0011287682913014158   -0.004652302565169663
-0.1645569380566239   -0.0011287682913014158   -0.004652302565169663
-0.1645569380566239   -0.0011287682913014158   -0.004652302565169663
-0.15762140114743728   0.016921590359942333   0.010337028075456476
-0.15762140114743728   0.016921590359942333   0.010337028075456476
-0.15762140114743728   0.016921590359942333   0.010337028075456476
-0.15762140114743728   0.016921590359942333   0.010337028075456476
-0.2430975778121745   -0.014796009201908294   -0.0073974511052515915
-0.2430975778121745   -0.014796009201908294   -0.0073974511052515915
-0.2430975778121745   -0.014796009201908294   -0.0073974511052515915
-0.2430975778121745   -0.014796009201908294   -0.0073974511052515915
-0.1961172214908673   0.0008926730098893637   0.002085096807885928
-0.1961172214908673   0.0008926730098893637   0.002085096807885928
-0.1961172214908673   0.0008926730098893637   0.002085096807885928
-0.1961172214908673   0.0008926730098893637   0.002085096807885928
-0.23636661872343356   0.0011645068808005948   0.01029682825574407
-0.23636661872343356   0.0011645068808005948   0.01029682825574407
-0.23636661872343356   0.0011645068808005948   0.01029682825574407
-0.23636661872343356   0.0011645068808005948   0.01029682825574407
-0.1639807237278505   0.0013327107855612974   -0.005870705252227586
-0.1639807237278505   0.0013327107855612974   -0.005870705252227586
-0.1639807237278505   0.0013327107855612974   -0.005870705252227586
-0.1639807237278505   0.0013327107855612974   -0.005870705252227586
-0.1576188272208723   0.019298120161254935   0.008206384451269217
-0.1576188272208723   0.019298120161254935   0.008206384451269217
-0.1576188272208723   0.019298120161254935   0.008206384451269217
-0.1576188272208723   0.019298120161254935   0.008206384451269217
-0.23773324917899658   -0.01146636837743037   -0.009383497698914658
-0.23773324917899658   -0.01146636837743037   -0.009383497698914658
-0.23773324917899658   -0.01146636837743037   -0.009383497698914658
-0.23773324917899658   -0.01146636837743037   -0.009383497698914658
-0.19021308127320133   0.00444335224125092   0.00464500641268163
-0.19021308127320133   0.00444335224125092   0.00464500641268163
-0.19021308127320133   0.00444335224125092   0.00464500641268163
-0.19021308127320133   0.00444335224125092   0.00464500641268163
-0.16507852775052415   -0.015614756757724328   0.004052889875402678
-0.16507852775052415   -0.015614756757724328   0.004052889875402678
-0.16507852775052415   -0.015614756757724328   0.004052889875402678
-0.16507852775052415   -0.015614756757724328   0.004052889875402678
-0.08451156273590343   -0.00334473884390004   0.00010658695798123133
-0.08451156273590343   -0.00334473884390004   0.00010658695798123133
-0.08451156273590343   -0.00334473884390004   0.00010658695798123133
-0.08451156273590343   -0.00334473884390004   0.00010658695798123133
-0.08189917226987849   0.008219276507669439   0.006069957383709471
-0.08189917226987849   0.008219276507669439   0.006069957383709471
-0.08189917226987849   0.008219276507669439   0.006069957383709471
-0.08189917226987849   0.008219276507669439   0.006069957383709471
-0.16763879945374904   -0.015396866137727366   -0.005793511704370782
-0.16763879945374904   -0.015396866137727366   -0.005793511704370782
-0.16763879945374904   -0.015396866137727366   -0.005793511704370782
-0.16763879945374904   -0.015396866137727366   -0.005793511704370782
-0.12437927370698039   -0.006107911074921139   -0.0026905200853485998
-0.12437927370698039   -0.006107911074921139   -0.0026905200853485998
-0.12437927370698039   -0.006107911074921139   -0.0026905200853485998
-0.12437927370698039   -0.006107911074921139   -0.0026905200853485998
-0.1643724405065165   -0.008717571031322521   0.0038589879253876636
-0.1643724405065165   -0.008717571031322521   0.0038589879253876636
-0.1643724405065165   -0.008717571031322521   0.0038589879253876636
-0.1643724405065165   -0.008717571031322521   0.0038589879253876636
-0.08451704446909114   0.002188468149284667   -0.0009885952539684974
-0.08451704446909114   0.002188468149284667   -0.0009885952539684974
-0.08451704446909114   0.002188468149284667   -0.0009885952539684974
-0.08451704446909114   0.002188468149284667   -0.0009885952539684974
-0.08149073137656389   0.013787676457000353   0.005223090489269095
-0.08149073137656389   0.013787676457000353   0.005223090489269095
-0.08149073137656389   0.013787676457000353   0.005223090489269095
-0.08149073137656389   0.013787676457000353   0.005223090489269095
-0.16649064816945366   -0.010228604787673207   -0.006859011887009872
-0.16649064816945366   -0.010228604787673207   -0.006859011887009872
-0.16649064816945366   -0.010228604787673207   -0.006859011887009872
-0.16649064816945366   -0.010228604787673207   -0.006859011887009872
-0.12285846790183999   -0.0005256716623946826   -0.00010263489537898438
-0.12285846790183999   -0.0005256716623946826   -0.00010263489537898438
-0.12285846790183999   -0.0005256716623946826   -0.00010263489537898438
-0.12285846790183999   -0.0005256716623946826   -0.00010263489537898438
-0.1631613246778934   -0.003066050120413083   0.002625050903531394
-0.1631613246778934   -0.003066050120413083   0.002625050903531394
-0.1631613246778934   -0.003066050120413083   0.002625050903531394
-0.1631613246778934   -0.003066050120413083   0.002625050903531394
-0.08429308135306429   0.007152095304800061   -0.0021530782410310043
-0.08429308135306429   0.007152095304800061   -0.0021530782410310043
-0.08429308135306429   0.007152095304800061   -0.0021530782410310043
-0.08429308135306429   0.007152095304800061   -0.0021530782410310043
-0.08132135172920181   0.019667540478559283   0.0038899477524989533
-0.08132135172920181   0.019667540478559283   0.0038899477524989533
-0.08132135172920181   0.019667540478559283   0.0038899477524989533
-0.08132135172920181   0.019667540478559283   0.0038899477524989533
-0.16551550379281504   -0.004612229020714807   -0.007366649226475808
-0.16551550379281504   -0.004612229020714807   -0.007366649226475808
-0.16551550379281504   -0.004612229020714807   -0.007366649226475808
-0.16551550379281504   -0.004612229020714807   -0.007366649226475808
-0.12275993142763184   0.004645867916733153   0.0018999326423967747
-0.12275993142763184   0.004645867916733153   0.0018999326423967747
-0.12275993142763184   0.004645867916733153   0.0018999326423967747
-0.12275993142763184   0.004645867916733153   0.0018999326423967747
-0.08756099363267393   -0.018149203482823967   -0.0003361028869483002
-0.08756099363267393   -0.018149203482823967   -0.0003361028869483002
-0.08756099363267393   -0.018149203482823967   -0.0003361028869483002
-0.08756099363267393   -0.018149203482823967   -0.0003361028869483002
-0.0048607385457727055   0.00051890228700477   0.0037266896695289354
-0.0048607385457727055   0.00051890228700477   0.0037266896695289354
-0.0048607385457727055   0.00051890228700477   0.0037266896695289354
-0.0048607385457727055   0.00051890228700477   0.0037266896695289354
-0.005038507207649927   0.005057956050936059   0.001802405240337832
-0.005038507207649927   0.005057956050936059   0.001802405240337832
-0.005038507207649927   0.005057956050936059   0.001802405240337832
-0.005038507207649927   0.005057956050936059   0.001802405240337832
-0.08747338676378343   -0.011470840416109164   -0.0021109981620365936
-0.08747338676378343   -0.011470840416109164   -0.0021109981620365936
-0.08747338676378343   -0.011470840416109164   -0.0021109981620365936
-0.08747338676378343   -0.011470840416109164   -0.0021109981620365936
-0.046383992813259944   -0.005801744597172183   -0.0015421600742434752
-0.046383992813259944   -0.005801744597172183   -0.0015421600742434752
-0.046383992813259944   -0.005801744597172183   -0.0015421600742434752
-0.046383992813259944   -0.005801744597172183   -0.0015421600742434752
-0.0873775550763991   -0.01199239216593849   -0.0011102879752857165
-0.0873775550763991   -0.01199239216593849   -0.0011102879752857165
-0.0873775550763991   -0.01199239216593849   -0.0011102879752857165
-0.0873775550763991   -0.01199239216593849   -0.0011102879752857165
-0.004653786126860636   0.006060060568938993   0.002723906126281402
-0.004653786126860636   0.006060060568938993   0.002723906126281402
-0.004653786126860636   0.006060060568938993   0.002723906126281402
-0.004653786126860636   0.006060060568938993   0.002723906126281402
-0.0044883208480872945   0.011110820435930719   0.0008137752909693229
-0.0044883208480872945   0.011110820435930719   0.0008137752909693229
-0.0044883208480872945   0.011110820435930719   0.0008137752909693229
-0.0044883208480872945   0.011110820435930719   0.0008137752909693229
-0.08710034811939799   -0.005911972628344699   -0.0031253441395557376
-0.08710034811939799   -0.005911972628344699   -0.0031253441395557376
-0.08710034811939799   -0.005911972628344699   -0.0031253441395557376
-0.08710034811939799   -0.005911972628344699   -0.0031253441395557376
-0.04579006049968908   -0.00022635247397987703   0.0005566997958216598
-0.04579006049968908   -0.00022635247397987703   0.0005566997958216598
-0.04579006049968908   -0.00022635247397987703   0.0005566997958216598
-0.04579006049968908   -0.00022635247397987703   0.0005566997958216598
-0.08697363875369163   -0.006024793492714772   -0.0023789764466538195
-0.08697363875369163   -0.006024793492714772   -0.0023789764466538195
-0.08697363875369163   -0.006024793492714772   -0.0023789764466538195
-0.08697363875369163   -0.006024793492714772   -0.0023789764466538195
-0.004219468650743839   0.011619202863350948   0.001649653850266432
-0.004219468650743839   0.011619202863350948   0.001649653850266432
-0.004219468650743839   0.011619202863350948   0.001649653850266432
-0.004219468650743839   0.011619202863350948   0.001649653850266432
-0.004252222210158669   0.017334538108484208   -0.00023714849394071858
-0.004252222210158669   0.017334538108484208   -0.00023714849394071858
-0.004252222210158669   0.017334538108484208   -0.00023714849394071858
-0.004252222210158669   0.017334538108484208   -0.00023714849394071858
-0.08691885344586356   -0.0002678071930834816   -0.004162213159167566
-0.08691885344586356   -0.0002678071930834816   -0.004162213159167566
-0.08691885344586356   -0.0002678071930834816   -0.004162213159167566
-0.08691885344586356   -0.0002678071930834816   -0.004162213159167566
-0.04529486202170252   0.005355201060686878   0.0024840610118418652
-0.04529486202170252   0.005355201060686878   0.0024840610118418652
-0.04529486202170252   0.005355201060686878   0.0024840610118418652
-0.04529486202170252   0.005355201060686878   0.0024840610118418652
-0.010604479715361945   -0.020125611183350565   -0.004347502708061896
-0.010604479715361945   -0.020125611183350565   -0.004347502708061896
-0.010604479715361945   -0.020125611183350565   -0.004347502708061896
-0.010604479715361945   -0.020125611183350565   -0.004347502708061896
0.07422596200781738   0.004995504365964314   0.00710674736952354
0.07422596200781738   0.004995504365964314   0.00710674736952354
0.07422596200781738   0.004995504365964314   0.00710674736952354
0.07422596200781738   0.004995504365964314   0.00710674736952354
0.07175286212295079   0.0023725388391838565   -0.002984371786214171
0.07175286212295079   0.0023725388391838565   -0.002984371786214171
0.07175286212295079   0.0023725388391838565   -0.002984371786214171
0.07175286212295079   0.0023725388391838565   -0.002984371786214171
-0.0075113069111455285   -0.007163693971047902   0.0016600567448438362
-0.0075113069111455285   -0.007163693971047902   0.0016600567448438362
-0.0075113069111455285   -0.007163693971047902   0.0016600567448438362
-0.0075113069111455285   -0.007163693971047902   0.0016600567448438362
0.0314974522724183   -0.004888553793827231   -0.000908783285432591
0.0314974522724183   -0.004888553793827231   -0.000908783285432591
0.0314974522724183   -0.004888553793827231   -0.000908783285432591
0.0314974522724183   -0.004888553793827231   -0.000908783285432591
-0.01042616714399486   -0.014568316945876993   -0.005509621444573732
-0.01042616714399486   -0.014568316945876993   -0.005509621444573732
-0.01042616714399486   -0.014568316945876993   -0.005509621444573732
-0.01042616714399486   -0.014568316945876993   -0.005509621444573732
0.07521545484204507   0.010324894300258059   0.00637623634818305
0.07521545484204507   0.010324894300258059   0.00637623634818305
0.07521545484204507   0.010324894300258059   0.00637623634818305
0.07521545484204507   0.010324894300258059   0.00637623634818305
0.07316861975006086   0.0080195304898797   -0.004182549517448904
0.07316861975006086   0.0080195304898797   -0.004182549517448904
0.07316861975006086   0.0080195304898797   -0.004182549517448904
0.07316861975006086   0.0080195304898797   -0.004182549517448904
-0.007195204152966674   -0.0021778593373076543   0.0005680385398109123
-0.007195204152966674   -0.0021778593373076543   0.0005680385398109123
-0.007195204152966674   -0.0021778593373076543   0.0005680385398109123
-0.007195204152966674   -0.0021778593373076543   0.0005680385398109123
0.03198529340202146   0.0001929014609086373   0.0011909944666760105
0.03198529340202146   0.0001929014609086373   0.0011909944666760105
0.03198529340202146   0.0001929014609086373   0.0011909944666760105
0.03198529340202146   0.0001929014609086373   0.0011909944666760105
-0.010034515334477153   -0.009121551637123304   -0.006684825067925917
-0.010034515334477153   -0.009121551637123304   -0.006684825067925917
-0.010034515334477153   -0.009121551637123304   -0.006684825067925917
-0.010034515334477153   -0.009121551637123304   -0.006684825067925917
0.0766060609423682   0.015561352800492199   0.005462834133475309
0.0766060609423682   0.015561352800492199   0.005462834133475309
0.0766060609423682   0.015561352800492199   0.005462834133475309
0.0766060609423682   0.015561352800492199   0.005462834133475309
0.0741105752857784   0.01504713898267439   -0.0044350657981776405
0.0741105752857784   0.01504713898267439   -0.0044350657981776405
0.0741105752857784   0.01504713898267439   -0.0044350657981776405
0.0741105752857784   0.01504713898267439   -0.0044350657981776405
-0.00705709627203965   0.0035956096265013053   -0.0005225903213626588
-0.00705709627203965   0.0035956096265013053   -0.0005225903213626588
-0.00705709627203965   0.0035956096265013053   -0.0005225903213626588
-0.00705709627203965   0.0035956096265013053   -0.0005225903213626588
0.033338207646316086   0.005801116310806169   0.0036598543049487856
0.033338207646316086   0.005801116310806169   0.0036598543049487856
0.033338207646316086   0.005801116310806169   0.0036598543049487856
0.033338207646316086   0.005801116310806169   0.0036598543049487856
0.06605967445831819   -0.020109724104191644   -0.008619461907815743
0.06605967445831819   -0.020109724104191644   -0.008619461907815743
0.06605967445831819   -0.020109724104191644   -0.008619461907815743
0.06605967445831819   -0.020109724104191644   -0.008619461907815743
0.14722686689631595   0.010968001889012757   0.00814847393186882
0.14722686689631595   0.010968001889012757   0.00814847393186882
0.14722686689631595   0.010968001889012757   0.00814847393186882
0.14722686689631595   0.010968001889012757   0.00814847393186882
0.14613398554245485   -0.0014858807980150587   -0.011482946440181123
0.14613398554245485   -0.0014858807980150587   -0.011482946440181123
0.14613398554245485   -0.0014858807980150587   -0.011482946440181123
0.14613398554245485   -0.0014858807980150587   -0.011482946440181123
0.07271674308728188   -0.001331859031331581   0.005539430905957264
0.07271674308728188   -0.001331859031331581   0.005539430905957264
0.07271674308728188   -0.001331859031331581   0.005539430905957264
0.07271674308728188   -0.001331859031331581   0.005539430905957264
0.10277726806697368   -0.004119219172379   -0.003520266706237731
0.10277726806697368   -0.004119219172379   -0.003520266706237731
0.10277726806697368   -0.004119219172379   -0.003520266706237731
0.10277726806697368   -0.004119219172379   -0.003520266706237731
0.06629573518486662   -0.017280362590822305   -0.010617105046628154
0.06629573518486662   -0.017280362590822305   -0.010617105046628154
0.06629573518486662   -0.017280362590822305   -0.010617105046628154
0.06629573518486662   -0.017280362590822305   -0.010617105046628154
0.15301079687845456   0.014918426195060303   0.006496803246742073
0.15301079687845456   0.014918426195060303   0.006496803246742073
0.15301079687845456   0.014918426195060303   0.006496803246742073
0.15301079687845456   0.014918426195060303   0.006496803246742073
0.15016209224890104   0.0017349843195494132   -0.015495824411599014
0.15016209224890104   0.0017349843195494132   -0.015495824411599014
0.15016209224890104   0.0017349843195494132   -0.015495824411599014
0.15016209224890104   0.0017349843195494132   -0.015495824411599014
0.07346505872663442   0.001131664658542201   0.004187511196757794
0.07346505872663442   0.001131664658542201   0.004187511196757794
0.07346505872663442   0.001131664658542201   0.004187511196757794
0.07346505872663442   0.001131664658542201   0.004187511196757794
0.10780746243436168   -0.0006007879318887209   -0.0009900954042100897
0.10780746243436168   -0.0006007879318887209   -0.0009900954042100897
0.10780746243436168   -0.0006007879318887209   -0.0009900954042100897
0.10780746243436168   -0.0006007879318887209   -0.0009900954042100897
0.06726111564514418   -0.014071795024427104   -0.011628744527724735
0.06726111564514418   -0.014071795024427104   -0.011628744527724735
0.06726111564514418   -0.014071795024427104   -0.011628744527724735
0.06726111564514418   -0.014071795024427104   -0.011628744527724735
0.15737936062680613   0.017951769298933724   0.004373732498543672
0.15737936062680613   0.017951769298933724   0.004373732498543672
0.15737936062680613   0.017951769298933724   0.004373732498543672
0.15737936062680613   0.017951769298933724   0.004373732498543672
0.1565338934153498   0.010073718497225805   -0.014683574639123106
0.1565338934153498   0.010073718497225805   -0.014683574639123106
0.1565338934153498   0.010073718497225805   -0.014683574639123106
0.1565338934153498   0.010073718497225805   -0.014683574639123106
0.07389632762847363   0.006443514989480356   0.0030973199084940277
0.07389632762847363   0.006443514989480356   0.0030973199084940277
0.07389632762847363   0.006443514989480356   0.0030973199084940277
0.07389632762847363   0.006443514989480356   0.0030973199084940277
0.10899519399779095   0.003366993966292444   0.001864992821659089
0.10899519399779095   0.003366993966292444   0.001864992821659089
0.10899519399779095   0.003366993966292444   0.001864992821659089
0.10899519399779095   0.003366993966292444   0.001864992821659089
-0.17271663562150996   -0.0052542723191133164   0.01199114090661243
-0.17271663562150996   -0.0052542723191133164   0.01199114090661243
-0.17271663562150996   -0.0052542723191133164   0.01199114090661243
-0.17271663562150996   -0.0052542723191133164   0.01199114090661243
-0.12241371201496022   -0.008580448731816463   -0.0044331753786320755
-0.12241371201496022   -0.008580448731816463   -0.0044331753786320755
-0.12241371201496022   -0.008580448731816463   -0.0044331753786320755
-0.12241371201496022   -0.008580448731816463   -0.0044331753786320755
-0.11496418982758894   0.01175458183043802   0.010171699814494423
-0.11496418982758894   0.01175458183043802   0.010171699814494423
-0.11496418982758894   0.01175458183043802   0.010171699814494423
-0.11496418982758894   0.01175458183043802   0.010171699814494423
-0.17271196382022577   -0.01430713878007164   -0.0065049951133077264
-0.17271196382022577   -0.01430713878007164   -0.0065049951133077264
-0.17271196382022577   -0.01430713878007164   -0.0065049951133077264
-0.17271196382022577   -0.01430713878007164   -0.0065049951133077264
-0.13981891571882987   -0.00213705998992518   -0.0006318272712610316
-0.13981891571882987   -0.00213705998992518   -0.0006318272712610316
-0.13981891571882987   -0.00213705998992518   -0.0006318272712610316
-0.13981891571882987   -0.00213705998992518   -0.0006318272712610316
-0.16591772278766045   0.0018011246078452128   0.011357946661601913
-0.16591772278766045   0.0018011246078452128   0.011357946661601913
-0.16591772278766045   0.0018011246078452128   0.011357946661601913
-0.16591772278766045   0.0018011246078452128   0.011357946661601913
-0.12119814173418511   -0.0037933924315091787   -0.005450085456537981
-0.12119814173418511   -0.0037933924315091787   -0.005450085456537981
-0.12119814173418511   -0.0037933924315091787   -0.005450085456537981
-0.12119814173418511   -0.0037933924315091787   -0.005450085456537981
-0.11386688502429916   0.014241574913154371   0.008559776682186444
-0.11386688502429916   0.014241574913154371   0.008559776682186444
-0.11386688502429916   0.014241574913154371   0.008559776682186444
-0.11386688502429916   0.014241574913154371   0.008559776682186444
-0.1684216289767769   -0.011526400584799621   -0.00817357183928346
-0.1684216289767769   -0.011526400584799621   -0.00817357183928346
-0.1684216289767769   -0.011526400584799621   -0.00817357183928346
-0.1684216289767769   -0.011526400584799621   -0.00817357183928346
-0.13869615683323486   0.0011226192062196438   0.0012531807718316832
-0.13869615683323486   0.0011226192062196438   0.0012531807718316832
-0.13869615683323486   0.0011226192062196438   0.0012531807718316832
-0.13869615683323486   0.0011226192062196438   0.0012531807718316832
-0.16171308765941492   0.00477410490186609   0.009068629260860772
-0.16171308765941492   0.00477410490186609   0.009068629260860772
-0.16171308765941492   0.00477410490186609   0.009068629260860772
-0.16171308765941492   0.00477410490186609   0.009068629260860772
-0.12007583790255334   -0.0015593421344033097   -0.006684070661525438
-0.12007583790255334   -0.0015593421344033097   -0.006684070661525438
-0.12007583790255334   -0.0015593421344033097   -0.006684070661525438
-0.12007583790255334   -0.0015593421344033097   -0.006684070661525438
-0.11326606499615154   0.016775942569084937   0.007360872850816843
-0.11326606499615154   0.016775942569084937   0.007360872850816843
-0.11326606499615154   0.016775942569084937   0.007360872850816843
-0.11326606499615154   0.016775942569084937   0.007360872850816843
-0.1627332899063325   -0.007799435420132391   -0.009755741917965473
-0.1627332899063325   -0.007799435420132391   -0.009755741917965473
-0.1627332899063325   -0.007799435420132391   -0.009755741917965473
-0.1627332899063325   -0.007799435420132391   -0.009755741917965473
-0.13338802858734028   0.004225612289747237   0.0038346642281106586
-0.13338802858734028   0.004225612289747237   0.0038346642281106586
-0.13338802858734028   0.004225612289747237   0.0038346642281106586
-0.13338802858734028   0.004225612289747237   0.0038346642281106586
-0.12080390862385343   -0.009681205703391146   0.004716598548475691
-0.12080390862385343   -0.009681205703391146   0.004716598548475691
-0.12080390862385343   -0.009681205703391146   0.004716598548475691
-0.12080390862385343   -0.009681205703391146   0.004716598548475691
-0.07148827254132807   -0.005550111877297618   -0.000721540438778936
-0.07148827254132807   -0.005550111877297618   -0.000721540438778936
-0.07148827254132807   -0.005550111877297618   -0.000721540438778936
-0.07148827254132807   -0.005550111877297618   -0.000721540438778936
-0.0678207359133291   0.006821030134881249   0.0054779061182523535
-0.0678207359133291   0.006821030134881249   0.0054779061182523535
-0.0678207359133291   0.006821030134881249   0.0054779061182523535
-0.0678207359133291   0.006821030134881249   0.0054779061182523535
-0.12269384494033407   -0.01162406808454141   -0.0050979258342519285
-0.12269384494033407   -0.01162406808454141   -0.0050979258342519285
-0.12269384494033407   -0.01162406808454141   -0.0050979258342519285
-0.12269384494033407   -0.01162406808454141   -0.0050979258342519285
-0.09536051879420394   -0.004551877093821554   -0.0020856442206229602
-0.09536051879420394   -0.004551877093821554   -0.0020856442206229602
-0.09536051879420394   -0.004551877093821554   -0.0020856442206229602
-0.09536051879420394   -0.004551877093821554   -0.0020856442206229602
-0.11933981939666378   -0.0038072841879371183   0.003855417987495221
-0.11933981939666378   -0.0038072841879371183   0.003855417987495221
-0.11933981939666378   -0.0038072841879371183   0.003855417987495221
-0.11933981939666378   -0.0038072841879371183   0.003855417987495221
-0.0707421860291484   -0.0005631783338720629   -0.001745135992090867
-0.0707421860291484   -0.0005631783338720629   -0.001745135992090867
-0.0707421860291484   -0.0005631783338720629   -0.001745135992090867
-0.0707421860291484   -0.0005631783338720629   -0.001745135992090867
-0.06696375219720288   0.011943177810717695   0.004473005132695762
-0.06696375219720288   0.011943177810717695   0.004473005132695762
-0.06696375219720288   0.011943177810717695   0.004473005132695762
-0.06696375219720288   0.011943177810717695   0.004473005132695762
-0.12099816123980442   -0.006836348842354595   -0.006018680639830927
-0.12099816123980442   -0.006836348842354595   -0.006018680639830927
-0.12099816123980442   -0.006836348842354595   -0.006018680639830927
-0.12099816123980442   -0.006836348842354595   -0.006018680639830927
-0.09351901119874384   0.00042753009984655005   5.717450733440377e-05
-0.09351901119874384   0.00042753009984655005   5.717450733440377e-05
-0.09351901119874384   0.00042753009984655005   5.717450733440377e-05
-0.09351901119874384   0.00042753009984655005   5.717450733440377e-05
-0.11739122133711669   0.0016658474687053643   0.0035138225625478995
-0.11739122133711669   0.0016658474687053643   0.0035138225625478995
-0.11739122133711669   0.0016658474687053643   0.0035138225625478995
-0.11739122133711669   0.0016658474687053643   0.0035138225625478995
-0.07003367982196476   0.003977993777583958   -0.0029114489579797316
-0.07003367982196476   0.003977993777583958   -0.0029114489579797316
-0.07003367982196476   0.003977993777583958   -0.0029114489579797316
-0.07003367982196476   0.003977993777583958   -0.0029114489579797316
-0.06613405226499115   0.017444846701323166   0.003537277855888244
-0.06613405226499115   0.017444846701323166   0.003537277855888244
-0.06613405226499115   0.017444846701323166   0.003537277855888244
-0.06613405226499115   0.017444846701323166   0.003537277855888244
-0.11974616598252769   -0.0016311847177827958   -0.006632504794196202
-0.11974616598252769   -0.0016311847177827958   -0.006632504794196202
-0.11974616598252769   -0.0016311847177827958   -0.006632504794196202
-0.11974616598252769   -0.0016311847177827958   -0.006632504794196202
-0.09278330537437796   0.005171706749507388   0.0021197731024062043
-0.09278330537437796   0.005171706749507388   0.0021197731024062043
-0.09278330537437796   0.005171706749507388   0.0021197731024062043
-0.09278330537437796   0.005171706749507388   0.0021197731024062043
-0.07292005804895982   -0.013770346265321318   0.00033976641108559896
-0.07292005804895982   -0.013770346265321318   0.00033976641108559896
-0.07292005804895982   -0.013770346265321318   0.00033976641108559896
-0.07292005804895982   -0.013770346265321318   0.00033976641108559896
-0.020950503344487916   -0.0019390128467852324   0.0029407786932841725
-0.020950503344487916   -0.0019390128467852324   0.0029407786932841725
-0.020950503344487916   -0.0019390128467852324   0.0029407786932841725
-0.020950503344487916   -0.0019390128467852324   0.0029407786932841725
-0.020501976028932462   0.0025464309441328783   0.0010039479043226537
-0.020501976028932462   0.0025464309441328783   0.0010039479043226537
-0.020501976028932462   0.0025464309441328783   0.0010039479043226537
-0.020501976028932462   0.0025464309441328783   0.0010039479043226537
-0.07212687429549586   -0.007910431036289982   -0.0013213246214109635
-0.07212687429549586   -0.007910431036289982   -0.0013213246214109635
-0.07212687429549586   -0.007910431036289982   -0.0013213246214109635
-0.07212687429549586   -0.007910431036289982   -0.0013213246214109635
-0.04671139371727322   -0.005033174273744434   -0.0014999401889813017
-0.04671139371727322   -0.005033174273744434   -0.0014999401889813017
-0.04671139371727322   -0.005033174273744434   -0.0014999401889813017
-0.04671139371727322   -0.005033174273744434   -0.0014999401889813017
-0.07199970446577084   -0.008060904688262087   -0.0005350018208137872
-0.07199970446577084   -0.008060904688262087   -0.0005350018208137872
-0.07199970446577084   -0.008060904688262087   -0.0005350018208137872
-0.07199970446577084   -0.008060904688262087   -0.0005350018208137872
-0.02019519224449535   0.0031308582102671113   0.001953439560373993
-0.02019519224449535   0.0031308582102671113   0.001953439560373993
-0.02019519224449535   0.0031308582102671113   0.001953439560373993
-0.02019519224449535   0.0031308582102671113   0.001953439560373993
-0.019463281015758692   0.00828177982003905   0.00020635099872180155
-0.019463281015758692   0.00828177982003905   0.00020635099872180155
-0.019463281015758692   0.00828177982003905   0.00020635099872180155
-0.019463281015758692   0.00828177982003905   0.00020635099872180155
-0.07126651250369483   -0.002800210807350363   -0.002297407781695907
-0.07126651250369483   -0.002800210807350363   -0.002297407781695907
-0.07126651250369483   -0.002800210807350363   -0.002297407781695907
-0.07126651250369483   -0.002800210807350363   -0.002297407781695907
-0.045599712906800254   9.737769357648883e-05   0.0005296228720693078
-0.045599712906800254   9.737769357648883e-05   0.0005296228720693078
-0.045599712906800254   9.737769357648883e-05   0.0005296228720693078
-0.045599712906800254   9.737769357648883e-05   0.0005296228720693078
-0.07099435287540945   -0.0023442240342994476   -0.0013925964133199385
-0.07099435287540945   -0.0023442240342994476   -0.0013925964133199385
-0.07099435287540945   -0.0023442240342994476   -0.0013925964133199385
-0.07099435287540945   -0.0023442240342994476   -0.0013925964133199385
-0.019334498533075874   0.008226735157956359   0.0009053080742187614
-0.019334498533075874   0.008226735157956359   0.0009053080742187614
-0.019334498533075874   0.008226735157956359   0.0009053080742187614
-0.019334498533075874   0.008226735157956359   0.0009053080742187614
-0.018524278612354738   0.014100542356777716   -0.0007150402433703943
-0.018524278612354738   0.014100542356777716   -0.0007150402433703943
-0.018524278612354738   0.014100542356777716   -0.0007150402433703943
-0.018524278612354738   0.014100542356777716   -0.0007150402433703943
-0.07052404371307701   0.0023644065070842386   -0.0033322391903021246
-0.07052404371307701   0.0023644065070842386   -0.0033322391903021246
-0.07052404371307701   0.0023644065070842386   -0.0033322391903021246
-0.07052404371307701   0.0023644065070842386   -0.0033322391903021246
-0.04458622550925313   0.005253000126893425   0.0024851406379849416
-0.04458622550925313   0.005253000126893425   0.0024851406379849416
-0.04458622550925313   0.005253000126893425   0.0024851406379849416
-0.04458622550925313   0.005253000126893425   0.0024851406379849416
-0.025355390734270004   -0.017122208230700174   -0.0039004628717115137
-0.025355390734270004   -0.017122208230700174   -0.0039004628717115137
-0.025355390734270004   -0.017122208230700174   -0.0039004628717115137
-0.025355390734270004   -0.017122208230700174   -0.0039004628717115137
0.02860456321605293   0.002081487860336284   0.006358805392858325
0.02860456321605293   0.002081487860336284   0.006358805392858325
0.02860456321605293   0.002081487860336284   0.006358805392858325
0.02860456321605293   0.002081487860336284   0.006358805392858325
0.0262393369889831   -0.0015036585848731037   -0.0037904102244107982
0.0262393369889831   -0.0015036585848731037   -0.0037904102244107982
0.0262393369889831   -0.0015036585848731037   -0.0037904102244107982
0.0262393369889831   -0.0015036585848731037   -0.0037904102244107982
-0.021492975461159452   -0.0038539209599886067   0.0024493026473091906
-0.021492975461159452   -0.0038539209599886067   0.0024493026473091906
-0.021492975461159452   -0.0038539209599886067   0.0024493026473091906
-0.021492975461159452   -0.0038539209599886067   0.0024493026473091906
0.0018261201244789216   -0.004954383610103921   -0.0010805193144460645
0.0018261201244789216   -0.004954383610103921   -0.0010805193144460645
0.0018261201244789216   -0.004954383610103921   -0.0010805193144460645
0.0018261201244789216   -0.004954383610103921   -0.0010805193144460645
-0.024555277748448918   -0.01187310453108558   -0.00484302521804117
-0.024555277748448918   -0.01187310453108558   -0.00484302521804117
-0.024555277748448918   -0.01187310453108558   -0.00484302521804117
-0.024555277748448918   -0.01187310453108558   -0.00484302521804117
0.029816594015046886   0.00703047972499807   0.005561736596036237
0.029816594015046886   0.00703047972499807   0.005561736596036237
0.029816594015046886   0.00703047972499807   0.005561736596036237
0.029816594015046886   0.00703047972499807   0.005561736596036237
0.028197070028505692   0.003925524891780582   -0.004307314496220273
0.028197070028505692   0.003925524891780582   -0.004307314496220273
0.028197070028505692   0.003925524891780582   -0.004307314496220273
0.028197070028505692   0.003925524891780582   -0.004307314496220273
-0.020745755695283252   0.0007155018274793779   0.0013602555936588657
-0.020745755695283252   0.0007155018274793779   0.0013602555936588657
-0.020745755695283252   0.0007155018274793779   0.0013602555936588657
-0.020745755695283252   0.0007155018274793779   0.0013602555936588657
0.0028832419479205423   -0.00026960852056508037   0.0009947785979434656
0.0028832419479205423   -0.00026960852056508037   0.0009947785979434656
0.0028832419479205423   -0.00026960852056508037   0.0009947785979434656
0.0028832419479205423   -0.00026960852056508037   0.0009947785979434656
-0.023701763312493167   -0.006778029175131504   -0.005926251489779924
-0.023701763312493167   -0.006778029175131504   -0.005926251489779924
-0.023701763312493167   -0.006778029175131504   -0.005926251489779924
-0.023701763312493167   -0.006778029175131504   -0.005926251489779924
0.031600698514299454   0.011866676762974891   0.004769676061553738
0.031600698514299454   0.011866676762974891   0.004769676061553738
0.031600698514299454   0.011866676762974891   0.004769676061553738
0.031600698514299454   0.011866676762974891   0.004769676061553738
0.029783616194069266   0.010068213654936098   -0.005000282645295698
0.029783616194069266   0.010068213654936098   -0.005000282645295698
0.029783616194069266   0.010068213654936098   -0.005000282645295698
0.029783616194069266   0.010068213654936098   -0.005000282645295698
-0.019949761649794274   0.005934315422438029   0.00032377150377141525
-0.019949761649794274   0.005934315422438029   0.00032377150377141525
-0.019949761649794274   0.005934315422438029   0.00032377150377141525
-0.019949761649794274   0.005934315422438029   0.00032377150377141525
0.0044631370498985495   0.004763518560380594   0.0031231005979792063
0.0044631370498985495   0.004763518560380594   0.0031231005979792063
0.0044631370498985495   0.004763518560380594   0.0031231005979792063
0.0044631370498985495   0.004763518560380594   0.0031231005979792063
0.021894835022166347   -0.017291474012865453   -0.007816873703372619
0.021894835022166347   -0.017291474012865453   -0.007816873703372619
0.021894835022166347   -0.017291474012865453   -0.007816873703372619
0.021894835022166347   -0.017291474012865453   -0.007816873703372619
0.07161614465866276   0.007255115034070879   0.008438697821276854
0.07161614465866276   0.007255115034070879   0.008438697821276854
0.07161614465866276   0.007255115034070879   0.008438697821276854
0.07161614465866276   0.007255115034070879   0.008438697821276854
0.07077548698605624   -0.004890705123297185   -0.010313543452645114
0.07077548698605624   -0.004890705123297185   -0.010313543452645114
0.07077548698605624   -0.004890705123297185   -0.010313543452645114
0.07077548698605624   -0.004890705123297185   -0.010313543452645114
0.028893043572342424   0.001645216846219686   0.006329247261292808
0.028893043572342424   0.001645216846219686   0.006329247261292808
0.028893043572342424   0.001645216846219686   0.006329247261292808
0.028893043572342424   0.001645216846219686   0.006329247261292808
0.0457554302221275   -0.003775010048570516   -0.002608767109682535
0.0457554302221275   -0.003775010048570516   -0.002608767109682535
0.0457554302221275   -0.003775010048570516   -0.002608767109682535
0.0457554302221275   -0.003775010048570516   -0.002608767109682535
0.022632687692528533   -0.014268349458154247   -0.009058965833402719
0.022632687692528533   -0.014268349458154247   -0.009058965833402719
0.022632687692528533   -0.014268349458154247   -0.009058965833402719
0.022632687692528533   -0.014268349458154247   -0.009058965833402719
0.0775607185787425   0.011547736893949674   0.007174172493540766
0.0775607185787425   0.011547736893949674   0.007174172493540766
0.0775607185787425   0.011547736893949674   0.007174172493540766
0.0775607185787425   0.011547736893949674   0.007174172493540766
0.07511420470318184   -0.0018638004905883118   -0.012438960525442194
0.07511420470318184   -0.0018638004905883118   -0.012438960525442194
0.07511420470318184   -0.0018638004905883118   -0.012438960525442194
0.07511420470318184   -0.0018638004905883118   -0.012438960525442194
0.03004164857872817   0.003867042985749455   0.004974060160922771
0.03004164857872817   0.003867042985749455   0.004974060160922771
0.03004164857872817   0.003867042985749455   0.004974060160922771
0.03004164857872817   0.003867042985749455   0.004974060160922771
0.05002065143009697   -0.0006906888009293923   -0.00019408233538988897
0.05002065143009697   -0.0006906888009293923   -0.00019408233538988897
0.05002065143009697   -0.0006906888009293923   -0.00019408233538988897
0.05002065143009697   -0.0006906888009293923   -0.00019408233538988897
0.023812281626761612   -0.011747949436179987   -0.010557782176980349
0.023812281626761612   -0.011747949436179987   -0.010557782176980349
0.023812281626761612   -0.011747949436179987   -0.010557782176980349
0.023812281626761612   -0.011747949436179987   -0.010557782176980349
0.0818966329919751   0.014304253268168197   0.005305127159769557
0.0818966329919751   0.014304253268168197   0.005305127159769557
0.0818966329919751   0.014304253268168197   0.005305127159769557
0.0818966329919751   0.014304253268168197   0.005305127159769557
0.08184276911711835   0.004738074346744116   -0.013376324793831896
0.08184276911711835   0.004738074346744116   -0.013376324793831896
0.08184276911711835   0.004738074346744116   -0.013376324793831896
0.08184276911711835   0.004738074346744116   -0.013376324793831896
0.031212945328265084   0.00824648884072272   0.003968087839896528
0.031212945328265084   0.00824648884072272   0.003968087839896528
0.031212945328265084   0.00824648884072272   0.003968087839896528
0.031212945328265084   0.00824648884072272   0.003968087839896528
0.05233705212781566   0.002654054890080816   0.0019336569486447797
0.05233705212781566   0.002654054890080816   0.0019336569486447797
0.05233705212781566   0.002654054890080816   0.0019336569486447797
0.05233705212781566   0.002654054890080816   0.0019336569486447797
-0.10056717606779457   -0.0012160712791857778   0.010542175937355684
-0.10056717606779457   -0.0012160712791857778   0.010542175937355684
-0.10056717606779457   -0.0012160712791857778   0.010542175937355684
-0.10056717606779457   -0.0012160712791857778   0.010542175937355684
-0.0804778840168569   -0.010554510329373767   -0.00505840394279399
-0.0804778840168569   -0.010554510329373767   -0.00505840394279399
-0.0804778840168569   -0.010554510329373767   -0.00505840394279399
-0.0804778840168569   -0.010554510329373767   -0.00505840394279399
-0.07276399750977434   0.008777109331702025   0.008968279135109183
-0.07276399750977434   0.008777109331702025   0.008968279135109183
-0.07276399750977434   0.008777109331702025   0.008968279135109183
-0.07276399750977434   0.008777109331702025   0.008968279135109183
-0.10024316693004079   -0.010996847523071925   -0.0069482364125333165
-0.10024316693004079   -0.010996847523071925   -0.0069482364125333165
-0.10024316693004079   -0.010996847523071925   -0.0069482364125333165
-0.10024316693004079   -0.010996847523071925   -0.0069482364125333165
-0.08522071685357095   -0.0022414660803286753   -0.0015740569341998146
-0.08522071685357095   -0.0022414660803286753   -0.0015740569341998146
-0.08522071685357095   -0.0022414660803286753   -0.0015740569341998146
-0.08522071685357095   -0.0022414660803286753   -0.0015740569341998146
-0.09368453152555893   0.004807471099070069   0.010040621987733978
-0.09368453152555893   0.004807471099070069   0.010040621987733978
-0.09368453152555893   0.004807471099070069   0.010040621987733978
-0.09368453152555893   0.004807471099070069   0.010040621987733978
-0.07884848804960784   -0.006553064425791526   -0.006123999806564268
-0.07884848804960784   -0.006553064425791526   -0.006123999806564268
-0.07884848804960784   -0.006553064425791526   -0.006123999806564268
-0.07884848804960784   -0.006553064425791526   -0.006123999806564268
-0.07106779534499415   0.011089596844723045   0.007552581676547134
-0.07106779534499415   0.011089596844723045   0.007552581676547134
-0.07106779534499415   0.011089596844723045   0.007552581676547134
-0.07106779534499415   0.011089596844723045   0.007552581676547134
-0.0955303991497046   -0.00837155917310647   -0.008627061280022465
-0.0955303991497046   -0.00837155917310647   -0.008627061280022465
-0.0955303991497046   -0.00837155917310647   -0.008627061280022465
-0.0955303991497046   -0.00837155917310647   -0.008627061280022465
-0.08275396900976235   0.000761619872915547   0.00037337058157827646
-0.08275396900976235   0.000761619872915547   0.00037337058157827646
-0.08275396900976235   0.000761619872915547   0.00037337058157827646
-0.08275396900976235   0.000761619872915547   0.00037337058157827646
-0.08899423819738178   0.007608524000527441   0.008073660307956733
-0.08899423819738178   0.007608524000527441   0.008073660307956733
-0.08899423819738178   0.007608524000527441   0.008073660307956733
-0.08899423819738178   0.007608524000527441   0.008073660307956733
-0.0771621185163934   -0.00444864854798737   -0.0073807887877381795
-0.0771621185163934   -0.00444864854798737   -0.0073807887877381795
-0.0771621185163934   -0.00444864854798737   -0.0073807887877381795
-0.0771621185163934   -0.00444864854798737   -0.0073807887877381795
-0.0697271365271787   0.014054636716018306   0.0065084653836342
-0.0697271365271787   0.014054636716018306   0.0065084653836342
-0.0697271365271787   0.014054636716018306   0.0065084653836342
-0.0697271365271787   0.014054636716018306   0.0065084653836342
-0.08921443510223467   -0.004151658338780558   -0.009962648705320551
-0.08921443510223467   -0.004151658338780558   -0.009962648705320551
-0.08921443510223467   -0.004151658338780558   -0.009962648705320551
-0.08921443510223467   -0.004151658338780558   -0.009962648705320551
-0.07785634375024995   0.0037711471658493333   0.0027501090977299887
-0.07785634375024995   0.0037711471658493333   0.0027501090977299887
-0.07785634375024995   0.0037711471658493333   0.0027501090977299887
-0.07785634375024995   0.0037711471658493333   0.0027501090977299887
-0.0774343603222907   -0.005561733754668093   0.0051664379553313135
-0.0774343603222907   -0.005561733754668093   0.0051664379553313135
-0.0774343603222907   -0.005561733754668093   0.0051664379553313135
-0.0774343603222907   -0.005561733754668093   0.0051664379553313135
-0.05866156077900557   -0.007977547265519799   -0.0014861670533576614
-0.05866156077900557   -0.007977547265519799   -0.0014861670533576614
-0.05866156077900557   -0.007977547265519799   -0.0014861670533576614
-0.05866156077900557   -0.007977547265519799   -0.0014861670533576614
-0.05444121932134698   0.003964188252334765   0.00459073023114376
-0.05444121932134698   0.003964188252334765   0.00459073023114376
-0.05444121932134698   0.003964188252334765   0.00459073023114376
-0.05444121932134698   0.003964188252334765   0.00459073023114376
-0.07876774507378564   -0.008056562720782885   -0.004216786632461466
-0.07876774507378564   -0.008056562720782885   -0.004216786632461466
-0.07876774507378564   -0.008056562720782885   -0.004216786632461466
-0.07876774507378564   -0.008056562720782885   -0.004216786632461466
-0.06718492985647263   -0.004031464676115915   -0.0019178220852276366
-0.06718492985647263   -0.004031464676115915   -0.0019178220852276366
-0.06718492985647263   -0.004031464676115915   -0.0019178220852276366
-0.06718492985647263   -0.004031464676115915   -0.0019178220852276366
-0.07549160926821359   -0.00028547487362009724   0.004392804548234141
-0.07549160926821359   -0.00028547487362009724   0.004392804548234141
-0.07549160926821359   -0.00028547487362009724   0.004392804548234141
-0.07549160926821359   -0.00028547487362009724   0.004392804548234141
-0.05733554515991848   -0.0034250896278274576   -0.0024916210815515
-0.05733554515991848   -0.0034250896278274576   -0.0024916210815515
-0.05733554515991848   -0.0034250896278274576   -0.0024916210815515
-0.05733554515991848   -0.0034250896278274576   -0.0024916210815515
-0.05299052634387042   0.008700500611611043   0.0036579317340613504
-0.05299052634387042   0.008700500611611043   0.0036579317340613504
-0.05299052634387042   0.008700500611611043   0.0036579317340613504
-0.05299052634387042   0.008700500611611043   0.0036579317340613504
-0.07651935544696123   -0.0035567179897396713   -0.005058903998824573
-0.07651935544696123   -0.0035567179897396713   -0.005058903998824573
-0.07651935544696123   -0.0035567179897396713   -0.005058903998824573
-0.07651935544696123   -0.0035567179897396713   -0.005058903998824573
-0.06503305543192942   0.00048116961482929516   0.0001023375984702036
-0.06503305543192942   0.00048116961482929516   0.0001023375984702036
-0.06503305543192942   0.00048116961482929516   0.0001023375984702036
-0.06503305543192942   0.00048116961482929516   0.0001023375984702036
-0.07304859425487624   0.004754114564140977   0.003984069407718743
-0.07304859425487624   0.004754114564140977   0.003984069407718743
-0.07304859425487624   0.004754114564140977   0.003984069407718743
-0.07304859425487624   0.004754114564140977   0.003984069407718743
-0.056020800041867214   0.000830155551817988   -0.0036230916961302825
-0.056020800041867214   0.000830155551817988   -0.0036230916961302825
-0.056020800041867214   0.000830155551817988   -0.0036230916961302825
-0.056020800041867214   0.000830155551817988   -0.0036230916961302825
-0.05154241065425613   0.01388990471949979   0.00276918706394516
-0.05154241065425613   0.01388990471949979   0.00276918706394516
-0.05154241065425613   0.01388990471949979   0.00276918706394516
-0.05154241065425613   0.01388990471949979   0.00276918706394516
-0.07470193650755319   0.001406770728461848   -0.0057176685306802935
-0.07470193650755319   0.001406770728461848   -0.0057176685306802935
-0.07470193650755319   0.001406770728461848   -0.0057176685306802935
-0.07470193650755319   0.001406770728461848   -0.0057176685306802935
-0.06349411158714874   0.004963155699734115   0.0020994010737655205
-0.06349411158714874   0.004963155699734115   0.0020994010737655205
-0.06349411158714874   0.004963155699734115   0.0020994010737655205
-0.06349411158714874   0.004963155699734115   0.0020994010737655205
-0.0585350564256994   -0.009841931426794895   0.0010107388744473454
-0.0585350564256994   -0.009841931426794895   0.0010107388744473454
-0.0585350564256994   -0.009841931426794895   0.0010107388744473454
-0.0585350564256994   -0.009841931426794895   0.0010107388744473454
-0.03700325374084353   -0.004467153201311072   0.002094843779763608
-0.03700325374084353   -0.004467153201311072   0.002094843779763608
-0.03700325374084353   -0.004467153201311072   0.002094843779763608
-0.03700325374084353   -0.004467153201311072   0.002094843779763608
-0.035965694216347245   -0.00036335570679561866   0.0002528719469103264
-0.035965694216347245   -0.00036335570679561866   0.0002528719469103264
-0.035965694216347245   -0.00036335570679561866   0.0002528719469103264
-0.035965694216347245   -0.00036335570679561866   0.0002528719469103264
-0.05711958514066441   -0.004378873450435944   -0.00045803716267265844
-0.05711958514066441   -0.004378873450435944   -0.00045803716267265844
-0.05711958514066441   -0.004378873450435944   -0.00045803716267265844
-0.05711958514066441   -0.004378873450435944   -0.00045803716267265844
-0.04723471938039421   -0.004533866256176551   -0.0014132872675118077
-0.04723471938039421   -0.004533866256176551   -0.0014132872675118077
-0.04723471938039421   -0.004533866256176551   -0.0014132872675118077
-0.04723471938039421   -0.004533866256176551   -0.0014132872675118077
-0.05703157401237946   -0.004588730874767773   0.00019187590308368486
-0.05703157401237946   -0.004588730874767773   0.00019187590308368486
-0.05703157401237946   -0.004588730874767773   0.00019187590308368486
-0.05703157401237946   -0.004588730874767773   0.00019187590308368486
-0.03567259398509153   0.0002276130770765203   0.001127404319316776
-0.03567259398509153   0.0002276130770765203   0.001127404319316776
-0.03567259398509153   0.0002276130770765203   0.001127404319316776
-0.03567259398509153   0.0002276130770765203   0.001127404319316776
-0.03437436201065398   0.004933320458973701   -0.000521901943116417
-0.03437436201065398   0.004933320458973701   -0.000521901943116417
-0.03437436201065398   0.004933320458973701   -0.000521901943116417
-0.03437436201065398   0.004933320458973701   -0.000521901943116417
-0.055664277485574024   0.00038502188189232407   -0.0013953452447386522
-0.055664277485574024   0.00038502188189232407   -0.0013953452447386522
-0.055664277485574024   0.00038502188189232407   -0.0013953452447386522
-0.055664277485574024   0.00038502188189232407   -0.0013953452447386522
-0.04554775802095425   0.00020368055040713602   0.0005576148128661721
-0.04554775802095425   0.00020368055040713602   0.0005576148128661721
-0.04554775802095425   0.00020368055040713602   0.0005576148128661721
-0.04554775802095425   0.00020368055040713602   0.0005576148128661721
-0.055454608264276235   0.0006910467880008042   -0.0006530240443586573
-0.055454608264276235   0.0006910467880008042   -0.0006530240443586573
-0.055454608264276235   0.0006910467880008042   -0.0006530240443586573
-0.055454608264276235   0.0006910467880008042   -0.0006530240443586573
-0.03423847101919476   0.004972855765622203   0.00011801770753148543
-0.03423847101919476   0.004972855765622203   0.00011801770753148543
-0.03423847101919476   0.004972855765622203   0.00011801770753148543
-0.03423847101919476   0.004972855765622203   0.00011801770753148543
-0.032868971255067506   0.0102838355587417   -0.0013901663900224006
-0.032868971255067506   0.0102838355587417   -0.0013901663900224006
-0.032868971255067506   0.0102838355587417   -0.0013901663900224006
-0.032868971255067506   0.0102838355587417   -0.0013901663900224006
-0.054319893454891646   0.00518384939113874   -0.0024121716108711135
-0.054319893454891646   0.00518384939113874   -0.0024121716108711135
-0.054319893454891646   0.00518384939113874   -0.0024121716108711135
-0.054319893454891646   0.00518384939113874   -0.0024121716108711135
-0.04396174141383047   0.004959003916249222   0.0024478911904218473
-0.04396174141383047   0.004959003916249222   0.0024478911904218473
-0.04396174141383047   0.004959003916249222   0.0024478911904218473
-0.04396174141383047   0.004959003916249222   0.0024478911904218473
-0.03986324204334524   -0.013515237047438608   -0.0031570138866179676
-0.03986324204334524   -0.013515237047438608   -0.0031570138866179676
-0.03986324204334524   -0.013515237047438608   -0.0031570138866179676
-0.03986324204334524   -0.013515237047438608   -0.0031570138866179676
-0.016306580952391056   -0.0007479718259312128   0.005464363829104037
-0.016306580952391056   -0.0007479718259312128   0.005464363829104037
-0.016306580952391056   -0.0007479718259312128   0.005464363829104037
-0.016306580952391056   -0.0007479718259312128   0.005464363829104037
-0.01806988628343582   -0.004518375072632748   -0.004296057093633231
-0.01806988628343582   -0.004518375072632748   -0.004296057093633231
-0.01806988628343582   -0.004518375072632748   -0.004296057093633231
-0.01806988628343582   -0.004518375072632748   -0.004296057093633231
-0.03540237215282975   -0.0005019368166055711   0.0032080633743074654
-0.03540237215282975   -0.0005019368166055711   0.0032080633743074654
-0.03540237215282975   -0.0005019368166055711   0.0032080633743074654
-0.03540237215282975   -0.0005019368166055711   0.0032080633743074654
-0.027365205759770868   -0.004616241284273396   -0.001024679877758058
-0.027365205759770868   -0.004616241284273396   -0.001024679877758058
-0.027365205759770868   -0.004616241284273396   -0.001024679877758058
-0.027365205759770868   -0.004616241284273396   -0.001024679877758058
-0.038459241635410986   -0.008543899079451717   -0.004034321775752902
-0.038459241635410986   -0.008543899079451717   -0.004034321775752902
-0.038459241635410986   -0.008543899079451717   -0.004034321775752902
-0.038459241635410986   -0.008543899079451717   -0.004034321775752902
-0.014588345694259876   0.0039482582968080465   0.004645012482805683
-0.014588345694259876   0.0039482582968080465   0.004645012482805683
-0.014588345694259876   0.0039482582968080465   0.004645012482805683
-0.014588345694259876   0.0039482582968080465   0.004645012482805683
-0.01566629919282118   0.0004907858449298133   -0.004842780821551027
-0.01566629919282118   0.0004907858449298133   -0.004842780821551027
-0.01566629919282118   0.0004907858449298133   -0.004842780821551027
-0.01566629919282118   0.0004907858449298133   -0.004842780821551027
-0.03407111017446649   0.003771249358973588   0.0021564283378211974
-0.03407111017446649   0.003771249358973588   0.0021564283378211974
-0.03407111017446649   0.003771249358973588   0.0021564283378211974
-0.03407111017446649   0.003771249358973588   0.0021564283378211974
-0.025536954579751338   -0.00017715507080136045   0.0009931955928105924
-0.025536954579751338   -0.00017715507080136045   0.0009931955928105924
-0.025536954579751338   -0.00017715507080136045   0.0009931955928105924
-0.025536954579751338   -0.00017715507080136045   0.0009931955928105924
-0.03702975562729291   -0.003822049325934906   -0.005043500241402898
-0.03702975562729291   -0.003822049325934906   -0.005043500241402898
-0.03702975562729291   -0.003822049325934906   -0.005043500241402898
-0.03702975562729291   -0.003822049325934906   -0.005043500241402898
-0.012311518078894967   0.00848022019093806   0.003941690402072042
-0.012311518078894967   0.00848022019093806   0.003941690402072042
-0.012311518078894967   0.00848022019093806   0.003941690402072042
-0.012311518078894967   0.00848022019093806   0.003941690402072042
-0.013639780788358919   0.006042923191308578   -0.005443170513311198
-0.013639780788358919   0.006042923191308578   -0.005443170513311198
-0.013639780788358919   0.006042923191308578   -0.005443170513311198
-0.013639780788358919   0.006042923191308578   -0.005443170513311198
-0.03270732038742405   0.008560205688479584   0.0011417178184570083
-0.03270732038742405   0.008560205688479584   0.0011417178184570083
-0.03270732038742405   0.008560205688479584   0.0011417178184570083
-0.03270732038742405   0.008560205688479584   0.0011417178184570083
-0.02368225113621226   0.004390109685417418   0.002990633422741695
-0.02368225113621226   0.004390109685417418   0.002990633422741695
-0.02368225113621226   0.004390109685417418   0.002990633422741695
-0.02368225113621226   0.004390109685417418   0.002990633422741695
-0.021537137693455076   -0.014458799450864354   -0.006977592251283403
-0.021537137693455076   -0.014458799450864354   -0.006977592251283403
-0.021537137693455076   -0.014458799450864354   -0.006977592251283403
-0.021537137693455076   -0.014458799450864354   -0.006977592251283403
-0.001973464428526887   0.003667734533791635   0.008532406366225573
-0.001973464428526887   0.003667734533791635   0.008532406366225573
-0.001973464428526887   0.003667734533791635   0.008532406366225573
-0.001973464428526887   0.003667734533791635   0.008532406366225573
-0.0021120601540007334   -0.007680465188459509   -0.00929405918576192
-0.0021120601540007334   -0.007680465188459509   -0.00929405918576192
-0.0021120601540007334   -0.007680465188459509   -0.00929405918576192
-0.0021120601540007334   -0.007680465188459509   -0.00929405918576192
-0.013993940428502598   0.004574009007776789   0.006991288100623329
-0.013993940428502598   0.004574009007776789   0.006991288100623329
-0.013993940428502598   0.004574009007776789   0.006991288100623329
-0.013993940428502598   0.004574009007776789   0.006991288100623329
-0.009787845735728572   -0.0032690754609573163   -0.0014747128100379547
-0.009787845735728572   -0.0032690754609573163   -0.0014747128100379547
-0.009787845735728572   -0.0032690754609573163   -0.0014747128100379547
-0.009787845735728572   -0.0032690754609573163   -0.0014747128100379547
-0.020120810798113894   -0.011031012023384232   -0.008038042716272379
-0.020120810798113894   -0.011031012023384232   -0.008038042716272379
-0.020120810798113894   -0.011031012023384232   -0.008038042716272379
-0.020120810798113894   -0.011031012023384232   -0.008038042716272379
0.004465831657209303   0.00837557728430021   0.007539357397528538
0.004465831657209303   0.00837557728430021   0.007539357397528538
0.004465831657209303   0.00837557728430021   0.007539357397528538
0.004465831657209303   0.00837557728430021   0.007539357397528538
0.0026127089525888416   -0.004831825347665568   -0.011091341880013011
0.0026127089525888416   -0.004831825347665568   -0.011091341880013011
0.0026127089525888416   -0.004831825347665568   -0.011091341880013011
0.0026127089525888416   -0.004831825347665568   -0.011091341880013011
-0.012340620837704687   0.00664290917017178   0.005633487628789467
-0.012340620837704687   0.00664290917017178   0.005633487628789467
-0.012340620837704687   0.00664290917017178   0.005633487628789467
-0.012340620837704687   0.00664290917017178   0.005633487628789467
-0.006027925270253728   -0.0003100202928816581   0.0006809209115497285
-0.006027925270253728   -0.0003100202928816581   0.0006809209115497285
-0.006027925270253728   -0.0003100202928816581   0.0006809209115497285
-0.006027925270253728   -0.0003100202928816581   0.0006809209115497285
-0.01840097181835267   -0.008684470622255833   -0.00934088748202283
-0.01840097181835267   -0.008684470622255833   -0.00934088748202283
-0.01840097181835267   -0.008684470622255833   -0.00934088748202283
-0.01840097181835267   -0.008684470622255833   -0.00934088748202283
0.00912948483279619   0.010951979344321412   0.005708732829036746
0.00912948483279619   0.010951979344321412   0.005708732829036746
0.00912948483279619   0.010951979344321412   0.005708732829036746
0.00912948483279619   0.010951979344321412   0.005708732829036746
0.00934942643883114   0.0006949318062059032   -0.011926178443251695
0.00934942643883114   0.0006949318062059032   -0.011926178443251695
0.00934942643883114   0.0006949318062059032   -0.011926178443251695
0.00934942643883114   0.0006949318062059032   -0.011926178443251695
-0.010805725022405366   0.01018602211048585   0.00458400939727952
-0.010805725022405366   0.01018602211048585   0.00458400939727952
-0.010805725022405366   0.01018602211048585   0.00458400939727952
-0.010805725022405366   0.01018602211048585   0.00458400939727952
-0.0024369977500282164   0.0027477629004937724   0.002832227873476822
-0.0024369977500282164   0.0027477629004937724   0.002832227873476822
-0.0024369977500282164   0.0027477629004937724   0.002832227873476822
-0.0024369977500282164   0.0027477629004937724   0.002832227873476822
-0.030109640166262344   0.0024858197065325965   0.009775002386143277
-0.030109640166262344   0.0024858197065325965   0.009775002386143277
-0.030109640166262344   0.0024858197065325965   0.009775002386143277
-0.030109640166262344   0.0024858197065325965   0.009775002386143277
-0.039634227189135326   -0.012548608297078774   -0.005581020316236147
-0.039634227189135326   -0.012548608297078774   -0.005581020316236147
-0.039634227189135326   -0.012548608297078774   -0.005581020316236147
-0.039634227189135326   -0.012548608297078774   -0.005581020316236147
-0.03164719095609885   0.005703877397155033   0.00795941221466338
-0.03164719095609885   0.005703877397155033   0.00795941221466338
-0.03164719095609885   0.005703877397155033   0.00795941221466338
-0.03164719095609885   0.005703877397155033   0.00795941221466338
-0.029347319633625298   -0.007743325964427944   -0.007274692381147069
-0.029347319633625298   -0.007743325964427944   -0.007274692381147069
-0.029347319633625298   -0.007743325964427944   -0.007274692381147069
-0.029347319633625298   -0.007743325964427944   -0.007274692381147069
-0.03198129670490076   -0.002438539624293922   -0.0028493772520919074
-0.03198129670490076   -0.002438539624293922   -0.0028493772520919074
-0.03198129670490076   -0.002438539624293922   -0.0028493772520919074
-0.03198129670490076   -0.002438539624293922   -0.0028493772520919074
-0.022994472313349806   0.007659818611610545   0.009086399644191894
-0.022994472313349806   0.007659818611610545   0.009086399644191894
-0.022994472313349806   0.007659818611610545   0.009086399644191894
-0.022994472313349806   0.007659818611610545   0.009086399644191894
-0.037575323949398075   -0.009274552851907118   -0.006702822502770151
-0.037575323949398075   -0.009274552851907118   -0.006702822502770151
-0.037575323949398075   -0.009274552851907118   -0.006702822502770151
-0.037575323949398075   -0.009274552851907118   -0.006702822502770151
-0.029372491815628315   0.007918538557074237   0.006665520036804791
-0.029372491815628315   0.007918538557074237   0.006665520036804791
-0.029372491815628315   0.007918538557074237   0.006665520036804791
-0.029372491815628315   0.007918538557074237   0.006665520036804791
-0.02415098195617276   -0.005240467560521147   -0.008996823084902622
-0.02415098195617276   -0.005240467560521147   -0.008996823084902622
-0.02415098195617276   -0.005240467560521147   -0.008996823084902622
-0.02415098195617276   -0.005240467560521147   -0.008996823084902622
-0.02815464669772354   0.0003638572030630772   -0.0007590820966276064
-0.02815464669772354   0.0003638572030630772   -0.0007590820966276064
-0.02815464669772354   0.0003638572030630772   -0.0007590820966276064
-0.02815464669772354   0.0003638572030630772   -0.0007590820966276064
-0.0177898867812863   0.010346327168652823   0.007221858060355705
-0.0177898867812863   0.010346327168652823   0.007221858060355705
-0.0177898867812863   0.010346327168652823   0.007221858060355705
-0.0177898867812863   0.010346327168652823   0.007221858060355705
-0.035341411300859236   -0.00727608048244412   -0.007984458349831006
-0.035341411300859236   -0.00727608048244412   -0.007984458349831006
-0.035341411300859236   -0.00727608048244412   -0.007984458349831006
-0.035341411300859236   -0.00727608048244412   -0.007984458349831006
-0.027318724294514457   0.011370351580286053   0.005751690082292291
-0.027318724294514457   0.011370351580286053   0.005751690082292291
-0.027318724294514457   0.011370351580286053   0.005751690082292291
-0.027318724294514457   0.011370351580286053   0.005751690082292291
-0.017201292172653773   -0.000489667180090499   -0.010114952314106383
-0.017201292172653773   -0.000489667180090499   -0.010114952314106383
-0.017201292172653773   -0.000489667180090499   -0.010114952314106383
-0.017201292172653773   -0.000489667180090499   -0.010114952314106383
-0.02363298584302411   0.0033389835027227387   0.0014461915756243142
-0.02363298584302411   0.0033389835027227387   0.0014461915756243142
-0.02363298584302411   0.0033389835027227387   0.0014461915756243142
-0.02363298584302411   0.0033389835027227387   0.0014461915756243142
-0.035231425732912325   -0.0018478425933921355   0.005732221261191251
-0.035231425732912325   -0.0018478425933921355   0.005732221261191251
-0.035231425732912325   -0.0018478425933921355   0.005732221261191251
-0.035231425732912325   -0.0018478425933921355   0.005732221261191251
-0.04630496960017836   -0.010253070525856426   -0.002174948883175086
-0.04630496960017836   -0.010253070525856426   -0.002174948883175086
-0.04630496960017836   -0.010253070525856426   -0.002174948883175086
-0.04630496960017836   -0.010253070525856426   -0.002174948883175086
-0.041639168922571225   0.0009534104064155471   0.003704502852316276
-0.041639168922571225   0.0009534104064155471   0.003704502852316276
-0.041639168922571225   0.0009534104064155471   0.003704502852316276
-0.041639168922571225   0.0009534104064155471   0.003704502852316276
-0.035912793294993584   -0.004448091837218463   -0.003216630245435832
-0.035912793294993584   -0.004448091837218463   -0.003216630245435832
-0.035912793294993584   -0.004448091837218463   -0.003216630245435832
-0.035912793294993584   -0.004448091837218463   -0.003216630245435832
-0.0398421535157599   -0.0035769818126682746   -0.0019155234390534123
-0.0398421535157599   -0.0035769818126682746   -0.0019155234390534123
-0.0398421535157599   -0.0035769818126682746   -0.0019155234390534123
-0.0398421535157599   -0.0035769818126682746   -0.0019155234390534123
-0.03278409477912979   0.00298273230331175   0.004996038193352
-0.03278409477912979   0.00298273230331175   0.004996038193352
-0.03278409477912979   0.00298273230331175   0.004996038193352
-0.03278409477912979   0.00298273230331175   0.004996038193352
-0.044432159071377736   -0.006141705367057015   -0.0031653321182444323
-0.044432159071377736   -0.006141705367057015   -0.0031653321182444323
-0.044432159071377736   -0.006141705367057015   -0.0031653321182444323
-0.044432159071377736   -0.006141705367057015   -0.0031653321182444323
-0.03962372401715435   0.005397230531770814   0.00281520717892098
-0.03962372401715435   0.005397230531770814   0.00281520717892098
-0.03962372401715435   0.005397230531770814   0.00281520717892098
-0.03962372401715435   0.005397230531770814   0.00281520717892098
-0.033134167253169505   -0.00022053166723581298   -0.004003786926590177
-0.033134167253169505   -0.00022053166723581298   -0.004003786926590177
-0.033134167253169505   -0.00022053166723581298   -0.004003786926590177
-0.033134167253169505   -0.00022053166723581298   -0.004003786926590177
-0.03739497274197475   0.0005203353752450054   -2.3487860116603795e-06
-0.03739497274197475   0.0005203353752450054   -2.3487860116603795e-06
-0.03739497274197475   0.0005203353752450054   -2.3487860116603795e-06
-0.03739497274197475   0.0005203353752450054   -2.3487860116603795e-06
-0.02984914322585028   0.007691054635667724   0.004509746907101462
-0.02984914322585028   0.007691054635667724   0.004509746907101462
-0.02984914322585028   0.007691054635667724   0.004509746907101462
-0.02984914322585028   0.007691054635667724   0.004509746907101462
-0.04254986197657576   -0.0021554697032352167   -0.00426278238318095
-0.04254986197657576   -0.0021554697032352167   -0.00426278238318095
-0.04254986197657576   -0.0021554697032352167   -0.00426278238318095
-0.04254986197657576   -0.0021554697032352167   -0.00426278238318095
-0.03759400050132173   0.010365769850174206   0.0019693910716500583
-0.03759400050132173   0.010365769850174206   0.0019693910716500583
-0.03759400050132173   0.010365769850174206   0.0019693910716500583
-0.03759400050132173   0.010365769850174206   0.0019693910716500583
-0.03078106466771722   0.004522927269398612   -0.004712587472834056
-0.03078106466771722   0.004522927269398612   -0.004712587472834056
-0.03078106466771722   0.004522927269398612   -0.004712587472834056
-0.03078106466771722   0.004522927269398612   -0.004712587472834056
-0.0350762330162071   0.004807948976534901   0.0019649168016151702
-0.0350762330162071   0.004807948976534901   0.0019649168016151702
-0.0350762330162071   0.004807948976534901   0.0019649168016151702
-0.0350762330162071   0.004807948976534901   0.0019649168016151702
-0.04470035542417653   -0.006088776666445805   0.0016838281374229442
-0.04470035542417653   -0.006088776666445805   0.0016838281374229442
-0.04470035542417653   -0.006088776666445805   0.0016838281374229442
-0.04470035542417653   -0.006088776666445805   0.0016838281374229442
-0.052823159902659435   -0.0067639719045521005   0.0012826664492587444
-0.052823159902659435   -0.0067639719045521005   0.0012826664492587444
-0.052823159902659435   -0.0067639719045521005   0.0012826664492587444
-0.052823159902659435   -0.0067639719045521005   0.0012826664492587444
-0.05126030298235439   -0.0032167048665569554   -0.0005064764015877397
-0.05126030298235439   -0.0032167048665569554   -0.0005064764015877397
-0.05126030298235439   -0.0032167048665569554   -0.0005064764015877397
-0.05126030298235439   -0.0032167048665569554   -0.0005064764015877397
-0.04263402041257358   -0.0007718327089975673   0.0004554885177176413
-0.04263402041257358   -0.0007718327089975673   0.0004554885177176413
-0.04263402041257358   -0.0007718327089975673   0.0004554885177176413
-0.04263402041257358   -0.0007718327089975673   0.0004554885177176413
-0.04792697549598139   -0.0039732806001389976   -0.0013000595701836805
-0.04792697549598139   -0.0039732806001389976   -0.0013000595701836805
-0.04792697549598139   -0.0039732806001389976   -0.0013000595701836805
-0.04792697549598139   -0.0039732806001389976   -0.0013000595701836805
-0.042634958169733415   -0.0012121226826093852   0.0008910897055291289
-0.042634958169733415   -0.0012121226826093852   0.0008910897055291289
-0.042634958169733415   -0.0012121226826093852   0.0008910897055291289
-0.042634958169733415   -0.0012121226826093852   0.0008910897055291289
-0.05093921422732927   -0.0024562638950799635   0.0003385264020613495
-0.05093921422732927   -0.0024562638950799635   0.0003385264020613495
-0.05093921422732927   -0.0024562638950799635   0.0003385264020613495
-0.05093921422732927   -0.0024562638950799635   0.0003385264020613495
-0.04912716327927029   0.0017184451469937113   -0.0012653431255354418
-0.04912716327927029   0.0017184451469937113   -0.0012653431255354418
-0.04912716327927029   0.0017184451469937113   -0.0012653431255354418
-0.04912716327927029   0.0017184451469937113   -0.0012653431255354418
-0.040624883168937205   0.0036518148467686983   -0.00044517289499118335
-0.040624883168937205   0.0036518148467686983   -0.00044517289499118335
-0.040624883168937205   0.0036518148467686983   -0.00044517289499118335
-0.040624883168937205   0.0036518148467686983   -0.00044517289499118335
-0.045687938905459344   0.0004154397732529548   0.0006017636187565048
-0.045687938905459344   0.0004154397732529548   0.0006017636187565048
-0.045687938905459344   0.0004154397732529548   0.0006017636187565048
-0.045687938905459344   0.0004154397732529548   0.0006017636187565048
-0.040514684057593245   0.0037046142651129092   5.302324338349665e-05
-0.040514684057593245   0.0037046142651129092   5.302324338349665e-05
-0.040514684057593245   0.0037046142651129092   5.302324338349665e-05
-0.040514684057593245   0.0037046142651129092   5.302324338349665e-05
-0.04895570954797614   0.0019472985712874619   -0.0006369278933584313
-0.04895570954797614   0.0019472985712874619   -0.0006369278933584313
-0.04895570954797614   0.0019472985712874619   -0.0006369278933584313
-0.04895570954797614   0.0019472985712874619   -0.0006369278933584313
-0.0470828907263286   0.006692288314189176   -0.0021069797241819836
-0.0470828907263286   0.006692288314189176   -0.0021069797241819836
-0.0470828907263286   0.006692288314189176   -0.0021069797241819836
-0.0470828907263286   0.006692288314189176   -0.0021069797241819836
-0.0387321834292156   0.00809366584618109   -0.001449419563825655
-0.0387321834292156   0.00809366584618109   -0.001449419563825655
-0.0387321834292156   0.00809366584618109   -0.001449419563825655
-0.0387321834292156   0.00809366584618109   -0.001449419563825655
-0.043565282925834045   0.004814357305837104   0.0024130534379466317
-0.043565282925834045   0.004814357305837104   0.0024130534379466317
-0.043565282925834045   0.004814357305837104   0.0024130534379466317
-0.043565282925834045   0.004814357305837104   0.0024130534379466317
-0.054193944022078   -0.009904468680138391   -0.0024307573722487487
-0.054193944022078   -0.009904468680138391   -0.0024307573722487487
-0.054193944022078   -0.009904468680138391   -0.0024307573722487487
-0.054193944022078   -0.009904468680138391   -0.0024307573722487487
-0.06005685331464967   -0.003335714752245922   0.004555570829388358
-0.06005685331464967   -0.003335714752245922   0.004555570829388358
-0.06005685331464967   -0.003335714752245922   0.004555570829388358
-0.06005685331464967   -0.003335714752245922   0.004555570829388358
-0.06120591029554774   -0.007268165265498826   -0.004819540727440822
-0.06120591029554774   -0.007268165265498826   -0.004819540727440822
-0.06120591029554774   -0.007268165265498826   -0.004819540727440822
-0.06120591029554774   -0.007268165265498826   -0.004819540727440822
-0.04914902573093969   0.0028857644370130966   0.003947440551915733
-0.04914902573093969   0.0028857644370130966   0.003947440551915733
-0.04914902573093969   0.0028857644370130966   0.003947440551915733
-0.04914902573093969   0.0028857644370130966   0.003947440551915733
-0.055891495669692745   -0.004139044733331987   -0.0008287982503967927
-0.055891495669692745   -0.004139044733331987   -0.0008287982503967927
-0.055891495669692745   -0.004139044733331987   -0.0008287982503967927
-0.055891495669692745   -0.004139044733331987   -0.0008287982503967927
-0.05219703929857855   -0.005153212908725011   -0.0032536499405409346
-0.05219703929857855   -0.005153212908725011   -0.0032536499405409346
-0.05219703929857855   -0.005153212908725011   -0.0032536499405409346
-0.05219703929857855   -0.005153212908725011   -0.0032536499405409346
-0.05782289674589412   0.0011058120622539636   0.0037215496930744956
-0.05782289674589412   0.0011058120622539636   0.0037215496930744956
-0.05782289674589412   0.0011058120622539636   0.0037215496930744956
-0.05782289674589412   0.0011058120622539636   0.0037215496930744956
-0.05832703448211001   -0.002593433913483883   -0.005411063716822634
-0.05832703448211001   -0.002593433913483883   -0.005411063716822634
-0.05832703448211001   -0.002593433913483883   -0.005411063716822634
-0.05832703448211001   -0.002593433913483883   -0.005411063716822634
-0.04725614862674015   0.006868152485761236   0.0029400227983473175
-0.04725614862674015   0.006868152485761236   0.0029400227983473175
-0.04725614862674015   0.006868152485761236   0.0029400227983473175
-0.04725614862674015   0.006868152485761236   0.0029400227983473175
-0.053288954750948046   0.0001074259335800444   0.0011440040343608875
-0.053288954750948046   0.0001074259335800444   0.0011440040343608875
-0.053288954750948046   0.0001074259335800444   0.0011440040343608875
-0.053288954750948046   0.0001074259335800444   0.0011440040343608875
-0.05020716895824953   -0.0007305277833625449   -0.004216398590076418
-0.05020716895824953   -0.0007305277833625449   -0.004216398590076418
-0.05020716895824953   -0.0007305277833625449   -0.004216398590076418
-0.05020716895824953   -0.0007305277833625449   -0.004216398590076418
-0.05503765564551154   0.00534360486072832   0.0030987916919579615
-0.05503765564551154   0.00534360486072832   0.0030987916919579615
-0.05503765564551154   0.00534360486072832   0.0030987916919579615
-0.05503765564551154   0.00534360486072832   0.0030987916919579615
-0.0558200308042757   0.002518863338728656   -0.0059522835134459854
-0.0558200308042757   0.002518863338728656   -0.0059522835134459854
-0.0558200308042757   0.002518863338728656   -0.0059522835134459854
-0.0558200308042757   0.002518863338728656   -0.0059522835134459854
-0.04535895791592616   0.01126000826935442   0.0019449643726649549
-0.04535895791592616   0.01126000826935442   0.0019449643726649549
-0.04535895791592616   0.01126000826935442   0.0019449643726649549
-0.04535895791592616   0.01126000826935442   0.0019449643726649549
-0.0511566774816407   0.0042661705723450825   0.0030112537251359953
-0.0511566774816407   0.0042661705723450825   0.0030112537251359953
-0.0511566774816407   0.0042661705723450825   0.0030112537251359953
-0.0511566774816407   0.0042661705723450825   0.0030112537251359953
-0.06388113266369208   -0.011667157100083855   -0.0062343835679866955
-0.06388113266369208   -0.011667157100083855   -0.0062343835679866955
-0.06388113266369208   -0.011667157100083855   -0.0062343835679866955
-0.06388113266369208   -0.011667157100083855   -0.0062343835679866955
-0.07329269906188274   0.0002862951384513413   0.008443356559612324
-0.07329269906188274   0.0002862951384513413   0.008443356559612324
-0.07329269906188274   0.0002862951384513413   0.008443356559612324
-0.07329269906188274   0.0002862951384513413   0.008443356559612324
-0.07270326658896194   -0.010245347957253834   -0.008396170564070434
-0.07270326658896194   -0.010245347957253834   -0.008396170564070434
-0.07270326658896194   -0.010245347957253834   -0.008396170564070434
-0.07270326658896194   -0.010245347957253834   -0.008396170564070434
-0.05578989673482966   0.007430213929040388   0.007562147881609621
-0.05578989673482966   0.007430213929040388   0.007562147881609621
-0.05578989673482966   0.007430213929040388   0.007562147881609621
-0.05578989673482966   0.007430213929040388   0.007562147881609621
-0.06369913607707915   -0.0027100767510264637   -0.00020192583656618865
-0.06369913607707915   -0.0027100767510264637   -0.00020192583656618865
-0.06369913607707915   -0.0027100767510264637   -0.00020192583656618865
-0.06369913607707915   -0.0027100767510264637   -0.00020192583656618865
-0.06177941859783039   -0.00781032812257025   -0.0071449193817840805
-0.06177941859783039   -0.00781032812257025   -0.0071449193817840805
-0.06177941859783039   -0.00781032812257025   -0.0071449193817840805
-0.06177941859783039   -0.00781032812257025   -0.0071449193817840805
-0.06636093551365634   0.005348003306661407   0.007722133548541393
-0.06636093551365634   0.005348003306661407   0.007722133548541393
-0.06636093551365634   0.005348003306661407   0.007722133548541393
-0.06636093551365634   0.005348003306661407   0.007722133548541393
-0.0675602676711222   -0.007537409695072061   -0.010048459864012219
-0.0675602676711222   -0.007537409695072061   -0.010048459864012219
-0.0675602676711222   -0.007537409695072061   -0.010048459864012219
-0.0675602676711222   -0.007537409695072061   -0.010048459864012219
-0.05361644187088199   0.009338989308506268   0.006209476117327288
-0.05361644187088199   0.009338989308506268   0.006209476117327288
-0.05361644187088199   0.009338989308506268   0.006209476117327288
-0.05361644187088199   0.009338989308506268   0.006209476117327288
-0.060399033216763015   0.0001468438894170719   0.001664535445733863
-0.060399033216763015   0.0001468438894170719   0.001664535445733863
-0.060399033216763015   0.0001468438894170719   0.001664535445733863
-0.060399033216763015   0.0001468438894170719   0.001664535445733863
-0.05950340389793786   -0.0055780115912683285   -0.00830833311817791
-0.05950340389793786   -0.0055780115912683285   -0.00830833311817791
-0.05950340389793786   -0.0055780115912683285   -0.00830833311817791
-0.05950340389793786   -0.0055780115912683285   -0.00830833311817791
-0.06130120109348999   0.007751695755278169   0.005957767573798623
-0.06130120109348999   0.007751695755278169   0.005957767573798623
-0.06130120109348999   0.007751695755278169   0.005957767573798623
-0.06130120109348999   0.007751695755278169   0.005957767573798623
-0.06068197956898323   -0.0029112727732524078   -0.011026210474833905
-0.06068197956898323   -0.0029112727732524078   -0.011026210474833905
-0.06068197956898323   -0.0029112727732524078   -0.011026210474833905
-0.06068197956898323   -0.0029112727732524078   -0.011026210474833905
-0.05169496584659967   0.012077746611722864   0.0051141580019392445
-0.05169496584659967   0.012077746611722864   0.0051141580019392445
-0.05169496584659967   0.012077746611722864   0.0051141580019392445
-0.05169496584659967   0.012077746611722864   0.0051141580019392445
-0.055517126284198776   0.002952986859723925   0.003871933617345846
-0.055517126284198776   0.002952986859723925   0.003871933617345846
-0.055517126284198776   0.002952986859723925   0.003871933617345846
-0.055517126284198776   0.002952986859723925   0.003871933617345846
0.03914358394164435   0.006164154893419668   0.009204984505476382
0.03914358394164435   0.006164154893419668   0.009204984505476382
0.03914358394164435   0.006164154893419668   0.009204984505476382
0.03914358394164435   0.006164154893419668   0.009204984505476382
0.00014400270896977813   -0.014623401666894745   -0.0059345835177160525
0.00014400270896977813   -0.014623401666894745   -0.0059345835177160525
0.00014400270896977813   -0.014623401666894745   -0.0059345835177160525
0.00014400270896977813   -0.014623401666894745   -0.0059345835177160525
0.00839511952379344   0.0026739734171232184   0.007069365369190005
0.00839511952379344   0.0026739734171232184   0.007069365369190005
0.00839511952379344   0.0026739734171232184   0.007069365369190005
0.00839511952379344   0.0026739734171232184   0.007069365369190005
0.04034778235130546   -0.004571050520126586   -0.0075044467153760445
0.04034778235130546   -0.004571050520126586   -0.0075044467153760445
0.04034778235130546   -0.004571050520126586   -0.0075044467153760445
0.04034778235130546   -0.004571050520126586   -0.0075044467153760445
0.020085908010894733   -0.0026303836969902364   -0.0044920727488640955
0.020085908010894733   -0.0026303836969902364   -0.0044920727488640955
0.020085908010894733   -0.0026303836969902364   -0.0044920727488640955
0.020085908010894733   -0.0026303836969902364   -0.0044920727488640955
0.04653168623627409   0.010546848436374543   0.008297173752965983
0.04653168623627409   0.010546848436374543   0.008297173752965983
0.04653168623627409   0.010546848436374543   0.008297173752965983
0.04653168623627409   0.010546848436374543   0.008297173752965983
0.002619148772971209   -0.01203599240523151   -0.0071005225625664185
0.002619148772971209   -0.01203599240523151   -0.0071005225625664185
0.002619148772971209   -0.01203599240523151   -0.0071005225625664185
0.002619148772971209   -0.01203599240523151   -0.0071005225625664185
0.011194817239307852   0.004801333496485408   0.0058663830046495405
0.011194817239307852   0.004801333496485408   0.0058663830046495405
0.011194817239307852   0.004801333496485408   0.0058663830046495405
0.011194817239307852   0.004801333496485408   0.0058663830046495405
0.04601677992312379   -0.002175235622125118   -0.009306126125531491
0.04601677992312379   -0.002175235622125118   -0.009306126125531491
0.04601677992312379   -0.002175235622125118   -0.009306126125531491
0.04601677992312379   -0.002175235622125118   -0.009306126125531491
0.025234979323994027   -1.1678155989876607e-05   -0.0022042377365805465
0.025234979323994027   -1.1678155989876607e-05   -0.0022042377365805465
0.025234979323994027   -1.1678155989876607e-05   -0.0022042377365805465
0.025234979323994027   -1.1678155989876607e-05   -0.0022042377365805465
0.052240150581876886   0.01313685156107589   0.006498639985032929
0.052240150581876886   0.01313685156107589   0.006498639985032929
0.052240150581876886   0.01313685156107589   0.006498639985032929
0.052240150581876886   0.01313685156107589   0.006498639985032929
0.00535813810743121   -0.010124062159839159   -0.008391616998409105
0.00535813810743121   -0.010124062159839159   -0.008391616998409105
0.00535813810743121   -0.010124062159839159   -0.008391616998409105
0.00535813810743121   -0.010124062159839159   -0.008391616998409105
0.0138992147351174   0.008767917974016274   0.005072466548656305
0.0138992147351174   0.008767917974016274   0.005072466548656305
0.0138992147351174   0.008767917974016274   0.005072466548656305
0.0138992147351174   0.008767917974016274   0.005072466548656305
0.05357587552178499   0.003168261906680506   -0.010236258408242563
0.05357587552178499   0.003168261906680506   -0.010236258408242563
0.05357587552178499   0.003168261906680506   -0.010236258408242563
0.05357587552178499   0.003168261906680506   -0.010236258408242563
0.02939480469585499   0.0029694710639448126   -7.999806984381624e-05
0.02939480469585499   0.0029694710639448126   -7.999806984381624e-05
0.02939480469585499   0.0029694710639448126   -7.999806984381624e-05
0.02939480469585499   0.0029694710639448126   -7.999806984381624e-05
0.005922460815385854   0.0019118886694877131   0.006422416677981387
0.005922460815385854   0.0019118886694877131   0.006422416677981387
0.005922460815385854   0.0019118886694877131   0.006422416677981387
0.005922460815385854   0.0019118886694877131   0.006422416677981387
-0.034585474870628505   -0.012495030952164827   -0.0027378109092681575
-0.034585474870628505   -0.012495030952164827   -0.0027378109092681575
-0.034585474870628505   -0.012495030952164827   -0.0027378109092681575
-0.034585474870628505   -0.012495030952164827   -0.0027378109092681575
-0.029500687160234344   -0.0019531668949817164   0.0028458883309886596
-0.029500687160234344   -0.0019531668949817164   0.0028458883309886596
-0.029500687160234344   -0.0019531668949817164   0.0028458883309886596
-0.029500687160234344   -0.0019531668949817164   0.0028458883309886596
0.0058287866154499894   -0.0010128161269692163   -0.0020755096284348087
0.0058287866154499894   -0.0010128161269692163   -0.0020755096284348087
0.0058287866154499894   -0.0010128161269692163   -0.0020755096284348087
0.0058287866154499894   -0.0010128161269692163   -0.0020755096284348087
-0.013392455622918553   -0.003068675935498801   -0.002114297090244152
-0.013392455622918553   -0.003068675935498801   -0.002114297090244152
-0.013392455622918553   -0.003068675935498801   -0.002114297090244152
-0.013392455622918553   -0.003068675935498801   -0.002114297090244152
0.008841875776244752   0.006284660029858686   0.005692460018711576
0.008841875776244752   0.006284660029858686   0.005692460018711576
0.008841875776244752   0.006284660029858686   0.005692460018711576
0.008841875776244752   0.006284660029858686   0.005692460018711576
-0.03220832560614947   -0.008945192336931184   -0.003700278456637513
-0.03220832560614947   -0.008945192336931184   -0.003700278456637513
-0.03220832560614947   -0.008945192336931184   -0.003700278456637513
-0.03220832560614947   -0.008945192336931184   -0.003700278456637513
-0.026963571955365365   0.0022142604722051457   0.0019995784728104745
-0.026963571955365365   0.0022142604722051457   0.0019995784728104745
-0.026963571955365365   0.0022142604722051457   0.0019995784728104745
-0.026963571955365365   0.0022142604722051457   0.0019995784728104745
0.009074388988120442   0.0028898760697400527   -0.002824300824542163
0.009074388988120442   0.0028898760697400527   -0.002824300824542163
0.009074388988120442   0.0028898760697400527   -0.002824300824542163
0.009074388988120442   0.0028898760697400527   -0.002824300824542163
-0.010694415052502902   0.0005679164263827094   -0.00029755921700042
-0.010694415052502902   0.0005679164263827094   -0.00029755921700042
-0.010694415052502902   0.0005679164263827094   -0.00029755921700042
-0.010694415052502902   0.0005679164263827094   -0.00029755921700042
0.012219776369963652   0.010674597394659703   0.005117914759754242
0.012219776369963652   0.010674597394659703   0.005117914759754242
0.012219776369963652   0.010674597394659703   0.005117914759754242
0.012219776369963652   0.010674597394659703   0.005117914759754242
-0.029811553966532154   -0.005273055482038081   -0.004753015628780233
-0.029811553966532154   -0.005273055482038081   -0.004753015628780233
-0.029811553966532154   -0.005273055482038081   -0.004753015628780233
-0.029811553966532154   -0.005273055482038081   -0.004753015628780233
-0.02440409144657605   0.006979513063423816   0.0011933682761507982
-0.02440409144657605   0.006979513063423816   0.0011933682761507982
-0.02440409144657605   0.006979513063423816   0.0011933682761507982
-0.02440409144657605   0.006979513063423816   0.0011933682761507982
0.011887569981288145   0.007369232454330242   -0.003587071700803934
0.011887569981288145   0.007369232454330242   -0.003587071700803934
0.011887569981288145   0.007369232454330242   -0.003587071700803934
0.011887569981288145   0.007369232454330242   -0.003587071700803934
-0.0076554876765758785   0.0046372865074150085   0.0016594299416091036
-0.0076554876765758785   0.0046372865074150085   0.0016594299416091036
-0.0076554876765758785   0.0046372865074150085   0.0016594299416091036
-0.0076554876765758785   0.0046372865074150085   0.0016594299416091036
-0.03152078890700225   -0.0022849278366105516   0.00237551579330931
-0.03152078890700225   -0.0022849278366105516   0.00237551579330931
-0.03152078890700225   -0.0022849278366105516   0.00237551579330931
-0.03152078890700225   -0.0022849278366105516   0.00237551579330931
-0.06864473683260579   -0.009180034655272944   0.0004970953972770684
-0.06864473683260579   -0.009180034655272944   0.0004970953972770684
-0.06864473683260579   -0.009180034655272944   0.0004970953972770684
-0.06864473683260579   -0.009180034655272944   0.0004970953972770684
-0.0664813383172251   -0.005887113504187701   -0.0012735975535815088
-0.0664813383172251   -0.005887113504187701   -0.0012735975535815088
-0.0664813383172251   -0.005887113504187701   -0.0012735975535815088
-0.0664813383172251   -0.005887113504187701   -0.0012735975535815088
-0.028911704821628234   0.0024514031983939354   0.0013862299306435545
-0.028911704821628234   0.0024514031983939354   0.0013862299306435545
-0.028911704821628234   0.0024514031983939354   0.0013862299306435545
-0.028911704821628234   0.0024514031983939354   0.0013862299306435545
-0.04895887549787717   -0.0034365328961132894   -0.0012701767384504287
-0.04895887549787717   -0.0034365328961132894   -0.0012701767384504287
-0.04895887549787717   -0.0034365328961132894   -0.0012701767384504287
-0.04895887549787717   -0.0034365328961132894   -0.0012701767384504287
-0.028917669819535217   0.002201584444972574   0.0016062236945299899
-0.028917669819535217   0.002201584444972574   0.0016062236945299899
-0.028917669819535217   0.002201584444972574   0.0016062236945299899
-0.028917669819535217   0.002201584444972574   0.0016062236945299899
-0.0662057239683716   -0.005367645399819831   -0.00041499391368190943
-0.0662057239683716   -0.005367645399819831   -0.00041499391368190943
-0.0662057239683716   -0.005367645399819831   -0.00041499391368190943
-0.0662057239683716   -0.005367645399819831   -0.00041499391368190943
-0.0637996714172605   -0.0012943444534161703   -0.002001181147592233
-0.0637996714172605   -0.0012943444534161703   -0.002001181147592233
-0.0637996714172605   -0.0012943444534161703   -0.002001181147592233
-0.0637996714172605   -0.0012943444534161703   -0.002001181147592233
-0.026402368011348917   0.006474922612824124   0.0005449360522737554
-0.026402368011348917   0.006474922612824124   0.0005449360522737554
-0.026402368011348917   0.006474922612824124   0.0005449360522737554
-0.026402368011348917   0.006474922612824124   0.0005449360522737554
-0.04617984018914677   0.0005784915671175703   0.0005740040476454908
-0.04617984018914677   0.0005784915671175703   0.0005740040476454908
-0.04617984018914677   0.0005784915671175703   0.0005740040476454908
-0.04617984018914677   0.0005784915671175703   0.0005740040476454908
-0.02630034693476065   0.006759791235175073   0.0007701728128641297
-0.02630034693476065   0.006759791235175073   0.0007701728128641297
-0.02630034693476065   0.006759791235175073   0.0007701728128641297
-0.02630034693476065   0.006759791235175073   0.0007701728128641297
-0.06368043070688491   -0.001357951288802086   -0.001341370760328967
-0.06368043070688491   -0.001357951288802086   -0.001341370760328967
-0.06368043070688491   -0.001357951288802086   -0.001341370760328967
-0.06368043070688491   -0.001357951288802086   -0.001341370760328967
-0.061222959367760635   0.0033223198509610904   -0.0028153736013806045
-0.061222959367760635   0.0033223198509610904   -0.0028153736013806045
-0.061222959367760635   0.0033223198509610904   -0.0028153736013806045
-0.061222959367760635   0.0033223198509610904   -0.0028153736013806045
-0.024024467502517736   0.010509990249529947   -0.0004389891896637438
-0.024024467502517736   0.010509990249529947   -0.0004389891896637438
-0.024024467502517736   0.010509990249529947   -0.0004389891896637438
-0.024024467502517736   0.010509990249529947   -0.0004389891896637438
-0.04355951819013061   0.004587727544777702   0.0022981868595146806
-0.04355951819013061   0.004587727544777702   0.0022981868595146806
-0.04355951819013061   0.004587727544777702   0.0022981868595146806
-0.04355951819013061   0.004587727544777702   0.0022981868595146806
-0.06851887815792203   -0.0062916358864111635   -0.0017620099981654905
-0.06851887815792203   -0.0062916358864111635   -0.0017620099981654905
-0.06851887815792203   -0.0062916358864111635   -0.0017620099981654905
-0.06851887815792203   -0.0062916358864111635   -0.0017620099981654905
-0.10278154509307767   -0.0060496019687166745   0.003639018223192572
-0.10278154509307767   -0.0060496019687166745   0.003639018223192572
-0.10278154509307767   -0.0060496019687166745   0.003639018223192572
-0.10278154509307767   -0.0060496019687166745   0.003639018223192572
-0.10316726753661079   -0.009778381091057508   -0.005355045282766184
-0.10316726753661079   -0.009778381091057508   -0.005355045282766184
-0.10316726753661079   -0.009778381091057508   -0.005355045282766184
-0.10316726753661079   -0.009778381091057508   -0.005355045282766184
-0.06294677989803688   0.0058661561024387215   0.004645924935733184
-0.06294677989803688   0.0058661561024387215   0.004645924935733184
-0.06294677989803688   0.0058661561024387215   0.004645924935733184
-0.06294677989803688   0.0058661561024387215   0.004645924935733184
-0.08386481604335323   -0.0036880865557763695   -0.0005657583361324678
-0.08386481604335323   -0.0036880865557763695   -0.0005657583361324678
-0.08386481604335323   -0.0036880865557763695   -0.0005657583361324678
-0.08386481604335323   -0.0036880865557763695   -0.0005657583361324678
-0.06590363358981255   -0.0017575689410721587   -0.0025146184796338415
-0.06590363358981255   -0.0017575689410721587   -0.0025146184796338415
-0.06590363358981255   -0.0017575689410721587   -0.0025146184796338415
-0.06590363358981255   -0.0017575689410721587   -0.0025146184796338415
-0.09997747768595552   -0.0019217198886674718   0.0027372427681208863
-0.09997747768595552   -0.0019217198886674718   0.0027372427681208863
-0.09997747768595552   -0.0019217198886674718   0.0027372427681208863
-0.09997747768595552   -0.0019217198886674718   0.0027372427681208863
-0.09973243089967992   -0.005407721290128793   -0.005963063808159218
-0.09973243089967992   -0.005407721290128793   -0.005963063808159218
-0.09973243089967992   -0.005407721290128793   -0.005963063808159218
-0.09973243089967992   -0.005407721290128793   -0.005963063808159218
-0.06049665019202988   0.009516025502995271   0.0037035550221494566
-0.06049665019202988   0.009516025502995271   0.0037035550221494566
-0.06049665019202988   0.009516025502995271   0.0037035550221494566
-0.06049665019202988   0.009516025502995271   0.0037035550221494566
-0.08044628623238105   0.00036934629208739897   0.0013487192816189226
-0.08044628623238105   0.00036934629208739897   0.0013487192816189226
-0.08044628623238105   0.00036934629208739897   0.0013487192816189226
-0.08044628623238105   0.00036934629208739897   0.0013487192816189226
-0.063351703676338   0.00237491628074352   -0.0034306031771395885
-0.063351703676338   0.00237491628074352   -0.0034306031771395885
-0.063351703676338   0.00237491628074352   -0.0034306031771395885
-0.063351703676338   0.00237491628074352   -0.0034306031771395885
-0.09661771978885318   0.0019930455586402752   0.002209724897205446
-0.09661771978885318   0.0019930455586402752   0.002209724897205446
-0.09661771978885318   0.0019930455586402752   0.002209724897205446
-0.09661771978885318   0.0019930455586402752   0.002209724897205446
-0.09667062717536434   -0.0006777324732269371   -0.00643207008080365
-0.09667062717536434   -0.0006777324732269371   -0.00643207008080365
-0.09667062717536434   -0.0006777324732269371   -0.00643207008080365
-0.09667062717536434   -0.0006777324732269371   -0.00643207008080365
-0.058074844028827975   0.013496821759334098   0.0027507011849096574
-0.058074844028827975   0.013496821759334098   0.0027507011849096574
-0.058074844028827975   0.013496821759334098   0.0027507011849096574
-0.058074844028827975   0.013496821759334098   0.0027507011849096574
-0.0780125387260131   0.004105832272087377   0.0030501497066267175
-0.0780125387260131   0.004105832272087377   0.0030501497066267175
-0.0780125387260131   0.004105832272087377   0.0030501497066267175
-0.0780125387260131   0.004105832272087377   0.0030501497066267175
-0.10519651813728291   -0.008900191484884353   -0.005585257481665978
-0.10519651813728291   -0.008900191484884353   -0.005585257481665978
-0.10519651813728291   -0.008900191484884353   -0.005585257481665978
-0.10519651813728291   -0.008900191484884353   -0.005585257481665978
-0.14207109686126343   -0.002994805536371447   0.008228224473810601
-0.14207109686126343   -0.002994805536371447   0.008228224473810601
-0.14207109686126343   -0.002994805536371447   0.008228224473810601
-0.14207109686126343   -0.002994805536371447   0.008228224473810601
-0.14060663585109937   -0.012563438995540549   -0.007589377625029188
-0.14060663585109937   -0.012563438995540549   -0.007589377625029188
-0.14060663585109937   -0.012563438995540549   -0.007589377625029188
-0.14060663585109937   -0.012563438995540549   -0.007589377625029188
-0.09651233069491322   0.01003206361507947   0.00810919421958469
-0.09651233069491322   0.01003206361507947   0.00810919421958469
-0.09651233069491322   0.01003206361507947   0.00810919421958469
-0.09651233069491322   0.01003206361507947   0.00810919421958469
-0.11583773260074057   -0.0021119410162241115   0.001128211741581394
-0.11583773260074057   -0.0021119410162241115   0.001128211741581394
-0.11583773260074057   -0.0021119410162241115   0.001128211741581394
-0.11583773260074057   -0.0021119410162241115   0.001128211741581394
-0.10233933297719357   -0.004659044675917486   -0.006334708900819682
-0.10233933297719357   -0.004659044675917486   -0.006334708900819682
-0.10233933297719357   -0.004659044675917486   -0.006334708900819682
-0.10233933297719357   -0.004659044675917486   -0.006334708900819682
-0.13456121659753034   0.002346086266743465   0.007728193380529491
-0.13456121659753034   0.002346086266743465   0.007728193380529491
-0.13456121659753034   0.002346086266743465   0.007728193380529491
-0.13456121659753034   0.002346086266743465   0.007728193380529491
-0.13498560945809435   -0.009990853971601394   -0.00907057269599867
-0.13498560945809435   -0.009990853971601394   -0.00907057269599867
-0.13498560945809435   -0.009990853971601394   -0.00907057269599867
-0.13498560945809435   -0.009990853971601394   -0.00907057269599867
-0.09377113450159508   0.011727367924507653   0.006708328967627908
-0.09377113450159508   0.011727367924507653   0.006708328967627908
-0.09377113450159508   0.011727367924507653   0.006708328967627908
-0.09377113450159508   0.011727367924507653   0.006708328967627908
-0.11291436187185146   0.0006152773208093487   0.00265148010308544
-0.11291436187185146   0.0006152773208093487   0.00265148010308544
-0.11291436187185146   0.0006152773208093487   0.00265148010308544
-0.11291436187185146   0.0006152773208093487   0.00265148010308544
-0.09943753089221043   -0.0025386506095107994   -0.007357634451429638
-0.09943753089221043   -0.0025386506095107994   -0.007357634451429638
-0.09943753089221043   -0.0025386506095107994   -0.007357634451429638
-0.09943753089221043   -0.0025386506095107994   -0.007357634451429638
-0.12905895469301482   0.004535422936881091   0.006036424220914868
-0.12905895469301482   0.004535422936881091   0.006036424220914868
-0.12905895469301482   0.004535422936881091   0.006036424220914868
-0.12905895469301482   0.004535422936881091   0.006036424220914868
-0.12793563453624748   -0.006226156645579409   -0.010164689594924297
-0.12793563453624748   -0.006226156645579409   -0.010164689594924297
-0.12793563453624748   -0.006226156645579409   -0.010164689594924297
-0.12793563453624748   -0.006226156645579409   -0.010164689594924297
-0.09140292793353763   0.013645516248802031   0.005583177406300908
-0.09140292793353763   0.013645516248802031   0.005583177406300908
-0.09140292793353763   0.013645516248802031   0.005583177406300908
-0.09140292793353763   0.013645516248802031   0.005583177406300908
-0.10675632444027035   0.0031238992468872774   0.004853277048652423
-0.10675632444027035   0.0031238992468872774   0.004853277048652423
-0.10675632444027035   0.0031238992468872774   0.004853277048652423
-0.10675632444027035   0.0031238992468872774   0.004853277048652423
0.107933414299028   0.009902890948226387   0.00890746796783906
0.107933414299028   0.009902890948226387   0.00890746796783906
0.107933414299028   0.009902890948226387   0.00890746796783906
0.107933414299028   0.009902890948226387   0.00890746796783906
0.03898362692631173   -0.017021226113692042   -0.005839664751347664
0.03898362692631173   -0.017021226113692042   -0.005839664751347664
0.03898362692631173   -0.017021226113692042   -0.005839664751347664
0.03898362692631173   -0.017021226113692042   -0.005839664751347664
0.04739173929155881   -0.00038900100266982783   0.006361843931646738
0.04739173929155881   -0.00038900100266982783   0.006361843931646738
0.04739173929155881   -0.00038900100266982783   0.006361843931646738
0.04739173929155881   -0.00038900100266982783   0.006361843931646738
0.10945699117317875   -0.0016742760907450145   -0.007487898602965635
0.10945699117317875   -0.0016742760907450145   -0.007487898602965635
0.10945699117317875   -0.0016742760907450145   -0.007487898602965635
0.10945699117317875   -0.0016742760907450145   -0.007487898602965635
0.07127884457729712   -0.002867375781955974   -0.00666547702508674
0.07127884457729712   -0.002867375781955974   -0.00666547702508674
0.07127884457729712   -0.002867375781955974   -0.00666547702508674
0.07127884457729712   -0.002867375781955974   -0.00666547702508674
0.11553987550406726   0.013515589038040588   0.007736657922690345
0.11553987550406726   0.013515589038040588   0.007736657922690345
0.11553987550406726   0.013515589038040588   0.007736657922690345
0.11553987550406726   0.013515589038040588   0.007736657922690345
0.041761072350085096   -0.015126648742040711   -0.007053843036350462
0.041761072350085096   -0.015126648742040711   -0.007053843036350462
0.041761072350085096   -0.015126648742040711   -0.007053843036350462
0.041761072350085096   -0.015126648742040711   -0.007053843036350462
0.05051514633904591   0.0016279562213605443   0.005211466675967029
0.05051514633904591   0.0016279562213605443   0.005211466675967029
0.05051514633904591   0.0016279562213605443   0.005211466675967029
0.05051514633904591   0.0016279562213605443   0.005211466675967029
0.1154259856102862   0.0006021860556800554   -0.009331636950622378
0.1154259856102862   0.0006021860556800554   -0.009331636950622378
0.1154259856102862   0.0006021860556800554   -0.009331636950622378
0.1154259856102862   0.0006021860556800554   -0.009331636950622378
0.07760979578264499   -0.00043581071118681605   -0.004098982468916994
0.07760979578264499   -0.00043581071118681605   -0.004098982468916994
0.07760979578264499   -0.00043581071118681605   -0.004098982468916994
0.07760979578264499   -0.00043581071118681605   -0.004098982468916994
0.12155140302264492   0.015977034546880816   0.005920601619969387
0.12155140302264492   0.015977034546880816   0.005920601619969387
0.12155140302264492   0.015977034546880816   0.005920601619969387
0.12155140302264492   0.015977034546880816   0.005920601619969387
0.04485127312146789   -0.01328534807506089   -0.008194595115501128
0.04485127312146789   -0.01328534807506089   -0.008194595115501128
0.04485127312146789   -0.01328534807506089   -0.008194595115501128
0.04485127312146789   -0.01328534807506089   -0.008194595115501128
0.05363882458912286   0.0061312186955999855   0.004515576469016959
0.05363882458912286   0.0061312186955999855   0.004515576469016959
0.05363882458912286   0.0061312186955999855   0.004515576469016959
0.05363882458912286   0.0061312186955999855   0.004515576469016959
0.12331444031795188   0.006526225511023508   -0.010033359352579657
0.12331444031795188   0.006526225511023508   -0.010033359352579657
0.12331444031795188   0.006526225511023508   -0.010033359352579657
0.12331444031795188   0.006526225511023508   -0.010033359352579657
0.0812592677474914   0.002572044312206704   -0.0019367375206631099
0.0812592677474914   0.002572044312206704   -0.0019367375206631099
0.0812592677474914   0.002572044312206704   -0.0019367375206631099
0.0812592677474914   0.002572044312206704   -0.0019367375206631099
0.04615392857637847   0.005665446163457421   0.007325171221836117
0.04615392857637847   0.005665446163457421   0.007325171221836117
0.04615392857637847   0.005665446163457421   0.007325171221836117
0.04615392857637847   0.005665446163457421   0.007325171221836117
-0.023513247911067098   -0.015919670287872882   -0.003095378804145708
-0.023513247911067098   -0.015919670287872882   -0.003095378804145708
-0.023513247911067098   -0.015919670287872882   -0.003095378804145708
-0.023513247911067098   -0.015919670287872882   -0.003095378804145708
-0.017864871128460975   -0.004911856816819082   0.002122944666234499
-0.017864871128460975   -0.004911856816819082   0.002122944666234499
-0.017864871128460975   -0.004911856816819082   0.002122944666234499
-0.017864871128460975   -0.004911856816819082   0.002122944666234499
0.04619536629982749   0.0008200413535224306   -0.0008290633832016155
0.04619536629982749   0.0008200413535224306   -0.0008290633832016155
0.04619536629982749   0.0008200413535224306   -0.0008290633832016155
0.04619536629982749   0.0008200413535224306   -0.0008290633832016155
0.012128913781922247   -0.003164171431426452   -0.0027648824020793028
0.012128913781922247   -0.003164171431426452   -0.0027648824020793028
0.012128913781922247   -0.003164171431426452   -0.0027648824020793028
0.012128913781922247   -0.003164171431426452   -0.0027648824020793028
0.04939112707293491   0.009423925214487226   0.006545856621370165
0.04939112707293491   0.009423925214487226   0.006545856621370165
0.04939112707293491   0.009423925214487226   0.006545856621370165
0.04939112707293491   0.009423925214487226   0.006545856621370165
-0.02077067458494245   -0.013225783361158025   -0.004092146071833943
-0.02077067458494245   -0.013225783361158025   -0.004092146071833943
-0.02077067458494245   -0.013225783361158025   -0.004092146071833943
-0.02077067458494245   -0.013225783361158025   -0.004092146071833943
-0.014968865905789457   -0.0010901920353847386   0.0013186135437437785
-0.014968865905789457   -0.0010901920353847386   0.0013186135437437785
-0.014968865905789457   -0.0010901920353847386   0.0013186135437437785
-0.014968865905789457   -0.0010901920353847386   0.0013186135437437785
0.049668738838583575   0.004211971154382503   -0.0016045857593661242
0.049668738838583575   0.004211971154382503   -0.0016045857593661242
0.049668738838583575   0.004211971154382503   -0.0016045857593661242
0.049668738838583575   0.004211971154382503   -0.0016045857593661242
0.014901081655531518   -0.00016492741328538122   -0.0010886768538027917
0.014901081655531518   -0.00016492741328538122   -0.0010886768538027917
0.014901081655531518   -0.00016492741328538122   -0.0010886768538027917
0.014901081655531518   -0.00016492741328538122   -0.0010886768538027917
0.052997353690949545   0.01340785092215288   0.005842608734692875
0.052997353690949545   0.01340785092215288   0.005842608734692875
0.052997353690949545   0.01340785092215288   0.005842608734692875
0.052997353690949545   0.01340785092215288   0.005842608734692875
-0.01800980964682037   -0.00999840069182014   -0.004977896504975395
-0.01800980964682037   -0.00999840069182014   -0.004977896504975395
-0.01800980964682037   -0.00999840069182014   -0.004977896504975395
-0.01800980964682037   -0.00999840069182014   -0.004977896504975395
-0.012097379395064951   0.0033943156204214314   0.0005232935060051091
-0.012097379395064951   0.0033943156204214314   0.0005232935060051091
-0.012097379395064951   0.0033943156204214314   0.0005232935060051091
-0.012097379395064951   0.0033943156204214314   0.0005232935060051091
0.05270828741519878   0.008300193280616474   -0.0023060839856194775
0.05270828741519878   0.008300193280616474   -0.0023060839856194775
0.05270828741519878   0.008300193280616474   -0.0023060839856194775
0.05270828741519878   0.008300193280616474   -0.0023060839856194775
0.01844478269930644   0.0035610877982371228   0.0008830743976596991
0.01844478269930644   0.0035610877982371228   0.0008830743976596991
0.01844478269930644   0.0035610877982371228   0.0008830743976596991
0.01844478269930644   0.0035610877982371228   0.0008830743976596991
-0.018809213467658494   0.0013238963027217316   0.0031812268223031575
-0.018809213467658494   0.0013238963027217316   0.0031812268223031575
-0.018809213467658494   0.0013238963027217316   0.0031812268223031575
-0.018809213467658494   0.0013238963027217316   0.0031812268223031575
-0.08479327592303398   -0.014184558919578726   -0.000490584703744244
-0.08479327592303398   -0.014184558919578726   -0.000490584703744244
-0.08479327592303398   -0.014184558919578726   -0.000490584703744244
-0.08479327592303398   -0.014184558919578726   -0.000490584703744244
-0.08141563811977973   -0.008719630242903367   -0.0019650039776838036
-0.08141563811977973   -0.008719630242903367   -0.0019650039776838036
-0.08141563811977973   -0.008719630242903367   -0.0019650039776838036
-0.08141563811977973   -0.008719630242903367   -0.0019650039776838036
-0.016359929637374825   0.0026804803305657014   0.0020553149742804627
-0.016359929637374825   0.0026804803305657014   0.0020553149742804627
-0.016359929637374825   0.0026804803305657014   0.0020553149742804627
-0.016359929637374825   0.0026804803305657014   0.0020553149742804627
-0.05042591021937247   -0.004294662706370381   -0.0017432981859617652
-0.05042591021937247   -0.004294662706370381   -0.0017432981859617652
-0.05042591021937247   -0.004294662706370381   -0.0017432981859617652
-0.05042591021937247   -0.004294662706370381   -0.0017432981859617652
-0.015761508745779626   0.005291480316666149   0.002436419446156019
-0.015761508745779626   0.005291480316666149   0.002436419446156019
-0.015761508745779626   0.005291480316666149   0.002436419446156019
-0.015761508745779626   0.005291480316666149   0.002436419446156019
-0.08180380297032594   -0.011120374187953558   -0.0015050842853647185
-0.08180380297032594   -0.011120374187953558   -0.0015050842853647185
-0.08180380297032594   -0.011120374187953558   -0.0015050842853647185
-0.08180380297032594   -0.011120374187953558   -0.0015050842853647185
-0.0782129807005491   -0.004525802470312312   -0.002648076674215907
-0.0782129807005491   -0.004525802470312312   -0.002648076674215907
-0.0782129807005491   -0.004525802470312312   -0.002648076674215907
-0.0782129807005491   -0.004525802470312312   -0.002648076674215907
-0.013547461167903821   0.006114826594984859   0.0012206186028023602
-0.013547461167903821   0.006114826594984859   0.0012206186028023602
-0.013547461167903821   0.006114826594984859   0.0012206186028023602
-0.013547461167903821   0.006114826594984859   0.0012206186028023602
-0.047187215763934295   -0.0007931850663271955   -1.6802892978144343e-05
-0.047187215763934295   -0.0007931850663271955   -1.6802892978144343e-05
-0.047187215763934295   -0.0007931850663271955   -1.6802892978144343e-05
-0.047187215763934295   -0.0007931850663271955   -1.6802892978144343e-05
-0.012818857101186692   0.009398608908896992   0.0015798566224758735
-0.012818857101186692   0.009398608908896992   0.0015798566224758735
-0.012818857101186692   0.009398608908896992   0.0015798566224758735
-0.012818857101186692   0.009398608908896992   0.0015798566224758735
-0.07874975792794893   -0.0076177579449084095   -0.002240007336618889
-0.07874975792794893   -0.0076177579449084095   -0.002240007336618889
-0.07874975792794893   -0.0076177579449084095   -0.002240007336618889
-0.07874975792794893   -0.0076177579449084095   -0.002240007336618889
-0.07522499858629556   -0.00033130931769222854   -0.0034449559419891234
-0.07522499858629556   -0.00033130931769222854   -0.0034449559419891234
-0.07522499858629556   -0.00033130931769222854   -0.0034449559419891234
-0.07522499858629556   -0.00033130931769222854   -0.0034449559419891234
-0.010885848548661224   0.009607239587854335   0.00036802377059132977
-0.010885848548661224   0.009607239587854335   0.00036802377059132977
-0.010885848548661224   0.009607239587854335   0.00036802377059132977
-0.010885848548661224   0.009607239587854335   0.00036802377059132977
-0.04422565991003878   0.002698688773825106   0.0016191713566033501
-0.04422565991003878   0.002698688773825106   0.0016191713566033501
-0.04422565991003878   0.002698688773825106   0.0016191713566033501
-0.04422565991003878   0.002698688773825106   0.0016191713566033501
-0.08266445435926807   -0.002966828856243154   -0.0010642069482494293
-0.08266445435926807   -0.002966828856243154   -0.0010642069482494293
-0.08266445435926807   -0.002966828856243154   -0.0010642069482494293
-0.08266445435926807   -0.002966828856243154   -0.0010642069482494293
-0.14525889439932843   -0.011723897971907624   0.002423160124224291
-0.14525889439932843   -0.011723897971907624   0.002423160124224291
-0.14525889439932843   -0.011723897971907624   0.002423160124224291
-0.14525889439932843   -0.011723897971907624   0.002423160124224291
-0.14391372777609987   -0.012429081296098151   -0.0058633141788881635
-0.14391372777609987   -0.012429081296098151   -0.0058633141788881635
-0.14391372777609987   -0.012429081296098151   -0.0058633141788881635
-0.14391372777609987   -0.012429081296098151   -0.0058633141788881635
-0.07712289698931936   0.005748890470667449   0.0050301809610480116
-0.07712289698931936   0.005748890470667449   0.0050301809610480116
-0.07712289698931936   0.005748890470667449   0.0050301809610480116
-0.07712289698931936   0.005748890470667449   0.0050301809610480116
-0.11146562027178471   -0.004720224768292994   -0.0006254626912021019
-0.11146562027178471   -0.004720224768292994   -0.0006254626912021019
-0.11146562027178471   -0.004720224768292994   -0.0006254626912021019
-0.11146562027178471   -0.004720224768292994   -0.0006254626912021019
-0.07935801056883166   0.0013128547399699347   -0.0017093512058159671
-0.07935801056883166   0.0013128547399699347   -0.0017093512058159671
-0.07935801056883166   0.0013128547399699347   -0.0017093512058159671
-0.07935801056883166   0.0013128547399699347   -0.0017093512058159671
-0.14161958969803198   -0.00793402106684482   0.0011123159821992733
-0.14161958969803198   -0.00793402106684482   0.0011123159821992733
-0.14161958969803198   -0.00793402106684482   0.0011123159821992733
-0.14161958969803198   -0.00793402106684482   0.0011123159821992733
-0.1396701366025951   -0.00835705394900247   -0.006488355827274028
-0.1396701366025951   -0.00835705394900247   -0.006488355827274028
-0.1396701366025951   -0.00835705394900247   -0.006488355827274028
-0.1396701366025951   -0.00835705394900247   -0.006488355827274028
-0.07417021517160267   0.008995200323528543   0.00404474817667626
-0.07417021517160267   0.008995200323528543   0.00404474817667626
-0.07417021517160267   0.008995200323528543   0.00404474817667626
-0.07417021517160267   0.008995200323528543   0.00404474817667626
-0.1070866274340612   -0.0008647682932110094   0.001127671268759632
-0.1070866274340612   -0.0008647682932110094   0.001127671268759632
-0.1070866274340612   -0.0008647682932110094   0.001127671268759632
-0.1070866274340612   -0.0008647682932110094   0.001127671268759632
-0.07626996369744288   0.005107410809736215   -0.002566204938732804
-0.07626996369744288   0.005107410809736215   -0.002566204938732804
-0.07626996369744288   0.005107410809736215   -0.002566204938732804
-0.07626996369744288   0.005107410809736215   -0.002566204938732804
-0.13740979878902013   -0.004308675147475453   0.0007649544390737504
-0.13740979878902013   -0.004308675147475453   0.0007649544390737504
-0.13740979878902013   -0.004308675147475453   0.0007649544390737504
-0.13740979878902013   -0.004308675147475453   0.0007649544390737504
-0.1358817883214256   -0.003982340542057063   -0.006838166029448507
-0.1358817883214256   -0.003982340542057063   -0.006838166029448507
-0.1358817883214256   -0.003982340542057063   -0.006838166029448507
-0.1358817883214256   -0.003982340542057063   -0.006838166029448507
-0.07131133634312742   0.012517347822360681   0.0032746981337992307
-0.07131133634312742   0.012517347822360681   0.0032746981337992307
-0.07131133634312742   0.012517347822360681   0.0032746981337992307
-0.07131133634312742   0.012517347822360681   0.0032746981337992307
-0.10429618332775031   0.002394298296762274   0.0026266341259388766
-0.10429618332775031   0.002394298296762274   0.0026266341259388766
-0.10429618332775031   0.002394298296762274   0.0026266341259388766
-0.10429618332775031   0.002394298296762274   0.0026266341259388766
-0.14567110298402663   -0.006360673174934262   -0.005001107596240264
-0.14567110298402663   -0.006360673174934262   -0.005001107596240264
-0.14567110298402663   -0.006360673174934262   -0.005001107596240264
-0.14567110298402663   -0.006360673174934262   -0.005001107596240264
-0.20878443943432973   -0.007695729536884417   0.008596753360059713
-0.20878443943432973   -0.007695729536884417   0.008596753360059713
-0.20878443943432973   -0.007695729536884417   0.008596753360059713
-0.20878443943432973   -0.007695729536884417   0.008596753360059713
-0.20552951377500248   -0.014756366047070715   -0.0068157710110769675
-0.20552951377500248   -0.014756366047070715   -0.0068157710110769675
-0.20552951377500248   -0.014756366047070715   -0.0068157710110769675
-0.20552951377500248   -0.014756366047070715   -0.0068157710110769675
-0.1362313760972944   0.01128826628335717   0.00883109663568396
-0.1362313760972944   0.01128826628335717   0.00883109663568396
-0.1362313760972944   0.01128826628335717   0.00883109663568396
-0.1362313760972944   0.01128826628335717   0.00883109663568396
-0.16629106979808617   -0.00203859373076129   0.0021768541758069894
-0.16629106979808617   -0.00203859373076129   0.0021768541758069894
-0.16629106979808617   -0.00203859373076129   0.0021768541758069894
-0.16629106979808617   -0.00203859373076129   0.0021768541758069894
-0.14171978375867245   -0.001746500765966462   -0.0055761746218819085
-0.14171978375867245   -0.001746500765966462   -0.0055761746218819085
-0.14171978375867245   -0.001746500765966462   -0.0055761746218819085
-0.14171978375867245   -0.001746500765966462   -0.0055761746218819085
-0.19991026890484154   -0.0015907617889649658   0.008114849081620433
-0.19991026890484154   -0.0015907617889649658   0.008114849081620433
-0.19991026890484154   -0.0015907617889649658   0.008114849081620433
-0.19991026890484154   -0.0015907617889649658   0.008114849081620433
-0.19891209236249666   -0.012254926298293216   -0.008062184285471013
-0.19891209236249666   -0.012254926298293216   -0.008062184285471013
-0.19891209236249666   -0.012254926298293216   -0.008062184285471013
-0.19891209236249666   -0.012254926298293216   -0.008062184285471013
-0.13272746823284567   0.012825322986554307   0.007042609085916359
-0.13272746823284567   0.012825322986554307   0.007042609085916359
-0.13272746823284567   0.012825322986554307   0.007042609085916359
-0.13272746823284567   0.012825322986554307   0.007042609085916359
-0.16324672997571396   0.0007082502849479616   0.003570597919232355
-0.16324672997571396   0.0007082502849479616   0.003570597919232355
-0.16324672997571396   0.0007082502849479616   0.003570597919232355
-0.16324672997571396   0.0007082502849479616   0.003570597919232355
-0.13792489717078066   0.00027592256141944355   -0.006395135178623735
-0.13792489717078066   0.00027592256141944355   -0.006395135178623735
-0.13792489717078066   0.00027592256141944355   -0.006395135178623735
-0.13792489717078066   0.00027592256141944355   -0.006395135178623735
-0.19357576034106697   0.00043337721033583076   0.005931172313045265
-0.19357576034106697   0.00043337721033583076   0.005931172313045265
-0.19357576034106697   0.00043337721033583076   0.005931172313045265
-0.19357576034106697   0.00043337721033583076   0.005931172313045265
-0.19156544294806566   -0.009352097748810483   -0.009242377567233614
-0.19156544294806566   -0.009352097748810483   -0.009242377567233614
-0.19156544294806566   -0.009352097748810483   -0.009242377567233614
-0.19156544294806566   -0.009352097748810483   -0.009242377567233614
-0.12970286701602704   0.014088353443599846   0.00598574651188743
-0.12970286701602704   0.014088353443599846   0.00598574651188743
-0.12970286701602704   0.014088353443599846   0.00598574651188743
-0.12970286701602704   0.014088353443599846   0.00598574651188743
-0.15566857041008156   0.002946142065403924   0.005783833738739039
-0.15566857041008156   0.002946142065403924   0.005783833738739039
-0.15566857041008156   0.002946142065403924   0.005783833738739039
-0.15566857041008156   0.002946142065403924   0.005783833738739039
0.17602880884468267   0.013320840885571339   0.008825488326598322
0.17602880884468267   0.013320840885571339   0.008825488326598322
0.17602880884468267   0.013320840885571339   0.008825488326598322
0.17602880884468267   0.013320840885571339   0.008825488326598322
0.0768167576553975   -0.01978752846634044   -0.004269935551790819
0.0768167576553975   -0.01978752846634044   -0.004269935551790819
0.0768167576553975   -0.01978752846634044   -0.004269935551790819
0.0768167576553975   -0.01978752846634044   -0.004269935551790819
0.08494548769530857   -0.0038829234798832303   0.005980367929213468
0.08494548769530857   -0.0038829234798832303   0.005980367929213468
0.08494548769530857   -0.0038829234798832303   0.005980367929213468
0.08494548769530857   -0.0038829234798832303   0.005980367929213468
0.1775658020772562   0.0006233391692610155   -0.006544085678444916
0.1775658020772562   0.0006233391692610155   -0.006544085678444916
0.1775658020772562   0.0006233391692610155   -0.006544085678444916
0.1775658020772562   0.0006233391692610155   -0.006544085678444916
0.12133596692094455   -0.0032966465582819245   -0.009151371021649628
0.12133596692094455   -0.0032966465582819245   -0.009151371021649628
0.12133596692094455   -0.0032966465582819245   -0.009151371021649628
0.12133596692094455   -0.0032966465582819245   -0.009151371021649628
0.18344289989660262   0.016094528243368603   0.00737021434417861
0.18344289989660262   0.016094528243368603   0.00737021434417861
0.18344289989660262   0.016094528243368603   0.00737021434417861
0.18344289989660262   0.016094528243368603   0.00737021434417861
0.07964146746501516   -0.018781034964937902   -0.005641621737198489
0.07964146746501516   -0.018781034964937902   -0.005641621737198489
0.07964146746501516   -0.018781034964937902   -0.005641621737198489
0.07964146746501516   -0.018781034964937902   -0.005641621737198489
0.08796753268693953   -0.0020631472739381478   0.004800149324640938
0.08796753268693953   -0.0020631472739381478   0.004800149324640938
0.08796753268693953   -0.0020631472739381478   0.004800149324640938
0.08796753268693953   -0.0020631472739381478   0.004800149324640938
0.18308120728003113   0.00261443167166292   -0.00807641578726193
0.18308120728003113   0.00261443167166292   -0.00807641578726193
0.18308120728003113   0.00261443167166292   -0.00807641578726193
0.18308120728003113   0.00261443167166292   -0.00807641578726193
0.128419803717589   -0.0012030097642916487   -0.006284336643227538
0.128419803717589   -0.0012030097642916487   -0.006284336643227538
0.128419803717589   -0.0012030097642916487   -0.006284336643227538
0.128419803717589   -0.0012030097642916487   -0.006284336643227538
0.18891006672721525   0.018251493577710925   0.005430819542610594
0.18891006672721525   0.018251493577710925   0.005430819542610594
0.18891006672721525   0.018251493577710925   0.005430819542610594
0.18891006672721525   0.018251493577710925   0.005430819542610594
0.08263132035583343   -0.017207562063908152   -0.006736497540919588
0.08263132035583343   -0.017207562063908152   -0.006736497540919588
0.08263132035583343   -0.017207562063908152   -0.006736497540919588
0.08263132035583343   -0.017207562063908152   -0.006736497540919588
0.09072623744598339   0.0028570315416964302   0.004208873672753436
0.09072623744598339   0.0028570315416964302   0.004208873672753436
0.09072623744598339   0.0028570315416964302   0.004208873672753436
0.09072623744598339   0.0028570315416964302   0.004208873672753436
0.18994274997487823   0.008472634369685404   -0.008422518648265473
0.18994274997487823   0.008472634369685404   -0.008422518648265473
0.18994274997487823   0.008472634369685404   -0.008422518648265473
0.18994274997487823   0.008472634369685404   -0.008422518648265473
0.13075813746088671   0.0016751077835718033   -0.004354281576054901
0.13075813746088671   0.0016751077835718033   -0.004354281576054901
0.13075813746088671   0.0016751077835718033   -0.004354281576054901
0.13075813746088671   0.0016751077835718033   -0.004354281576054901
0.08491191999372043   0.008056757157175272   0.008361590516307539
0.08491191999372043   0.008056757157175272   0.008361590516307539
0.08491191999372043   0.008056757157175272   0.008361590516307539
0.08491191999372043   0.008056757157175272   0.008361590516307539
-0.012158087423163091   -0.023999250665369613   -0.0024882800737533544
-0.012158087423163091   -0.023999250665369613   -0.0024882800737533544
-0.012158087423163091   -0.023999250665369613   -0.0024882800737533544
-0.012158087423163091   -0.023999250665369613   -0.0024882800737533544
-0.005326068966411706   -0.008930452931888643   0.0019399004559822173
-0.005326068966411706   -0.008930452931888643   0.0019399004559822173
-0.005326068966411706   -0.008930452931888643   0.0019399004559822173
-0.005326068966411706   -0.008930452931888643   0.0019399004559822173
0.08403553478126424   -0.0029863714062849517   0.0005340512853935289
0.08403553478126424   -0.0029863714062849517   0.0005340512853935289
0.08403553478126424   -0.0029863714062849517   0.0005340512853935289
0.08403553478126424   -0.0029863714062849517   0.0005340512853935289
0.036830999585675865   -0.00627032792300021   -0.0041816953284711696
0.036830999585675865   -0.00627032792300021   -0.0041816953284711696
0.036830999585675865   -0.00627032792300021   -0.0041816953284711696
0.036830999585675865   -0.00627032792300021   -0.0041816953284711696
0.08818612450944668   0.010870109480075612   0.007430519039945117
0.08818612450944668   0.010870109480075612   0.007430519039945117
0.08818612450944668   0.010870109480075612   0.007430519039945117
0.08818612450944668   0.010870109480075612   0.007430519039945117
-0.00915732595604827   -0.022467601079703338   -0.0036792363443859024
-0.00915732595604827   -0.022467601079703338   -0.0036792363443859024
-0.00915732595604827   -0.022467601079703338   -0.0036792363443859024
-0.00915732595604827   -0.022467601079703338   -0.0036792363443859024
-0.00225354005793972   -0.0056252916373846955   0.0011313791783211734
-0.00225354005793972   -0.0056252916373846955   0.0011313791783211734
-0.00225354005793972   -0.0056252916373846955   0.0011313791783211734
-0.00225354005793972   -0.0056252916373846955   0.0011313791783211734
0.08722946925956009   -0.00048791725074383285   -0.0004653978354505917
0.08722946925956009   -0.00048791725074383285   -0.0004653978354505917
0.08722946925956009   -0.00048791725074383285   -0.0004653978354505917
0.08722946925956009   -0.00048791725074383285   -0.0004653978354505917
0.03943668916440577   -0.004226286890976873   -0.00267695027693796
0.03943668916440577   -0.004226286890976873   -0.00267695027693796
0.03943668916440577   -0.004226286890976873   -0.00267695027693796
0.03943668916440577   -0.004226286890976873   -0.00267695027693796
0.09160330264470899   0.01425247619615903   0.006663375643391077
0.09160330264470899   0.01425247619615903   0.006663375643391077
0.09160330264470899   0.01425247619615903   0.006663375643391077
0.09160330264470899   0.01425247619615903   0.006663375643391077
-0.006422145852111061   -0.020160457493309993   -0.005176483936610233
-0.006422145852111061   -0.020160457493309993   -0.005176483936610233
-0.006422145852111061   -0.020160457493309993   -0.005176483936610233
-0.006422145852111061   -0.020160457493309993   -0.005176483936610233
0.00016838580234082492   -0.0016823809376948426   0.000320946535681904
0.00016838580234082492   -0.0016823809376948426   0.000320946535681904
0.00016838580234082492   -0.0016823809376948426   0.000320946535681904
0.00016838580234082492   -0.0016823809376948426   0.000320946535681904
0.08959158598309845   0.0027463165855906198   -0.0013536686855669276
0.08959158598309845   0.0027463165855906198   -0.0013536686855669276
0.08959158598309845   0.0027463165855906198   -0.0013536686855669276
0.08959158598309845   0.0027463165855906198   -0.0013536686855669276
0.04280763646878789   -0.0011401660079995019   -0.0010161269757063968
0.04280763646878789   -0.0011401660079995019   -0.0010161269757063968
0.04280763646878789   -0.0011401660079995019   -0.0010161269757063968
0.04280763646878789   -0.0011401660079995019   -0.0010161269757063968
-0.005494140849981884   0.0026165212176142965   0.004215680909168769
-0.005494140849981884   0.0026165212176142965   0.004215680909168769
-0.005494140849981884   0.0026165212176142965   0.004215680909168769
-0.005494140849981884   0.0026165212176142965   0.004215680909168769
-0.10037102469087314   -0.029722582955688973   -0.001893403894571901
-0.10037102469087314   -0.029722582955688973   -0.001893403894571901
-0.10037102469087314   -0.029722582955688973   -0.001893403894571901
-0.10037102469087314   -0.029722582955688973   -0.001893403894571901
-0.09366894177937983   -0.013623069073865547   -0.002153419905870778
-0.09366894177937983   -0.013623069073865547   -0.002153419905870778
-0.09366894177937983   -0.013623069073865547   -0.002153419905870778
-0.09366894177937983   -0.013623069073865547   -0.002153419905870778
-0.00522492333312643   -0.008485855989006625   0.002001031679526575
-0.00522492333312643   -0.008485855989006625   0.002001031679526575
-0.00522492333312643   -0.008485855989006625   0.002001031679526575
-0.00522492333312643   -0.008485855989006625   0.002001031679526575
-0.05138755300735894   -0.011637769741413891   -0.003686181685706933
-0.05138755300735894   -0.011637769741413891   -0.003686181685706933
-0.05138755300735894   -0.011637769741413891   -0.003686181685706933
-0.05138755300735894   -0.011637769741413891   -0.003686181685706933
-0.0020731347512086256   0.0058180000274705365   0.0034561185726384386
-0.0020731347512086256   0.0058180000274705365   0.0034561185726384386
-0.0020731347512086256   0.0058180000274705365   0.0034561185726384386
-0.0020731347512086256   0.0058180000274705365   0.0034561185726384386
-0.096583482504552   -0.027689677233598352   -0.0026595153719988092
-0.096583482504552   -0.027689677233598352   -0.0026595153719988092
-0.096583482504552   -0.027689677233598352   -0.0026595153719988092
-0.096583482504552   -0.027689677233598352   -0.0026595153719988092
-0.08984234825264649   -0.009964602336844016   -0.0028816389716070146
-0.08984234825264649   -0.009964602336844016   -0.0028816389716070146
-0.08984234825264649   -0.009964602336844016   -0.0028816389716070146
-0.08984234825264649   -0.009964602336844016   -0.0028816389716070146
-0.00237790357113129   -0.006071581977966278   0.0009558519529449055
-0.00237790357113129   -0.006071581977966278   0.0009558519529449055
-0.00237790357113129   -0.006071581977966278   0.0009558519529449055
-0.00237790357113129   -0.006071581977966278   0.0009558519529449055
-0.04767252290659239   -0.008982046374841644   -0.0019849848500963036
-0.04767252290659239   -0.008982046374841644   -0.0019849848500963036
-0.04767252290659239   -0.008982046374841644   -0.0019849848500963036
-0.04767252290659239   -0.008982046374841644   -0.0019849848500963036
0.0010513640017364805   0.009330491230181231   0.00270011660913625
0.0010513640017364805   0.009330491230181231   0.00270011660913625
0.0010513640017364805   0.009330491230181231   0.00270011660913625
0.0010513640017364805   0.009330491230181231   0.00270011660913625
-0.09323472573487045   -0.02532978545434887   -0.004478343265221231
-0.09323472573487045   -0.02532978545434887   -0.004478343265221231
-0.09323472573487045   -0.02532978545434887   -0.004478343265221231
-0.09323472573487045   -0.02532978545434887   -0.004478343265221231
-0.08712941409114898   -0.006451620490432698   -0.0036827110783637577
-0.08712941409114898   -0.006451620490432698   -0.0036827110783637577
-0.08712941409114898   -0.006451620490432698   -0.0036827110783637577
-0.08712941409114898   -0.006451620490432698   -0.0036827110783637577
-0.0005313122376491622   -0.004078082405755849   -0.0007818421962070246
-0.0005313122376491622   -0.004078082405755849   -0.0007818421962070246
-0.0005313122376491622   -0.004078082405755849   -0.0007818421962070246
-0.0005313122376491622   -0.004078082405755849   -0.0007818421962070246
-0.04495738936662905   -0.006471785266450328   -0.0008735037572654087
-0.04495738936662905   -0.006471785266450328   -0.0008735037572654087
-0.04495738936662905   -0.006471785266450328   -0.0008735037572654087
-0.04495738936662905   -0.006471785266450328   -0.0008735037572654087
-0.09445641059316483   -0.002047180423221079   4.26406150111705e-06
-0.09445641059316483   -0.002047180423221079   4.26406150111705e-06
-0.09445641059316483   -0.002047180423221079   4.26406150111705e-06
-0.09445641059316483   -0.002047180423221079   4.26406150111705e-06
-0.18936281778239886   -0.03195515002130177   -0.0014183749959562307
-0.18936281778239886   -0.03195515002130177   -0.0014183749959562307
-0.18936281778239886   -0.03195515002130177   -0.0014183749959562307
-0.18936281778239886   -0.03195515002130177   -0.0014183749959562307
-0.18237884897285003   -0.017541194122362488   -0.006164290020571002
-0.18237884897285003   -0.017541194122362488   -0.006164290020571002
-0.18237884897285003   -0.017541194122362488   -0.006164290020571002
-0.18237884897285003   -0.017541194122362488   -0.006164290020571002
-0.0914792595445952   -0.008881286276362806   0.00405320847054892
-0.0914792595445952   -0.008881286276362806   0.00405320847054892
-0.0914792595445952   -0.008881286276362806   0.00405320847054892
-0.0914792595445952   -0.008881286276362806   0.00405320847054892
-0.1382547521676894   -0.014200373788200445   -0.0025706697517430153
-0.1382547521676894   -0.014200373788200445   -0.0025706697517430153
-0.1382547521676894   -0.014200373788200445   -0.0025706697517430153
-0.1382547521676894   -0.014200373788200445   -0.0025706697517430153
-0.09022427530864355   0.0020099560744848977   -0.0005631127005405493
-0.09022427530864355   0.0020099560744848977   -0.0005631127005405493
-0.09022427530864355   0.0020099560744848977   -0.0005631127005405493
-0.09022427530864355   0.0020099560744848977   -0.0005631127005405493
-0.18364478357761946   -0.028443386842026422   -0.0015917703247525909
-0.18364478357761946   -0.028443386842026422   -0.0015917703247525909
-0.18364478357761946   -0.028443386842026422   -0.0015917703247525909
-0.18364478357761946   -0.028443386842026422   -0.0015917703247525909
-0.17684942520993302   -0.013769750730038256   -0.00710079705281972
-0.17684942520993302   -0.013769750730038256   -0.00710079705281972
-0.17684942520993302   -0.013769750730038256   -0.00710079705281972
-0.17684942520993302   -0.013769750730038256   -0.00710079705281972
-0.087807315095219   -0.006087274231583591   0.0034161987102707416
-0.087807315095219   -0.006087274231583591   0.0034161987102707416
-0.087807315095219   -0.006087274231583591   0.0034161987102707416
-0.087807315095219   -0.006087274231583591   0.0034161987102707416
-0.13247447547131033   -0.010577768068232803   -0.0007098039323458526
-0.13247447547131033   -0.010577768068232803   -0.0007098039323458526
-0.13247447547131033   -0.010577768068232803   -0.0007098039323458526
-0.13247447547131033   -0.010577768068232803   -0.0007098039323458526
-0.08639961400093336   0.005511547426957086   -0.0011441174768426765
-0.08639961400093336   0.005511547426957086   -0.0011441174768426765
-0.08639961400093336   0.005511547426957086   -0.0011441174768426765
-0.08639961400093336   0.005511547426957086   -0.0011441174768426765
-0.17847022449908304   -0.025581670583443183   -0.003392873645163204
-0.17847022449908304   -0.025581670583443183   -0.003392873645163204
-0.17847022449908304   -0.025581670583443183   -0.003392873645163204
-0.17847022449908304   -0.025581670583443183   -0.003392873645163204
-0.17246593080508812   -0.009838977170543519   -0.007352332368753365
-0.17246593080508812   -0.009838977170543519   -0.007352332368753365
-0.17246593080508812   -0.009838977170543519   -0.007352332368753365
-0.17246593080508812   -0.009838977170543519   -0.007352332368753365
-0.08571892217133882   -0.004310538756749886   0.0012286667870048903
-0.08571892217133882   -0.004310538756749886   0.0012286667870048903
-0.08571892217133882   -0.004310538756749886   0.0012286667870048903
-0.08571892217133882   -0.004310538756749886   0.0012286667870048903
-0.12955774130618133   -0.008389546222342253   -7.238948089747805e-05
-0.12955774130618133   -0.008389546222342253   -7.238948089747805e-05
-0.12955774130618133   -0.008389546222342253   -7.238948089747805e-05
-0.12955774130618133   -0.008389546222342253   -7.238948089747805e-05
-0.18460859023315193   -0.0054169898523878796   -0.004185397418635408
-0.18460859023315193   -0.0054169898523878796   -0.004185397418635408
-0.18460859023315193   -0.0054169898523878796   -0.004185397418635408
-0.18460859023315193   -0.0054169898523878796   -0.004185397418635408
-0.2785972886013852   -0.022538878455554794   0.009503448356331113
-0.2785972886013852   -0.022538878455554794   0.009503448356331113
-0.2785972886013852   -0.022538878455554794   0.009503448356331113
-0.2785972886013852   -0.022538878455554794   0.009503448356331113
-0.270245091464515   -0.018449939942651407   -0.005846219127130636
-0.270245091464515   -0.018449939942651407   -0.005846219127130636
-0.270245091464515   -0.018449939942651407   -0.005846219127130636
-0.270245091464515   -0.018449939942651407   -0.005846219127130636
-0.1747578956851863   0.005421369056364304   0.008977913239019397
-0.1747578956851863   0.005421369056364304   0.008977913239019397
-0.1747578956851863   0.005421369056364304   0.008977913239019397
-0.1747578956851863   0.005421369056364304   0.008977913239019397
-0.2167836742957474   -0.006795509492464588   0.0016059463227996833
-0.2167836742957474   -0.006795509492464588   0.0016059463227996833
-0.2167836742957474   -0.006795509492464588   0.0016059463227996833
-0.2167836742957474   -0.006795509492464588   0.0016059463227996833
-0.17854434674061087   0.00012738185934142027   -0.004660354841078296
-0.17854434674061087   0.00012738185934142027   -0.004660354841078296
-0.17854434674061087   0.00012738185934142027   -0.004660354841078296
-0.17854434674061087   0.00012738185934142027   -0.004660354841078296
-0.2658521178893763   -0.012549430225912754   0.010218139031824105
-0.2658521178893763   -0.012549430225912754   0.010218139031824105
-0.2658521178893763   -0.012549430225912754   0.010218139031824105
-0.2658521178893763   -0.012549430225912754   0.010218139031824105
-0.2612147231413348   -0.015673153847814897   -0.00696252017744812
-0.2612147231413348   -0.015673153847814897   -0.00696252017744812
-0.2612147231413348   -0.015673153847814897   -0.00696252017744812
-0.2612147231413348   -0.015673153847814897   -0.00696252017744812
-0.1693365934312515   0.00811255503135297   0.00858105607919678
-0.1693365934312515   0.00811255503135297   0.00858105607919678
-0.1693365934312515   0.00811255503135297   0.00858105607919678
-0.1693365934312515   0.00811255503135297   0.00858105607919678
-0.21195886179699916   -0.002733802903493482   0.0044749906758285145
-0.21195886179699916   -0.002733802903493482   0.0044749906758285145
-0.21195886179699916   -0.002733802903493482   0.0044749906758285145
-0.21195886179699916   -0.002733802903493482   0.0044749906758285145
-0.17323064404753696   0.0023006980102146524   -0.005077339981090636
-0.17323064404753696   0.0023006980102146524   -0.005077339981090636
-0.17323064404753696   0.0023006980102146524   -0.005077339981090636
-0.17323064404753696   0.0023006980102146524   -0.005077339981090636
-0.2571638946234202   -0.00970451892505008   0.007322987489357944
-0.2571638946234202   -0.00970451892505008   0.007322987489357944
-0.2571638946234202   -0.00970451892505008   0.007322987489357944
-0.2571638946234202   -0.00970451892505008   0.007322987489357944
-0.2518219331505404   -0.013222454816524627   -0.008449228654221519
-0.2518219331505404   -0.013222454816524627   -0.008449228654221519
-0.2518219331505404   -0.013222454816524627   -0.008449228654221519
-0.2518219331505404   -0.013222454816524627   -0.008449228654221519
-0.16551088393713695   0.011057163513786973   0.006526761286672046
-0.16551088393713695   0.011057163513786973   0.006526761286672046
-0.16551088393713695   0.011057163513786973   0.006526761286672046
-0.16551088393713695   0.011057163513786973   0.006526761286672046
-0.20157467751343966   0.0006750325778278055   0.0075157948517379815
-0.20157467751343966   0.0006750325778278055   0.0075157948517379815
-0.20157467751343966   0.0006750325778278055   0.0075157948517379815
-0.20157467751343966   0.0006750325778278055   0.0075157948517379815
0.236383959302443   0.014582160999973795   0.008011310132734898
0.236383959302443   0.014582160999973795   0.008011310132734898
0.236383959302443   0.014582160999973795   0.008011310132734898
0.236383959302443   0.014582160999973795   0.008011310132734898
0.11159946531956325   -0.020245181594048645   0.0012240531288308775
0.11159946531956325   -0.020245181594048645   0.0012240531288308775
0.11159946531956325   -0.020245181594048645   0.0012240531288308775
0.11159946531956325   -0.020245181594048645   0.0012240531288308775
0.11725353520431375   -0.008932616603527507   0.005988402330554917
0.11725353520431375   -0.008932616603527507   0.005988402330554917
0.11725353520431375   -0.008932616603527507   0.005988402330554917
0.11725353520431375   -0.008932616603527507   0.005988402330554917
0.23732220808966836   0.0031273658347404573   -0.002261811104400914
0.23732220808966836   0.0031273658347404573   -0.002261811104400914
0.23732220808966836   0.0031273658347404573   -0.002261811104400914
0.23732220808966836   0.0031273658347404573   -0.002261811104400914
0.1655600419388262   -0.004026802403315259   -0.010624443328939916
0.1655600419388262   -0.004026802403315259   -0.010624443328939916
0.1655600419388262   -0.004026802403315259   -0.010624443328939916
0.1655600419388262   -0.004026802403315259   -0.010624443328939916
0.24161106691286113   0.016002649201109685   0.006307199645193509
0.24161106691286113   0.016002649201109685   0.006307199645193509
0.24161106691286113   0.016002649201109685   0.006307199645193509
0.24161106691286113   0.016002649201109685   0.006307199645193509
0.11395590339161962   -0.020816672959398104   0.001384299622955023
0.11395590339161962   -0.020816672959398104   0.001384299622955023
0.11395590339161962   -0.020816672959398104   0.001384299622955023
0.11395590339161962   -0.020816672959398104   0.001384299622955023
0.11927185218831252   -0.0076291914053527934   0.004514823919378103
0.11927185218831252   -0.0076291914053527934   0.004514823919378103
0.11927185218831252   -0.0076291914053527934   0.004514823919378103
0.11927185218831252   -0.0076291914053527934   0.004514823919378103
0.24108911472978237   0.004575731567868974   -0.0011464395146680122
0.24108911472978237   0.004575731567868974   -0.0011464395146680122
0.24108911472978237   0.004575731567868974   -0.0011464395146680122
0.24108911472978237   0.004575731567868974   -0.0011464395146680122
0.1719950440347282   -0.003103184010758639   -0.007368510612350648
0.1719950440347282   -0.003103184010758639   -0.007368510612350648
0.1719950440347282   -0.003103184010758639   -0.007368510612350648
0.1719950440347282   -0.003103184010758639   -0.007368510612350648
0.24475580642569436   0.01743098730400009   0.00433176322876069
0.24475580642569436   0.01743098730400009   0.00433176322876069
0.24475580642569436   0.01743098730400009   0.00433176322876069
0.24475580642569436   0.01743098730400009   0.00433176322876069
0.11629357149204798   -0.019796036141836483   0.001790265174539108
0.11629357149204798   -0.019796036141836483   0.001790265174539108
0.11629357149204798   -0.019796036141836483   0.001790265174539108
0.11629357149204798   -0.019796036141836483   0.001790265174539108
0.12229976941567804   -0.0025455386205560787   0.004129596959719652
0.12229976941567804   -0.0025455386205560787   0.004129596959719652
0.12229976941567804   -0.0025455386205560787   0.004129596959719652
0.12229976941567804   -0.0025455386205560787   0.004129596959719652
0.24509521402865753   0.00810044992104074   -0.0006846316311156855
0.24509521402865753   0.00810044992104074   -0.0006846316311156855
0.24509521402865753   0.00810044992104074   -0.0006846316311156855
0.24509521402865753   0.00810044992104074   -0.0006846316311156855
0.17243906265416614   -0.0011983374484370937   -0.005659597776633383
0.17243906265416614   -0.0011983374484370937   -0.005659597776633383
0.17243906265416614   -0.0011983374484370937   -0.005659597776633383
0.17243906265416614   -0.0011983374484370937   -0.005659597776633383
0.1180191681930107   0.004291111377516435   0.008786274524503097
0.1180191681930107   0.004291111377516435   0.008786274524503097
0.1180191681930107   0.004291111377516435   0.008786274524503097
0.1180191681930107   0.004291111377516435   0.008786274524503097
0.003558831846984271   -0.038770629125256945   0.003448754789950794
0.003558831846984271   -0.038770629125256945   0.003448754789950794
0.003558831846984271   -0.038770629125256945   0.003448754789950794
0.003558831846984271   -0.038770629125256945   0.003448754789950794
0.01071091821723284   -0.017063573686137003   0.0034726564501723536
0.01071091821723284   -0.017063573686137003   0.0034726564501723536
0.01071091821723284   -0.017063573686137003   0.0034726564501723536
0.01071091821723284   -0.017063573686137003   0.0034726564501723536
0.11514001171489865   -0.016244192038963767   0.0027323603189149375
0.11514001171489865   -0.016244192038963767   0.0027323603189149375
0.11514001171489865   -0.016244192038963767   0.0027323603189149375
0.11514001171489865   -0.016244192038963767   0.0027323603189149375
0.05991222429129804   -0.016561018244928664   -0.006403319345753202
0.05991222429129804   -0.016561018244928664   -0.006403319345753202
0.05991222429129804   -0.016561018244928664   -0.006403319345753202
0.05991222429129804   -0.016561018244928664   -0.006403319345753202
0.12045986538300052   0.005674309817563387   0.007413126802898937
0.12045986538300052   0.005674309817563387   0.007413126802898937
0.12045986538300052   0.005674309817563387   0.007413126802898937
0.12045986538300052   0.005674309817563387   0.007413126802898937
0.006801190622028089   -0.037571949469765456   0.004432394257777058
0.006801190622028089   -0.037571949469765456   0.004432394257777058
0.006801190622028089   -0.037571949469765456   0.004432394257777058
0.006801190622028089   -0.037571949469765456   0.004432394257777058
0.01350951472847236   -0.014655518946020296   0.0024165482192548323
0.01350951472847236   -0.014655518946020296   0.0024165482192548323
0.01350951472847236   -0.014655518946020296   0.0024165482192548323
0.01350951472847236   -0.014655518946020296   0.0024165482192548323
0.11756937960541926   -0.01491421654836296   0.0032874861479219777
0.11756937960541926   -0.01491421654836296   0.0032874861479219777
0.11756937960541926   -0.01491421654836296   0.0032874861479219777
0.11756937960541926   -0.01491421654836296   0.0032874861479219777
0.06221200812847702   -0.015585410972795833   -0.0032100141926760684
0.06221200812847702   -0.015585410972795833   -0.0032100141926760684
0.06221200812847702   -0.015585410972795833   -0.0032100141926760684
0.06221200812847702   -0.015585410972795833   -0.0032100141926760684
0.1227547005575443   0.007975152873316634   0.006324721486867543
0.1227547005575443   0.007975152873316634   0.006324721486867543
0.1227547005575443   0.007975152873316634   0.006324721486867543
0.1227547005575443   0.007975152873316634   0.006324721486867543
0.009673994443101705   -0.03619508770094551   0.004778515547326773
0.009673994443101705   -0.03619508770094551   0.004778515547326773
0.009673994443101705   -0.03619508770094551   0.004778515547326773
0.009673994443101705   -0.03619508770094551   0.004778515547326773
0.017856692101951212   -0.011028805648908957   0.001505614023082429
0.017856692101951212   -0.011028805648908957   0.001505614023082429
0.017856692101951212   -0.011028805648908957   0.001505614023082429
0.017856692101951212   -0.011028805648908957   0.001505614023082429
0.12018690235447325   -0.01292367961854263   0.0039434026516828365
0.12018690235447325   -0.01292367961854263   0.0039434026516828365
0.12018690235447325   -0.01292367961854263   0.0039434026516828365
0.12018690235447325   -0.01292367961854263   0.0039434026516828365
0.0665327898815442   -0.01331315388476895   0.0005382347757006195
0.0665327898815442   -0.01331315388476895   0.0005382347757006195
0.0665327898815442   -0.01331315388476895   0.0005382347757006195
0.0665327898815442   -0.01331315388476895   0.0005382347757006195
0.010546199211537991   -0.00603122074899862   0.005646183236461062
0.010546199211537991   -0.00603122074899862   0.005646183236461062
0.010546199211537991   -0.00603122074899862   0.005646183236461062
0.010546199211537991   -0.00603122074899862   0.005646183236461062
-0.10495488969562206   -0.0654334850187557   0.005388387330707119
-0.10495488969562206   -0.0654334850187557   0.005388387330707119
-0.10495488969562206   -0.0654334850187557   0.005388387330707119
-0.10495488969562206   -0.0654334850187557   0.005388387330707119
-0.09385632957079683   -0.026605763779511793   3.28989646787973e-05
-0.09385632957079683   -0.026605763779511793   3.28989646787973e-05
-0.09385632957079683   -0.026605763779511793   3.28989646787973e-05
-0.09385632957079683   -0.026605763779511793   3.28989646787973e-05
0.004974050679503432   -0.04480098275509816   0.00252572783048648
0.004974050679503432   -0.04480098275509816   0.00252572783048648
0.004974050679503432   -0.04480098275509816   0.00252572783048648
0.004974050679503432   -0.04480098275509816   0.00252572783048648
-0.04701589246312284   -0.03594735477391586   -0.007661383677690725
-0.04701589246312284   -0.03594735477391586   -0.007661383677690725
-0.04701589246312284   -0.03594735477391586   -0.007661383677690725
-0.04701589246312284   -0.03594735477391586   -0.007661383677690725
0.01347807723949425   -0.004247072196100713   0.0044919500714431255
0.01347807723949425   -0.004247072196100713   0.0044919500714431255
0.01347807723949425   -0.004247072196100713   0.0044919500714431255
0.01347807723949425   -0.004247072196100713   0.0044919500714431255
-0.10025558830744928   -0.06505490651517075   0.006485748017076231
-0.10025558830744928   -0.06505490651517075   0.006485748017076231
-0.10025558830744928   -0.06505490651517075   0.006485748017076231
-0.10025558830744928   -0.06505490651517075   0.006485748017076231
-0.08956260234078806   -0.023794971771868144   -0.00047639824689998077
-0.08956260234078806   -0.023794971771868144   -0.00047639824689998077
-0.08956260234078806   -0.023794971771868144   -0.00047639824689998077
-0.08956260234078806   -0.023794971771868144   -0.00047639824689998077
0.007945562074288346   -0.04352866036655645   0.003469926368870911
0.007945562074288346   -0.04352866036655645   0.003469926368870911
0.007945562074288346   -0.04352866036655645   0.003469926368870911
0.007945562074288346   -0.04352866036655645   0.003469926368870911
-0.04261133268523309   -0.03444299885433132   -0.002691018456186557
-0.04261133268523309   -0.03444299885433132   -0.002691018456186557
-0.04261133268523309   -0.03444299885433132   -0.002691018456186557
-0.04261133268523309   -0.03444299885433132   -0.002691018456186557
0.016161694603734796   -0.0019587058363951977   0.002980634485941897
0.016161694603734796   -0.0019587058363951977   0.002980634485941897
0.016161694603734796   -0.0019587058363951977   0.002980634485941897
0.016161694603734796   -0.0019587058363951977   0.002980634485941897
-0.09593735451828447   -0.06352354595007914   0.0073784150438303
-0.09593735451828447   -0.06352354595007914   0.0073784150438303
-0.09593735451828447   -0.06352354595007914   0.0073784150438303
-0.09593735451828447   -0.06352354595007914   0.0073784150438303
-0.08246166216462998   -0.020582644420801842   -0.00137430234446383
-0.08246166216462998   -0.020582644420801842   -0.00137430234446383
-0.08246166216462998   -0.020582644420801842   -0.00137430234446383
-0.08246166216462998   -0.020582644420801842   -0.00137430234446383
0.012567214162792094   -0.040472298627563394   0.004501717305941276
0.012567214162792094   -0.040472298627563394   0.004501717305941276
0.012567214162792094   -0.040472298627563394   0.004501717305941276
0.012567214162792094   -0.040472298627563394   0.004501717305941276
-0.03695850717748527   -0.03149347296157532   0.002343936457424812
-0.03695850717748527   -0.03149347296157532   0.002343936457424812
-0.03695850717748527   -0.03149347296157532   0.002343936457424812
-0.03695850717748527   -0.03149347296157532   0.002343936457424812
-0.0948491873508164   -0.012226721773831852   0.00271013580981087
-0.0948491873508164   -0.012226721773831852   0.00271013580981087
-0.0948491873508164   -0.012226721773831852   0.00271013580981087
-0.0948491873508164   -0.012226721773831852   0.00271013580981087
-0.2280514258060097   -0.10019569356197508   -0.003504529011537286
-0.2280514258060097   -0.10019569356197508   -0.003504529011537286
-0.2280514258060097   -0.10019569356197508   -0.003504529011537286
-0.2280514258060097   -0.10019569356197508   -0.003504529011537286
-0.209958728704476   -0.0346011742059073   -0.0060667620172927626
-0.209958728704476   -0.0346011742059073   -0.0060667620172927626
-0.209958728704476   -0.0346011742059073   -0.0060667620172927626
-0.209958728704476   -0.0346011742059073   -0.0060667620172927626
-0.10445583093421403   -0.08178772309888233   0.0022173514669633076
-0.10445583093421403   -0.08178772309888233   0.0022173514669633076
-0.10445583093421403   -0.08178772309888233   0.0022173514669633076
-0.10445583093421403   -0.08178772309888233   0.0022173514669633076
-0.15919499412853674   -0.05937463320505409   -0.008174483000455167
-0.15919499412853674   -0.05937463320505409   -0.008174483000455167
-0.15919499412853674   -0.05937463320505409   -0.008174483000455167
-0.15919499412853674   -0.05937463320505409   -0.008174483000455167
-0.08982444053256715   -0.008869706744001978   0.0024562871203173387
-0.08982444053256715   -0.008869706744001978   0.0024562871203173387
-0.08982444053256715   -0.008869706744001978   0.0024562871203173387
-0.08982444053256715   -0.008869706744001978   0.0024562871203173387
-0.22382791694355791   -0.10675698839822141   -0.0032568890203882664
-0.22382791694355791   -0.10675698839822141   -0.0032568890203882664
-0.22382791694355791   -0.10675698839822141   -0.0032568890203882664
-0.22382791694355791   -0.10675698839822141   -0.0032568890203882664
-0.20409681587462   -0.03127824376319366   -0.006249148168386248
-0.20409681587462   -0.03127824376319366   -0.006249148168386248
-0.20409681587462   -0.03127824376319366   -0.006249148168386248
-0.20409681587462   -0.03127824376319366   -0.006249148168386248
-0.10019218137018775   -0.08077389656110687   0.003354631395341222
-0.10019218137018775   -0.08077389656110687   0.003354631395341222
-0.10019218137018775   -0.08077389656110687   0.003354631395341222
-0.10019218137018775   -0.08077389656110687   0.003354631395341222
-0.15281684075886318   -0.05732652645263559   -0.0051172670834206
-0.15281684075886318   -0.05732652645263559   -0.0051172670834206
-0.15281684075886318   -0.05732652645263559   -0.0051172670834206
-0.15281684075886318   -0.05732652645263559   -0.0051172670834206
-0.08577994592502991   -0.006197214772994852   0.0008391268330176791
-0.08577994592502991   -0.006197214772994852   0.0008391268330176791
-0.08577994592502991   -0.006197214772994852   0.0008391268330176791
-0.08577994592502991   -0.006197214772994852   0.0008391268330176791
-0.2182771803946909   -0.10562305462621856   -0.0028061599057141104
-0.2182771803946909   -0.10562305462621856   -0.0028061599057141104
-0.2182771803946909   -0.10562305462621856   -0.0028061599057141104
-0.2182771803946909   -0.10562305462621856   -0.0028061599057141104
-0.1948181553419311   -0.02779723321633143   -0.007105572340310557
-0.1948181553419311   -0.02779723321633143   -0.007105572340310557
-0.1948181553419311   -0.02779723321633143   -0.007105572340310557
-0.1948181553419311   -0.02779723321633143   -0.007105572340310557
-0.09094610461926535   -0.07121711104340941   0.006837952004968072
-0.09094610461926535   -0.07121711104340941   0.006837952004968072
-0.09094610461926535   -0.07121711104340941   0.006837952004968072
-0.09094610461926535   -0.07121711104340941   0.006837952004968072
-0.14589666129997772   -0.051154857995039285   -0.0020815298349674115
-0.14589666129997772   -0.051154857995039285   -0.0020815298349674115
-0.14589666129997772   -0.051154857995039285   -0.0020815298349674115
-0.14589666129997772   -0.051154857995039285   -0.0020815298349674115
-0.2097556713908303   -0.01092961232019423   -0.0012918381774210067
-0.2097556713908303   -0.01092961232019423   -0.0012918381774210067
-0.2097556713908303   -0.01092961232019423   -0.0012918381774210067
-0.2097556713908303   -0.01092961232019423   -0.0012918381774210067
-0.3642130718061747   -0.0720813984797293   0.0038060794075281262
-0.3642130718061747   -0.0720813984797293   0.0038060794075281262
-0.3642130718061747   -0.0720813984797293   0.0038060794075281262
-0.3642130718061747   -0.0720813984797293   0.0038060794075281262
-0.35073443798744225   -0.032971628351921446   -0.007010531500153442
-0.35073443798744225   -0.032971628351921446   -0.007010531500153442
-0.35073443798744225   -0.032971628351921446   -0.007010531500153442
-0.35073443798744225   -0.032971628351921446   -0.007010531500153442
-0.20698768638257856   -0.03880006849938221   0.012987343885667517
-0.20698768638257856   -0.03880006849938221   0.012987343885667517
-0.20698768638257856   -0.03880006849938221   0.012987343885667517
-0.20698768638257856   -0.03880006849938221   0.012987343885667517
-0.27159813750036227   -0.041318158916561154   0.0031098611801468477
-0.27159813750036227   -0.041318158916561154   0.0031098611801468477
-0.27159813750036227   -0.041318158916561154   0.0031098611801468477
-0.27159813750036227   -0.041318158916561154   0.0031098611801468477
-0.2021937045929358   -0.0018582820884079088   1.546642290783766e-05
-0.2021937045929358   -0.0018582820884079088   1.546642290783766e-05
-0.2021937045929358   -0.0018582820884079088   1.546642290783766e-05
-0.2021937045929358   -0.0018582820884079088   1.546642290783766e-05
-0.3566396130305729   -0.07102460801638397   0.0015165729486530388
-0.3566396130305729   -0.07102460801638397   0.0015165729486530388
-0.3566396130305729   -0.07102460801638397   0.0015165729486530388
-0.3566396130305729   -0.07102460801638397   0.0015165729486530388
-0.3438323595829191   -0.030287931319958612   -0.008925609525693523
-0.3438323595829191   -0.030287931319958612   -0.008925609525693523
-0.3438323595829191   -0.030287931319958612   -0.008925609525693523
-0.3438323595829191   -0.030287931319958612   -0.008925609525693523
-0.2009736827514583   -0.03714756817787132   0.015235841862101675
-0.2009736827514583   -0.03714756817787132   0.015235841862101675
-0.2009736827514583   -0.03714756817787132   0.015235841862101675
-0.2009736827514583   -0.03714756817787132   0.015235841862101675
-0.26839420638038497   -0.03422135212625921   0.003169860905923653
-0.26839420638038497   -0.03422135212625921   0.003169860905923653
-0.26839420638038497   -0.03422135212625921   0.003169860905923653
-0.26839420638038497   -0.03422135212625921   0.003169860905923653
-0.19685671724447543   0.0005224494139148134   -0.001849348194770081
-0.19685671724447543   0.0005224494139148134   -0.001849348194770081
-0.19685671724447543   0.0005224494139148134   -0.001849348194770081
-0.19685671724447543   0.0005224494139148134   -0.001849348194770081
-0.3482040521520367   -0.06821267597388   0.007140672282636679
-0.3482040521520367   -0.06821267597388   0.007140672282636679
-0.3482040521520367   -0.06821267597388   0.007140672282636679
-0.3482040521520367   -0.06821267597388   0.007140672282636679
-0.32944650368292905   -0.025076915416888113   -0.010208013620911276
-0.32944650368292905   -0.025076915416888113   -0.010208013620911276
-0.32944650368292905   -0.025076915416888113   -0.010208013620911276
-0.32944650368292905   -0.025076915416888113   -0.010208013620911276
-0.19149346939554004   -0.034962140870037545   0.016682765045352314
-0.19149346939554004   -0.034962140870037545   0.016682765045352314
-0.19149346939554004   -0.034962140870037545   0.016682765045352314
-0.19149346939554004   -0.034962140870037545   0.016682765045352314
-0.25365723771013415   -0.02630082881823634   0.007242850589734682
-0.25365723771013415   -0.02630082881823634   0.007242850589734682
-0.25365723771013415   -0.02630082881823634   0.007242850589734682
-0.25365723771013415   -0.02630082881823634   0.007242850589734682
0.25903887986516183   0.009676146568807109   0.003391279397511099
0.25903887986516183   0.009676146568807109   0.003391279397511099
0.25903887986516183   0.009676146568807109   0.003391279397511099
0.25903887986516183   0.009676146568807109   0.003391279397511099
0.13046829754143074   -0.007614500970555056   0.002011072290765248
0.13046829754143074   -0.007614500970555056   0.002011072290765248
0.13046829754143074   -0.007614500970555056   0.002011072290765248
0.13046829754143074   -0.007614500970555056   0.002011072290765248
0.1259356870346562   -0.017780738955468695   0.004584185999565466
0.1259356870346562   -0.017780738955468695   0.004584185999565466
0.1259356870346562   -0.017780738955468695   0.004584185999565466
0.1259356870346562   -0.017780738955468695   0.004584185999565466
0.25723109196327454   0.014408648685010551   0.001278783060161522
0.25723109196327454   0.014408648685010551   0.001278783060161522
0.25723109196327454   0.014408648685010551   0.001278783060161522
0.25723109196327454   0.014408648685010551   0.001278783060161522
0.18288493634933706   -0.0022866985902196962   -0.006859085443300541
0.18288493634933706   -0.0022866985902196962   -0.006859085443300541
0.18288493634933706   -0.0022866985902196962   -0.006859085443300541
0.18288493634933706   -0.0022866985902196962   -0.006859085443300541
0.25616952781123586   0.007854261830774908   0.002525349154203868
0.25616952781123586   0.007854261830774908   0.002525349154203868
0.25616952781123586   0.007854261830774908   0.002525349154203868
0.25616952781123586   0.007854261830774908   0.002525349154203868
0.12665820978700873   -0.011565393500919206   0.001981454306778525
0.12665820978700873   -0.011565393500919206   0.001981454306778525
0.12665820978700873   -0.011565393500919206   0.001981454306778525
0.12665820978700873   -0.011565393500919206   0.001981454306778525
0.12295178025548976   -0.01807613073597314   0.003731583440414042
0.12295178025548976   -0.01807613073597314   0.003731583440414042
0.12295178025548976   -0.01807613073597314   0.003731583440414042
0.12295178025548976   -0.01807613073597314   0.003731583440414042
0.25457961838191395   0.013920206101645086   0.0025277045679715105
0.25457961838191395   0.013920206101645086   0.0025277045679715105
0.25457961838191395   0.013920206101645086   0.0025277045679715105
0.25457961838191395   0.013920206101645086   0.0025277045679715105
0.18276485743475246   -0.0031318699769646227   -0.007662410023001507
0.18276485743475246   -0.0031318699769646227   -0.007662410023001507
0.18276485743475246   -0.0031318699769646227   -0.007662410023001507
0.18276485743475246   -0.0031318699769646227   -0.007662410023001507
0.25289543808215464   0.007309738312868422   0.0007172708579492801
0.25289543808215464   0.007309738312868422   0.0007172708579492801
0.25289543808215464   0.007309738312868422   0.0007172708579492801
0.25289543808215464   0.007309738312868422   0.0007172708579492801
0.12398705226338891   -0.012114571239055748   0.002946383982992377
0.12398705226338891   -0.012114571239055748   0.002946383982992377
0.12398705226338891   -0.012114571239055748   0.002946383982992377
0.12398705226338891   -0.012114571239055748   0.002946383982992377
0.11985847278417353   -0.01616404319725691   0.0032296440218800328
0.11985847278417353   -0.01616404319725691   0.0032296440218800328
0.11985847278417353   -0.01616404319725691   0.0032296440218800328
0.11985847278417353   -0.01616404319725691   0.0032296440218800328
0.2505565859346331   0.014458772701697951   0.0038865178699297263
0.2505565859346331   0.014458772701697951   0.0038865178699297263
0.2505565859346331   0.014458772701697951   0.0038865178699297263
0.2505565859346331   0.014458772701697951   0.0038865178699297263
0.17630413477363133   -0.003006575975176111   -0.010097530680217988
0.17630413477363133   -0.003006575975176111   -0.010097530680217988
0.17630413477363133   -0.003006575975176111   -0.010097530680217988
0.17630413477363133   -0.003006575975176111   -0.010097530680217988
0.13031582862239965   -0.012818446152627547   0.006452672877682385
0.13031582862239965   -0.012818446152627547   0.006452672877682385
0.13031582862239965   -0.012818446152627547   0.006452672877682385
0.13031582862239965   -0.012818446152627547   0.006452672877682385
0.021002571658855284   -0.015434231386435453   0.0008497923832875773
0.021002571658855284   -0.015434231386435453   0.0008497923832875773
0.021002571658855284   -0.015434231386435453   0.0008497923832875773
0.021002571658855284   -0.015434231386435453   0.0008497923832875773
0.013137921610135722   -0.036007648343930054   0.005917168898846465
0.013137921610135722   -0.036007648343930054   0.005917168898846465
0.013137921610135722   -0.036007648343930054   0.005917168898846465
0.013137921610135722   -0.036007648343930054   0.005917168898846465
0.1307845384005403   0.006208736014015729   0.004838967859501313
0.1307845384005403   0.006208736014015729   0.004838967859501313
0.1307845384005403   0.006208736014015729   0.004838967859501313
0.1307845384005403   0.006208736014015729   0.004838967859501313
0.07265536207984828   -0.014580621402086116   -0.00036656725481304907
0.07265536207984828   -0.014580621402086116   -0.00036656725481304907
0.07265536207984828   -0.014580621402086116   -0.00036656725481304907
0.07265536207984828   -0.014580621402086116   -0.00036656725481304907
0.12701049377614781   -0.01331755961682174   0.005495040368375932
0.12701049377614781   -0.01331755961682174   0.005495040368375932
0.12701049377614781   -0.01331755961682174   0.005495040368375932
0.12701049377614781   -0.01331755961682174   0.005495040368375932
0.015948663412852206   -0.017444655534768653   0.0014078851032674816
0.015948663412852206   -0.017444655534768653   0.0014078851032674816
0.015948663412852206   -0.017444655534768653   0.0014078851032674816
0.015948663412852206   -0.017444655534768653   0.0014078851032674816
0.009543468553155002   -0.03612275837584281   0.005270688062786967
0.009543468553155002   -0.03612275837584281   0.005270688062786967
0.009543468553155002   -0.03612275837584281   0.005270688062786967
0.009543468553155002   -0.03612275837584281   0.005270688062786967
0.12804134111284593   0.005443414765909916   0.005659842225311787
0.12804134111284593   0.005443414765909916   0.005659842225311787
0.12804134111284593   0.005443414765909916   0.005659842225311787
0.12804134111284593   0.005443414765909916   0.005659842225311787
0.0677061053401719   -0.01546944327901962   -0.003268128057152051
0.0677061053401719   -0.01546944327901962   -0.003268128057152051
0.0677061053401719   -0.01546944327901962   -0.003268128057152051
0.0677061053401719   -0.01546944327901962   -0.003268128057152051
0.12407997979552039   -0.013341919715840592   0.004638370120432672
0.12407997979552039   -0.013341919715840592   0.004638370120432672
0.12407997979552039   -0.013341919715840592   0.004638370120432672
0.12407997979552039   -0.013341919715840592   0.004638370120432672
0.012449353219807663   -0.0183929005447655   0.0020702535649729636
0.012449353219807663   -0.0183929005447655   0.0020702535649729636
0.012449353219807663   -0.0183929005447655   0.0020702535649729636
0.012449353219807663   -0.0183929005447655   0.0020702535649729636
0.0055408236703875634   -0.035836870936564305   0.004023524745660187
0.0055408236703875634   -0.035836870936564305   0.004023524745660187
0.0055408236703875634   -0.035836870936564305   0.004023524745660187
0.0055408236703875634   -0.035836870936564305   0.004023524745660187
0.12492732408128995   0.005710420596518578   0.006699436713687452
0.12492732408128995   0.005710420596518578   0.006699436713687452
0.12492732408128995   0.005710420596518578   0.006699436713687452
0.12492732408128995   0.005710420596518578   0.006699436713687452
0.06481858707628409   -0.01512843509481639   -0.0056772880443009205
0.06481858707628409   -0.01512843509481639   -0.0056772880443009205
0.06481858707628409   -0.01512843509481639   -0.0056772880443009205
0.06481858707628409   -0.01512843509481639   -0.0056772880443009205
0.01684687987160335   -0.04101949013277796   0.0056565921933704084
0.01684687987160335   -0.04101949013277796   0.0056565921933704084
0.01684687987160335   -0.04101949013277796   0.0056565921933704084
0.01684687987160335   -0.04101949013277796   0.0056565921933704084
-0.08454322331015483   -0.02332410106506828   -0.00036702506432785705
-0.08454322331015483   -0.02332410106506828   -0.00036702506432785705
-0.08454322331015483   -0.02332410106506828   -0.00036702506432785705
-0.08454322331015483   -0.02332410106506828   -0.00036702506432785705
-0.09876644959335308   -0.0646996603174837   0.006772840291415316
-0.09876644959335308   -0.0646996603174837   0.006772840291415316
-0.09876644959335308   -0.0646996603174837   0.006772840291415316
-0.09876644959335308   -0.0646996603174837   0.006772840291415316
0.019368451986052623   -0.0021230352429275874   0.003185207677428522
0.019368451986052623   -0.0021230352429275874   0.003185207677428522
0.019368451986052623   -0.0021230352429275874   0.003185207677428522
0.019368451986052623   -0.0021230352429275874   0.003185207677428522
-0.03636659373382106   -0.03231417483145431   0.0013140741140265644
-0.03636659373382106   -0.03231417483145431   0.0013140741140265644
-0.03636659373382106   -0.03231417483145431   0.0013140741140265644
-0.03636659373382106   -0.03231417483145431   0.0013140741140265644
0.011363799324121708   -0.04318366397275211   0.004222573097598452
0.011363799324121708   -0.04318366397275211   0.004222573097598452
0.011363799324121708   -0.04318366397275211   0.004222573097598452
0.011363799324121708   -0.04318366397275211   0.004222573097598452
-0.09215079793524582   -0.025028032591484214   0.0001794708559515021
-0.09215079793524582   -0.025028032591484214   0.0001794708559515021
-0.09215079793524582   -0.025028032591484214   0.0001794708559515021
-0.09215079793524582   -0.025028032591484214   0.0001794708559515021
-0.10370053397701093   -0.06540658001390717   0.005726424183416616
-0.10370053397701093   -0.06540658001390717   0.005726424183416616
-0.10370053397701093   -0.06540658001390717   0.005726424183416616
-0.10370053397701093   -0.06540658001390717   0.005726424183416616
0.015983602860123573   -0.0029626690649070635   0.004311270286694074
0.015983602860123573   -0.0029626690649070635   0.004311270286694074
0.015983602860123573   -0.0029626690649070635   0.004311270286694074
0.015983602860123573   -0.0029626690649070635   0.004311270286694074
-0.04257047732517344   -0.0340879809341633   -0.002781665631667783
-0.04257047732517344   -0.0340879809341633   -0.002781665631667783
-0.04257047732517344   -0.0340879809341633   -0.002781665631667783
-0.04257047732517344   -0.0340879809341633   -0.002781665631667783
0.007535140724103308   -0.04373622650169209   0.00284251704337778
0.007535140724103308   -0.04373622650169209   0.00284251704337778
0.007535140724103308   -0.04373622650169209   0.00284251704337778
0.007535140724103308   -0.04373622650169209   0.00284251704337778
-0.09696550020001671   -0.026346450936148347   0.00034146399062794466
-0.09696550020001671   -0.026346450936148347   0.00034146399062794466
-0.09696550020001671   -0.026346450936148347   0.00034146399062794466
-0.09696550020001671   -0.026346450936148347   0.00034146399062794466
-0.10913315931707716   -0.0648165876353208   0.004480645747023429
-0.10913315931707716   -0.0648165876353208   0.004480645747023429
-0.10913315931707716   -0.0648165876353208   0.004480645747023429
-0.10913315931707716   -0.0648165876353208   0.004480645747023429
0.012237549427925038   -0.0033634919323052284   0.005033774529088493
0.012237549427925038   -0.0033634919323052284   0.005033774529088493
0.012237549427925038   -0.0033634919323052284   0.005033774529088493
0.012237549427925038   -0.0033634919323052284   0.005033774529088493
-0.04766858233056854   -0.03468277061922694   -0.007004415616006839
-0.04766858233056854   -0.03468277061922694   -0.007004415616006839
-0.04766858233056854   -0.03468277061922694   -0.007004415616006839
-0.04766858233056854   -0.03468277061922694   -0.007004415616006839
-0.09267734240610724   -0.07107692950126554   0.006715207892108022
-0.09267734240610724   -0.07107692950126554   0.006715207892108022
-0.09267734240610724   -0.07107692950126554   0.006715207892108022
-0.09267734240610724   -0.07107692950126554   0.006715207892108022
-0.20233210847496114   -0.02884446973586287   -0.004363754911123241
-0.20233210847496114   -0.02884446973586287   -0.004363754911123241
-0.20233210847496114   -0.02884446973586287   -0.004363754911123241
-0.20233210847496114   -0.02884446973586287   -0.004363754911123241
-0.227369595340706   -0.10779140741123926   -0.004887305688329381
-0.227369595340706   -0.10779140741123926   -0.004887305688329381
-0.227369595340706   -0.10779140741123926   -0.004887305688329381
-0.227369595340706   -0.10779140741123926   -0.004887305688329381
-0.08757045612675797   -0.004699334398715544   0.002752481705622063
-0.08757045612675797   -0.004699334398715544   0.002752481705622063
-0.08757045612675797   -0.004699334398715544   0.002752481705622063
-0.08757045612675797   -0.004699334398715544   0.002752481705622063
-0.15091262279830256   -0.05067451421491896   -0.0034984630745920862
-0.15091262279830256   -0.05067451421491896   -0.0034984630745920862
-0.15091262279830256   -0.05067451421491896   -0.0034984630745920862
-0.15091262279830256   -0.05067451421491896   -0.0034984630745920862
-0.10292125627121933   -0.08138704095229664   0.002686187536897044
-0.10292125627121933   -0.08138704095229664   0.002686187536897044
-0.10292125627121933   -0.08138704095229664   0.002686187536897044
-0.10292125627121933   -0.08138704095229664   0.002686187536897044
-0.2117850132481904   -0.03086991890960382   -0.003885883727386875
-0.2117850132481904   -0.03086991890960382   -0.003885883727386875
-0.2117850132481904   -0.03086991890960382   -0.003885883727386875
-0.2117850132481904   -0.03086991890960382   -0.003885883727386875
-0.23331973626410696   -0.10919906756242677   -0.005643668717339144
-0.23331973626410696   -0.10919906756242677   -0.005643668717339144
-0.23331973626410696   -0.10919906756242677   -0.005643668717339144
-0.23331973626410696   -0.10919906756242677   -0.005643668717339144
-0.09221139966275105   -0.006172867739949487   0.003938383480757399
-0.09221139966275105   -0.006172867739949487   0.003938383480757399
-0.09221139966275105   -0.006172867739949487   0.003938383480757399
-0.09221139966275105   -0.006172867739949487   0.003938383480757399
-0.15827613932021686   -0.056523181928979385   -0.005720092415289238
-0.15827613932021686   -0.056523181928979385   -0.005720092415289238
-0.15827613932021686   -0.056523181928979385   -0.005720092415289238
-0.15827613932021686   -0.056523181928979385   -0.005720092415289238
-0.10810938963119021   -0.08281095942721106   0.0010865253258226758
-0.10810938963119021   -0.08281095942721106   0.0010865253258226758
-0.10810938963119021   -0.08281095942721106   0.0010865253258226758
-0.10810938963119021   -0.08281095942721106   0.0010865253258226758
-0.21771017097435338   -0.0328494005538512   -0.003945509277148873
-0.21771017097435338   -0.0328494005538512   -0.003945509277148873
-0.21771017097435338   -0.0328494005538512   -0.003945509277148873
-0.21771017097435338   -0.0328494005538512   -0.003945509277148873
-0.238295004389617   -0.10332448349412966   -0.006350010478281553
-0.238295004389617   -0.10332448349412966   -0.006350010478281553
-0.238295004389617   -0.10332448349412966   -0.006350010478281553
-0.238295004389617   -0.10332448349412966   -0.006350010478281553
-0.09797520785740875   -0.00829583103028049   0.003749646440323013
-0.09797520785740875   -0.00829583103028049   0.003749646440323013
-0.09797520785740875   -0.00829583103028049   0.003749646440323013
-0.09797520785740875   -0.00829583103028049   0.003749646440323013
-0.1652571619760965   -0.058375475802401273   -0.008005920142784607
-0.1652571619760965   -0.058375475802401273   -0.008005920142784607
-0.1652571619760965   -0.058375475802401273   -0.008005920142784607
-0.1652571619760965   -0.058375475802401273   -0.008005920142784607
-0.2001713775889426   -0.03709599130097324   0.014691421084076402
-0.2001713775889426   -0.03709599130097324   0.014691421084076402
-0.2001713775889426   -0.03709599130097324   0.014691421084076402
-0.2001713775889426   -0.03709599130097324   0.014691421084076402
-0.34401401530993797   -0.02475670260712333   -0.005188245476517448
-0.34401401530993797   -0.02475670260712333   -0.005188245476517448
-0.34401401530993797   -0.02475670260712333   -0.005188245476517448
-0.34401401530993797   -0.02475670260712333   -0.005188245476517448
-0.36371188098632695   -0.07195610077476738   0.003931377112490059
-0.36371188098632695   -0.07195610077476738   0.003931377112490059
-0.36371188098632695   -0.07195610077476738   0.003931377112490059
-0.36371188098632695   -0.07195610077476738   0.003931377112490059
-0.2037001036376988   0.003781004509969675   0.001887740905495738
-0.2037001036376988   0.003781004509969675   0.001887740905495738
-0.2037001036376988   0.003781004509969675   0.001887740905495738
-0.2037001036376988   0.003781004509969675   0.001887740905495738
-0.2646823374476383   -0.02521091515854226   0.0051172435554097855
-0.2646823374476383   -0.02521091515854226   0.0051172435554097855
-0.2646823374476383   -0.02521091515854226   0.0051172435554097855
-0.2646823374476383   -0.02521091515854226   0.0051172435554097855
-0.2101320330097776   -0.039437155742451165   0.012946254297521761
-0.2101320330097776   -0.039437155742451165   0.012946254297521761
-0.2101320330097776   -0.039437155742451165   0.012946254297521761
-0.2101320330097776   -0.039437155742451165   0.012946254297521761
-0.3565815755969201   -0.028039564505018162   -0.004333632210222179
-0.3565815755969201   -0.028039564505018162   -0.004333632210222179
-0.3565815755969201   -0.028039564505018162   -0.004333632210222179
-0.3565815755969201   -0.028039564505018162   -0.004333632210222179
-0.3715161604593793   -0.07474374487358557   -0.0022025639085485604
-0.3715161604593793   -0.07474374487358557   -0.0022025639085485604
-0.3715161604593793   -0.07474374487358557   -0.0022025639085485604
-0.3715161604593793   -0.07474374487358557   -0.0022025639085485604
-0.20930947980604936   0.0020211160562984207   0.0031874299542215927
-0.20930947980604936   0.0020211160562984207   0.0031874299542215927
-0.20930947980604936   0.0020211160562984207   0.0031874299542215927
-0.20930947980604936   0.0020211160562984207   0.0031874299542215927
-0.2792154408340269   -0.03299085536128599   0.001911711668774515
-0.2792154408340269   -0.03299085536128599   0.001911711668774515
-0.2792154408340269   -0.03299085536128599   0.001911711668774515
-0.2792154408340269   -0.03299085536128599   0.001911711668774515
-0.21650857470392937   -0.04121591719713491   0.010428988718254824
-0.21650857470392937   -0.04121591719713491   0.010428988718254824
-0.21650857470392937   -0.04121591719713491   0.010428988718254824
-0.21650857470392937   -0.04121591719713491   0.010428988718254824
-0.3627376090543935   -0.029927255113045392   -0.003126296644153353
-0.3627376090543935   -0.029927255113045392   -0.003126296644153353
-0.3627376090543935   -0.029927255113045392   -0.003126296644153353
-0.3627376090543935   -0.029927255113045392   -0.003126296644153353
-0.3777511744485227   -0.0755994565480015   -0.0002461082914848173
-0.3777511744485227   -0.0755994565480015   -0.0002461082914848173
-0.3777511744485227   -0.0755994565480015   -0.0002461082914848173
-0.3777511744485227   -0.0755994565480015   -0.0002461082914848173
-0.21729901456782214   -0.006167622481970433   0.0014730776185335262
-0.21729901456782214   -0.006167622481970433   0.0014730776185335262
-0.21729901456782214   -0.006167622481970433   0.0014730776185335262
-0.21729901456782214   -0.006167622481970433   0.0014730776185335262
-0.2817127193718093   -0.03951985264347924   0.0029494782175722607
-0.2817127193718093   -0.03951985264347924   0.0029494782175722607
-0.2817127193718093   -0.03951985264347924   0.0029494782175722607
-0.2817127193718093   -0.03951985264347924   0.0029494782175722607
0.23182502985673265   0.011372707515335909   -0.004409617595081825
0.23182502985673265   0.011372707515335909   -0.004409617595081825
0.23182502985673265   0.011372707515335909   -0.004409617595081825
0.23182502985673265   0.011372707515335909   -0.004409617595081825
0.11526284658783277   -0.003212411278752207   0.0019118652267886846
0.11526284658783277   -0.003212411278752207   0.0019118652267886846
0.11526284658783277   -0.003212411278752207   0.0019118652267886846
0.11526284658783277   -0.003212411278752207   0.0019118652267886846
0.10866293883979623   -0.016381415002924525   -0.004103382256035551
0.10866293883979623   -0.016381415002924525   -0.004103382256035551
0.10866293883979623   -0.016381415002924525   -0.004103382256035551
0.10866293883979623   -0.016381415002924525   -0.004103382256035551
0.2293439057974366   0.01636099770109016   0.002236708526594279
0.2293439057974366   0.01636099770109016   0.002236708526594279
0.2293439057974366   0.01636099770109016   0.002236708526594279
0.2293439057974366   0.01636099770109016   0.002236708526594279
0.16230275833044447   0.00041573128561862155   -0.006246708595205394
0.16230275833044447   0.00041573128561862155   -0.006246708595205394
0.16230275833044447   0.00041573128561862155   -0.006246708595205394
0.16230275833044447   0.00041573128561862155   -0.006246708595205394
0.22611996432199452   0.007021888595681217   -0.004543889745205148
0.22611996432199452   0.007021888595681217   -0.004543889745205148
0.22611996432199452   0.007021888595681217   -0.004543889745205148
0.22611996432199452   0.007021888595681217   -0.004543889745205148
0.11172894077749906   -0.007200245435254635   0.0020454578648078474
0.11172894077749906   -0.007200245435254635   0.0020454578648078474
0.11172894077749906   -0.007200245435254635   0.0020454578648078474
0.11172894077749906   -0.007200245435254635   0.0020454578648078474
0.10507834748843235   -0.017176955084579306   -0.0034568304696688656
0.10507834748843235   -0.017176955084579306   -0.0034568304696688656
0.10507834748843235   -0.017176955084579306   -0.0034568304696688656
0.10507834748843235   -0.017176955084579306   -0.0034568304696688656
0.22442677375488349   0.01518458368540053   0.0034332317967727885
0.22442677375488349   0.01518458368540053   0.0034332317967727885
0.22442677375488349   0.01518458368540053   0.0034332317967727885
0.22442677375488349   0.01518458368540053   0.0034332317967727885
0.1606851879424241   -0.0013883796309404756   -0.00721533602405143
0.1606851879424241   -0.0013883796309404756   -0.00721533602405143
0.1606851879424241   -0.0013883796309404756   -0.00721533602405143
0.1606851879424241   -0.0013883796309404756   -0.00721533602405143
0.22116528619114637   0.005994895235495672   -0.0036845175720079722
0.22116528619114637   0.005994895235495672   -0.0036845175720079722
0.22116528619114637   0.005994895235495672   -0.0036845175720079722
0.22116528619114637   0.005994895235495672   -0.0036845175720079722
0.10809586290678991   -0.008231238780054016   0.0026850303175936403
0.10809586290678991   -0.008231238780054016   0.0026850303175936403
0.10809586290678991   -0.008231238780054016   0.0026850303175936403
0.10809586290678991   -0.008231238780054016   0.0026850303175936403
0.10165485252162682   -0.016581568644167252   -0.0024134554463823427
0.10165485252162682   -0.016581568644167252   -0.0024134554463823427
0.10165485252162682   -0.016581568644167252   -0.0024134554463823427
0.10165485252162682   -0.016581568644167252   -0.0024134554463823427
0.21838337099560082   0.014669710279558483   0.004622126873658743
0.21838337099560082   0.014669710279558483   0.004622126873658743
0.21838337099560082   0.014669710279558483   0.004622126873658743
0.21838337099560082   0.014669710279558483   0.004622126873658743
0.15331370639338748   -0.002356057037876766   -0.009322317676929327
0.15331370639338748   -0.002356057037876766   -0.009322317676929327
0.15331370639338748   -0.002356057037876766   -0.009322317676929327
0.15331370639338748   -0.002356057037876766   -0.009322317676929327
0.11659095332628547   0.0038179033320426825   0.0015220843082557386
0.11659095332628547   0.0038179033320426825   0.0015220843082557386
0.11659095332628547   0.0038179033320426825   0.0015220843082557386
0.11659095332628547   0.0038179033320426825   0.0015220843082557386
0.008590014891433139   -0.007473958371996513   -0.0005548297383587615
0.008590014891433139   -0.007473958371996513   -0.0005548297383587615
0.008590014891433139   -0.007473958371996513   -0.0005548297383587615
0.008590014891433139   -0.007473958371996513   -0.0005548297383587615
0.0023633806662734028   -0.021251592721174797   -0.0040415180821767645
0.0023633806662734028   -0.021251592721174797   -0.0040415180821767645
0.0023633806662734028   -0.021251592721174797   -0.0040415180821767645
0.0023633806662734028   -0.021251592721174797   -0.0040415180821767645
0.11659464421919939   0.01362751885770203   0.005546210780352855
0.11659464421919939   0.01362751885770203   0.005546210780352855
0.11659464421919939   0.01362751885770203   0.005546210780352855
0.11659464421919939   0.01362751885770203   0.005546210780352855
0.05991990200652073   -0.002578320852179074   -0.0021724220209757604
0.05991990200652073   -0.002578320852179074   -0.0021724220209757604
0.05991990200652073   -0.002578320852179074   -0.0021724220209757604
0.05991990200652073   -0.002578320852179074   -0.0021724220209757604
0.11363514416053326   0.0022385912192145647   0.002137638125510183
0.11363514416053326   0.0022385912192145647   0.002137638125510183
0.11363514416053326   0.0022385912192145647   0.002137638125510183
0.11363514416053326   0.0022385912192145647   0.002137638125510183
0.005453323607926771   -0.009732222199700005   -0.00011117389538470692
0.005453323607926771   -0.009732222199700005   -0.00011117389538470692
0.005453323607926771   -0.009732222199700005   -0.00011117389538470692
0.005453323607926771   -0.009732222199700005   -0.00011117389538470692
-0.0010944961958445692   -0.02210217112832884   -0.002932249937183814
-0.0010944961958445692   -0.02210217112832884   -0.002932249937183814
-0.0010944961958445692   -0.02210217112832884   -0.002932249937183814
-0.0010944961958445692   -0.02210217112832884   -0.002932249937183814
0.11280873351750709   0.011930565909387559   0.0060875786817378924
0.11280873351750709   0.011930565909387559   0.0060875786817378924
0.11280873351750709   0.011930565909387559   0.0060875786817378924
0.11280873351750709   0.011930565909387559   0.0060875786817378924
0.05585089069014512   -0.004180691166332143   -0.0030719011577042595
0.05585089069014512   -0.004180691166332143   -0.0030719011577042595
0.05585089069014512   -0.004180691166332143   -0.0030719011577042595
0.05585089069014512   -0.004180691166332143   -0.0030719011577042595
0.11002652340931425   0.0012749179918113973   0.0028321760583508732
0.11002652340931425   0.0012749179918113973   0.0028321760583508732
0.11002652340931425   0.0012749179918113973   0.0028321760583508732
0.11002652340931425   0.0012749179918113973   0.0028321760583508732
0.0016822777891104162   -0.01145195933398908   0.00030140819325135543
0.0016822777891104162   -0.01145195933398908   0.00030140819325135543
0.0016822777891104162   -0.01145195933398908   0.00030140819325135543
0.0016822777891104162   -0.01145195933398908   0.00030140819325135543
-0.004777874896671169   -0.02198940513717036   -0.0020944929768037745
-0.004777874896671169   -0.02198940513717036   -0.0020944929768037745
-0.004777874896671169   -0.02198940513717036   -0.0020944929768037745
-0.004777874896671169   -0.02198940513717036   -0.0020944929768037745
0.10898494530775218   0.010955287738567368   0.0067001521015103704
0.10898494530775218   0.010955287738567368   0.0067001521015103704
0.10898494530775218   0.010955287738567368   0.0067001521015103704
0.10898494530775218   0.010955287738567368   0.0067001521015103704
0.05282993612536592   -0.0046759785503850005   -0.0037849345692992174
0.05282993612536592   -0.0046759785503850005   -0.0037849345692992174
0.05282993612536592   -0.0046759785503850005   -0.0037849345692992174
0.05282993612536592   -0.0046759785503850005   -0.0037849345692992174
0.00949365638684735   -0.004287863532881397   0.0007772828995967051
0.00949365638684735   -0.004287863532881397   0.0007772828995967051
0.00949365638684735   -0.004287863532881397   0.0007772828995967051
0.00949365638684735   -0.004287863532881397   0.0007772828995967051
-0.09482491319566752   -0.010783519486026454   -0.002933242912930855
-0.09482491319566752   -0.010783519486026454   -0.002933242912930855
-0.09482491319566752   -0.010783519486026454   -0.002933242912930855
-0.09482491319566752   -0.010783519486026454   -0.002933242912930855
-0.10175051848035804   -0.027929795467464994   -0.004729622978847842
-0.10175051848035804   -0.027929795467464994   -0.004729622978847842
-0.10175051848035804   -0.027929795467464994   -0.004729622978847842
-0.10175051848035804   -0.027929795467464994   -0.004729622978847842
0.01012968093399871   0.010242079492267762   0.0032963110430072077
0.01012968093399871   0.010242079492267762   0.0032963110430072077
0.01012968093399871   0.010242079492267762   0.0032963110430072077
0.01012968093399871   0.010242079492267762   0.0032963110430072077
-0.0443337589162943   -0.007807431615518619   -0.002093790783105503
-0.0443337589162943   -0.007807431615518619   -0.002093790783105503
-0.0443337589162943   -0.007807431615518619   -0.002093790783105503
-0.0443337589162943   -0.007807431615518619   -0.002093790783105503
0.006878146572167197   -0.0048349950966390795   0.0021157138227564914
0.006878146572167197   -0.0048349950966390795   0.0021157138227564914
0.006878146572167197   -0.0048349950966390795   0.0021157138227564914
0.006878146572167197   -0.0048349950966390795   0.0021157138227564914
-0.09823360900523861   -0.012587345765270232   -0.0024875253054454415
-0.09823360900523861   -0.012587345765270232   -0.0024875253054454415
-0.09823360900523861   -0.012587345765270232   -0.0024875253054454415
-0.09823360900523861   -0.012587345765270232   -0.0024875253054454415
-0.10578388066045778   -0.02884034131304265   -0.0033096074334024866
-0.10578388066045778   -0.02884034131304265   -0.0033096074334024866
-0.10578388066045778   -0.02884034131304265   -0.0033096074334024866
-0.10578388066045778   -0.02884034131304265   -0.0033096074334024866
0.006340104786353597   0.0084382975543646   0.0037002862911135787
0.006340104786353597   0.0084382975543646   0.0037002862911135787
0.006340104786353597   0.0084382975543646   0.0037002862911135787
0.006340104786353597   0.0084382975543646   0.0037002862911135787
-0.047692490476051785   -0.008826353310465301   -0.0024916462301281268
-0.047692490476051785   -0.008826353310465301   -0.0024916462301281268
-0.047692490476051785   -0.008826353310465301   -0.0024916462301281268
-0.047692490476051785   -0.008826353310465301   -0.0024916462301281268
0.0033019087235349395   -0.005809784369405522   0.0027573879007904145
0.0033019087235349395   -0.005809784369405522   0.0027573879007904145
0.0033019087235349395   -0.005809784369405522   0.0027573879007904145
0.0033019087235349395   -0.005809784369405522   0.0027573879007904145
-0.10267813991697324   -0.014524714708606782   -0.0020965303204164972
-0.10267813991697324   -0.014524714708606782   -0.0020965303204164972
-0.10267813991697324   -0.014524714708606782   -0.0020965303204164972
-0.10267813991697324   -0.014524714708606782   -0.0020965303204164972
-0.11023488531644692   -0.02945141495425313   -0.0029334058362790513
-0.11023488531644692   -0.02945141495425313   -0.0029334058362790513
-0.11023488531644692   -0.02945141495425313   -0.0029334058362790513
-0.11023488531644692   -0.02945141495425313   -0.0029334058362790513
0.0022377002980584065   0.0069092444148624805   0.004084733444811266
0.0022377002980584065   0.0069092444148624805   0.004084733444811266
0.0022377002980584065   0.0069092444148624805   0.004084733444811266
0.0022377002980584065   0.0069092444148624805   0.004084733444811266
-0.05202820324675346   -0.010043370851946476   -0.003480611867366449
-0.05202820324675346   -0.010043370851946476   -0.003480611867366449
-0.05202820324675346   -0.010043370851946476   -0.003480611867366449
-0.05202820324675346   -0.010043370851946476   -0.003480611867366449
-0.0929514166976197   -0.005804530316593604   0.0014552504078740088
-0.0929514166976197   -0.005804530316593604   0.0014552504078740088
-0.0929514166976197   -0.005804530316593604   0.0014552504078740088
-0.0929514166976197   -0.005804530316593604   0.0014552504078740088
-0.19662404301955985   -0.012668404481344212   -0.004987520346044509
-0.19662404301955985   -0.012668404481344212   -0.004987520346044509
-0.19662404301955985   -0.012668404481344212   -0.004987520346044509
-0.19662404301955985   -0.012668404481344212   -0.004987520346044509
-0.204420107587593   -0.029606513738856637   -0.004933763534248363
-0.204420107587593   -0.029606513738856637   -0.004933763534248363
-0.204420107587593   -0.029606513738856637   -0.004933763534248363
-0.204420107587593   -0.029606513738856637   -0.004933763534248363
-0.09338558051287112   0.008044953225238547   0.0011203181658813307
-0.09338558051287112   0.008044953225238547   0.0011203181658813307
-0.09338558051287112   0.008044953225238547   0.0011203181658813307
-0.09338558051287112   0.008044953225238547   0.0011203181658813307
-0.1456765391132398   -0.009554606146326548   -0.0016327934300100887
-0.1456765391132398   -0.009554606146326548   -0.0016327934300100887
-0.1456765391132398   -0.009554606146326548   -0.0016327934300100887
-0.1456765391132398   -0.009554606146326548   -0.0016327934300100887
-0.09583195603265889   -0.0062628766354864505   0.003196270427668441
-0.09583195603265889   -0.0062628766354864505   0.003196270427668441
-0.09583195603265889   -0.0062628766354864505   0.003196270427668441
-0.09583195603265889   -0.0062628766354864505   0.003196270427668441
-0.20148244197994672   -0.014807393790273213   -0.005044555444601887
-0.20148244197994672   -0.014807393790273213   -0.005044555444601887
-0.20148244197994672   -0.014807393790273213   -0.005044555444601887
-0.20148244197994672   -0.014807393790273213   -0.005044555444601887
-0.20994166405931228   -0.03122421180932268   -0.0035880724695550215
-0.20994166405931228   -0.03122421180932268   -0.0035880724695550215
-0.20994166405931228   -0.03122421180932268   -0.0035880724695550215
-0.20994166405931228   -0.03122421180932268   -0.0035880724695550215
-0.09787876896341546   0.006062248235660237   0.0013133615031052804
-0.09787876896341546   0.006062248235660237   0.0013133615031052804
-0.09787876896341546   0.006062248235660237   0.0013133615031052804
-0.09787876896341546   0.006062248235660237   0.0013133615031052804
-0.1490134729208808   -0.010355241155117562   -0.0015759850351514332
-0.1490134729208808   -0.010355241155117562   -0.0015759850351514332
-0.1490134729208808   -0.010355241155117562   -0.0015759850351514332
-0.1490134729208808   -0.010355241155117562   -0.0015759850351514332
-0.10025832609176782   -0.007895304085419648   0.0033731281824233646
-0.10025832609176782   -0.007895304085419648   0.0033731281824233646
-0.10025832609176782   -0.007895304085419648   0.0033731281824233646
-0.10025832609176782   -0.007895304085419648   0.0033731281824233646
-0.20722710122718396   -0.016931653784468113   -0.004307816333767983
-0.20722710122718396   -0.016931653784468113   -0.004307816333767983
-0.20722710122718396   -0.016931653784468113   -0.004307816333767983
-0.20722710122718396   -0.016931653784468113   -0.004307816333767983
-0.21614130959666397   -0.03342849171287947   -0.0037475552334166433
-0.21614130959666397   -0.03342849171287947   -0.0037475552334166433
-0.21614130959666397   -0.03342849171287947   -0.0037475552334166433
-0.21614130959666397   -0.03342849171287947   -0.0037475552334166433
-0.10274520627476202   0.0035571458901198644   0.001506428527771029
-0.10274520627476202   0.0035571458901198644   0.001506428527771029
-0.10274520627476202   0.0035571458901198644   0.001506428527771029
-0.10274520627476202   0.0035571458901198644   0.001506428527771029
-0.15539248503114292   -0.012727670277940934   -0.002723263014970987
-0.15539248503114292   -0.012727670277940934   -0.002723263014970987
-0.15539248503114292   -0.012727670277940934   -0.002723263014970987
-0.15539248503114292   -0.012727670277940934   -0.002723263014970987
-0.1903933672041998   0.0080871391326751   0.005410315116736526
-0.1903933672041998   0.0080871391326751   0.005410315116736526
-0.1903933672041998   0.0080871391326751   0.005410315116736526
-0.1903933672041998   0.0080871391326751   0.005410315116736526
-0.2944430654011953   -0.014597979571146828   -0.00343046999010181
-0.2944430654011953   -0.014597979571146828   -0.00343046999010181
-0.2944430654011953   -0.014597979571146828   -0.00343046999010181
-0.2944430654011953   -0.014597979571146828   -0.00343046999010181
-0.3007545254283572   -0.014921280651057224   0.005430736891011931
-0.3007545254283572   -0.014921280651057224   0.005430736891011931
-0.3007545254283572   -0.014921280651057224   0.005430736891011931
-0.3007545254283572   -0.014921280651057224   0.005430736891011931
-0.19640740562368034   0.006611453764213765   -0.0010882212177570107
-0.19640740562368034   0.006611453764213765   -0.0010882212177570107
-0.19640740562368034   0.006611453764213765   -0.0010882212177570107
-0.19640740562368034   0.006611453764213765   -0.0010882212177570107
-0.2340066040598052   -4.481935127181175e-05   0.006055805478377276
-0.2340066040598052   -4.481935127181175e-05   0.006055805478377276
-0.2340066040598052   -4.481935127181175e-05   0.006055805478377276
-0.2340066040598052   -4.481935127181175e-05   0.006055805478377276
-0.19479434132536216   0.006585266332455986   0.007003287705590637
-0.19479434132536216   0.006585266332455986   0.007003287705590637
-0.19479434132536216   0.006585266332455986   0.007003287705590637
-0.19479434132536216   0.006585266332455986   0.007003287705590637
-0.30223371334000365   -0.014761216832629195   -0.0021252664856485325
-0.30223371334000365   -0.014761216832629195   -0.0021252664856485325
-0.30223371334000365   -0.014761216832629195   -0.0021252664856485325
-0.30223371334000365   -0.014761216832629195   -0.0021252664856485325
-0.3086168459101481   -0.01698374773930933   0.007470477080273902
-0.3086168459101481   -0.01698374773930933   0.007470477080273902
-0.3086168459101481   -0.01698374773930933   0.007470477080273902
-0.3086168459101481   -0.01698374773930933   0.007470477080273902
-0.20217668580965098   0.005195443684929656   -0.0011828367155021658
-0.20217668580965098   0.005195443684929656   -0.0011828367155021658
-0.20217668580965098   0.005195443684929656   -0.0011828367155021658
-0.20217668580965098   0.005195443684929656   -0.0011828367155021658
-0.24462484043342786   -0.0024066205301781357   0.003700775463880741
-0.24462484043342786   -0.0024066205301781357   0.003700775463880741
-0.24462484043342786   -0.0024066205301781357   0.003700775463880741
-0.24462484043342786   -0.0024066205301781357   0.003700775463880741
-0.20069580493305272   0.004491472758780986   0.00692553859363779
-0.20069580493305272   0.004491472758780986   0.00692553859363779
-0.20069580493305272   0.004491472758780986   0.00692553859363779
-0.20069580493305272   0.004491472758780986   0.00692553859363779
-0.31037765531254113   -0.016559705338956697   -0.0017576123320437887
-0.31037765531254113   -0.016559705338956697   -0.0017576123320437887
-0.31037765531254113   -0.016559705338956697   -0.0017576123320437887
-0.31037765531254113   -0.016559705338956697   -0.0017576123320437887
-0.3199175421803189   -0.025730531226585834   0.006277061507953277
-0.3199175421803189   -0.025730531226585834   0.006277061507953277
-0.3199175421803189   -0.025730531226585834   0.006277061507953277
-0.3199175421803189   -0.025730531226585834   0.006277061507953277
-0.20883489944197295   0.0004992075391566653   -0.0011432037120010143
-0.20883489944197295   0.0004992075391566653   -0.0011432037120010143
-0.20883489944197295   0.0004992075391566653   -0.0011432037120010143
-0.20883489944197295   0.0004992075391566653   -0.0011432037120010143
-0.24839614805035073   -0.005511547219675936   0.0018216572561667692
-0.24839614805035073   -0.005511547219675936   0.0018216572561667692
-0.24839614805035073   -0.005511547219675936   0.0018216572561667692
-0.24839614805035073   -0.005511547219675936   0.0018216572561667692
0.19319989844127877   0.010770591197508516   -0.006110174245353663
0.19319989844127877   0.010770591197508516   -0.006110174245353663
0.19319989844127877   0.010770591197508516   -0.006110174245353663
0.19319989844127877   0.010770591197508516   -0.006110174245353663
0.09457059138509191   -0.0009378019333359244   0.001995230937628314
0.09457059138509191   -0.0009378019333359244   0.001995230937628314
0.09457059138509191   -0.0009378019333359244   0.001995230937628314
0.09457059138509191   -0.0009378019333359244   0.001995230937628314
0.08727495321226866   -0.013654979958101051   -0.005774227184193858
0.08727495321226866   -0.013654979958101051   -0.005774227184193858
0.08727495321226866   -0.013654979958101051   -0.005774227184193858
0.08727495321226866   -0.013654979958101051   -0.005774227184193858
0.18997681875329575   0.015226295630464608   0.002530284624126455
0.18997681875329575   0.015226295630464608   0.002530284624126455
0.18997681875329575   0.015226295630464608   0.002530284624126455
0.18997681875329575   0.015226295630464608   0.002530284624126455
0.13395239023314365   0.0011444728548288194   -0.004430514004544899
0.13395239023314365   0.0011444728548288194   -0.004430514004544899
0.13395239023314365   0.0011444728548288194   -0.004430514004544899
0.13395239023314365   0.0011444728548288194   -0.004430514004544899
0.18646051276514133   0.006143322876730313   -0.005968272562909688
0.18646051276514133   0.006143322876730313   -0.005968272562909688
0.18646051276514133   0.006143322876730313   -0.005968272562909688
0.18646051276514133   0.006143322876730313   -0.005968272562909688
0.09065684684976394   -0.004706419555025865   0.0021866806002058805
0.09065684684976394   -0.004706419555025865   0.0021866806002058805
0.09065684684976394   -0.004706419555025865   0.0021866806002058805
0.09065684684976394   -0.004706419555025865   0.0021866806002058805
0.08363419913921535   -0.014674235283590888   -0.005068288432516145
0.08363419913921535   -0.014674235283590888   -0.005068288432516145
0.08363419913921535   -0.014674235283590888   -0.005068288432516145
0.08363419913921535   -0.014674235283590888   -0.005068288432516145
0.18455731407373818   0.013784854130353439   0.0035783058800899744
0.18455731407373818   0.013784854130353439   0.0035783058800899744
0.18455731407373818   0.013784854130353439   0.0035783058800899744
0.18455731407373818   0.013784854130353439   0.0035783058800899744
0.13140880265617755   -0.0007819315425645901   -0.005566454630603127
0.13140880265617755   -0.0007819315425645901   -0.005566454630603127
0.13140880265617755   -0.0007819315425645901   -0.005566454630603127
0.13140880265617755   -0.0007819315425645901   -0.005566454630603127
0.18110078374452543   0.0048740341640424525   -0.00479352579965954
0.18110078374452543   0.0048740341640424525   -0.00479352579965954
0.18110078374452543   0.0048740341640424525   -0.00479352579965954
0.18110078374452543   0.0048740341640424525   -0.00479352579965954
0.08695565536874791   -0.00589848941695963   0.0027632468485149176
0.08695565536874791   -0.00589848941695963   0.0027632468485149176
0.08695565536874791   -0.00589848941695963   0.0027632468485149176
0.08695565536874791   -0.00589848941695963   0.0027632468485149176
0.08034879595342201   -0.014692976215648808   -0.0041567305601988985
0.08034879595342201   -0.014692976215648808   -0.0041567305601988985
0.08034879595342201   -0.014692976215648808   -0.0041567305601988985
0.08034879595342201   -0.014692976215648808   -0.0041567305601988985
0.1784487080656513   0.012737135112126104   0.0045653147667246725
0.1784487080656513   0.012737135112126104   0.0045653147667246725
0.1784487080656513   0.012737135112126104   0.0045653147667246725
0.1784487080656513   0.012737135112126104   0.0045653147667246725
0.12449480467574633   -0.002016800037845705   -0.007439361305168826
0.12449480467574633   -0.002016800037845705   -0.007439361305168826
0.12449480467574633   -0.002016800037845705   -0.007439361305168826
0.12449480467574633   -0.002016800037845705   -0.007439361305168826
0.09662700141647082   0.010426917260766794   0.0009125619004200936
0.09662700141647082   0.010426917260766794   0.0009125619004200936
0.09662700141647082   0.010426917260766794   0.0009125619004200936
0.09662700141647082   0.010426917260766794   0.0009125619004200936
0.0015376083688904336   -0.0037709715948016087   -0.0006192100013405501
0.0015376083688904336   -0.0037709715948016087   -0.0006192100013405501
0.0015376083688904336   -0.0037709715948016087   -0.0006192100013405501
0.0015376083688904336   -0.0037709715948016087   -0.0006192100013405501
-0.003972037950382992   -0.01240578068619905   -0.004053604769562495
-0.003972037950382992   -0.01240578068619905   -0.004053604769562495
-0.003972037950382992   -0.01240578068619905   -0.004053604769562495
-0.003972037950382992   -0.01240578068619905   -0.004053604769562495
0.0949623518641795   0.013955535580953988   0.0050522505363038124
0.0949623518641795   0.013955535580953988   0.0050522505363038124
0.0949623518641795   0.013955535580953988   0.0050522505363038124
0.0949623518641795   0.013955535580953988   0.0050522505363038124
0.046543661446758915   0.001999716195029517   -0.00043984666676916617
0.046543661446758915   0.001999716195029517   -0.00043984666676916617
0.046543661446758915   0.001999716195029517   -0.00043984666676916617
0.046543661446758915   0.001999716195029517   -0.00043984666676916617
0.0930506236714061   0.008082751352292536   0.0013663938010986883
0.0930506236714061   0.008082751352292536   0.0013663938010986883
0.0930506236714061   0.008082751352292536   0.0013663938010986883
0.0930506236714061   0.008082751352292536   0.0013663938010986883
-0.002020143813034688   -0.006492830512961349   -0.0002070842560586751
-0.002020143813034688   -0.006492830512961349   -0.0002070842560586751
-0.002020143813034688   -0.006492830512961349   -0.0002070842560586751
-0.002020143813034688   -0.006492830512961349   -0.0002070842560586751
-0.007417741795303022   -0.014041701454939257   -0.00354728282707842
-0.007417741795303022   -0.014041701454939257   -0.00354728282707842
-0.007417741795303022   -0.014041701454939257   -0.00354728282707842
-0.007417741795303022   -0.014041701454939257   -0.00354728282707842
0.09105296720131312   0.011786773344050408   0.005564543250330971
0.09105296720131312   0.011786773344050408   0.005564543250330971
0.09105296720131312   0.011786773344050408   0.005564543250330971
0.09105296720131312   0.011786773344050408   0.005564543250330971
0.042252521477548696   -0.00016922906386842435   -0.0016595650121565887
0.042252521477548696   -0.00016922906386842435   -0.0016595650121565887
0.042252521477548696   -0.00016922906386842435   -0.0016595650121565887
0.042252521477548696   -0.00016922906386842435   -0.0016595650121565887
0.08922061791431443   0.0063611175702326175   0.0018284525891558235
0.08922061791431443   0.0063611175702326175   0.0018284525891558235
0.08922061791431443   0.0063611175702326175   0.0018284525891558235
0.08922061791431443   0.0063611175702326175   0.0018284525891558235
-0.0055843038764583595   -0.008614957049274131   0.00019316236147976429
-0.0055843038764583595   -0.008614957049274131   0.00019316236147976429
-0.0055843038764583595   -0.008614957049274131   0.00019316236147976429
-0.0055843038764583595   -0.008614957049274131   0.00019316236147976429
-0.010815868407588289   -0.014923407563190048   -0.0028925106919285787
-0.010815868407588289   -0.014923407563190048   -0.0028925106919285787
-0.010815868407588289   -0.014923407563190048   -0.0028925106919285787
-0.010815868407588289   -0.014923407563190048   -0.0028925106919285787
0.08733156090731874   0.010038326795011578   0.006025791198623325
0.08733156090731874   0.010038326795011578   0.006025791198623325
0.08733156090731874   0.010038326795011578   0.006025791198623325
0.08733156090731874   0.010038326795011578   0.006025791198623325
0.03921104982346277   -0.0014439375487625972   -0.0025208415026304215
0.03921104982346277   -0.0014439375487625972   -0.0025208415026304215
0.03921104982346277   -0.0014439375487625972   -0.0025208415026304215
0.03921104982346277   -0.0014439375487625972   -0.0025208415026304215
0.004903513734978073   0.01019723627462209   0.0022421089596739462
0.004903513734978073   0.01019723627462209   0.0022421089596739462
0.004903513734978073   0.01019723627462209   0.0022421089596739462
0.004903513734978073   0.01019723627462209   0.0022421089596739462
-0.08885347607173906   -0.006169357450173487   -0.0030016520655916433
-0.08885347607173906   -0.006169357450173487   -0.0030016520655916433
-0.08885347607173906   -0.006169357450173487   -0.0030016520655916433
-0.08885347607173906   -0.006169357450173487   -0.0030016520655916433
-0.09314727104747011   -0.01162580753108659   -0.0027661720923034
-0.09314727104747011   -0.01162580753108659   -0.0027661720923034
-0.09314727104747011   -0.01162580753108659   -0.0027661720923034
-0.09314727104747011   -0.01162580753108659   -0.0027661720923034
0.0021228752196897917   0.011469285589018942   0.0025458948055834315
0.0021228752196897917   0.011469285589018942   0.0025458948055834315
0.0021228752196897917   0.011469285589018942   0.0025458948055834315
0.0021228752196897917   0.011469285589018942   0.0025458948055834315
-0.0436827222775412   0.0011162588170917833   0.00022188334240231394
-0.0436827222775412   0.0011162588170917833   0.00022188334240231394
-0.0436827222775412   0.0011162588170917833   0.00022188334240231394
-0.0436827222775412   0.0011162588170917833   0.00022188334240231394
0.0015502343008098377   0.008414435930892169   0.0027375398693104368
0.0015502343008098377   0.008414435930892169   0.0027375398693104368
0.0015502343008098377   0.008414435930892169   0.0027375398693104368
0.0015502343008098377   0.008414435930892169   0.0027375398693104368
-0.09247667350106901   -0.00847300124543868   -0.002565990645945859
-0.09247667350106901   -0.00847300124543868   -0.002565990645945859
-0.09247667350106901   -0.00847300124543868   -0.002565990645945859
-0.09247667350106901   -0.00847300124543868   -0.002565990645945859
-0.09683744268329714   -0.01341191018269516   -0.002373204924542134
-0.09683744268329714   -0.01341191018269516   -0.002373204924542134
-0.09683744268329714   -0.01341191018269516   -0.002373204924542134
-0.09683744268329714   -0.01341191018269516   -0.002373204924542134
-0.0014397638314074066   0.009244456412167831   0.0030564491252925694
-0.0014397638314074066   0.009244456412167831   0.0030564491252925694
-0.0014397638314074066   0.009244456412167831   0.0030564491252925694
-0.0014397638314074066   0.009244456412167831   0.0030564491252925694
-0.047225975338667445   -0.0006799103182173888   -0.0006696791673466746
-0.047225975338667445   -0.0006799103182173888   -0.0006696791673466746
-0.047225975338667445   -0.0006799103182173888   -0.0006696791673466746
-0.047225975338667445   -0.0006799103182173888   -0.0006696791673466746
-0.0019206155318054969   0.006687854699670046   0.003208792335799903
-0.0019206155318054969   0.006687854699670046   0.003208792335799903
-0.0019206155318054969   0.006687854699670046   0.003208792335799903
-0.0019206155318054969   0.006687854699670046   0.003208792335799903
-0.09627857373965364   -0.010777291226953152   -0.002213479162066101
-0.09627857373965364   -0.010777291226953152   -0.002213479162066101
-0.09627857373965364   -0.010777291226953152   -0.002213479162066101
-0.09627857373965364   -0.010777291226953152   -0.002213479162066101
-0.10049141476669549   -0.014796222663310916   -0.0017134868813018212
-0.10049141476669549   -0.014796222663310916   -0.0017134868813018212
-0.10049141476669549   -0.014796222663310916   -0.0017134868813018212
-0.10049141476669549   -0.014796222663310916   -0.0017134868813018212
-0.00513580354311512   0.007148793524369942   0.0034356125428772746
-0.00513580354311512   0.007148793524369942   0.0034356125428772746
-0.00513580354311512   0.007148793524369942   0.0034356125428772746
-0.00513580354311512   0.007148793524369942   0.0034356125428772746
-0.05104271790818024   -0.0025032186813454347   -0.001657258316032173
-0.05104271790818024   -0.0025032186813454347   -0.001657258316032173
-0.05104271790818024   -0.0025032186813454347   -0.001657258316032173
-0.05104271790818024   -0.0025032186813454347   -0.001657258316032173
-0.08395409579421133   0.011606889506091157   0.003719002365783811
-0.08395409579421133   0.011606889506091157   0.003719002365783811
-0.08395409579421133   0.011606889506091157   0.003719002365783811
-0.08395409579421133   0.011606889506091157   0.003719002365783811
-0.17704024488358358   -0.008350170187348967   -0.004820183534781461
-0.17704024488358358   -0.008350170187348967   -0.004820183534781461
-0.17704024488358358   -0.008350170187348967   -0.004820183534781461
-0.17704024488358358   -0.008350170187348967   -0.004820183534781461
-0.18036297668944365   -0.009807203000002821   -0.0011630667837529878
-0.18036297668944365   -0.009807203000002821   -0.0011630667837529878
-0.18036297668944365   -0.009807203000002821   -0.0011630667837529878
-0.18036297668944365   -0.009807203000002821   -0.0011630667837529878
-0.08849295859586526   0.008812716429181217   6.68662054540553e-05
-0.08849295859586526   0.008812716429181217   6.68662054540553e-05
-0.08849295859586526   0.008812716429181217   6.68662054540553e-05
-0.08849295859586526   0.008812716429181217   6.68662054540553e-05
-0.13149560749247782   0.0009064631263418152   0.0010025555413830682
-0.13149560749247782   0.0009064631263418152   0.0010025555413830682
-0.13149560749247782   0.0009064631263418152   0.0010025555413830682
-0.13149560749247782   0.0009064631263418152   0.0010025555413830682
-0.08747245254107679   0.009833281473447229   0.004148831435130416
-0.08747245254107679   0.009833281473447229   0.004148831435130416
-0.08747245254107679   0.009833281473447229   0.004148831435130416
-0.08747245254107679   0.009833281473447229   0.004148831435130416
-0.18126810212967542   -0.010712387429712387   -0.004783509555203812
-0.18126810212967542   -0.010712387429712387   -0.004783509555203812
-0.18126810212967542   -0.010712387429712387   -0.004783509555203812
-0.18126810212967542   -0.010712387429712387   -0.004783509555203812
-0.18489432263490194   -0.01182981808621434   -0.001131416434781157
-0.18489432263490194   -0.01182981808621434   -0.001131416434781157
-0.18489432263490194   -0.01182981808621434   -0.001131416434781157
-0.18489432263490194   -0.01182981808621434   -0.001131416434781157
-0.092239560839152   0.006690218314969756   0.0005140757985192838
-0.092239560839152   0.006690218314969756   0.0005140757985192838
-0.092239560839152   0.006690218314969756   0.0005140757985192838
-0.092239560839152   0.006690218314969756   0.0005140757985192838
-0.13455773644410346   -0.0006721220958228295   0.0002820978128264661
-0.13455773644410346   -0.0006721220958228295   0.0002820978128264661
-0.13455773644410346   -0.0006721220958228295   0.0002820978128264661
-0.13455773644410346   -0.0006721220958228295   0.0002820978128264661
-0.09111175230971583   0.008101372181594145   0.004741964579075169
-0.09111175230971583   0.008101372181594145   0.004741964579075169
-0.09111175230971583   0.008101372181594145   0.004741964579075169
-0.09111175230971583   0.008101372181594145   0.004741964579075169
-0.18576308351835966   -0.012981924306860602   -0.004323114631424833
-0.18576308351835966   -0.012981924306860602   -0.004323114631424833
-0.18576308351835966   -0.012981924306860602   -0.004323114631424833
-0.18576308351835966   -0.012981924306860602   -0.004323114631424833
-0.18904082127186012   -0.014020946595851482   -8.841890497993717e-05
-0.18904082127186012   -0.014020946595851482   -8.841890497993717e-05
-0.18904082127186012   -0.014020946595851482   -8.841890497993717e-05
-0.18904082127186012   -0.014020946595851482   -8.841890497993717e-05
-0.09621206232334256   0.004109809421305913   0.0007772432508479279
-0.09621206232334256   0.004109809421305913   0.0007772432508479279
-0.09621206232334256   0.004109809421305913   0.0007772432508479279
-0.09621206232334256   0.004109809421305913   0.0007772432508479279
-0.13963872989293885   -0.003035973523092112   -0.0007405853996340249
-0.13963872989293885   -0.003035973523092112   -0.0007405853996340249
-0.13963872989293885   -0.003035973523092112   -0.0007405853996340249
-0.13963872989293885   -0.003035973523092112   -0.0007405853996340249
-0.17104916663760555   0.01176991806761929   0.00501511944013905
-0.17104916663760555   0.01176991806761929   0.00501511944013905
-0.17104916663760555   0.01176991806761929   0.00501511944013905
-0.17104916663760555   0.01176991806761929   0.00501511944013905
-0.26207159494274385   -0.012235360004178825   -0.004117584051969617
-0.26207159494274385   -0.012235360004178825   -0.004117584051969617
-0.26207159494274385   -0.012235360004178825   -0.004117584051969617
-0.26207159494274385   -0.012235360004178825   -0.004117584051969617
-0.2651338420972984   -0.006089578302059452   0.004133054924494953
-0.2651338420972984   -0.006089578302059452   0.004133054924494953
-0.2651338420972984   -0.006089578302059452   0.004133054924494953
-0.2651338420972984   -0.006089578302059452   0.004133054924494953
-0.1774357396427267   0.0057459699158076555   -0.0020800544659787586
-0.1774357396427267   0.0057459699158076555   -0.0020800544659787586
-0.1774357396427267   0.0057459699158076555   -0.0020800544659787586
-0.1774357396427267   0.0057459699158076555   -0.0020800544659787586
-0.20915853332032366   0.0022302035948027835   0.005019346077274124
-0.20915853332032366   0.0022302035948027835   0.005019346077274124
-0.20915853332032366   0.0022302035948027835   0.005019346077274124
-0.20915853332032366   0.0022302035948027835   0.005019346077274124
-0.17454213891356252   0.012357445974098574   0.005776473121549216
-0.17454213891356252   0.012357445974098574   0.005776473121549216
-0.17454213891356252   0.012357445974098574   0.005776473121549216
-0.17454213891356252   0.012357445974098574   0.005776473121549216
-0.26785911865180817   -0.012532730185695479   -0.0030501759644129944
-0.26785911865180817   -0.012532730185695479   -0.0030501759644129944
-0.26785911865180817   -0.012532730185695479   -0.0030501759644129944
-0.26785911865180817   -0.012532730185695479   -0.0030501759644129944
-0.2707817350016181   -0.007151587813179636   0.005687054985918495
-0.2707817350016181   -0.007151587813179636   0.005687054985918495
-0.2707817350016181   -0.007151587813179636   0.005687054985918495
-0.2707817350016181   -0.007151587813179636   0.005687054985918495
-0.18176267193840623   0.004530804160408845   -0.001833785198925672
-0.18176267193840623   0.004530804160408845   -0.001833785198925672
-0.18176267193840623   0.004530804160408845   -0.001833785198925672
-0.18176267193840623   0.004530804160408845   -0.001833785198925672
-0.2173733983468707   0.0011444731012816844   0.0034622104876394864
-0.2173733983468707   0.0011444731012816844   0.0034622104876394864
-0.2173733983468707   0.0011444731012816844   0.0034622104876394864
-0.2173733983468707   0.0011444731012816844   0.0034622104876394864
-0.1785602833511913   0.011580903249361299   0.007128058648196383
-0.1785602833511913   0.011580903249361299   0.007128058648196383
-0.1785602833511913   0.011580903249361299   0.007128058648196383
-0.1785602833511913   0.011580903249361299   0.007128058648196383
-0.2738113654641656   -0.014028928777463978   -0.002583756362530304
-0.2738113654641656   -0.014028928777463978   -0.002583756362530304
-0.2738113654641656   -0.014028928777463978   -0.002583756362530304
-0.2738113654641656   -0.014028928777463978   -0.002583756362530304
-0.27845885824542826   -0.012093047759687704   0.005519478597232489
-0.27845885824542826   -0.012093047759687704   0.005519478597232489
-0.27845885824542826   -0.012093047759687704   0.005519478597232489
-0.27845885824542826   -0.012093047759687704   0.005519478597232489
-0.18645268315939306   0.0005799789664691635   -0.0017486539049654248
-0.18645268315939306   0.0005799789664691635   -0.0017486539049654248
-0.18645268315939306   0.0005799789664691635   -0.0017486539049654248
-0.18645268315939306   0.0005799789664691635   -0.0017486539049654248
-0.21916722165179447   -0.0005549611723273881   0.003074523596335898
-0.21916722165179447   -0.0005549611723273881   0.003074523596335898
-0.21916722165179447   -0.0005549611723273881   0.003074523596335898
-0.21916722165179447   -0.0005549611723273881   0.003074523596335898
0.1515361128382634   0.008766284409143878   -0.00644985880314416
0.1515361128382634   0.008766284409143878   -0.00644985880314416
0.1515361128382634   0.008766284409143878   -0.00644985880314416
0.1515361128382634   0.008766284409143878   -0.00644985880314416
0.07125876649941017   0.0006943257192214732   0.002283815355964872
0.07125876649941017   0.0006943257192214732   0.002283815355964872
0.07125876649941017   0.0006943257192214732   0.002283815355964872
0.07125876649941017   0.0006943257192214732   0.002283815355964872
0.06417966672207573   -0.011685698356527333   -0.006232533279613252
0.06417966672207573   -0.011685698356527333   -0.006232533279613252
0.06417966672207573   -0.011685698356527333   -0.006232533279613252
0.06417966672207573   -0.011685698356527333   -0.006232533279613252
0.14870316964226715   0.013531934211553784   0.002849965195503722
0.14870316964226715   0.013531934211553784   0.002849965195503722
0.14870316964226715   0.013531934211553784   0.002849965195503722
0.14870316964226715   0.013531934211553784   0.002849965195503722
0.10329392250090925   0.0013672201527240406   -0.003074431163004339
0.10329392250090925   0.0013672201527240406   -0.003074431163004339
0.10329392250090925   0.0013672201527240406   -0.003074431163004339
0.10329392250090925   0.0013672201527240406   -0.003074431163004339
0.14509497395490956   0.00451004495001334   -0.00616912397974372
0.14509497395490956   0.00451004495001334   -0.00616912397974372
0.14509497395490956   0.00451004495001334   -0.00616912397974372
0.14509497395490956   0.00451004495001334   -0.00616912397974372
0.06772256047309493   -0.0027291110313253653   0.0025253481502801756
0.06772256047309493   -0.0027291110313253653   0.0025253481502801756
0.06772256047309493   -0.0027291110313253653   0.0025253481502801756
0.06772256047309493   -0.0027291110313253653   0.0025253481502801756
0.06090744808342277   -0.012734545095978194   -0.005368824261252773
0.06090744808342277   -0.012734545095978194   -0.005368824261252773
0.06090744808342277   -0.012734545095978194   -0.005368824261252773
0.06090744808342277   -0.012734545095978194   -0.005368824261252773
0.14360567461848245   0.012007604346008834   0.003846527458947163
0.14360567461848245   0.012007604346008834   0.003846527458947163
0.14360567461848245   0.012007604346008834   0.003846527458947163
0.14360567461848245   0.012007604346008834   0.003846527458947163
0.10060863022922945   -0.0005169655691520843   -0.0041058702471247635
0.10060863022922945   -0.0005169655691520843   -0.0041058702471247635
0.10060863022922945   -0.0005169655691520843   -0.0041058702471247635
0.10060863022922945   -0.0005169655691520843   -0.0041058702471247635
0.14006257480575582   0.0031649763741698513   -0.005026343632845621
0.14006257480575582   0.0031649763741698513   -0.005026343632845621
0.14006257480575582   0.0031649763741698513   -0.005026343632845621
0.14006257480575582   0.0031649763741698513   -0.005026343632845621
0.06435353579201372   -0.003988929228274787   0.0031159984139977797
0.06435353579201372   -0.003988929228274787   0.0031159984139977797
0.06435353579201372   -0.003988929228274787   0.0031159984139977797
0.06435353579201372   -0.003988929228274787   0.0031159984139977797
0.05799215950548845   -0.013163737959792088   -0.004482502032703417
0.05799215950548845   -0.013163737959792088   -0.004482502032703417
0.05799215950548845   -0.013163737959792088   -0.004482502032703417
0.05799215950548845   -0.013163737959792088   -0.004482502032703417
0.13782686233448424   0.010514577242219984   0.004652795511748254
0.13782686233448424   0.010514577242219984   0.004652795511748254
0.13782686233448424   0.010514577242219984   0.004652795511748254
0.13782686233448424   0.010514577242219984   0.004652795511748254
0.09455361288131596   -0.001864460331456451   -0.00576099445661233
0.09455361288131596   -0.001864460331456451   -0.00576099445661233
0.09455361288131596   -0.001864460331456451   -0.00576099445661233
0.09455361288131596   -0.001864460331456451   -0.00576099445661233
0.07276849303234895   0.010587001738445413   -6.0227998563961924e-05
0.07276849303234895   0.010587001738445413   -6.0227998563961924e-05
0.07276849303234895   0.010587001738445413   -6.0227998563961924e-05
0.07276849303234895   0.010587001738445413   -6.0227998563961924e-05
-0.005547922067415063   -0.0015627493597098105   -0.0002469956503628512
-0.005547922067415063   -0.0015627493597098105   -0.0002469956503628512
-0.005547922067415063   -0.0015627493597098105   -0.0002469956503628512
-0.005547922067415063   -0.0015627493597098105   -0.0002469956503628512
-0.010540535172879038   -0.00897043834569303   -0.0040747320598727285
-0.010540535172879038   -0.00897043834569303   -0.0040747320598727285
-0.010540535172879038   -0.00897043834569303   -0.0040747320598727285
-0.010540535172879038   -0.00897043834569303   -0.0040747320598727285
0.07116621238428925   0.012406714404858373   0.004607782270068069
0.07116621238428925   0.012406714404858373   0.004607782270068069
0.07116621238428925   0.012406714404858373   0.004607782270068069
0.07116621238428925   0.012406714404858373   0.004607782270068069
0.03145806085079105   0.002964165320314501   0.0002797065687059554
0.03145806085079105   0.002964165320314501   0.0002797065687059554
0.03145806085079105   0.002964165320314501   0.0002797065687059554
0.03145806085079105   0.002964165320314501   0.0002797065687059554
0.06944512845536968   0.007936213498330947   0.0004728635319984362
0.06944512845536968   0.007936213498330947   0.0004728635319984362
0.06944512845536968   0.007936213498330947   0.0004728635319984362
0.06944512845536968   0.007936213498330947   0.0004728635319984362
-0.008793922077871207   -0.00447440827307849   0.00016230334255187796
-0.008793922077871207   -0.00447440827307849   0.00016230334255187796
-0.008793922077871207   -0.00447440827307849   0.00016230334255187796
-0.008793922077871207   -0.00447440827307849   0.00016230334255187796
-0.013615149993663214   -0.01094298189888487   -0.003416115769369085
-0.013615149993663214   -0.01094298189888487   -0.003416115769369085
-0.013615149993663214   -0.01094298189888487   -0.003416115769369085
-0.013615149993663214   -0.01094298189888487   -0.003416115769369085
0.06752800463410336   0.009972628506186899   0.005026784889984316
0.06752800463410336   0.009972628506186899   0.005026784889984316
0.06752800463410336   0.009972628506186899   0.005026784889984316
0.06752800463410336   0.009972628506186899   0.005026784889984316
0.027597033536216082   0.0005329556345085489   -0.0009327883324102549
0.027597033536216082   0.0005329556345085489   -0.0009327883324102549
0.027597033536216082   0.0005329556345085489   -0.0009327883324102549
0.027597033536216082   0.0005329556345085489   -0.0009327883324102549
0.06586877020315368   0.005814727952196248   0.0008885132892272945
0.06586877020315368   0.005814727952196248   0.0008885132892272945
0.06586877020315368   0.005814727952196248   0.0008885132892272945
0.06586877020315368   0.005814727952196248   0.0008885132892272945
-0.011988302428481187   -0.006817468210661752   0.000592608368317931
-0.011988302428481187   -0.006817468210661752   0.000592608368317931
-0.011988302428481187   -0.006817468210661752   0.000592608368317931
-0.011988302428481187   -0.006817468210661752   0.000592608368317931
-0.016639195569894162   -0.012520778805860595   -0.0027989803285246406
-0.016639195569894162   -0.012520778805860595   -0.0027989803285246406
-0.016639195569894162   -0.012520778805860595   -0.0027989803285246406
-0.016639195569894162   -0.012520778805860595   -0.0027989803285246406
0.06416771360791106   0.007795758913987417   0.005435771605629687
0.06416771360791106   0.007795758913987417   0.005435771605629687
0.06416771360791106   0.007795758913987417   0.005435771605629687
0.06416771360791106   0.007795758913987417   0.005435771605629687
0.02474654083399038   -0.0012123035383463905   -0.0019102350658078662
0.02474654083399038   -0.0012123035383463905   -0.0019102350658078662
0.02474654083399038   -0.0012123035383463905   -0.0019102350658078662
0.02474654083399038   -0.0012123035383463905   -0.0019102350658078662
-0.0024207670667967143   0.012068933968781021   0.0017570960242385464
-0.0024207670667967143   0.012068933968781021   0.0017570960242385464
-0.0024207670667967143   0.012068933968781021   0.0017570960242385464
-0.0024207670667967143   0.012068933968781021   0.0017570960242385464
-0.0807705122056323   -0.004000236546070323   -0.0026726834253009966
-0.0807705122056323   -0.004000236546070323   -0.0026726834253009966
-0.0807705122056323   -0.004000236546070323   -0.0026726834253009966
-0.0807705122056323   -0.004000236546070323   -0.0026726834253009966
-0.0839789522697712   -0.0066862854510652305   -0.002130132905376422
-0.0839789522697712   -0.0066862854510652305   -0.002130132905376422
-0.0839789522697712   -0.0066862854510652305   -0.002130132905376422
-0.0839789522697712   -0.0066862854510652305   -0.002130132905376422
-0.005516057205853683   0.010004410196391355   0.002072809233169658
-0.005516057205853683   0.010004410196391355   0.002072809233169658
-0.005516057205853683   0.010004410196391355   0.002072809233169658
-0.005516057205853683   0.010004410196391355   0.002072809233169658
-0.04306587765518391   0.002843293349521483   0.0008345885119253652
-0.04306587765518391   0.002843293349521483   0.0008345885119253652
-0.04306587765518391   0.002843293349521483   0.0008345885119253652
-0.04306587765518391   0.002843293349521483   0.0008345885119253652
-0.005470822826099655   0.009918371070342163   0.0023850202579889864
-0.005470822826099655   0.009918371070342163   0.0023850202579889864
-0.005470822826099655   0.009918371070342163   0.0023850202579889864
-0.005470822826099655   0.009918371070342163   0.0023850202579889864
-0.08396906100187272   -0.00654512067736353   -0.0022218413395857077
-0.08396906100187272   -0.00654512067736353   -0.0022218413395857077
-0.08396906100187272   -0.00654512067736353   -0.0022218413395857077
-0.08396906100187272   -0.00654512067736353   -0.0022218413395857077
-0.08713110061129743   -0.008818287429843169   -0.0015659333048723932
-0.08713110061129743   -0.008818287429843169   -0.0015659333048723932
-0.08713110061129743   -0.008818287429843169   -0.0015659333048723932
-0.08713110061129743   -0.008818287429843169   -0.0015659333048723932
-0.008729153072799931   0.007500623448233859   0.002570263487828603
-0.008729153072799931   0.007500623448233859   0.002570263487828603
-0.008729153072799931   0.007500623448233859   0.002570263487828603
-0.008729153072799931   0.007500623448233859   0.002570263487828603
-0.04625091486437589   0.0006999233800066441   -0.00013186675804145558
-0.04625091486437589   0.0006999233800066441   -0.00013186675804145558
-0.04625091486437589   0.0006999233800066441   -0.00013186675804145558
-0.04625091486437589   0.0006999233800066441   -0.00013186675804145558
-0.00861644109445307   0.0077706004167175605   0.0028638464110792086
-0.00861644109445307   0.0077706004167175605   0.0028638464110792086
-0.00861644109445307   0.0077706004167175605   0.0028638464110792086
-0.00861644109445307   0.0077706004167175605   0.0028638464110792086
-0.08723503232378006   -0.009079484132462633   -0.001824395164666052
-0.08723503232378006   -0.009079484132462633   -0.001824395164666052
-0.08723503232378006   -0.009079484132462633   -0.001824395164666052
-0.08723503232378006   -0.009079484132462633   -0.001824395164666052
-0.09023380155436125   -0.010758064460810571   -0.001000679371779156
-0.09023380155436125   -0.010758064460810571   -0.001000679371779156
-0.09023380155436125   -0.010758064460810571   -0.001000679371779156
-0.09023380155436125   -0.010758064460810571   -0.001000679371779156
-0.011963979161084716   0.005079463538110335   0.002976859371551643
-0.011963979161084716   0.005079463538110335   0.002976859371551643
-0.011963979161084716   0.005079463538110335   0.002976859371551643
-0.011963979161084716   0.005079463538110335   0.002976859371551643
-0.04959103789755328   -0.0014560902570966323   -0.0012152896135419625
-0.04959103789755328   -0.0014560902570966323   -0.0012152896135419625
-0.04959103789755328   -0.0014560902570966323   -0.0012152896135419625
-0.04959103789755328   -0.0014560902570966323   -0.0012152896135419625
-0.0760330229750879   0.013515180114646995   0.003499346066702682
-0.0760330229750879   0.013515180114646995   0.003499346066702682
-0.0760330229750879   0.013515180114646995   0.003499346066702682
-0.0760330229750879   0.013515180114646995   0.003499346066702682
-0.15484319425887272   -0.006530303476383503   -0.004704741149025464
-0.15484319425887272   -0.006530303476383503   -0.004704741149025464
-0.15484319425887272   -0.006530303476383503   -0.004704741149025464
-0.15484319425887272   -0.006530303476383503   -0.004704741149025464
-0.15657193705013442   -0.004820573009258117   -2.0602532473455726e-05
-0.15657193705013442   -0.004820573009258117   -2.0602532473455726e-05
-0.15657193705013442   -0.004820573009258117   -2.0602532473455726e-05
-0.15657193705013442   -0.004820573009258117   -2.0602532473455726e-05
-0.08084915737213183   0.007267434400952174   -0.0004348782691964018
-0.08084915737213183   0.007267434400952174   -0.0004348782691964018
-0.08084915737213183   0.007267434400952174   -0.0004348782691964018
-0.08084915737213183   0.007267434400952174   -0.0004348782691964018
-0.11628416840636578   0.0024744684940709166   0.0014031978322051625
-0.11628416840636578   0.0024744684940709166   0.0014031978322051625
-0.11628416840636578   0.0024744684940709166   0.0014031978322051625
-0.11628416840636578   0.0024744684940709166   0.0014031978322051625
-0.07909466532869788   0.011500004259424063   0.004105012089500919
-0.07909466532869788   0.011500004259424063   0.004105012089500919
-0.07909466532869788   0.011500004259424063   0.004105012089500919
-0.07909466532869788   0.011500004259424063   0.004105012089500919
-0.15832457958023702   -0.009051293354398759   -0.004553094837845867
-0.15832457958023702   -0.009051293354398759   -0.004553094837845867
-0.15832457958023702   -0.009051293354398759   -0.004553094837845867
-0.15832457958023702   -0.009051293354398759   -0.004553094837845867
-0.1602512669043811   -0.006981740690229599   0.00016598683775161018
-0.1602512669043811   -0.006981740690229599   0.00016598683775161018
-0.1602512669043811   -0.006981740690229599   0.00016598683775161018
-0.1602512669043811   -0.006981740690229599   0.00016598683775161018
-0.08405346411099603   0.004944716327275042   5.9245439517392404e-05
-0.08405346411099603   0.004944716327275042   5.9245439517392404e-05
-0.08405346411099603   0.004944716327275042   5.9245439517392404e-05
-0.08405346411099603   0.004944716327275042   5.9245439517392404e-05
-0.11888033513062798   0.0006172401803420206   0.0005158479486031889
-0.11888033513062798   0.0006172401803420206   0.0005158479486031889
-0.11888033513062798   0.0006172401803420206   0.0005158479486031889
-0.11888033513062798   0.0006172401803420206   0.0005158479486031889
-0.08221778241751838   0.009523527405357217   0.004658842828822978
-0.08221778241751838   0.009523527405357217   0.004658842828822978
-0.08221778241751838   0.009523527405357217   0.004658842828822978
-0.08221778241751838   0.009523527405357217   0.004658842828822978
-0.16199834501268753   -0.011471948183140644   -0.004079196210869553
-0.16199834501268753   -0.011471948183140644   -0.004079196210869553
-0.16199834501268753   -0.011471948183140644   -0.004079196210869553
-0.16199834501268753   -0.011471948183140644   -0.004079196210869553
-0.16356033932283762   -0.009346386265575345   0.0008445418159367234
-0.16356033932283762   -0.009346386265575345   0.0008445418159367234
-0.16356033932283762   -0.009346386265575345   0.0008445418159367234
-0.16356033932283762   -0.009346386265575345   0.0008445418159367234
-0.0873521563268574   0.0022345045364329033   0.000414977768497634
-0.0873521563268574   0.0022345045364329033   0.000414977768497634
-0.0873521563268574   0.0022345045364329033   0.000414977768497634
-0.0873521563268574   0.0022345045364329033   0.000414977768497634
-0.12309108032591139   -0.001826127202005097   -0.0006554881136149856
-0.12309108032591139   -0.001826127202005097   -0.0006554881136149856
-0.12309108032591139   -0.001826127202005097   -0.0006554881136149856
-0.12309108032591139   -0.001826127202005097   -0.0006554881136149856
-0.14920121279472082   0.01213100481240819   0.0048438578829424275
-0.14920121279472082   0.01213100481240819   0.0048438578829424275
-0.14920121279472082   0.01213100481240819   0.0048438578829424275
-0.14920121279472082   0.01213100481240819   0.0048438578829424275
-0.22642824757890295   -0.010596575448705445   -0.0048670383603097445
-0.22642824757890295   -0.010596575448705445   -0.0048670383603097445
-0.22642824757890295   -0.010596575448705445   -0.0048670383603097445
-0.22642824757890295   -0.010596575448705445   -0.0048670383603097445
-0.2285607802981752   -0.0031840595276357644   0.0043948389722526255
-0.2285607802981752   -0.0031840595276357644   0.0043948389722526255
-0.2285607802981752   -0.0031840595276357644   0.0043948389722526255
-0.2285607802981752   -0.0031840595276357644   0.0043948389722526255
-0.15532194307204464   0.004086020470917058   -0.0026772261221996857
-0.15532194307204464   0.004086020470917058   -0.0026772261221996857
-0.15532194307204464   0.004086020470917058   -0.0026772261221996857
-0.15532194307204464   0.004086020470917058   -0.0026772261221996857
-0.1814015497369695   0.002497831919715428   0.004609617310840633
-0.1814015497369695   0.002497831919715428   0.004609617310840633
-0.1814015497369695   0.002497831919715428   0.004609617310840633
-0.1814015497369695   0.002497831919715428   0.004609617310840633
-0.1519869696313694   0.012390389268077957   0.005693272284015458
-0.1519869696313694   0.012390389268077957   0.005693272284015458
-0.1519869696313694   0.012390389268077957   0.005693272284015458
-0.1519869696313694   0.012390389268077957   0.005693272284015458
-0.23185384648521956   -0.01144652107116563   -0.0038080304194382172
-0.23185384648521956   -0.01144652107116563   -0.0038080304194382172
-0.23185384648521956   -0.01144652107116563   -0.0038080304194382172
-0.23185384648521956   -0.01144652107116563   -0.0038080304194382172
-0.23341180481709606   -0.004336561257927411   0.005478520588082937
-0.23341180481709606   -0.004336561257927411   0.005478520588082937
-0.23341180481709606   -0.004336561257927411   0.005478520588082937
-0.23341180481709606   -0.004336561257927411   0.005478520588082937
-0.15877907859928925   0.0028157697031315   -0.002270582030150261
-0.15877907859928925   0.0028157697031315   -0.002270582030150261
-0.15877907859928925   0.0028157697031315   -0.002270582030150261
-0.15877907859928925   0.0028157697031315   -0.002270582030150261
-0.18854553966632567   0.0012395872292922244   0.0030046034434206767
-0.18854553966632567   0.0012395872292922244   0.0030046034434206767
-0.18854553966632567   0.0012395872292922244   0.0030046034434206767
-0.18854553966632567   0.0012395872292922244   0.0030046034434206767
-0.15524346722612473   0.011538375875341261   0.006684868663462625
-0.15524346722612473   0.011538375875341261   0.006684868663462625
-0.15524346722612473   0.011538375875341261   0.006684868663462625
-0.15524346722612473   0.011538375875341261   0.006684868663462625
-0.23686269726676137   -0.012974448506638737   -0.0031380544115293084
-0.23686269726676137   -0.012974448506638737   -0.0031380544115293084
-0.23686269726676137   -0.012974448506638737   -0.0031380544115293084
-0.23686269726676137   -0.012974448506638737   -0.0031380544115293084
-0.23982415588661776   -0.00868821930863365   0.005281827446745192
-0.23982415588661776   -0.00868821930863365   0.005281827446745192
-0.23982415588661776   -0.00868821930863365   0.005281827446745192
-0.23982415588661776   -0.00868821930863365   0.005281827446745192
-0.16246457014264198   -0.0009541224570234   -0.002068876091636992
-0.16246457014264198   -0.0009541224570234   -0.002068876091636992
-0.16246457014264198   -0.0009541224570234   -0.002068876091636992
-0.16246457014264198   -0.0009541224570234   -0.002068876091636992
-0.1899050921132558   -0.0004158473775925653   0.0025541000949582428
-0.1899050921132558   -0.0004158473775925653   0.0025541000949582428
-0.1899050921132558   -0.0004158473775925653   0.0025541000949582428
-0.1899050921132558   -0.0004158473775925653   0.0025541000949582428
0.10892758372954314   0.006467727425194041   -0.006517993344312932
0.10892758372954314   0.006467727425194041   -0.006517993344312932
0.10892758372954314   0.006467727425194041   -0.006517993344312932
0.10892758372954314   0.006467727425194041   -0.006517993344312932
0.046485449357152826   0.0022418746468530117   0.002649841128501158
0.046485449357152826   0.0022418746468530117   0.002649841128501158
0.046485449357152826   0.0022418746468530117   0.002649841128501158
0.046485449357152826   0.0022418746468530117   0.002649841128501158
0.03987980106360031   -0.010030105331550628   -0.006136863941351519
0.03987980106360031   -0.010030105331550628   -0.006136863941351519
0.03987980106360031   -0.010030105331550628   -0.006136863941351519
0.03987980106360031   -0.010030105331550628   -0.006136863941351519
0.10678393173109682   0.011869649391292793   0.0032371396504759873
0.10678393173109682   0.011869649391292793   0.0032371396504759873
0.10678393173109682   0.011869649391292793   0.0032371396504759873
0.10678393173109682   0.011869649391292793   0.0032371396504759873
0.07153676480600787   0.0015454097668114453   -0.001940668717396626
0.07153676480600787   0.0015454097668114453   -0.001940668717396626
0.07153676480600787   0.0015454097668114453   -0.001940668717396626
0.07153676480600787   0.0015454097668114453   -0.001940668717396626
0.10305429850028376   0.00260324293466406   -0.00614462004696153
0.10305429850028376   0.00260324293466406   -0.00614462004696153
0.10305429850028376   0.00260324293466406   -0.00614462004696153
0.10305429850028376   0.00260324293466406   -0.00614462004696153
0.04353813926066985   -0.0008349939086654563   0.002959715621111716
0.04353813926066985   -0.0008349939086654563   0.002959715621111716
0.04353813926066985   -0.0008349939086654563   0.002959715621111716
0.04353813926066985   -0.0008349939086654563   0.002959715621111716
0.03710695460124791   -0.011116495117492006   -0.005275249841322508
0.03710695460124791   -0.011116495117492006   -0.005275249841322508
0.03710695460124791   -0.011116495117492006   -0.005275249841322508
0.03710695460124791   -0.011116495117492006   -0.005275249841322508
0.10219545241884356   0.010319572370395871   0.004257936917814755
0.10219545241884356   0.010319572370395871   0.004257936917814755
0.10219545241884356   0.010319572370395871   0.004257936917814755
0.10219545241884356   0.010319572370395871   0.004257936917814755
0.06885472680175982   -0.00029346178639677936   -0.0029731816896262932
0.06885472680175982   -0.00029346178639677936   -0.0029731816896262932
0.06885472680175982   -0.00029346178639677936   -0.0029731816896262932
0.06885472680175982   -0.00029346178639677936   -0.0029731816896262932
0.09850596493659354   0.0012036427443612961   -0.005073570867401623
0.09850596493659354   0.0012036427443612961   -0.005073570867401623
0.09850596493659354   0.0012036427443612961   -0.005073570867401623
0.09850596493659354   0.0012036427443612961   -0.005073570867401623
0.040682176455714265   -0.002114831119241198   0.0035991954327587055
0.040682176455714265   -0.002114831119241198   0.0035991954327587055
0.040682176455714265   -0.002114831119241198   0.0035991954327587055
0.040682176455714265   -0.002114831119241198   0.0035991954327587055
0.034654323578474255   -0.011933022133273642   -0.004412662609709883
0.034654323578474255   -0.011933022133273642   -0.004412662609709883
0.034654323578474255   -0.011933022133273642   -0.004412662609709883
0.034654323578474255   -0.011933022133273642   -0.004412662609709883
0.09679294390413781   0.008399336486826647   0.00492838704690151
0.09679294390413781   0.008399336486826647   0.00492838704690151
0.09679294390413781   0.008399336486826647   0.00492838704690151
0.09679294390413781   0.008399336486826647   0.00492838704690151
0.0637759312745977   -0.001735574690127353   -0.004483041505815657
0.0637759312745977   -0.001735574690127353   -0.004483041505815657
0.0637759312745977   -0.001735574690127353   -0.004483041505815657
0.0637759312745977   -0.001735574690127353   -0.004483041505815657
0.04708829330678182   0.008829233291586086   -0.0009232977680879222
0.04708829330678182   0.008829233291586086   -0.0009232977680879222
0.04708829330678182   0.008829233291586086   -0.0009232977680879222
0.04708829330678182   0.008829233291586086   -0.0009232977680879222
-0.013549720349747852   0.0003041981427318813   0.00020590822104305515
-0.013549720349747852   0.0003041981427318813   0.00020590822104305515
-0.013549720349747852   0.0003041981427318813   0.00020590822104305515
-0.013549720349747852   0.0003041981427318813   0.00020590822104305515
-0.018068629588848382   -0.00713492489617272   -0.0038655722619420963
-0.018068629588848382   -0.00713492489617272   -0.0038655722619420963
-0.018068629588848382   -0.00713492489617272   -0.0038655722619420963
-0.018068629588848382   -0.00713492489617272   -0.0038655722619420963
0.04606165937405636   0.010521345064056277   0.004220977215322518
0.04606165937405636   0.010521345064056277   0.004220977215322518
0.04606165937405636   0.010521345064056277   0.004220977215322518
0.04606165937405636   0.010521345064056277   0.004220977215322518
0.015053874593347411   0.0029694996881628626   0.0006003507612559708
0.015053874593347411   0.0029694996881628626   0.0006003507612559708
0.015053874593347411   0.0029694996881628626   0.0006003507612559708
0.015053874593347411   0.0029694996881628626   0.0006003507612559708
0.0442309315023989   0.006013198632237402   -0.0004245157111464295
0.0442309315023989   0.006013198632237402   -0.0004245157111464295
0.0442309315023989   0.006013198632237402   -0.0004245157111464295
0.0442309315023989   0.006013198632237402   -0.0004245157111464295
-0.016272700203861398   -0.002661576951022493   0.0006407267178425871
-0.016272700203861398   -0.002661576951022493   0.0006407267178425871
-0.016272700203861398   -0.002661576951022493   0.0006407267178425871
-0.016272700203861398   -0.002661576951022493   0.0006407267178425871
-0.02063826627901679   -0.009300332732338299   -0.0031717503895292002
-0.02063826627901679   -0.009300332732338299   -0.0031717503895292002
-0.02063826627901679   -0.009300332732338299   -0.0031717503895292002
-0.02063826627901679   -0.009300332732338299   -0.0031717503895292002
0.04289648339468703   0.0079645964822776   0.004591302526103763
0.04289648339468703   0.0079645964822776   0.004591302526103763
0.04289648339468703   0.0079645964822776   0.004591302526103763
0.04289648339468703   0.0079645964822776   0.004591302526103763
0.01182913744096662   0.00044167475635522365   -0.0006127989315899328
0.01182913744096662   0.00044167475635522365   -0.0006127989315899328
0.01182913744096662   0.00044167475635522365   -0.0006127989315899328
0.01182913744096662   0.00044167475635522365   -0.0006127989315899328
0.041123878354073   0.0036875175277050884   5.356277605612523e-06
0.041123878354073   0.0036875175277050884   5.356277605612523e-06
0.041123878354073   0.0036875175277050884   5.356277605612523e-06
0.041123878354073   0.0036875175277050884   5.356277605612523e-06
-0.018944643534915467   -0.005102236074279781   0.0010982666729193618
-0.018944643534915467   -0.005102236074279781   0.0010982666729193618
-0.018944643534915467   -0.005102236074279781   0.0010982666729193618
-0.018944643534915467   -0.005102236074279781   0.0010982666729193618
-0.0231661665263937   -0.011264651662318662   -0.002532401141595954
-0.0231661665263937   -0.011264651662318662   -0.002532401141595954
-0.0231661665263937   -0.011264651662318662   -0.002532401141595954
-0.0231661665263937   -0.011264651662318662   -0.002532401141595954
0.040040860977085584   0.0055775864076606195   0.005009415842413332
0.040040860977085584   0.0055775864076606195   0.005009415842413332
0.040040860977085584   0.0055775864076606195   0.005009415842413332
0.040040860977085584   0.0055775864076606195   0.005009415842413332
0.009325745547783678   -0.0015697592487749416   -0.0016579322449746911
0.009325745547783678   -0.0015697592487749416   -0.0016579322449746911
0.009325745547783678   -0.0015697592487749416   -0.0016579322449746911
0.009325745547783678   -0.0015697592487749416   -0.0016579322449746911
-0.01131761813189792   0.010632502036951312   0.0010381154160728026
-0.01131761813189792   0.010632502036951312   0.0010381154160728026
-0.01131761813189792   0.010632502036951312   0.0010381154160728026
-0.01131761813189792   0.010632502036951312   0.0010381154160728026
-0.07261054626999415   -0.0023013788825643738   -0.002258285012798169
-0.07261054626999415   -0.0023013788825643738   -0.002258285012798169
-0.07261054626999415   -0.0023013788825643738   -0.002258285012798169
-0.07261054626999415   -0.0023013788825643738   -0.002258285012798169
-0.0751791665169502   -0.004680882195970805   -0.0016905434175446253
-0.0751791665169502   -0.004680882195970805   -0.0016905434175446253
-0.0751791665169502   -0.004680882195970805   -0.0016905434175446253
-0.0751791665169502   -0.004680882195970805   -0.0016905434175446253
-0.013934745199391994   0.00800071763883232   0.0016682071503343146
-0.013934745199391994   0.00800071763883232   0.0016682071503343146
-0.013934745199391994   0.00800071763883232   0.0016682071503343146
-0.013934745199391994   0.00800071763883232   0.0016682071503343146
-0.04314813336958729   0.002846434459312897   0.0008931531141820677
-0.04314813336958729   0.002846434459312897   0.0008931531141820677
-0.04314813336958729   0.002846434459312897   0.0008931531141820677
-0.04314813336958729   0.002846434459312897   0.0008931531141820677
-0.01387919206256436   0.00825546622756362   0.00169122424574167
-0.01387919206256436   0.00825546622756362   0.00169122424574167
-0.01387919206256436   0.00825546622756362   0.00169122424574167
-0.01387919206256436   0.00825546622756362   0.00169122424574167
-0.07525127983269199   -0.004952190963616187   -0.0017798012286082197
-0.07525127983269199   -0.004952190963616187   -0.0017798012286082197
-0.07525127983269199   -0.004952190963616187   -0.0017798012286082197
-0.07525127983269199   -0.004952190963616187   -0.0017798012286082197
-0.0777812025703383   -0.007040508596250791   -0.0010833472370562736
-0.0777812025703383   -0.007040508596250791   -0.0010833472370562736
-0.0777812025703383   -0.007040508596250791   -0.0010833472370562736
-0.0777812025703383   -0.007040508596250791   -0.0010833472370562736
-0.016634662333512486   0.005371072436280963   0.002174864169373061
-0.016634662333512486   0.005371072436280963   0.002174864169373061
-0.016634662333512486   0.005371072436280963   0.002174864169373061
-0.016634662333512486   0.005371072436280963   0.002174864169373061
-0.04582031565971554   0.0005219478825297039   -0.00013598898124553976
-0.04582031565971554   0.0005219478825297039   -0.00013598898124553976
-0.04582031565971554   0.0005219478825297039   -0.00013598898124553976
-0.04582031565971554   0.0005219478825297039   -0.00013598898124553976
-0.016524787432555248   0.005872088417337676   0.0022232226931030046
-0.016524787432555248   0.005872088417337676   0.0022232226931030046
-0.016524787432555248   0.005872088417337676   0.0022232226931030046
-0.016524787432555248   0.005872088417337676   0.0022232226931030046
-0.07794582022042142   -0.007596267326433308   -0.0013506767572893574
-0.07794582022042142   -0.007596267326433308   -0.0013506767572893574
-0.07794582022042142   -0.007596267326433308   -0.0013506767572893574
-0.07794582022042142   -0.007596267326433308   -0.0013506767572893574
-0.08032794921297319   -0.009285540301854283   -0.00048418977638295976
-0.08032794921297319   -0.009285540301854283   -0.00048418977638295976
-0.08032794921297319   -0.009285540301854283   -0.00048418977638295976
-0.08032794921297319   -0.009285540301854283   -0.00048418977638295976
-0.019321369247692562   0.0028196373703089812   0.002607296219281648
-0.019321369247692562   0.0028196373703089812   0.002607296219281648
-0.019321369247692562   0.0028196373703089812   0.002607296219281648
-0.019321369247692562   0.0028196373703089812   0.002607296219281648
-0.0486126531057109   -0.0018009927537970469   -0.0012575815461363373
-0.0486126531057109   -0.0018009927537970469   -0.0012575815461363373
-0.0486126531057109   -0.0018009927537970469   -0.0012575815461363373
-0.0486126531057109   -0.0018009927537970469   -0.0012575815461363373
-0.06864825112040304   0.012249996459695118   0.0030018153928979448
-0.06864825112040304   0.012249996459695118   0.0030018153928979448
-0.06864825112040304   0.012249996459695118   0.0030018153928979448
-0.06864825112040304   0.012249996459695118   0.0030018153928979448
-0.13105500886566707   -0.004947323294471295   -0.00445687262502093
-0.13105500886566707   -0.004947323294471295   -0.00445687262502093
-0.13105500886566707   -0.004947323294471295   -0.00445687262502093
-0.13105500886566707   -0.004947323294471295   -0.00445687262502093
-0.131988994878976   -0.0027490891272200606   0.0006223415967866143
-0.131988994878976   -0.0027490891272200606   0.0006223415967866143
-0.131988994878976   -0.0027490891272200606   0.0006223415967866143
-0.131988994878976   -0.0027490891272200606   0.0006223415967866143
-0.07301804571474552   0.005261406268952194   -0.0008272278714451763
-0.07301804571474552   0.005261406268952194   -0.0008272278714451763
-0.07301804571474552   0.005261406268952194   -0.0008272278714451763
-0.07301804571474552   0.005261406268952194   -0.0008272278714451763
-0.10053828207273634   0.0024654540614428774   0.0012676562618223778
-0.10053828207273634   0.0024654540614428774   0.0012676562618223778
-0.10053828207273634   0.0024654540614428774   0.0012676562618223778
-0.10053828207273634   0.0024654540614428774   0.0012676562618223778
-0.0711706358476414   0.01002029992191271   0.0036509278111158524
-0.0711706358476414   0.01002029992191271   0.0036509278111158524
-0.0711706358476414   0.01002029992191271   0.0036509278111158524
-0.0711706358476414   0.01002029992191271   0.0036509278111158524
-0.1339315707452017   -0.007603148779302314   -0.004236478082261529
-0.1339315707452017   -0.007603148779302314   -0.004236478082261529
-0.1339315707452017   -0.007603148779302314   -0.004236478082261529
-0.1339315707452017   -0.007603148779302314   -0.004236478082261529
-0.13507259727848636   -0.005093174307760101   0.0008889254318319977
-0.13507259727848636   -0.005093174307760101   0.0008889254318319977
-0.13507259727848636   -0.005093174307760101   0.0008889254318319977
-0.13507259727848636   -0.005093174307760101   0.0008889254318319977
-0.07565150273263586   0.0028283758092316584   -0.00030373245402747027
-0.07565150273263586   0.0028283758092316584   -0.00030373245402747027
-0.07565150273263586   0.0028283758092316584   -0.00030373245402747027
-0.07565150273263586   0.0028283758092316584   -0.00030373245402747027
-0.10271733368087199   0.0003977627306258856   0.0002470088756125763
-0.10271733368087199   0.0003977627306258856   0.0002470088756125763
-0.10271733368087199   0.0003977627306258856   0.0002470088756125763
-0.10271733368087199   0.0003977627306258856   0.0002470088756125763
-0.07373434928515395   0.007848976935885758   0.004261433656728897
-0.07373434928515395   0.007848976935885758   0.004261433656728897
-0.07373434928515395   0.007848976935885758   0.004261433656728897
-0.07373434928515395   0.007848976935885758   0.004261433656728897
-0.1370057417058614   -0.010129766414307344   -0.0037402045984969547
-0.1370057417058614   -0.010129766414307344   -0.0037402045984969547
-0.1370057417058614   -0.010129766414307344   -0.0037402045984969547
-0.1370057417058614   -0.010129766414307344   -0.0037402045984969547
-0.1377901110725617   -0.00762991033713618   0.0015308581463565098
-0.1377901110725617   -0.00762991033713618   0.0015308581463565098
-0.1377901110725617   -0.00762991033713618   0.0015308581463565098
-0.1377901110725617   -0.00762991033713618   0.0015308581463565098
-0.07833651928832072   8.081887550564354e-05   0.00010660066951857262
-0.07833651928832072   8.081887550564354e-05   0.00010660066951857262
-0.07833651928832072   8.081887550564354e-05   0.00010660066951857262
-0.07833651928832072   8.081887550564354e-05   0.00010660066951857262
-0.10618659451599291   -0.0020938323948320667   -0.0009739460803108654
-0.10618659451599291   -0.0020938323948320667   -0.0009739460803108654
-0.10618659451599291   -0.0020938323948320667   -0.0009739460803108654
-0.10618659451599291   -0.0020938323948320667   -0.0009739460803108654
-0.12596228849719768   0.011401587686890428   0.004657818235964329
-0.12596228849719768   0.011401587686890428   0.004657818235964329
-0.12596228849719768   0.011401587686890428   0.004657818235964329
-0.12596228849719768   0.011401587686890428   0.004657818235964329
-0.18712195742964768   -0.008798547566555494   -0.00547513559244873
-0.18712195742964768   -0.008798547566555494   -0.00547513559244873
-0.18712195742964768   -0.008798547566555494   -0.00547513559244873
-0.18712195742964768   -0.008798547566555494   -0.00547513559244873
-0.18866019188186767   -0.0011302150967082703   0.004579844849496695
-0.18866019188186767   -0.0011302150967082703   0.004579844849496695
-0.18866019188186767   -0.0011302150967082703   0.004579844849496695
-0.18866019188186767   -0.0011302150967082703   0.004579844849496695
-0.13176565953023184   0.0021662227602701235   -0.0031762935469855976
-0.13176565953023184   0.0021662227602701235   -0.0031762935469855976
-0.13176565953023184   0.0021662227602701235   -0.0031762935469855976
-0.13176565953023184   0.0021662227602701235   -0.0031762935469855976
-0.151335962966272   0.002417411596514131   0.0039806233757959456
-0.151335962966272   0.002417411596514131   0.0039806233757959456
-0.151335962966272   0.002417411596514131   0.0039806233757959456
-0.151335962966272   0.002417411596514131   0.0039806233757959456
-0.12823517984241928   0.011139403226459954   0.005502924425889427
-0.12823517984241928   0.011139403226459954   0.005502924425889427
-0.12823517984241928   0.011139403226459954   0.005502924425889427
-0.12823517984241928   0.011139403226459954   0.005502924425889427
-0.19227660603885066   -0.01018933003206788   -0.004443111000056775
-0.19227660603885066   -0.01018933003206788   -0.004443111000056775
-0.19227660603885066   -0.01018933003206788   -0.004443111000056775
-0.19227660603885066   -0.01018933003206788   -0.004443111000056775
-0.1930640268679392   -0.0024367250009564995   0.005751892718059679
-0.1930640268679392   -0.0024367250009564995   0.005751892718059679
-0.1930640268679392   -0.0024367250009564995   0.005751892718059679
-0.1930640268679392   -0.0024367250009564995   0.005751892718059679
-0.13460125496339692   0.000835206557964395   -0.00268274385844728
-0.13460125496339692   0.000835206557964395   -0.00268274385844728
-0.13460125496339692   0.000835206557964395   -0.00268274385844728
-0.13460125496339692   0.000835206557964395   -0.00268274385844728
-0.15754817195580947   0.0009417880578135099   0.002288374825643034
-0.15754817195580947   0.0009417880578135099   0.002288374825643034
-0.15754817195580947   0.0009417880578135099   0.002288374825643034
-0.15754817195580947   0.0009417880578135099   0.002288374825643034
-0.13091289604330206   0.010134978400298044   0.006459278899695279
-0.13091289604330206   0.010134978400298044   0.006459278899695279
-0.13091289604330206   0.010134978400298044   0.006459278899695279
-0.13091289604330206   0.010134978400298044   0.006459278899695279
-0.19681231795276505   -0.011796429008020824   -0.0036298586990052804
-0.19681231795276505   -0.011796429008020824   -0.0036298586990052804
-0.19681231795276505   -0.011796429008020824   -0.0036298586990052804
-0.19681231795276505   -0.011796429008020824   -0.0036298586990052804
-0.1989537836863887   -0.0066984024440320394   0.005698937517066524
-0.1989537836863887   -0.0066984024440320394   0.005698937517066524
-0.1989537836863887   -0.0066984024440320394   0.005698937517066524
-0.1989537836863887   -0.0066984024440320394   0.005698937517066524
-0.13759163376414887   -0.0027293632678536753   -0.0023773023808637142
-0.13759163376414887   -0.0027293632678536753   -0.0023773023808637142
-0.13759163376414887   -0.0027293632678536753   -0.0023773023808637142
-0.13759163376414887   -0.0027293632678536753   -0.0023773023808637142
-0.15892707833959135   -0.0008119656120606986   0.0015539649183967368
-0.15892707833959135   -0.0008119656120606986   0.0015539649183967368
-0.15892707833959135   -0.0008119656120606986   0.0015539649183967368
-0.15892707833959135   -0.0008119656120606986   0.0015539649183967368
0.06521480378255341   0.004132973065348593   -0.0066240212044215326
0.06521480378255341   0.004132973065348593   -0.0066240212044215326
0.06521480378255341   0.004132973065348593   -0.0066240212044215326
0.06521480378255341   0.004132973065348593   -0.0066240212044215326
0.020560812453481046   0.0037273847532223368   0.003037515269560929
0.020560812453481046   0.0037273847532223368   0.003037515269560929
0.020560812453481046   0.0037273847532223368   0.003037515269560929
0.020560812453481046   0.0037273847532223368   0.003037515269560929
0.014473500723392091   -0.008416718172778823   -0.005884267162177356
0.014473500723392091   -0.008416718172778823   -0.005884267162177356
0.014473500723392091   -0.008416718172778823   -0.005884267162177356
0.014473500723392091   -0.008416718172778823   -0.005884267162177356
0.0637822464377702   0.010159126224511287   0.0036486214519220695
0.0637822464377702   0.010159126224511287   0.0036486214519220695
0.0637822464377702   0.010159126224511287   0.0036486214519220695
0.0637822464377702   0.010159126224511287   0.0036486214519220695
0.0386811347793759   0.0017283372505980587   -0.0008443240241582351
0.0386811347793759   0.0017283372505980587   -0.0008443240241582351
0.0386811347793759   0.0017283372505980587   -0.0008443240241582351
0.0386811347793759   0.0017283372505980587   -0.0008443240241582351
0.059917542968022076   0.0006214914784342628   -0.006137261150741908
0.059917542968022076   0.0006214914784342628   -0.006137261150741908
0.059917542968022076   0.0006214914784342628   -0.006137261150741908
0.059917542968022076   0.0006214914784342628   -0.006137261150741908
0.018218514074905455   0.0010012264550634188   0.0034228549675474644
0.018218514074905455   0.0010012264550634188   0.0034228549675474644
0.018218514074905455   0.0010012264550634188   0.0034228549675474644
0.018218514074905455   0.0010012264550634188   0.0034228549675474644
0.012194051523268109   -0.00954241231375967   -0.0050505856073874995
0.012194051523268109   -0.00954241231375967   -0.0050505856073874995
0.012194051523268109   -0.00954241231375967   -0.0050505856073874995
0.012194051523268109   -0.00954241231375967   -0.0050505856073874995
0.05968023057712286   0.008613059332857245   0.004761806103805481
0.05968023057712286   0.008613059332857245   0.004761806103805481
0.05968023057712286   0.008613059332857245   0.004761806103805481
0.05968023057712286   0.008613059332857245   0.004761806103805481
0.03597418415529888   -6.086601909089089e-05   -0.001958997015733985
0.03597418415529888   -6.086601909089089e-05   -0.001958997015733985
0.03597418415529888   -6.086601909089089e-05   -0.001958997015733985
0.03597418415529888   -6.086601909089089e-05   -0.001958997015733985
0.055816626508592905   -0.0008303426470122662   -0.0051128122589752766
0.055816626508592905   -0.0008303426470122662   -0.0051128122589752766
0.055816626508592905   -0.0008303426470122662   -0.0051128122589752766
0.055816626508592905   -0.0008303426470122662   -0.0051128122589752766
0.0158912101257414   -0.0002654557999468461   0.004158250891166486
0.0158912101257414   -0.0002654557999468461   0.004158250891166486
0.0158912101257414   -0.0002654557999468461   0.004158250891166486
0.0158912101257414   -0.0002654557999468461   0.004158250891166486
0.010171420783182662   -0.010756920252422211   -0.004231373528383818
0.010171420783182662   -0.010756920252422211   -0.004231373528383818
0.010171420783182662   -0.010756920252422211   -0.004231373528383818
0.010171420783182662   -0.010756920252422211   -0.004231373528383818
0.054559152484973075   0.006236868314442477   0.005347959092989953
0.054559152484973075   0.006236868314442477   0.005347959092989953
0.054559152484973075   0.006236868314442477   0.005347959092989953
0.054559152484973075   0.006236868314442477   0.005347959092989953
0.03185406983071113   -0.0015929670803903001   -0.003389041931813395
0.03185406983071113   -0.0015929670803903001   -0.003389041931813395
0.03185406983071113   -0.0015929670803903001   -0.003389041931813395
0.03185406983071113   -0.0015929670803903001   -0.003389041931813395
0.02019685185885291   0.006667791958476597   -0.001722694908834131
0.02019685185885291   0.006667791958476597   -0.001722694908834131
0.02019685185885291   0.006667791958476597   -0.001722694908834131
0.02019685185885291   0.006667791958476597   -0.001722694908834131
-0.02234613299477625   0.0017346490028611796   0.000630501178750001
-0.02234613299477625   0.0017346490028611796   0.000630501178750001
-0.02234613299477625   0.0017346490028611796   0.000630501178750001
-0.02234613299477625   0.0017346490028611796   0.000630501178750001
-0.026284180133748468   -0.0054920655764894594   -0.003500236479601336
-0.026284180133748468   -0.0054920655764894594   -0.003500236479601336
-0.026284180133748468   -0.0054920655764894594   -0.003500236479601336
-0.026284180133748468   -0.0054920655764894594   -0.003500236479601336
0.019731058190567648   0.00821726211215662   0.003769539888765226
0.019731058190567648   0.00821726211215662   0.003769539888765226
0.019731058190567648   0.00821726211215662   0.003769539888765226
0.019731058190567648   0.00821726211215662   0.003769539888765226
-0.0023432512904012566   0.002656094752363217   0.0007764777015217767
-0.0023432512904012566   0.002656094752363217   0.0007764777015217767
-0.0023432512904012566   0.002656094752363217   0.0007764777015217767
-0.0023432512904012566   0.002656094752363217   0.0007764777015217767
0.01783852651622904   0.0037811264793933736   -0.0012569828501646806
0.01783852651622904   0.0037811264793933736   -0.0012569828501646806
0.01783852651622904   0.0037811264793933736   -0.0012569828501646806
0.01783852651622904   0.0037811264793933736   -0.0012569828501646806
-0.024500407506370357   -0.0011646889906867285   0.0010912500714864886
-0.024500407506370357   -0.0011646889906867285   0.0010912500714864886
-0.024500407506370357   -0.0011646889906867285   0.0010912500714864886
-0.024500407506370357   -0.0011646889906867285   0.0010912500714864886
-0.02831751036839883   -0.0077537987088879224   -0.002786679666637985
-0.02831751036839883   -0.0077537987088879224   -0.002786679666637985
-0.02831751036839883   -0.0077537987088879224   -0.002786679666637985
-0.02831751036839883   -0.0077537987088879224   -0.002786679666637985
0.017065017638604248   0.00564160188854935   0.004120230766984528
0.017065017638604248   0.00564160188854935   0.004120230766984528
0.017065017638604248   0.00564160188854935   0.004120230766984528
0.017065017638604248   0.00564160188854935   0.004120230766984528
-0.004887091914931309   0.0001568587920006382   -0.0004279038999857012
-0.004887091914931309   0.0001568587920006382   -0.0004279038999857012
-0.004887091914931309   0.0001568587920006382   -0.0004279038999857012
-0.004887091914931309   0.0001568587920006382   -0.0004279038999857012
0.01522315835932603   0.0013518151848442765   -0.0007992789257018468
0.01522315835932603   0.0013518151848442765   -0.0007992789257018468
0.01522315835932603   0.0013518151848442765   -0.0007992789257018468
0.01522315835932603   0.0013518151848442765   -0.0007992789257018468
-0.02661738506841192   -0.0036057459844742183   0.001565894108882855
-0.02661738506841192   -0.0036057459844742183   0.001565894108882855
-0.02661738506841192   -0.0036057459844742183   0.001565894108882855
-0.02661738506841192   -0.0036057459844742183   0.001565894108882855
-0.030331418966488964   -0.0099275843637967   -0.002144158071298721
-0.030331418966488964   -0.0099275843637967   -0.002144158071298721
-0.030331418966488964   -0.0099275843637967   -0.002144158071298721
-0.030331418966488964   -0.0099275843637967   -0.002144158071298721
0.014729296968664894   0.0031851064390538194   0.004615980707551438
0.014729296968664894   0.0031851064390538194   0.004615980707551438
0.014729296968664894   0.0031851064390538194   0.004615980707551438
0.014729296968664894   0.0031851064390538194   0.004615980707551438
-0.007028942290733073   -0.001998573482552098   -0.0015424815927810888
-0.007028942290733073   -0.001998573482552098   -0.0015424815927810888
-0.007028942290733073   -0.001998573482552098   -0.0015424815927810888
-0.007028942290733073   -0.001998573482552098   -0.0015424815927810888
-0.021041458913320446   0.00853483309092337   0.0003536874979668341
-0.021041458913320446   0.00853483309092337   0.0003536874979668341
-0.021041458913320446   0.00853483309092337   0.0003536874979668341
-0.021041458913320446   0.00853483309092337   0.0003536874979668341
-0.06451095179060343   -0.001146337948524057   -0.0018660862045628119
-0.06451095179060343   -0.001146337948524057   -0.0018660862045628119
-0.06451095179060343   -0.001146337948524057   -0.0018660862045628119
-0.06451095179060343   -0.001146337948524057   -0.0018660862045628119
-0.06636776509862831   -0.0030514774702960646   -0.0011597484960712916
-0.06636776509862831   -0.0030514774702960646   -0.0011597484960712916
-0.06636776509862831   -0.0030514774702960646   -0.0011597484960712916
-0.06636776509862831   -0.0030514774702960646   -0.0011597484960712916
-0.02315637785579064   0.005437655773102861   0.0012090535605954827
-0.02315637785579064   0.005437655773102861   0.0012090535605954827
-0.02315637785579064   0.005437655773102861   0.0012090535605954827
-0.02315637785579064   0.005437655773102861   0.0012090535605954827
-0.04365495195994882   0.0023723209113200357   0.0007770219311327188
-0.04365495195994882   0.0023723209113200357   0.0007770219311327188
-0.04365495195994882   0.0023723209113200357   0.0007770219311327188
-0.04365495195994882   0.0023723209113200357   0.0007770219311327188
-0.023072575414627226   0.0060438787280179115   0.0010218428114975027
-0.023072575414627226   0.0060438787280179115   0.0010218428114975027
-0.023072575414627226   0.0060438787280179115   0.0010218428114975027
-0.023072575414627226   0.0060438787280179115   0.0010218428114975027
-0.06654933325555751   -0.0037554661409769773   -0.0013636006100368405
-0.06654933325555751   -0.0037554661409769773   -0.0013636006100368405
-0.06654933325555751   -0.0037554661409769773   -0.0013636006100368405
-0.06654933325555751   -0.0037554661409769773   -0.0013636006100368405
-0.06839738821823833   -0.005521002622018406   -0.0005227852373979316
-0.06839738821823833   -0.005521002622018406   -0.0005227852373979316
-0.06839738821823833   -0.005521002622018406   -0.0005227852373979316
-0.06839738821823833   -0.005521002622018406   -0.0005227852373979316
-0.0252985275508808   0.0028248932094516897   0.0017295425026120598
-0.0252985275508808   0.0028248932094516897   0.0017295425026120598
-0.0252985275508808   0.0028248932094516897   0.0017295425026120598
-0.0252985275508808   0.0028248932094516897   0.0017295425026120598
-0.04576654826548468   1.2153310869128173e-05   -0.0002933091384432346
-0.04576654826548468   1.2153310869128173e-05   -0.0002933091384432346
-0.04576654826548468   1.2153310869128173e-05   -0.0002933091384432346
-0.04576654826548468   1.2153310869128173e-05   -0.0002933091384432346
-0.025185273363696484   0.0035417656049722647   0.001578941043013568
-0.025185273363696484   0.0035417656049722647   0.001578941043013568
-0.025185273363696484   0.0035417656049722647   0.001578941043013568
-0.025185273363696484   0.0035417656049722647   0.001578941043013568
-0.06864858410811982   -0.006375816720235503   -0.0009239505885887261
-0.06864858410811982   -0.006375816720235503   -0.0009239505885887261
-0.06864858410811982   -0.006375816720235503   -0.0009239505885887261
-0.06864858410811982   -0.006375816720235503   -0.0009239505885887261
-0.07037885946188394   -0.007892631400463184   0.0001034425796122122
-0.07037885946188394   -0.007892631400463184   0.0001034425796122122
-0.07037885946188394   -0.007892631400463184   0.0001034425796122122
-0.07037885946188394   -0.007892631400463184   0.0001034425796122122
-0.02741526584438868   0.0003179633540197121   0.002191059821386265
-0.02741526584438868   0.0003179633540197121   0.002191059821386265
-0.02741526584438868   0.0003179633540197121   0.002191059821386265
-0.02741526584438868   0.0003179633540197121   0.002191059821386265
-0.047996218960081556   -0.0023485933442462283   -0.0014596876732409464
-0.047996218960081556   -0.0023485933442462283   -0.0014596876732409464
-0.047996218960081556   -0.0023485933442462283   -0.0014596876732409464
-0.047996218960081556   -0.0023485933442462283   -0.0014596876732409464
-0.061320754116267875   0.010398845853442421   0.002539718365148446
-0.061320754116267875   0.010398845853442421   0.002539718365148446
-0.061320754116267875   0.010398845853442421   0.002539718365148446
-0.061320754116267875   0.010398845853442421   0.002539718365148446
-0.1061153658760807   -0.003622954082238096   -0.0041111456852113825
-0.1061153658760807   -0.003622954082238096   -0.0041111456852113825
-0.1061153658760807   -0.003622954082238096   -0.0041111456852113825
-0.1061153658760807   -0.003622954082238096   -0.0041111456852113825
-0.10628606190392119   -0.0009682032389056183   0.0012927407784414334
-0.10628606190392119   -0.0009682032389056183   0.0012927407784414334
-0.10628606190392119   -0.0009682032389056183   0.0012927407784414334
-0.10628606190392119   -0.0009682032389056183   0.0012927407784414334
-0.06519692452145655   0.0028474917337659063   -0.0012045148142754442
-0.06519692452145655   0.0028474917337659063   -0.0012045148142754442
-0.06519692452145655   0.0028474917337659063   -0.0012045148142754442
-0.06519692452145655   0.0028474917337659063   -0.0012045148142754442
-0.08425231597385303   0.0021417444887185146   0.0009721595684596502
-0.08425231597385303   0.0021417444887185146   0.0009721595684596502
-0.08425231597385303   0.0021417444887185146   0.0009721595684596502
-0.08425231597385303   0.0021417444887185146   0.0009721595684596502
-0.06328075714015989   0.008015893602794418   0.003207920223180321
-0.06328075714015989   0.008015893602794418   0.003207920223180321
-0.06328075714015989   0.008015893602794418   0.003207920223180321
-0.06328075714015989   0.008015893602794418   0.003207920223180321
-0.10838527582612378   -0.006319651648839426   -0.0038518804226387116
-0.10838527582612378   -0.006319651648839426   -0.0038518804226387116
-0.10838527582612378   -0.006319651648839426   -0.0038518804226387116
-0.10838527582612378   -0.006319651648839426   -0.0038518804226387116
-0.10879507866355567   -0.0034138571543345514   0.0016286786590612818
-0.10879507866355567   -0.0034138571543345514   0.0016286786590612818
-0.10879507866355567   -0.0034138571543345514   0.0016286786590612818
-0.10879507866355567   -0.0034138571543345514   0.0016286786590612818
-0.06723719812422578   0.00042270247185052616   -0.0006655398612050172
-0.06723719812422578   0.00042270247185052616   -0.0006655398612050172
-0.06723719812422578   0.00042270247185052616   -0.0006655398612050172
-0.06723719812422578   0.00042270247185052616   -0.0006655398612050172
-0.086003175037392   -3.322918959508883e-05   -0.00014249075354194445
-0.086003175037392   -3.322918959508883e-05   -0.00014249075354194445
-0.086003175037392   -3.322918959508883e-05   -0.00014249075354194445
-0.086003175037392   -3.322918959508883e-05   -0.00014249075354194445
-0.06527148860743721   0.0057352226366622   0.0038504875579265857
-0.06527148860743721   0.0057352226366622   0.0038504875579265857
-0.06527148860743721   0.0057352226366622   0.0038504875579265857
-0.06527148860743721   0.0057352226366622   0.0038504875579265857
-0.11087635755142394   -0.008841946690226187   -0.0033496262443904073
-0.11087635755142394   -0.008841946690226187   -0.0033496262443904073
-0.11087635755142394   -0.008841946690226187   -0.0033496262443904073
-0.11087635755142394   -0.008841946690226187   -0.0033496262443904073
-0.11093948056432673   -0.00600134721985935   0.0022987314686996243
-0.11093948056432673   -0.00600134721985935   0.0022987314686996243
-0.11093948056432673   -0.00600134721985935   0.0022987314686996243
-0.11093948056432673   -0.00600134721985935   0.0022987314686996243
-0.06930857799202453   -0.0022141628751936003   -0.00022361859636131458
-0.06930857799202453   -0.0022141628751936003   -0.00022361859636131458
-0.06930857799202453   -0.0022141628751936003   -0.00022361859636131458
-0.06930857799202453   -0.0022141628751936003   -0.00022361859636131458
-0.08873644395838841   -0.002476590599830221   -0.0013858416877322909
-0.08873644395838841   -0.002476590599830221   -0.0013858416877322909
-0.08873644395838841   -0.002476590599830221   -0.0013858416877322909
-0.08873644395838841   -0.002476590599830221   -0.0013858416877322909
-0.10161381079041504   0.010294036676630768   0.004479638984249941
-0.10161381079041504   0.010294036676630768   0.004479638984249941
-0.10161381079041504   0.010294036676630768   0.004479638984249941
-0.10161381079041504   0.010294036676630768   0.004479638984249941
-0.14503009010877146   -0.006896100594818662   -0.005926303868729081
-0.14503009010877146   -0.006896100594818662   -0.005926303868729081
-0.14503009010877146   -0.006896100594818662   -0.005926303868729081
-0.14503009010877146   -0.006896100594818662   -0.005926303868729081
-0.1459693528048916   0.0008997518582270977   0.004695045217459009
-0.1459693528048916   0.0008997518582270977   0.004695045217459009
-0.1459693528048916   0.0008997518582270977   0.004695045217459009
-0.1459693528048916   0.0008997518582270977   0.004695045217459009
-0.10705137965963839   5.9755322019308665e-05   -0.00356180656107144
-0.10705137965963839   5.9755322019308665e-05   -0.00356180656107144
-0.10705137965963839   5.9755322019308665e-05   -0.00356180656107144
-0.10705137965963839   5.9755322019308665e-05   -0.00356180656107144
-0.11946725372634898   0.0022423870323003275   0.0030641740693344213
-0.11946725372634898   0.0022423870323003275   0.0030641740693344213
-0.11946725372634898   0.0022423870323003275   0.0030641740693344213
-0.11946725372634898   0.0022423870323003275   0.0030641740693344213
-0.10338299956915527   0.00953831942046271   0.005301529792900763
-0.10338299956915527   0.00953831942046271   0.005301529792900763
-0.10338299956915527   0.00953831942046271   0.005301529792900763
-0.10338299956915527   0.00953831942046271   0.005301529792900763
-0.14983641881439555   -0.008777498159237153   -0.004963034812596596
-0.14983641881439555   -0.008777498159237153   -0.004963034812596596
-0.14983641881439555   -0.008777498159237153   -0.004963034812596596
-0.14983641881439555   -0.008777498159237153   -0.004963034812596596
-0.14992053676001058   -0.000498861726295749   0.005966196516865623
-0.14992053676001058   -0.000498861726295749   0.005966196516865623
-0.14992053676001058   -0.000498861726295749   0.005966196516865623
-0.14992053676001058   -0.000498861726295749   0.005966196516865623
-0.10930248544184912   -0.001292350308938782   -0.0030298620778036484
-0.10930248544184912   -0.001292350308938782   -0.0030298620778036484
-0.10930248544184912   -0.001292350308938782   -0.0030298620778036484
-0.10930248544184912   -0.001292350308938782   -0.0030298620778036484
-0.12469579220398437   0.0006145640125324384   0.0013352671156161861
-0.12469579220398437   0.0006145640125324384   0.0013352671156161861
-0.12469579220398437   0.0006145640125324384   0.0013352671156161861
-0.12469579220398437   0.0006145640125324384   0.0013352671156161861
-0.10549257458614811   0.008449133152880269   0.006278208738883271
-0.10549257458614811   0.008449133152880269   0.006278208738883271
-0.10549257458614811   0.008449133152880269   0.006278208738883271
-0.10549257458614811   0.008449133152880269   0.006278208738883271
-0.15391095336895794   -0.01042085094136102   -0.004063897312806002
-0.15391095336895794   -0.01042085094136102   -0.004063897312806002
-0.15391095336895794   -0.01042085094136102   -0.004063897312806002
-0.15391095336895794   -0.01042085094136102   -0.004063897312806002
-0.1553477201849144   -0.004584011192291914   0.00610554441771063
-0.1553477201849144   -0.004584011192291914   0.00610554441771063
-0.1553477201849144   -0.004584011192291914   0.00610554441771063
-0.1553477201849144   -0.004584011192291914   0.00610554441771063
-0.11163830891763885   -0.0045526086151117355   -0.0026441489026104983
-0.11163830891763885   -0.0045526086151117355   -0.0026441489026104983
-0.11163830891763885   -0.0045526086151117355   -0.0026441489026104983
-0.11163830891763885   -0.0045526086151117355   -0.0026441489026104983
-0.12613331751997484   -0.0011728030148465199   0.00036537829109918943
-0.12613331751997484   -0.0011728030148465199   0.00036537829109918943
-0.12613331751997484   -0.0011728030148465199   0.00036537829109918943
-0.12613331751997484   -0.0011728030148465199   0.00036537829109918943
0.01986256699876322   0.0016112548668864959   -0.006844888707404283
0.01986256699876322   0.0016112548668864959   -0.006844888707404283
0.01986256699876322   0.0016112548668864959   -0.006844888707404283
0.01986256699876322   0.0016112548668864959   -0.006844888707404283
-0.006355740041814538   0.0049360595591446885   0.0033820285735132625
-0.006355740041814538   0.0049360595591446885   0.0033820285735132625
-0.006355740041814538   0.0049360595591446885   0.0033820285735132625
-0.006355740041814538   0.0049360595591446885   0.0033820285735132625
-0.01194651791950729   -0.006831496342150875   -0.005575727024111261
-0.01194651791950729   -0.006831496342150875   -0.005575727024111261
-0.01194651791950729   -0.006831496342150875   -0.005575727024111261
-0.01194651791950729   -0.006831496342150875   -0.005575727024111261
0.01901695171318763   0.007965383878314851   0.004086569275603128
0.01901695171318763   0.007965383878314851   0.004086569275603128
0.01901695171318763   0.007965383878314851   0.004086569275603128
0.01901695171318763   0.007965383878314851   0.004086569275603128
0.004573834355385903   0.0017603340070715232   0.0005479491764085385
0.004573834355385903   0.0017603340070715232   0.0005479491764085385
0.004573834355385903   0.0017603340070715232   0.0005479491764085385
0.004573834355385903   0.0017603340070715232   0.0005479491764085385
0.015056206971666226   -0.0015551333915264413   -0.006196637162162608
0.015056206971666226   -0.0015551333915264413   -0.006196637162162608
0.015056206971666226   -0.0015551333915264413   -0.006196637162162608
0.015056206971666226   -0.0015551333915264413   -0.006196637162162608
-0.008203204358573777   0.0024715897471025237   0.0038377546913029
-0.008203204358573777   0.0024715897471025237   0.0038377546913029
-0.008203204358573777   0.0024715897471025237   0.0038377546913029
-0.008203204358573777   0.0024715897471025237   0.0038377546913029
-0.013827741504942157   -0.007998150616878936   -0.00478627156281041
-0.013827741504942157   -0.007998150616878936   -0.00478627156281041
-0.013827741504942157   -0.007998150616878936   -0.00478627156281041
-0.013827741504942157   -0.007998150616878936   -0.00478627156281041
0.015238274212862089   0.006407585952002996   0.005678948028460778
0.015238274212862089   0.006407585952002996   0.005678948028460778
0.015238274212862089   0.006407585952002996   0.005678948028460778
0.015238274212862089   0.006407585952002996   0.005678948028460778
0.0017240656428760613   2.600052134912065e-06   -0.0007649274821389559
0.0017240656428760613   2.600052134912065e-06   -0.0007649274821389559
0.0017240656428760613   2.600052134912065e-06   -0.0007649274821389559
0.0017240656428760613   2.600052134912065e-06   -0.0007649274821389559
0.011165910165793049   -0.003081019350955721   -0.005194266903925703
0.011165910165793049   -0.003081019350955721   -0.005194266903925703
0.011165910165793049   -0.003081019350955721   -0.005194266903925703
0.011165910165793049   -0.003081019350955721   -0.005194266903925703
-0.010064791456278055   0.0011810406876741847   0.004849287375956865
-0.010064791456278055   0.0011810406876741847   0.004849287375956865
-0.010064791456278055   0.0011810406876741847   0.004849287375956865
-0.010064791456278055   0.0011810406876741847   0.004849287375956865
-0.015546139453040415   -0.009655216109040682   -0.004007171086408523
-0.015546139453040415   -0.009655216109040682   -0.004007171086408523
-0.015546139453040415   -0.009655216109040682   -0.004007171086408523
-0.015546139453040415   -0.009655216109040682   -0.004007171086408523
0.00998616960244347   0.0032336598009446256   0.006543480115966162
0.00998616960244347   0.0032336598009446256   0.006543480115966162
0.00998616960244347   0.0032336598009446256   0.006543480115966162
0.00998616960244347   0.0032336598009446256   0.006543480115966162
-0.0016322924259088137   -0.0017094368511985647   -0.0023355516736911727
-0.0016322924259088137   -0.0017094368511985647   -0.0023355516736911727
-0.0016322924259088137   -0.0017094368511985647   -0.0023355516736911727
-0.0016322924259088137   -0.0017094368511985647   -0.0023355516736911727
-0.007727716521971587   0.004019894340038878   -0.0025616886081661697
-0.007727716521971587   0.004019894340038878   -0.0025616886081661697
-0.007727716521971587   0.004019894340038878   -0.0025616886081661697
-0.007727716521971587   0.004019894340038878   -0.0025616886081661697
-0.03163358496823773   0.0013595638639036702   0.0008177667647119931
-0.03163358496823773   0.0013595638639036702   0.0008177667647119931
-0.03163358496823773   0.0013595638639036702   0.0008177667647119931
-0.03163358496823773   0.0013595638639036702   0.0008177667647119931
-0.03459284194888224   -0.0039943541416823805   -0.002964641240979886
-0.03459284194888224   -0.0039943541416823805   -0.002964641240979886
-0.03459284194888224   -0.0039943541416823805   -0.002964641240979886
-0.03459284194888224   -0.0039943541416823805   -0.002964641240979886
-0.008074510150569815   0.004084794032076634   0.002868021446348596
-0.008074510150569815   0.004084794032076634   0.002868021446348596
-0.008074510150569815   0.004084794032076634   0.002868021446348596
-0.008074510150569815   0.004084794032076634   0.002868021446348596
-0.02049332885169229   0.0012843936913793652   0.0007351292060021166
-0.02049332885169229   0.0012843936913793652   0.0007351292060021166
-0.02049332885169229   0.0012843936913793652   0.0007351292060021166
-0.02049332885169229   0.0012843936913793652   0.0007351292060021166
-0.00965673434088211   0.0011617787779053127   -0.0021200842510415508
-0.00965673434088211   0.0011617787779053127   -0.0021200842510415508
-0.00965673434088211   0.0011617787779053127   -0.0021200842510415508
-0.00965673434088211   0.0011617787779053127   -0.0021200842510415508
-0.03320072306631085   -0.001261444195252032   0.0012630432254462922
-0.03320072306631085   -0.001261444195252032   0.0012630432254462922
-0.03320072306631085   -0.001261444195252032   0.0012630432254462922
-0.03320072306631085   -0.001261444195252032   0.0012630432254462922
-0.03607489272141133   -0.006258925178675322   -0.002242494209119425
-0.03607489272141133   -0.006258925178675322   -0.002242494209119425
-0.03607489272141133   -0.006258925178675322   -0.002242494209119425
-0.03607489272141133   -0.006258925178675322   -0.002242494209119425
-0.010308615799942734   0.0015740432430825459   0.0032371631022251133
-0.010308615799942734   0.0015740432430825459   0.0032371631022251133
-0.010308615799942734   0.0015740432430825459   0.0032371631022251133
-0.010308615799942734   0.0015740432430825459   0.0032371631022251133
-0.022361440866256375   -0.0010322455731699692   -0.00044401060375435434
-0.022361440866256375   -0.0010322455731699692   -0.00044401060375435434
-0.022361440866256375   -0.0010322455731699692   -0.00044401060375435434
-0.022361440866256375   -0.0010322455731699692   -0.00044401060375435434
-0.011846048900716074   -0.0012832078370195034   -0.00159275132153942
-0.011846048900716074   -0.0012832078370195034   -0.00159275132153942
-0.011846048900716074   -0.0012832078370195034   -0.00159275132153942
-0.011846048900716074   -0.0012832078370195034   -0.00159275132153942
-0.03474405603526009   -0.003608270513194718   0.0017610345561561548
-0.03474405603526009   -0.003608270513194718   0.0017610345561561548
-0.03474405603526009   -0.003608270513194718   0.0017610345561561548
-0.03474405603526009   -0.003608270513194718   0.0017610345561561548
-0.037566609830205044   -0.00851857436619442   -0.0016065165198198106
-0.037566609830205044   -0.00851857436619442   -0.0016065165198198106
-0.037566609830205044   -0.00851857436619442   -0.0016065165198198106
-0.037566609830205044   -0.00851857436619442   -0.0016065165198198106
-0.012188084876749185   -0.0008837790569340555   0.004011664742940991
-0.012188084876749185   -0.0008837790569340555   0.004011664742940991
-0.012188084876749185   -0.0008837790569340555   0.004011664742940991
-0.012188084876749185   -0.0008837790569340555   0.004011664742940991
-0.02417831452636434   -0.0032373521382379248   -0.0016202801951096541
-0.02417831452636434   -0.0032373521382379248   -0.0016202801951096541
-0.02417831452636434   -0.0032373521382379248   -0.0016202801951096541
-0.02417831452636434   -0.0032373521382379248   -0.0016202801951096541
-0.030942871318944683   0.00588889596811362   -0.0002579970930331739
-0.030942871318944683   0.00588889596811362   -0.0002579970930331739
-0.030942871318944683   0.00588889596811362   -0.0002579970930331739
-0.030942871318944683   0.00588889596811362   -0.0002579970930331739
-0.05637915993406137   -0.0021008871304807625   -0.0016957689698244654
-0.05637915993406137   -0.0021008871304807625   -0.0016957689698244654
-0.05637915993406137   -0.0021008871304807625   -0.0016957689698244654
-0.05637915993406137   -0.0021008871304807625   -0.0016957689698244654
-0.05703588313269474   -0.0016754343448461499   -0.00047689175224546786
-0.05703588313269474   -0.0016754343448461499   -0.00047689175224546786
-0.05703588313269474   -0.0016754343448461499   -0.00047689175224546786
-0.05703588313269474   -0.0016754343448461499   -0.00047689175224546786
-0.032938711117561845   0.0008556916765606985   0.00045596709737857725
-0.032938711117561845   0.0008556916765606985   0.00045596709737857725
-0.032938711117561845   0.0008556916765606985   0.00045596709737857725
-0.032938711117561845   0.0008556916765606985   0.00045596709737857725
-0.044220265661117635   0.0006811638192326212   0.00034231632917837906
-0.044220265661117635   0.0006811638192326212   0.00034231632917837906
-0.044220265661117635   0.0006811638192326212   0.00034231632917837906
-0.044220265661117635   0.0006811638192326212   0.00034231632917837906
-0.03243132819065528   0.003425474729754383   0.00042309867871772764
-0.03243132819065528   0.003425474729754383   0.00042309867871772764
-0.03243132819065528   0.003425474729754383   0.00042309867871772764
-0.03243132819065528   0.003425474729754383   0.00042309867871772764
-0.057730245201791944   -0.004432196540230467   -0.0011919399023471583
-0.057730245201791944   -0.004432196540230467   -0.0011919399023471583
-0.057730245201791944   -0.004432196540230467   -0.0011919399023471583
-0.057730245201791944   -0.004432196540230467   -0.0011919399023471583
-0.05843540126413736   -0.00411076482336745   0.00018812605176909275
-0.05843540126413736   -0.00411076482336745   0.00018812605176909275
-0.05843540126413736   -0.00411076482336745   0.00018812605176909275
-0.05843540126413736   -0.00411076482336745   0.00018812605176909275
-0.03449493101183636   -0.0015484177627595594   0.0009468069228396841
-0.03449493101183636   -0.0015484177627595594   0.0009468069228396841
-0.03449493101183636   -0.0015484177627595594   0.0009468069228396841
-0.03449493101183636   -0.0015484177627595594   0.0009468069228396841
-0.04572332531973834   -0.001534579848091246   -0.000738006791953667
-0.04572332531973834   -0.001534579848091246   -0.000738006791953667
-0.04572332531973834   -0.001534579848091246   -0.000738006791953667
-0.04572332531973834   -0.001534579848091246   -0.000738006791953667
-0.033985895788012005   0.0009418534311201442   0.0010017118480817096
-0.033985895788012005   0.0009418534311201442   0.0010017118480817096
-0.033985895788012005   0.0009418534311201442   0.0010017118480817096
-0.033985895788012005   0.0009418534311201442   0.0010017118480817096
-0.05917130164942266   -0.00682790117870762   -0.0007742395193181511
-0.05917130164942266   -0.00682790117870762   -0.0007742395193181511
-0.05917130164942266   -0.00682790117870762   -0.0007742395193181511
-0.05917130164942266   -0.00682790117870762   -0.0007742395193181511
-0.059793855283195564   -0.00642868207701069   0.0008364221050411321
-0.059793855283195564   -0.00642868207701069   0.0008364221050411321
-0.059793855283195564   -0.00642868207701069   0.0008364221050411321
-0.059793855283195564   -0.00642868207701069   0.0008364221050411321
-0.036005910521004235   -0.0037932600847137075   0.001471665744703528
-0.036005910521004235   -0.0037932600847137075   0.001471665744703528
-0.036005910521004235   -0.0037932600847137075   0.001471665744703528
-0.036005910521004235   -0.0037932600847137075   0.001471665744703528
-0.04734037280037403   -0.0037545125773197846   -0.0019137601245569852
-0.04734037280037403   -0.0037545125773197846   -0.0019137601245569852
-0.04734037280037403   -0.0037545125773197846   -0.0019137601245569852
-0.04734037280037403   -0.0037545125773197846   -0.0019137601245569852
-0.05355322080075528   0.008148593319262884   0.002184446246964254
-0.05355322080075528   0.008148593319262884   0.002184446246964254
-0.05355322080075528   0.008148593319262884   0.002184446246964254
-0.05355322080075528   0.008148593319262884   0.002184446246964254
-0.08045859157657712   -0.00365733512833283   -0.003736661905822393
-0.08045859157657712   -0.00365733512833283   -0.003736661905822393
-0.08045859157657712   -0.00365733512833283   -0.003736661905822393
-0.08045859157657712   -0.00365733512833283   -0.003736661905822393
-0.0795345174461198   0.0006320823699320875   0.002056031291214881
-0.0795345174461198   0.0006320823699320875   0.002056031291214881
-0.0795345174461198   0.0006320823699320875   0.002056031291214881
-0.0795345174461198   0.0006320823699320875   0.002056031291214881
-0.0570852725295818   -0.0008187158489121188   -0.001580557232614823
-0.0570852725295818   -0.0008187158489121188   -0.001580557232614823
-0.0570852725295818   -0.0008187158489121188   -0.001580557232614823
-0.0570852725295818   -0.0008187158489121188   -0.001580557232614823
-0.06737406639440299   0.0010664265461526583   0.0004334830692850934
-0.06737406639440299   0.0010664265461526583   0.0004334830692850934
-0.06737406639440299   0.0010664265461526583   0.0004334830692850934
-0.06737406639440299   0.0010664265461526583   0.0004334830692850934
-0.05488792577303404   0.005723072155457202   0.0028643885457546895
-0.05488792577303404   0.005723072155457202   0.0028643885457546895
-0.05488792577303404   0.005723072155457202   0.0028643885457546895
-0.05488792577303404   0.005723072155457202   0.0028643885457546895
-0.0820063597279327   -0.006184201159702529   -0.0034868965882159826
-0.0820063597279327   -0.006184201159702529   -0.0034868965882159826
-0.0820063597279327   -0.006184201159702529   -0.0034868965882159826
-0.0820063597279327   -0.006184201159702529   -0.0034868965882159826
-0.08139130402173918   -0.0017842102935520087   0.0024540022092957143
-0.08139130402173918   -0.0017842102935520087   0.0024540022092957143
-0.08139130402173918   -0.0017842102935520087   0.0024540022092957143
-0.08139130402173918   -0.0017842102935520087   0.0024540022092957143
-0.058470896121197186   -0.003038735232262774   -0.0010613778246346688
-0.058470896121197186   -0.003038735232262774   -0.0010613778246346688
-0.058470896121197186   -0.003038735232262774   -0.0010613778246346688
-0.058470896121197186   -0.003038735232262774   -0.0010613778246346688
-0.06862316522729463   -0.001061880242246089   -0.0007360900004505528
-0.06862316522729463   -0.001061880242246089   -0.0007360900004505528
-0.06862316522729463   -0.001061880242246089   -0.0007360900004505528
-0.06862316522729463   -0.001061880242246089   -0.0007360900004505528
-0.05625536510923659   0.003456404539725391   0.003521137463180121
-0.05625536510923659   0.003456404539725391   0.003521137463180121
-0.05625536510923659   0.003456404539725391   0.003521137463180121
-0.05625536510923659   0.003456404539725391   0.003521137463180121
-0.08382365475572645   -0.008496169787567015   -0.00299579196662661
-0.08382365475572645   -0.008496169787567015   -0.00299579196662661
-0.08382365475572645   -0.008496169787567015   -0.00299579196662661
-0.08382365475572645   -0.008496169787567015   -0.00299579196662661
-0.08289498172414712   -0.004253866927628962   0.003164264873584474
-0.08289498172414712   -0.004253866927628962   0.003164264873584474
-0.08289498172414712   -0.004253866927628962   0.003164264873584474
-0.08289498172414712   -0.004253866927628962   0.003164264873584474
-0.05986806496116929   -0.005346080346593529   -0.0006172280152446457
-0.05986806496116929   -0.005346080346593529   -0.0006172280152446457
-0.05986806496116929   -0.005346080346593529   -0.0006172280152446457
-0.05986806496116929   -0.005346080346593529   -0.0006172280152446457
-0.07054764010331396   -0.0032894609858187783   -0.0019567766240173538
-0.07054764010331396   -0.0032894609858187783   -0.0019567766240173538
-0.07054764010331396   -0.0032894609858187783   -0.0019567766240173538
-0.07054764010331396   -0.0032894609858187783   -0.0019567766240173538
-0.07632985338106979   0.008899288594285834   0.00435040534909556
-0.07632985338106979   0.008899288594285834   0.00435040534909556
-0.07632985338106979   0.008899288594285834   0.00435040534909556
-0.07632985338106979   0.008899288594285834   0.00435040534909556
-0.10103450103243151   -0.005272828056820847   -0.005972112918859265
-0.10103450103243151   -0.005272828056820847   -0.005972112918859265
-0.10103450103243151   -0.005272828056820847   -0.005972112918859265
-0.10103450103243151   -0.005272828056820847   -0.005972112918859265
-0.10120195736450932   0.002901780888620878   0.004798898976811161
-0.10120195736450932   0.002901780888620878   0.004798898976811161
-0.10120195736450932   0.002901780888620878   0.004798898976811161
-0.10120195736450932   0.002901780888620878   0.004798898976811161
-0.08127052461296229   -0.0023536172380279226   -0.0036383049350384696
-0.08127052461296229   -0.0023536172380279226   -0.0036383049350384696
-0.08127052461296229   -0.0023536172380279226   -0.0036383049350384696
-0.08127052461296229   -0.0023536172380279226   -0.0036383049350384696
-0.08622682275481088   0.0018920759528344815   0.0018799072051201631
-0.08622682275481088   0.0018920759528344815   0.0018799072051201631
-0.08622682275481088   0.0018920759528344815   0.0018799072051201631
-0.08622682275481088   0.0018920759528344815   0.0018799072051201631
-0.07750473974302265   0.007707370877401937   0.005129631299229808
-0.07750473974302265   0.007707370877401937   0.005129631299229808
-0.07750473974302265   0.007707370877401937   0.005129631299229808
-0.07750473974302265   0.007707370877401937   0.005129631299229808
-0.1052611141934604   -0.007452579185820433   -0.005142525093502911
-0.1052611141934604   -0.007452579185820433   -0.005142525093502911
-0.1052611141934604   -0.007452579185820433   -0.005142525093502911
-0.1052611141934604   -0.007452579185820433   -0.005142525093502911
-0.10456984885355701   0.0014888595693375792   0.0061435507252860354
-0.10456984885355701   0.0014888595693375792   0.0061435507252860354
-0.10456984885355701   0.0014888595693375792   0.0061435507252860354
-0.10456984885355701   0.0014888595693375792   0.0061435507252860354
-0.08288315397555548   -0.003636702206281487   -0.0031527556470563297
-0.08288315397555548   -0.003636702206281487   -0.0031527556470563297
-0.08288315397555548   -0.003636702206281487   -0.0031527556470563297
-0.08288315397555548   -0.003636702206281487   -0.0031527556470563297
-0.09032803378680335   0.0002006105815602656   0.00019330239824621488
-0.09032803378680335   0.0002006105815602656   0.00019330239824621488
-0.09032803378680335   0.0002006105815602656   0.00019330239824621488
-0.09032803378680335   0.0002006105815602656   0.00019330239824621488
-0.0789813599501723   0.006601458049727442   0.006118054223850646
-0.0789813599501723   0.006601458049727442   0.006118054223850646
-0.0789813599501723   0.006601458049727442   0.006118054223850646
-0.0789813599501723   0.006601458049727442   0.006118054223850646
-0.10875984990446601   -0.009037507712196843   -0.004280087247722581
-0.10875984990446601   -0.009037507712196843   -0.004280087247722581
-0.10875984990446601   -0.009037507712196843   -0.004280087247722581
-0.10875984990446601   -0.009037507712196843   -0.004280087247722581
-0.10944063678876446   -0.002293101219285193   0.006455715947647837
-0.10944063678876446   -0.002293101219285193   0.006455715947647837
-0.10944063678876446   -0.002293101219285193   0.006455715947647837
-0.10944063678876446   -0.002293101219285193   0.006455715947647837
-0.0845090998679342   -0.006438788117855048   -0.0027214046551257806
-0.0845090998679342   -0.006438788117855048   -0.0027214046551257806
-0.0845090998679342   -0.006438788117855048   -0.0027214046551257806
-0.0845090998679342   -0.006438788117855048   -0.0027214046551257806
-0.09176002710303766   -0.0015211075783651724   -0.0009562125429314451
-0.09176002710303766   -0.0015211075783651724   -0.0009562125429314451
-0.09176002710303766   -0.0015211075783651724   -0.0009562125429314451
-0.09176002710303766   -0.0015211075783651724   -0.0009562125429314451
-0.029064547870056058   -0.00177778042140415   -0.0074783635009894114
-0.029064547870056058   -0.00177778042140415   -0.0074783635009894114
-0.029064547870056058   -0.00177778042140415   -0.0074783635009894114
-0.029064547870056058   -0.00177778042140415   -0.0074783635009894114
-0.03379809019958822   0.005394210798834192   0.0032824243925631586
-0.03379809019958822   0.005394210798834192   0.0032824243925631586
-0.03379809019958822   0.005394210798834192   0.0032824243925631586
-0.03379809019958822   0.005394210798834192   0.0032824243925631586
-0.03887215321335188   -0.005470254329831567   -0.0052025168385894565
-0.03887215321335188   -0.005470254329831567   -0.0052025168385894565
-0.03887215321335188   -0.005470254329831567   -0.0052025168385894565
-0.03887215321335188   -0.005470254329831567   -0.0052025168385894565
-0.030025773271779882   0.003709870129673021   0.004710358338514342
-0.030025773271779882   0.003709870129673021   0.004710358338514342
-0.030025773271779882   0.003709870129673021   0.004710358338514342
-0.030025773271779882   0.003709870129673021   0.004710358338514342
-0.031261877086075536   0.001120834898799732   0.003354194775630442
-0.031261877086075536   0.001120834898799732   0.003354194775630442
-0.031261877086075536   0.001120834898799732   0.003354194775630442
-0.031261877086075536   0.001120834898799732   0.003354194775630442
-0.03392911671822905   -0.00471703451324995   -0.0063794542508080355
-0.03392911671822905   -0.00471703451324995   -0.0063794542508080355
-0.03392911671822905   -0.00471703451324995   -0.0063794542508080355
-0.03392911671822905   -0.00471703451324995   -0.0063794542508080355
-0.03539922479810329   0.002526235281891544   0.004165635625930363
-0.03539922479810329   0.002526235281891544   0.004165635625930363
-0.03539922479810329   0.002526235281891544   0.004165635625930363
-0.03539922479810329   0.002526235281891544   0.004165635625930363
-0.04054143918079564   -0.006780196225971981   -0.004480249467756374
-0.04054143918079564   -0.006780196225971981   -0.004480249467756374
-0.04054143918079564   -0.006780196225971981   -0.004480249467756374
-0.04054143918079564   -0.006780196225971981   -0.004480249467756374
-0.03395332675917036   0.0019820536766028806   0.009001935692697615
-0.03395332675917036   0.0019820536766028806   0.009001935692697615
-0.03395332675917036   0.0019820536766028806   0.009001935692697615
-0.03395332675917036   0.0019820536766028806   0.009001935692697615
-0.03473454261553476   -0.0011070486757673277   0.001439337898663968
-0.03473454261553476   -0.0011070486757673277   0.001439337898663968
-0.03473454261553476   -0.0011070486757673277   0.001439337898663968
-0.03473454261553476   -0.0011070486757673277   0.001439337898663968
-0.038465789664748624   -0.0064872345507745195   -0.005091090607816079
-0.038465789664748624   -0.0064872345507745195   -0.005091090607816079
-0.038465789664748624   -0.0064872345507745195   -0.005091090607816079
-0.038465789664748624   -0.0064872345507745195   -0.005091090607816079
-0.03712633598588282   0.0005917322907400104   0.005223337990095735
-0.03712633598588282   0.0005917322907400104   0.005223337990095735
-0.03712633598588282   0.0005917322907400104   0.005223337990095735
-0.03712633598588282   0.0005917322907400104   0.005223337990095735
-0.04193763842864874   -0.009179266520496566   -0.0035973434601514224
-0.04193763842864874   -0.009179266520496566   -0.0035973434601514224
-0.04193763842864874   -0.009179266520496566   -0.0035973434601514224
-0.04193763842864874   -0.009179266520496566   -0.0035973434601514224
-0.03999000338180796   -0.0037320675054350982   0.008383094523611738
-0.03999000338180796   -0.0037320675054350982   0.008383094523611738
-0.03999000338180796   -0.0037320675054350982   0.008383094523611738
-0.03999000338180796   -0.0037320675054350982   0.008383094523611738
-0.0380558637770401   -0.003711055969873609   -0.0017209752716560842
-0.0380558637770401   -0.003711055969873609   -0.0017209752716560842
-0.0380558637770401   -0.003711055969873609   -0.0017209752716560842
-0.0380558637770401   -0.003711055969873609   -0.0017209752716560842
-0.0363736046602262   -0.0004934840414958595   -0.0037074530702971907
-0.0363736046602262   -0.0004934840414958595   -0.0037074530702971907
-0.0363736046602262   -0.0004934840414958595   -0.0037074530702971907
-0.0363736046602262   -0.0004934840414958595   -0.0037074530702971907
-0.040626852009063304   -0.005143858488705858   -0.00023980834092848715
-0.040626852009063304   -0.005143858488705858   -0.00023980834092848715
-0.040626852009063304   -0.005143858488705858   -0.00023980834092848715
-0.040626852009063304   -0.005143858488705858   -0.00023980834092848715
-0.04119854835208684   -0.00352817253590021   -0.002072773192018604
-0.04119854835208684   -0.00352817253590021   -0.002072773192018604
-0.04119854835208684   -0.00352817253590021   -0.002072773192018604
-0.04119854835208684   -0.00352817253590021   -0.002072773192018604
-0.0379706981522812   -0.006278797087771119   0.00011330122470349914
-0.0379706981522812   -0.006278797087771119   0.00011330122470349914
-0.0379706981522812   -0.006278797087771119   0.00011330122470349914
-0.0379706981522812   -0.006278797087771119   0.00011330122470349914
-0.038724059461637504   -0.004036456190876537   9.645629891964487e-05
-0.038724059461637504   -0.004036456190876537   9.645629891964487e-05
-0.038724059461637504   -0.004036456190876537   9.645629891964487e-05
-0.038724059461637504   -0.004036456190876537   9.645629891964487e-05
-0.038011174036709075   -0.0031247650762186103   -0.003243110208988374
-0.038011174036709075   -0.0031247650762186103   -0.003243110208988374
-0.038011174036709075   -0.0031247650762186103   -0.003243110208988374
-0.038011174036709075   -0.0031247650762186103   -0.003243110208988374
-0.041420042431887544   -0.006944174511681376   0.00023575838475855979
-0.041420042431887544   -0.006944174511681376   0.00023575838475855979
-0.041420042431887544   -0.006944174511681376   0.00023575838475855979
-0.041420042431887544   -0.006944174511681376   0.00023575838475855979
-0.042129446707541554   -0.005720456345450932   -0.0014145039328396195
-0.042129446707541554   -0.005720456345450932   -0.0014145039328396195
-0.042129446707541554   -0.005720456345450932   -0.0014145039328396195
-0.042129446707541554   -0.005720456345450932   -0.0014145039328396195
-0.039720365449141544   -0.008292697895668557   0.001137620860210692
-0.039720365449141544   -0.008292697895668557   0.001137620860210692
-0.039720365449141544   -0.008292697895668557   0.001137620860210692
-0.039720365449141544   -0.008292697895668557   0.001137620860210692
-0.03991545445971554   -0.005849885433829323   -0.0009760544848981618
-0.03991545445971554   -0.005849885433829323   -0.0009760544848981618
-0.03991545445971554   -0.005849885433829323   -0.0009760544848981618
-0.03991545445971554   -0.005849885433829323   -0.0009760544848981618
-0.03987306357108249   -0.0054749937171864205   -0.0024435739279761357
-0.03987306357108249   -0.0054749937171864205   -0.0024435739279761357
-0.03987306357108249   -0.0054749937171864205   -0.0024435739279761357
-0.03987306357108249   -0.0054749937171864205   -0.0024435739279761357
-0.04230820973397697   -0.008869621672309506   0.0008408462618413748
-0.04230820973397697   -0.008869621672309506   0.0008408462618413748
-0.04230820973397697   -0.008869621672309506   0.0008408462618413748
-0.04230820973397697   -0.008869621672309506   0.0008408462618413748
-0.04299918849455268   -0.00800208364135042   -0.0007687545613335035
-0.04299918849455268   -0.00800208364135042   -0.0007687545613335035
-0.04299918849455268   -0.00800208364135042   -0.0007687545613335035
-0.04299918849455268   -0.00800208364135042   -0.0007687545613335035
-0.04109491093175761   -0.010728540865804357   0.0021655683696119045
-0.04109491093175761   -0.010728540865804357   0.0021655683696119045
-0.04109491093175761   -0.010728540865804357   0.0021655683696119045
-0.04109491093175761   -0.010728540865804357   0.0021655683696119045
-0.04142273811323922   -0.00792527998012517   -0.0022892201919396723
-0.04142273811323922   -0.00792527998012517   -0.0022892201919396723
-0.04142273811323922   -0.00792527998012517   -0.0022892201919396723
-0.04142273811323922   -0.00792527998012517   -0.0022892201919396723
-0.039392723593519585   0.0014941241510085766   -0.0007071489029233857
-0.039392723593519585   0.0014941241510085766   -0.0007071489029233857
-0.039392723593519585   0.0014941241510085766   -0.0007071489029233857
-0.039392723593519585   0.0014941241510085766   -0.0007071489029233857
-0.04773693171577676   -0.009102706562936805   -0.002372142095168401
-0.04773693171577676   -0.009102706562936805   -0.002372142095168401
-0.04773693171577676   -0.009102706562936805   -0.002372142095168401
-0.04773693171577676   -0.009102706562936805   -0.002372142095168401
-0.04603991428467932   -0.0017680113115717613   0.00043865532383376843
-0.04603991428467932   -0.0017680113115717613   0.00043865532383376843
-0.04603991428467932   -0.0017680113115717613   0.00043865532383376843
-0.04603991428467932   -0.0017680113115717613   0.00043865532383376843
-0.04218256407267415   -0.009165704395788659   -0.001355319935067211
-0.04218256407267415   -0.009165704395788659   -0.001355319935067211
-0.04218256407267415   -0.009165704395788659   -0.001355319935067211
-0.04218256407267415   -0.009165704395788659   -0.001355319935067211
-0.04380522938279016   -0.004792001003333672   -0.000851112096822851
-0.04380522938279016   -0.004792001003333672   -0.000851112096822851
-0.04380522938279016   -0.004792001003333672   -0.000851112096822851
-0.04380522938279016   -0.004792001003333672   -0.000851112096822851
-0.040223811018793354   -0.0006983112795429947   -2.8947781908377976e-05
-0.040223811018793354   -0.0006983112795429947   -2.8947781908377976e-05
-0.040223811018793354   -0.0006983112795429947   -2.8947781908377976e-05
-0.040223811018793354   -0.0006983112795429947   -2.8947781908377976e-05
-0.048241827442453096   -0.010478564531710633   -0.0018603572448981408
-0.048241827442453096   -0.010478564531710633   -0.0018603572448981408
-0.048241827442453096   -0.010478564531710633   -0.0018603572448981408
-0.048241827442453096   -0.010478564531710633   -0.0018603572448981408
-0.046776647312697296   -0.003976123552911811   0.0010899942729355367
-0.046776647312697296   -0.003976123552911811   0.0010899942729355367
-0.046776647312697296   -0.003976123552911811   0.0010899942729355367
-0.046776647312697296   -0.003976123552911811   0.0010899942729355367
-0.043056043249050095   -0.010887780091246312   -0.0008801628945869474
-0.043056043249050095   -0.010887780091246312   -0.0008801628945869474
-0.043056043249050095   -0.010887780091246312   -0.0008801628945869474
-0.043056043249050095   -0.010887780091246312   -0.0008801628945869474
-0.04456287079492448   -0.006453334070995501   -0.0017725951797900007
-0.04456287079492448   -0.006453334070995501   -0.0017725951797900007
-0.04456287079492448   -0.006453334070995501   -0.0017725951797900007
-0.04456287079492448   -0.006453334070995501   -0.0017725951797900007
-0.041171419912957245   -0.002951701823853926   0.0006068755184849069
-0.041171419912957245   -0.002951701823853926   0.0006068755184849069
-0.041171419912957245   -0.002951701823853926   0.0006068755184849069
-0.041171419912957245   -0.002951701823853926   0.0006068755184849069
-0.048933215119560475   -0.012184146291074685   -0.0014848220232184387
-0.048933215119560475   -0.012184146291074685   -0.0014848220232184387
-0.048933215119560475   -0.012184146291074685   -0.0014848220232184387
-0.048933215119560475   -0.012184146291074685   -0.0014848220232184387
-0.04741770318531446   -0.00602243717152779   0.0017375729749395032
-0.04741770318531446   -0.00602243717152779   0.0017375729749395032
-0.04741770318531446   -0.00602243717152779   0.0017375729749395032
-0.04741770318531446   -0.00602243717152779   0.0017375729749395032
-0.04377696932842278   -0.012483967541207501   -0.00017577483082737658
-0.04377696932842278   -0.012483967541207501   -0.00017577483082737658
-0.04377696932842278   -0.012483967541207501   -0.00017577483082737658
-0.04377696932842278   -0.012483967541207501   -0.00017577483082737658
-0.04543439975175774   -0.008179894722334081   -0.0027817131488113434
-0.04543439975175774   -0.008179894722334081   -0.0027817131488113434
-0.04543439975175774   -0.008179894722334081   -0.0027817131488113434
-0.04543439975175774   -0.008179894722334081   -0.0027817131488113434
-0.04405163664594218   0.004801427980976812   0.0021501987100908866
-0.04405163664594218   0.004801427980976812   0.0021501987100908866
-0.04405163664594218   0.004801427980976812   0.0021501987100908866
-0.04405163664594218   0.004801427980976812   0.0021501987100908866
-0.05482460114030362   -0.007168017772046746   -0.003428965646445831
-0.05482460114030362   -0.007168017772046746   -0.003428965646445831
-0.05482460114030362   -0.007168017772046746   -0.003428965646445831
-0.05482460114030362   -0.007168017772046746   -0.003428965646445831
-0.052248251374066315   0.0010335150633150464   0.002843576173009344
-0.052248251374066315   0.0010335150633150464   0.002843576173009344
-0.052248251374066315   0.0010335150633150464   0.002843576173009344
-0.052248251374066315   0.0010335150633150464   0.002843576173009344
-0.04762856791654298   -0.007285580103601622   -0.001987044043454633
-0.04762856791654298   -0.007285580103601622   -0.001987044043454633
-0.04762856791654298   -0.007285580103601622   -0.001987044043454633
-0.04762856791654298   -0.007285580103601622   -0.001987044043454633
-0.0496383021544064   -0.002115401354690719   -0.0005048140237274511
-0.0496383021544064   -0.002115401354690719   -0.0005048140237274511
-0.0496383021544064   -0.002115401354690719   -0.0005048140237274511
-0.0496383021544064   -0.002115401354690719   -0.0005048140237274511
-0.04470588161081733   0.0025345293813984517   0.0028062780001735475
-0.04470588161081733   0.0025345293813984517   0.0028062780001735475
-0.04470588161081733   0.0025345293813984517   0.0028062780001735475
-0.04470588161081733   0.0025345293813984517   0.0028062780001735475
-0.0555008102023267   -0.009116466944219128   -0.003269235960758434
-0.0555008102023267   -0.009116466944219128   -0.003269235960758434
-0.0555008102023267   -0.009116466944219128   -0.003269235960758434
-0.0555008102023267   -0.009116466944219128   -0.003269235960758434
-0.05336891878835092   -0.0011568519108733407   0.0032460614494662344
-0.05336891878835092   -0.0011568519108733407   0.0032460614494662344
-0.05336891878835092   -0.0011568519108733407   0.0032460614494662344
-0.05336891878835092   -0.0011568519108733407   0.0032460614494662344
-0.048298213389676145   -0.008931698447392358   -0.0015622612174791004
-0.048298213389676145   -0.008931698447392358   -0.0015622612174791004
-0.048298213389676145   -0.008931698447392358   -0.0015622612174791004
-0.048298213389676145   -0.008931698447392358   -0.0015622612174791004
-0.05028835169034155   -0.003936594266505938   -0.0015928330538404272
-0.05028835169034155   -0.003936594266505938   -0.0015928330538404272
-0.05028835169034155   -0.003936594266505938   -0.0015928330538404272
-0.05028835169034155   -0.003936594266505938   -0.0015928330538404272
-0.04541787922877685   0.00047140494922705105   0.003436306190397958
-0.04541787922877685   0.00047140494922705105   0.003436306190397958
-0.04541787922877685   0.00047140494922705105   0.003436306190397958
-0.04541787922877685   0.00047140494922705105   0.003436306190397958
-0.05653364478204019   -0.010844347140283048   -0.002890073289570418
-0.05653364478204019   -0.010844347140283048   -0.002890073289570418
-0.05653364478204019   -0.010844347140283048   -0.002890073289570418
-0.05653364478204019   -0.010844347140283048   -0.002890073289570418
-0.05416702153977655   -0.0032869503463028036   0.003977378564816245
-0.05416702153977655   -0.0032869503463028036   0.003977378564816245
-0.05416702153977655   -0.0032869503463028036   0.003977378564816245
-0.05416702153977655   -0.0032869503463028036   0.003977378564816245
-0.04891254307540996   -0.01059600440907856   -0.0011630592379891097
-0.04891254307540996   -0.01059600440907856   -0.0011630592379891097
-0.04891254307540996   -0.01059600440907856   -0.0011630592379891097
-0.04891254307540996   -0.01059600440907856   -0.0011630592379891097
-0.051322451311346   -0.005696997383337645   -0.0026636389004294015
-0.051322451311346   -0.005696997383337645   -0.0026636389004294015
-0.051322451311346   -0.005696997383337645   -0.0026636389004294015
-0.051322451311346   -0.005696997383337645   -0.0026636389004294015
-0.05044605546050653   0.006915360531195481   0.004380384449297387
-0.05044605546050653   0.006915360531195481   0.004380384449297387
-0.05044605546050653   0.006915360531195481   0.004380384449297387
-0.05044605546050653   0.006915360531195481   0.004380384449297387
-0.057230684162833584   -0.004641871238346858   -0.00486191706849052
-0.057230684162833584   -0.004641871238346858   -0.00486191706849052
-0.057230684162833584   -0.004641871238346858   -0.00486191706849052
-0.057230684162833584   -0.004641871238346858   -0.00486191706849052
-0.05634660711076837   0.004336284942485474   0.004887288465334605
-0.05634660711076837   0.004336284942485474   0.004887288465334605
-0.05634660711076837   0.004336284942485474   0.004887288465334605
-0.05634660711076837   0.004336284942485474   0.004887288465334605
-0.054639850748447155   -0.005102078018262181   -0.0029788276173176374
-0.054639850748447155   -0.005102078018262181   -0.0029788276173176374
-0.054639850748447155   -0.005102078018262181   -0.0029788276173176374
-0.054639850748447155   -0.005102078018262181   -0.0029788276173176374
-0.052698749269152086   0.001043235092292415   0.00046629857718860895
-0.052698749269152086   0.001043235092292415   0.00046629857718860895
-0.052698749269152086   0.001043235092292415   0.00046629857718860895
-0.052698749269152086   0.001043235092292415   0.00046629857718860895
-0.0509209206179002   0.005455594626185825   0.00505815039096819
-0.0509209206179002   0.005455594626185825   0.00505815039096819
-0.0509209206179002   0.005455594626185825   0.00505815039096819
-0.0509209206179002   0.005455594626185825   0.00505815039096819
-0.0603505002599689   -0.006506350720615943   -0.004289541617564702
-0.0603505002599689   -0.006506350720615943   -0.004289541617564702
-0.0603505002599689   -0.006506350720615943   -0.004289541617564702
-0.0603505002599689   -0.006506350720615943   -0.004289541617564702
-0.058818076216781486   0.003056441815295796   0.006247886702056094
-0.058818076216781486   0.003056441815295796   0.006247886702056094
-0.058818076216781486   0.003056441815295796   0.006247886702056094
-0.058818076216781486   0.003056441815295796   0.006247886702056094
-0.055540218045502854   -0.006094552172182359   -0.00267273457498631
-0.055540218045502854   -0.006094552172182359   -0.00267273457498631
-0.055540218045502854   -0.006094552172182359   -0.00267273457498631
-0.055540218045502854   -0.006094552172182359   -0.00267273457498631
-0.05539950107745794   -0.00048320978267650874   -0.0008920741930424051
-0.05539950107745794   -0.00048320978267650874   -0.0008920741930424051
-0.05539950107745794   -0.00048320978267650874   -0.0008920741930424051
-0.05539950107745794   -0.00048320978267650874   -0.0008920741930424051
-0.05169677503444542   0.00443425864414624   0.006015669663972246
-0.05169677503444542   0.00443425864414624   0.006015669663972246
-0.05169677503444542   0.00443425864414624   0.006015669663972246
-0.05169677503444542   0.00443425864414624   0.006015669663972246
-0.06301317209863261   -0.007824021871826802   -0.0038471290200768693
-0.06301317209863261   -0.007824021871826802   -0.0038471290200768693
-0.06301317209863261   -0.007824021871826802   -0.0038471290200768693
-0.06301317209863261   -0.007824021871826802   -0.0038471290200768693
-0.06289937478491338   -0.00024235448593858296   0.00665103842143955
-0.06289937478491338   -0.00024235448593858296   0.00665103842143955
-0.06289937478491338   -0.00024235448593858296   0.00665103842143955
-0.06289937478491338   -0.00024235448593858296   0.00665103842143955
-0.05638540078937023   -0.008091594138729279   -0.0023098738907256847
-0.05638540078937023   -0.008091594138729279   -0.0023098738907256847
-0.05638540078937023   -0.008091594138729279   -0.0023098738907256847
-0.05638540078937023   -0.008091594138729279   -0.0023098738907256847
-0.056661726675739765   -0.0019323044629657293   -0.002067313416185069
-0.056661726675739765   -0.0019323044629657293   -0.002067313416185069
-0.056661726675739765   -0.0019323044629657293   -0.002067313416185069
-0.056661726675739765   -0.0019323044629657293   -0.002067313416185069
-0.08992473038820194   -0.008426962020356378   -0.009696799514775954
-0.08992473038820194   -0.008426962020356378   -0.009696799514775954
-0.08992473038820194   -0.008426962020356378   -0.009696799514775954
-0.08992473038820194   -0.008426962020356378   -0.009696799514775954
-0.05967849361171949   0.004096686200679642   0.0022030973234948856
-0.05967849361171949   0.004096686200679642   0.0022030973234948856
-0.05967849361171949   0.004096686200679642   0.0022030973234948856
-0.05967849361171949   0.004096686200679642   0.0022030973234948856
-0.06295699312061942   -0.004733422060499728   -0.004574882763509866
-0.06295699312061942   -0.004733422060499728   -0.004574882763509866
-0.06295699312061942   -0.004733422060499728   -0.004574882763509866
-0.06295699312061942   -0.004733422060499728   -0.004574882763509866
-0.09697193980203853   -0.012354083616515755   0.01026922281849512
-0.09697193980203853   -0.012354083616515755   0.01026922281849512
-0.09697193980203853   -0.012354083616515755   0.01026922281849512
-0.09697193980203853   -0.012354083616515755   0.01026922281849512
-0.07081508490872628   -0.00317875153792194   0.010267927183368945
-0.07081508490872628   -0.00317875153792194   0.010267927183368945
-0.07081508490872628   -0.00317875153792194   0.010267927183368945
-0.07081508490872628   -0.00317875153792194   0.010267927183368945
-0.10056964642894473   -0.012796379129977477   -0.007277014802573311
-0.10056964642894473   -0.012796379129977477   -0.007277014802573311
-0.10056964642894473   -0.012796379129977477   -0.007277014802573311
-0.10056964642894473   -0.012796379129977477   -0.007277014802573311
-0.061928079120243736   -0.006859919173568388   0.0026961843514371896
-0.061928079120243736   -0.006859919173568388   0.0026961843514371896
-0.061928079120243736   -0.006859919173568388   0.0026961843514371896
-0.061928079120243736   -0.006859919173568388   0.0026961843514371896
-0.06441416982991884   -0.006603148086925566   -0.003463230054196146
-0.06441416982991884   -0.006603148086925566   -0.003463230054196146
-0.06441416982991884   -0.006603148086925566   -0.003463230054196146
-0.06441416982991884   -0.006603148086925566   -0.003463230054196146
-0.10076295721614636   -0.01707212087565725   -0.00012812550198357557
-0.10076295721614636   -0.01707212087565725   -0.00012812550198357557
-0.10076295721614636   -0.01707212087565725   -0.00012812550198357557
-0.10076295721614636   -0.01707212087565725   -0.00012812550198357557
-0.07939093400798808   -0.010286669253449433   0.0025073470926564537
-0.07939093400798808   -0.010286669253449433   0.0025073470926564537
-0.07939093400798808   -0.010286669253449433   0.0025073470926564537
-0.07939093400798808   -0.010286669253449433   0.0025073470926564537
-0.10144216421430993   -0.014529464355546754   -0.006066817012910976
-0.10144216421430993   -0.014529464355546754   -0.006066817012910976
-0.10144216421430993   -0.014529464355546754   -0.006066817012910976
-0.10144216421430993   -0.014529464355546754   -0.006066817012910976
-0.06446449473382464   -0.009875336509105416   -0.0004426661515461237
-0.06446449473382464   -0.009875336509105416   -0.0004426661515461237
-0.06446449473382464   -0.009875336509105416   -0.0004426661515461237
-0.06446449473382464   -0.009875336509105416   -0.0004426661515461237
-0.06491116141058707   -0.010920117423449883   -0.00263599703768307
-0.06491116141058707   -0.010920117423449883   -0.00263599703768307
-0.06491116141058707   -0.010920117423449883   -0.00263599703768307
-0.06491116141058707   -0.010920117423449883   -0.00263599703768307
-0.10403754172020083   -0.025749817919814406   0.0011352858889909106
-0.10403754172020083   -0.025749817919814406   0.0011352858889909106
-0.10403754172020083   -0.025749817919814406   0.0011352858889909106
-0.10403754172020083   -0.025749817919814406   0.0011352858889909106
-0.0798603437235143   -0.014024044559752431   0.00035283266456577836
-0.0798603437235143   -0.014024044559752431   0.00035283266456577836
-0.0798603437235143   -0.014024044559752431   0.00035283266456577836
-0.0798603437235143   -0.014024044559752431   0.00035283266456577836
-0.06437809094783649   -0.011071487699630688   -0.006126715456779457
-0.06437809094783649   -0.011071487699630688   -0.006126715456779457
-0.06437809094783649   -0.011071487699630688   -0.006126715456779457
-0.06437809094783649   -0.011071487699630688   -0.006126715456779457
-0.0463351334121507   -0.032339937478564985   -0.0059485119650768675
-0.0463351334121507   -0.032339937478564985   -0.0059485119650768675
-0.0463351334121507   -0.032339937478564985   -0.0059485119650768675
-0.0463351334121507   -0.032339937478564985   -0.0059485119650768675
-0.04056247031770229   -0.0069369206528948546   -0.000585544435494078
-0.04056247031770229   -0.0069369206528948546   -0.000585544435494078
-0.04056247031770229   -0.0069369206528948546   -0.000585544435494078
-0.04056247031770229   -0.0069369206528948546   -0.000585544435494078
-0.06927874789525623   -0.03365065660320437   -0.007266422093989265
-0.06927874789525623   -0.03365065660320437   -0.007266422093989265
-0.06927874789525623   -0.03365065660320437   -0.007266422093989265
-0.06927874789525623   -0.03365065660320437   -0.007266422093989265
-0.05455077666222648   -0.022148559422287717   -0.0016532514881775094
-0.05455077666222648   -0.022148559422287717   -0.0016532514881775094
-0.05455077666222648   -0.022148559422287717   -0.0016532514881775094
-0.05455077666222648   -0.022148559422287717   -0.0016532514881775094
-0.06454122577676474   -0.012551213732129762   -0.004678254372606167
-0.06454122577676474   -0.012551213732129762   -0.004678254372606167
-0.06454122577676474   -0.012551213732129762   -0.004678254372606167
-0.06454122577676474   -0.012551213732129762   -0.004678254372606167
-0.045550261311206354   -0.028286632398982065   -0.00417478765692762
-0.045550261311206354   -0.028286632398982065   -0.00417478765692762
-0.045550261311206354   -0.028286632398982065   -0.00417478765692762
-0.045550261311206354   -0.028286632398982065   -0.00417478765692762
-0.041454231906236476   -0.008899421125713203   -0.00016212883291760166
-0.041454231906236476   -0.008899421125713203   -0.00016212883291760166
-0.041454231906236476   -0.008899421125713203   -0.00016212883291760166
-0.041454231906236476   -0.008899421125713203   -0.00016212883291760166
-0.06993485363947291   -0.03344717539266496   -0.00422262179622796
-0.06993485363947291   -0.03344717539266496   -0.00422262179622796
-0.06993485363947291   -0.03344717539266496   -0.00422262179622796
-0.06993485363947291   -0.03344717539266496   -0.00422262179622796
-0.054237464028623776   -0.020750637214007564   -0.0017614884948236507
-0.054237464028623776   -0.020750637214007564   -0.0017614884948236507
-0.054237464028623776   -0.020750637214007564   -0.0017614884948236507
-0.054237464028623776   -0.020750637214007564   -0.0017614884948236507
-0.06601374084876001   -0.014493119828916587   -0.003571113406410997
-0.06601374084876001   -0.014493119828916587   -0.003571113406410997
-0.06601374084876001   -0.014493119828916587   -0.003571113406410997
-0.06601374084876001   -0.014493119828916587   -0.003571113406410997
-0.04593371447575678   -0.02841184646826883   -0.0030471163379634687
-0.04593371447575678   -0.02841184646826883   -0.0030471163379634687
-0.04593371447575678   -0.02841184646826883   -0.0030471163379634687
-0.04593371447575678   -0.02841184646826883   -0.0030471163379634687
-0.041931148829182856   -0.01124048496224934   0.00044208578481224085
-0.041931148829182856   -0.01124048496224934   0.00044208578481224085
-0.041931148829182856   -0.01124048496224934   0.00044208578481224085
-0.041931148829182856   -0.01124048496224934   0.00044208578481224085
-0.07021176634140344   -0.03370173828664585   -0.0063574008285699705
-0.07021176634140344   -0.03370173828664585   -0.0063574008285699705
-0.07021176634140344   -0.03370173828664585   -0.0063574008285699705
-0.07021176634140344   -0.03370173828664585   -0.0063574008285699705
-0.05553215128215159   -0.022222684695481568   -0.0033199010436770057
-0.05553215128215159   -0.022222684695481568   -0.0033199010436770057
-0.05553215128215159   -0.022222684695481568   -0.0033199010436770057
-0.05553215128215159   -0.022222684695481568   -0.0033199010436770057
-0.04024342559328093   -0.007246299157718476   -0.0005836111915745116
-0.04024342559328093   -0.007246299157718476   -0.0005836111915745116
-0.04024342559328093   -0.007246299157718476   -0.0005836111915745116
-0.04024342559328093   -0.007246299157718476   -0.0005836111915745116
-0.03589541256810201   -0.025189169312156555   -0.004342813485334042
-0.03589541256810201   -0.025189169312156555   -0.004342813485334042
-0.03589541256810201   -0.025189169312156555   -0.004342813485334042
-0.03589541256810201   -0.025189169312156555   -0.004342813485334042
-0.03103489116329879   -0.006361817043038789   0.0015164439193067715
-0.03103489116329879   -0.006361817043038789   0.0015164439193067715
-0.03103489116329879   -0.006361817043038789   0.0015164439193067715
-0.03103489116329879   -0.006361817043038789   0.0015164439193067715
-0.04535620762960435   -0.026838676945870873   -0.004652474702028802
-0.04535620762960435   -0.026838676945870873   -0.004652474702028802
-0.04535620762960435   -0.026838676945870873   -0.004652474702028802
-0.04535620762960435   -0.026838676945870873   -0.004652474702028802
-0.0379935489066537   -0.016562991141027397   -0.001964372400157237
-0.0379935489066537   -0.016562991141027397   -0.001964372400157237
-0.0379935489066537   -0.016562991141027397   -0.001964372400157237
-0.0379935489066537   -0.016562991141027397   -0.001964372400157237
-0.04077262083912936   -0.008606079417642671   3.286172211793085e-05
-0.04077262083912936   -0.008606079417642671   3.286172211793085e-05
-0.04077262083912936   -0.008606079417642671   3.286172211793085e-05
-0.04077262083912936   -0.008606079417642671   3.286172211793085e-05
-0.03585639946533597   -0.024832336082829344   -0.004120578551089516
-0.03585639946533597   -0.024832336082829344   -0.004120578551089516
-0.03585639946533597   -0.024832336082829344   -0.004120578551089516
-0.03585639946533597   -0.024832336082829344   -0.004120578551089516
-0.03144675565655697   -0.007990641656360056   0.0019962416873512074
-0.03144675565655697   -0.007990641656360056   0.0019962416873512074
-0.03144675565655697   -0.007990641656360056   0.0019962416873512074
-0.03144675565655697   -0.007990641656360056   0.0019962416873512074
-0.045901173557262025   -0.027257178822846825   -0.004039079390911718
-0.045901173557262025   -0.027257178822846825   -0.004039079390911718
-0.045901173557262025   -0.027257178822846825   -0.004039079390911718
-0.045901173557262025   -0.027257178822846825   -0.004039079390911718
-0.0382684339359605   -0.017121122498274015   -0.0025592343982802582
-0.0382684339359605   -0.017121122498274015   -0.0025592343982802582
-0.0382684339359605   -0.017121122498274015   -0.0025592343982802582
-0.0382684339359605   -0.017121122498274015   -0.0025592343982802582
-0.04155328166040597   -0.010268795783746457   0.0007119970542681974
-0.04155328166040597   -0.010268795783746457   0.0007119970542681974
-0.04155328166040597   -0.010268795783746457   0.0007119970542681974
-0.04155328166040597   -0.010268795783746457   0.0007119970542681974
-0.03593156274709732   -0.025115939889145043   -0.0033024955325665463
-0.03593156274709732   -0.025115939889145043   -0.0033024955325665463
-0.03593156274709732   -0.025115939889145043   -0.0033024955325665463
-0.03593156274709732   -0.025115939889145043   -0.0033024955325665463
-0.031530532152364725   -0.00949272538973259   0.002533998750489131
-0.031530532152364725   -0.00949272538973259   0.002533998750489131
-0.031530532152364725   -0.00949272538973259   0.002533998750489131
-0.031530532152364725   -0.00949272538973259   0.002533998750489131
-0.04583648670172967   -0.027483155875555727   -0.0028419326646154375
-0.04583648670172967   -0.027483155875555727   -0.0028419326646154375
-0.04583648670172967   -0.027483155875555727   -0.0028419326646154375
-0.04583648670172967   -0.027483155875555727   -0.0028419326646154375
-0.038601588711129474   -0.01792399866245084   -0.0030328879347814564
-0.038601588711129474   -0.01792399866245084   -0.0030328879347814564
-0.038601588711129474   -0.01792399866245084   -0.0030328879347814564
-0.038601588711129474   -0.01792399866245084   -0.0030328879347814564
-0.029577106357927256   -0.0008506800296713898   0.002910228283054583
-0.029577106357927256   -0.0008506800296713898   0.002910228283054583
-0.029577106357927256   -0.0008506800296713898   0.002910228283054583
-0.029577106357927256   -0.0008506800296713898   0.002910228283054583
-0.030121361955862378   -0.013772379442168747   -0.0027977170471717642
-0.030121361955862378   -0.013772379442168747   -0.0027977170471717642
-0.030121361955862378   -0.013772379442168747   -0.0027977170471717642
-0.030121361955862378   -0.013772379442168747   -0.0027977170471717642
-0.026362929139894655   -0.001974634456220804   0.0033020454168011374
-0.026362929139894655   -0.001974634456220804   0.0033020454168011374
-0.026362929139894655   -0.001974634456220804   0.0033020454168011374
-0.026362929139894655   -0.001974634456220804   0.0033020454168011374
-0.03351642937290672   -0.015353234323256635   -0.0018998298485150226
-0.03351642937290672   -0.015353234323256635   -0.0018998298485150226
-0.03351642937290672   -0.015353234323256635   -0.0018998298485150226
-0.03351642937290672   -0.015353234323256635   -0.0018998298485150226
-0.029976882999216147   -0.007878445917119024   -0.0010892241931534372
-0.029976882999216147   -0.007878445917119024   -0.0010892241931534372
-0.029976882999216147   -0.007878445917119024   -0.0010892241931534372
-0.029976882999216147   -0.007878445917119024   -0.0010892241931534372
-0.029928334087743622   -0.002675535065285051   0.0033629473193288718
-0.029928334087743622   -0.002675535065285051   0.0033629473193288718
-0.029928334087743622   -0.002675535065285051   0.0033629473193288718
-0.029928334087743622   -0.002675535065285051   0.0033629473193288718
-0.030227221635117978   -0.014928530924252616   -0.0030655205912836665
-0.030227221635117978   -0.014928530924252616   -0.0030655205912836665
-0.030227221635117978   -0.014928530924252616   -0.0030655205912836665
-0.030227221635117978   -0.014928530924252616   -0.0030655205912836665
-0.026782709289476757   -0.0036006352726304174   0.0035775505561292976
-0.026782709289476757   -0.0036006352726304174   0.0035775505561292976
-0.026782709289476757   -0.0036006352726304174   0.0035775505561292976
-0.026782709289476757   -0.0036006352726304174   0.0035775505561292976
-0.03391709435652115   -0.016316535963390878   -0.002029557505438873
-0.03391709435652115   -0.016316535963390878   -0.002029557505438873
-0.03391709435652115   -0.016316535963390878   -0.002029557505438873
-0.03391709435652115   -0.016316535963390878   -0.002029557505438873
-0.030199581866158322   -0.009148586601220459   -0.001884947081470581
-0.030199581866158322   -0.009148586601220459   -0.001884947081470581
-0.030199581866158322   -0.009148586601220459   -0.001884947081470581
-0.030199581866158322   -0.009148586601220459   -0.001884947081470581
-0.030336793310575656   -0.0042632331965805886   0.003818644957477345
-0.030336793310575656   -0.0042632331965805886   0.003818644957477345
-0.030336793310575656   -0.0042632331965805886   0.003818644957477345
-0.030336793310575656   -0.0042632331965805886   0.003818644957477345
-0.030532093703445385   -0.015823021407464003   -0.0029469853788802653
-0.030532093703445385   -0.015823021407464003   -0.0029469853788802653
-0.030532093703445385   -0.015823021407464003   -0.0029469853788802653
-0.030532093703445385   -0.015823021407464003   -0.0029469853788802653
-0.026969184128310286   -0.0051420657481399705   0.004163275119604166
-0.026969184128310286   -0.0051420657481399705   0.004163275119604166
-0.026969184128310286   -0.0051420657481399705   0.004163275119604166
-0.026969184128310286   -0.0051420657481399705   0.004163275119604166
-0.0338509012755464   -0.017247830828937043   -0.001312741426214791
-0.0338509012755464   -0.017247830828937043   -0.001312741426214791
-0.0338509012755464   -0.017247830828937043   -0.001312741426214791
-0.0338509012755464   -0.017247830828937043   -0.001312741426214791
-0.030547712134624476   -0.010311006637139278   -0.0024914072047896117
-0.030547712134624476   -0.010311006637139278   -0.0024914072047896117
-0.030547712134624476   -0.010311006637139278   -0.0024914072047896117
-0.030547712134624476   -0.010311006637139278   -0.0024914072047896117
-0.0251342120800097   0.0036857809749171674   0.004679871915005723
-0.0251342120800097   0.0036857809749171674   0.004679871915005723
-0.0251342120800097   0.0036857809749171674   0.004679871915005723
-0.0251342120800097   0.0036857809749171674   0.004679871915005723
-0.01963984914384882   -0.004854578274214814   -0.0018653213439443583
-0.01963984914384882   -0.004854578274214814   -0.0018653213439443583
-0.01963984914384882   -0.004854578274214814   -0.0018653213439443583
-0.01963984914384882   -0.004854578274214814   -0.0018653213439443583
-0.017958993497339162   0.003764602101956762   0.004673715732669089
-0.017958993497339162   0.003764602101956762   0.004673715732669089
-0.017958993497339162   0.003764602101956762   0.004673715732669089
-0.017958993497339162   0.003764602101956762   0.004673715732669089
-0.028169286318996834   -0.006709624086304696   -0.0009947508486258625
-0.028169286318996834   -0.006709624086304696   -0.0009947508486258625
-0.028169286318996834   -0.006709624086304696   -0.0009947508486258625
-0.028169286318996834   -0.006709624086304696   -0.0009947508486258625
-0.022292929344937974   -0.000533712529700755   -0.0006766451810938723
-0.022292929344937974   -0.000533712529700755   -0.0006766451810938723
-0.022292929344937974   -0.000533712529700755   -0.0006766451810938723
-0.022292929344937974   -0.000533712529700755   -0.0006766451810938723
-0.025121602279055938   0.002420121876695311   0.005113923388078607
-0.025121602279055938   0.002420121876695311   0.005113923388078607
-0.025121602279055938   0.002420121876695311   0.005113923388078607
-0.025121602279055938   0.002420121876695311   0.005113923388078607
-0.02106366093643476   -0.005422127260197947   -0.0016628921006541892
-0.02106366093643476   -0.005422127260197947   -0.0016628921006541892
-0.02106366093643476   -0.005422127260197947   -0.0016628921006541892
-0.02106366093643476   -0.005422127260197947   -0.0016628921006541892
-0.019054632738318367   0.0029075960525307494   0.005852421241394744
-0.019054632738318367   0.0029075960525307494   0.005852421241394744
-0.019054632738318367   0.0029075960525307494   0.005852421241394744
-0.019054632738318367   0.0029075960525307494   0.005852421241394744
-0.028451747463147326   -0.007202963344012458   -0.0011653122408415162
-0.028451747463147326   -0.007202963344012458   -0.0011653122408415162
-0.028451747463147326   -0.007202963344012458   -0.0011653122408415162
-0.028451747463147326   -0.007202963344012458   -0.0011653122408415162
-0.023380952449643513   -0.0014583756835764511   -0.001181752551288598
-0.023380952449643513   -0.0014583756835764511   -0.001181752551288598
-0.023380952449643513   -0.0014583756835764511   -0.001181752551288598
-0.023380952449643513   -0.0014583756835764511   -0.001181752551288598
-0.02527189053830467   0.0016665517101050135   0.005864457329254286
-0.02527189053830467   0.0016665517101050135   0.005864457329254286
-0.02527189053830467   0.0016665517101050135   0.005864457329254286
-0.02527189053830467   0.0016665517101050135   0.005864457329254286
-0.02245266133385437   -0.006180090672280392   -0.002050035011474139
-0.02245266133385437   -0.006180090672280392   -0.002050035011474139
-0.02245266133385437   -0.006180090672280392   -0.002050035011474139
-0.02245266133385437   -0.006180090672280392   -0.002050035011474139
-0.02165426572877903   0.0005359364345686882   0.006096643915172943
-0.02165426572877903   0.0005359364345686882   0.006096643915172943
-0.02165426572877903   0.0005359364345686882   0.006096643915172943
-0.02165426572877903   0.0005359364345686882   0.006096643915172943
-0.028515640645755524   -0.007776652274927059   -0.0009344209408349286
-0.028515640645755524   -0.007776652274927059   -0.0009344209408349286
-0.028515640645755524   -0.007776652274927059   -0.0009344209408349286
-0.028515640645755524   -0.007776652274927059   -0.0009344209408349286
-0.024061638115911547   -0.002202657435002525   -0.001859455042075252
-0.024061638115911547   -0.002202657435002525   -0.001859455042075252
-0.024061638115911547   -0.002202657435002525   -0.001859455042075252
-0.024061638115911547   -0.002202657435002525   -0.001859455042075252
-0.22792988680162887   -0.03404637695169287   -0.020260825248458268
-0.22792988680162887   -0.03404637695169287   -0.020260825248458268
-0.22792988680162887   -0.03404637695169287   -0.020260825248458268
-0.22792988680162887   -0.03404637695169287   -0.020260825248458268
-0.08149638124191563   -0.1469075880569235   -0.015493846318404676
-0.08149638124191563   -0.1469075880569235   -0.015493846318404676
-0.08149638124191563   -0.1469075880569235   -0.015493846318404676
-0.08149638124191563   -0.1469075880569235   -0.015493846318404676
-0.06037117464454863   -0.007123677472248297   -0.00017951161765651885
-0.06037117464454863   -0.007123677472248297   -0.00017951161765651885
-0.06037117464454863   -0.007123677472248297   -0.00017951161765651885
-0.06037117464454863   -0.007123677472248297   -0.00017951161765651885
-0.24841446296878886   -0.16871275803318908   -0.08342544420039559
-0.24841446296878886   -0.16871275803318908   -0.08342544420039559
-0.24841446296878886   -0.16871275803318908   -0.08342544420039559
-0.24841446296878886   -0.16871275803318908   -0.08342544420039559
-0.15059400977772247   -0.08337136130700507   -0.012220174319586654
-0.15059400977772247   -0.08337136130700507   -0.012220174319586654
-0.15059400977772247   -0.08337136130700507   -0.012220174319586654
-0.15059400977772247   -0.08337136130700507   -0.012220174319586654
-0.21208942783103238   -0.04294502591247874   -0.027568000632325028
-0.21208942783103238   -0.04294502591247874   -0.027568000632325028
-0.21208942783103238   -0.04294502591247874   -0.027568000632325028
-0.21208942783103238   -0.04294502591247874   -0.027568000632325028
-0.08877407721405098   -0.12496927702470466   -0.02434842491271144
-0.08877407721405098   -0.12496927702470466   -0.02434842491271144
-0.08877407721405098   -0.12496927702470466   -0.02434842491271144
-0.08877407721405098   -0.12496927702470466   -0.02434842491271144
-0.06226835549959427   -0.008903700885306412   0.0022193727332194884
-0.06226835549959427   -0.008903700885306412   0.0022193727332194884
-0.06226835549959427   -0.008903700885306412   0.0022193727332194884
-0.06226835549959427   -0.008903700885306412   0.0022193727332194884
-0.23291182894822232   -0.15265603030892594   -0.07711357185142965
-0.23291182894822232   -0.15265603030892594   -0.07711357185142965
-0.23291182894822232   -0.15265603030892594   -0.07711357185142965
-0.23291182894822232   -0.15265603030892594   -0.07711357185142965
-0.14221856952190295   -0.07588028634097607   0.005212967347640053
-0.14221856952190295   -0.07588028634097607   0.005212967347640053
-0.14221856952190295   -0.07588028634097607   0.005212967347640053
-0.14221856952190295   -0.07588028634097607   0.005212967347640053
-0.1993424390499003   -0.04095576889646741   -0.02096688377227953
-0.1993424390499003   -0.04095576889646741   -0.02096688377227953
-0.1993424390499003   -0.04095576889646741   -0.02096688377227953
-0.1993424390499003   -0.04095576889646741   -0.02096688377227953
-0.0869638019209332   -0.11173001882078196   -0.018431541437998904
-0.0869638019209332   -0.11173001882078196   -0.018431541437998904
-0.0869638019209332   -0.11173001882078196   -0.018431541437998904
-0.0869638019209332   -0.11173001882078196   -0.018431541437998904
-0.0731504373643079   -0.02066709552249827   -0.004338206480321341
-0.0731504373643079   -0.02066709552249827   -0.004338206480321341
-0.0731504373643079   -0.02066709552249827   -0.004338206480321341
-0.0731504373643079   -0.02066709552249827   -0.004338206480321341
-0.21255691118104464   -0.13110235886772043   -0.06873185400975301
-0.21255691118104464   -0.13110235886772043   -0.06873185400975301
-0.21255691118104464   -0.13110235886772043   -0.06873185400975301
-0.21255691118104464   -0.13110235886772043   -0.06873185400975301
-0.1321626503669284   -0.06631388492270532   0.02511052972085836
-0.1321626503669284   -0.06631388492270532   0.02511052972085836
-0.1321626503669284   -0.06631388492270532   0.02511052972085836
-0.1321626503669284   -0.06631388492270532   0.02511052972085836
-0.0568411464068934   -0.03423040810378471   -0.004894852096432754
-0.0568411464068934   -0.03423040810378471   -0.004894852096432754
-0.0568411464068934   -0.03423040810378471   -0.004894852096432754
-0.0568411464068934   -0.03423040810378471   -0.004894852096432754
-0.028421672244421204   -0.052559051070755716   -0.0071240952927165094
-0.028421672244421204   -0.052559051070755716   -0.0071240952927165094
-0.028421672244421204   -0.052559051070755716   -0.0071240952927165094
-0.028421672244421204   -0.052559051070755716   -0.0071240952927165094
-0.023738323339747666   -0.02300158308779299   0.000438520927558121
-0.023738323339747666   -0.02300158308779299   0.000438520927558121
-0.023738323339747666   -0.02300158308779299   0.000438520927558121
-0.023738323339747666   -0.02300158308779299   0.000438520927558121
-0.07312196981658184   -0.07218309877343095   0.0011259338233605976
-0.07312196981658184   -0.07218309877343095   0.0011259338233605976
-0.07312196981658184   -0.07218309877343095   0.0011259338233605976
-0.07312196981658184   -0.07218309877343095   0.0011259338233605976
-0.03830564373219264   -0.03443531357917119   0.013031741307151762
-0.03830564373219264   -0.03443531357917119   0.013031741307151762
-0.03830564373219264   -0.03443531357917119   0.013031741307151762
-0.03830564373219264   -0.03443531357917119   0.013031741307151762
-0.06598055163928497   -0.03217312312160786   -0.0031769509419789423
-0.06598055163928497   -0.03217312312160786   -0.0031769509419789423
-0.06598055163928497   -0.03217312312160786   -0.0031769509419789423
-0.06598055163928497   -0.03217312312160786   -0.0031769509419789423
-0.03317998482721021   -0.0653118020497818   -0.004459567547765317
-0.03317998482721021   -0.0653118020497818   -0.004459567547765317
-0.03317998482721021   -0.0653118020497818   -0.004459567547765317
-0.03317998482721021   -0.0653118020497818   -0.004459567547765317
-0.02626863434675384   -0.023751702428878644   0.0005885237299835628
-0.02626863434675384   -0.023751702428878644   0.0005885237299835628
-0.02626863434675384   -0.023751702428878644   0.0005885237299835628
-0.02626863434675384   -0.023751702428878644   0.0005885237299835628
-0.07765144529859826   -0.07205811168535517   -0.011541665461750965
-0.07765144529859826   -0.07205811168535517   -0.011541665461750965
-0.07765144529859826   -0.07205811168535517   -0.011541665461750965
-0.07765144529859826   -0.07205811168535517   -0.011541665461750965
-0.04689343614158413   -0.04344469502240303   0.005371868578328791
-0.04689343614158413   -0.04344469502240303   0.005371868578328791
-0.04689343614158413   -0.04344469502240303   0.005371868578328791
-0.04689343614158413   -0.04344469502240303   0.005371868578328791
-0.0688656499125534   -0.033602475276176484   -0.006068324940706082
-0.0688656499125534   -0.033602475276176484   -0.006068324940706082
-0.0688656499125534   -0.033602475276176484   -0.006068324940706082
-0.0688656499125534   -0.033602475276176484   -0.006068324940706082
-0.03487240049268856   -0.06202530959794731   -0.004156699830621372
-0.03487240049268856   -0.06202530959794731   -0.004156699830621372
-0.03487240049268856   -0.06202530959794731   -0.004156699830621372
-0.03487240049268856   -0.06202530959794731   -0.004156699830621372
-0.030370842797650004   -0.024283862451998785   0.0008910548009119111
-0.030370842797650004   -0.024283862451998785   0.0008910548009119111
-0.030370842797650004   -0.024283862451998785   0.0008910548009119111
-0.030370842797650004   -0.024283862451998785   0.0008910548009119111
-0.08419888379214359   -0.07059581674492747   -0.009651717397070039
-0.08419888379214359   -0.07059581674492747   -0.009651717397070039
-0.08419888379214359   -0.07059581674492747   -0.009651717397070039
-0.08419888379214359   -0.07059581674492747   -0.009651717397070039
-0.049918111458317954   -0.04108427917692033   0.005566669316276541
-0.049918111458317954   -0.04108427917692033   0.005566669316276541
-0.049918111458317954   -0.04108427917692033   0.005566669316276541
-0.049918111458317954   -0.04108427917692033   0.005566669316276541
-0.020359776048697254   -0.02090684365681607   0.001533178271963605
-0.020359776048697254   -0.02090684365681607   0.001533178271963605
-0.020359776048697254   -0.02090684365681607   0.001533178271963605
-0.020359776048697254   -0.02090684365681607   0.001533178271963605
-0.014213668761730046   -0.01961773307674453   -0.0036405547361834925
-0.014213668761730046   -0.01961773307674453   -0.0036405547361834925
-0.014213668761730046   -0.01961773307674453   -0.0036405547361834925
-0.014213668761730046   -0.01961773307674453   -0.0036405547361834925
-0.013169465364966142   -0.019190407905200612   0.0014021282366843144
-0.013169465364966142   -0.019190407905200612   0.0014021282366843144
-0.013169465364966142   -0.019190407905200612   0.0014021282366843144
-0.013169465364966142   -0.019190407905200612   0.0014021282366843144
-0.024371017445979803   -0.024936982143764993   -0.0007895505476300715
-0.024371017445979803   -0.024936982143764993   -0.0007895505476300715
-0.024371017445979803   -0.024936982143764993   -0.0007895505476300715
-0.024371017445979803   -0.024936982143764993   -0.0007895505476300715
-0.015012653388362426   -0.017675123044595904   0.0066768848307711985
-0.015012653388362426   -0.017675123044595904   0.0066768848307711985
-0.015012653388362426   -0.017675123044595904   0.0066768848307711985
-0.015012653388362426   -0.017675123044595904   0.0066768848307711985
-0.023096442507010276   -0.021105800483546565   0.0017521424869986766
-0.023096442507010276   -0.021105800483546565   0.0017521424869986766
-0.023096442507010276   -0.021105800483546565   0.0017521424869986766
-0.023096442507010276   -0.021105800483546565   0.0017521424869986766
-0.014782778321481022   -0.02336032758296447   -0.002494516868126231
-0.014782778321481022   -0.02336032758296447   -0.002494516868126231
-0.014782778321481022   -0.02336032758296447   -0.002494516868126231
-0.014782778321481022   -0.02336032758296447   -0.002494516868126231
-0.013747969730134924   -0.019755424225766604   0.001316489767363249
-0.013747969730134924   -0.019755424225766604   0.001316489767363249
-0.013747969730134924   -0.019755424225766604   0.001316489767363249
-0.013747969730134924   -0.019755424225766604   0.001316489767363249
-0.026538863600352822   -0.028704451728710445   0.004190126761820461
-0.026538863600352822   -0.028704451728710445   0.004190126761820461
-0.026538863600352822   -0.028704451728710445   0.004190126761820461
-0.026538863600352822   -0.028704451728710445   0.004190126761820461
-0.017043740865798004   -0.01983955568802678   0.005228052375016111
-0.017043740865798004   -0.01983955568802678   0.005228052375016111
-0.017043740865798004   -0.01983955568802678   0.005228052375016111
-0.017043740865798004   -0.01983955568802678   0.005228052375016111
-0.025553090780630533   -0.021914032135828404   0.0023285712675498622
-0.025553090780630533   -0.021914032135828404   0.0023285712675498622
-0.025553090780630533   -0.021914032135828404   0.0023285712675498622
-0.025553090780630533   -0.021914032135828404   0.0023285712675498622
-0.016021688703841047   -0.02783378997263248   -0.0019737393543014974
-0.016021688703841047   -0.02783378997263248   -0.0019737393543014974
-0.016021688703841047   -0.02783378997263248   -0.0019737393543014974
-0.016021688703841047   -0.02783378997263248   -0.0019737393543014974
-0.014670489608086555   -0.02029894636384489   0.0019131178002956334
-0.014670489608086555   -0.02029894636384489   0.0019131178002956334
-0.014670489608086555   -0.02029894636384489   0.0019131178002956334
-0.014670489608086555   -0.02029894636384489   0.0019131178002956334
-0.03217521570291258   -0.03433539268693591   0.001920720509536131
-0.03217521570291258   -0.03433539268693591   0.001920720509536131
-0.03217521570291258   -0.03433539268693591   0.001920720509536131
-0.03217521570291258   -0.03433539268693591   0.001920720509536131
-0.01979486031839007   -0.022271447136428976   0.0018731471176463765
-0.01979486031839007   -0.022271447136428976   0.0018731471176463765
-0.01979486031839007   -0.022271447136428976   0.0018731471176463765
-0.01979486031839007   -0.022271447136428976   0.0018731471176463765
-0.01043402931872834   -0.008456156354076238   0.0040960657561567426
-0.01043402931872834   -0.008456156354076238   0.0040960657561567426
-0.01043402931872834   -0.008456156354076238   0.0040960657561567426
-0.01043402931872834   -0.008456156354076238   0.0040960657561567426
-0.00870007447779359   -0.002984038185967694   -0.0009060227493038638
-0.00870007447779359   -0.002984038185967694   -0.0009060227493038638
-0.00870007447779359   -0.002984038185967694   -0.0009060227493038638
-0.00870007447779359   -0.002984038185967694   -0.0009060227493038638
-0.008157684591163391   -0.009407938056630002   0.0024679067028757777
-0.008157684591163391   -0.009407938056630002   0.0024679067028757777
-0.008157684591163391   -0.009407938056630002   0.0024679067028757777
-0.008157684591163391   -0.009407938056630002   0.0024679067028757777
-0.010573631961643981   -0.004850093242573432   4.098059066794265e-05
-0.010573631961643981   -0.004850093242573432   4.098059066794265e-05
-0.010573631961643981   -0.004850093242573432   4.098059066794265e-05
-0.010573631961643981   -0.004850093242573432   4.098059066794265e-05
-0.008680414302479176   -0.005863334361669113   0.0020243335426073207
-0.008680414302479176   -0.005863334361669113   0.0020243335426073207
-0.008680414302479176   -0.005863334361669113   0.0020243335426073207
-0.008680414302479176   -0.005863334361669113   0.0020243335426073207
-0.010750014345966796   -0.009631825219058126   0.003940800645538563
-0.010750014345966796   -0.009631825219058126   0.003940800645538563
-0.010750014345966796   -0.009631825219058126   0.003940800645538563
-0.010750014345966796   -0.009631825219058126   0.003940800645538563
-0.007863848446017294   -0.004508752319322026   -0.0009620983087017174
-0.007863848446017294   -0.004508752319322026   -0.0009620983087017174
-0.007863848446017294   -0.004508752319322026   -0.0009620983087017174
-0.007863848446017294   -0.004508752319322026   -0.0009620983087017174
-0.007868988805385497   -0.010231913458513858   0.0023454494678105758
-0.007868988805385497   -0.010231913458513858   0.0023454494678105758
-0.007868988805385497   -0.010231913458513858   0.0023454494678105758
-0.007868988805385497   -0.010231913458513858   0.0023454494678105758
-0.011157393124090281   -0.006990564263437467   0.0015045128352573225
-0.011157393124090281   -0.006990564263437467   0.0015045128352573225
-0.011157393124090281   -0.006990564263437467   0.0015045128352573225
-0.011157393124090281   -0.006990564263437467   0.0015045128352573225
-0.008454400640030432   -0.006827667799674911   0.002088086356977821
-0.008454400640030432   -0.006827667799674911   0.002088086356977821
-0.008454400640030432   -0.006827667799674911   0.002088086356977821
-0.008454400640030432   -0.006827667799674911   0.002088086356977821
-0.011239147763925888   -0.010461666724379901   0.004566842097020756
-0.011239147763925888   -0.010461666724379901   0.004566842097020756
-0.011239147763925888   -0.010461666724379901   0.004566842097020756
-0.011239147763925888   -0.010461666724379901   0.004566842097020756
-0.007953714124480125   -0.006927290956501821   -0.0013827996296746057
-0.007953714124480125   -0.006927290956501821   -0.0013827996296746057
-0.007953714124480125   -0.006927290956501821   -0.0013827996296746057
-0.007953714124480125   -0.006927290956501821   -0.0013827996296746057
-0.007281735855151083   -0.011143657672042642   0.002638958937862855
-0.007281735855151083   -0.011143657672042642   0.002638958937862855
-0.007281735855151083   -0.011143657672042642   0.002638958937862855
-0.007281735855151083   -0.011143657672042642   0.002638958937862855
-0.012932737240371701   -0.01158989638157822   0.0018928296566032305
-0.012932737240371701   -0.01158989638157822   0.0018928296566032305
-0.012932737240371701   -0.01158989638157822   0.0018928296566032305
-0.012932737240371701   -0.01158989638157822   0.0018928296566032305
-0.008750793733558585   -0.008418541473783143   0.0014109690773757412
-0.008750793733558585   -0.008418541473783143   0.0014109690773757412
-0.008750793733558585   -0.008418541473783143   0.0014109690773757412
-0.008750793733558585   -0.008418541473783143   0.0014109690773757412
-0.0072946561408830084   -0.0011542243791470917   0.004291255128428441
-0.0072946561408830084   -0.0011542243791470917   0.004291255128428441
-0.0072946561408830084   -0.0011542243791470917   0.004291255128428441
-0.0072946561408830084   -0.0011542243791470917   0.004291255128428441
-0.002297606175224857   0.00030820375903041627   -8.757781423983439e-05
-0.002297606175224857   0.00030820375903041627   -8.757781423983439e-05
-0.002297606175224857   0.00030820375903041627   -8.757781423983439e-05
-0.002297606175224857   0.00030820375903041627   -8.757781423983439e-05
-0.0007810072035472617   -0.0004766099517685685   0.0027820407086052022
-0.0007810072035472617   -0.0004766099517685685   0.0027820407086052022
-0.0007810072035472617   -0.0004766099517685685   0.0027820407086052022
-0.0007810072035472617   -0.0004766099517685685   0.0027820407086052022
-0.006785379981623644   -0.0001268600776492962   4.8351771593805096e-05
-0.006785379981623644   -0.0001268600776492962   4.8351771593805096e-05
-0.006785379981623644   -0.0001268600776492962   4.8351771593805096e-05
-0.006785379981623644   -0.0001268600776492962   4.8351771593805096e-05
-0.004302378133881668   -0.00043689609770846565   -0.00022101782423971254
-0.004302378133881668   -0.00043689609770846565   -0.00022101782423971254
-0.004302378133881668   -0.00043689609770846565   -0.00022101782423971254
-0.004302378133881668   -0.00043689609770846565   -0.00022101782423971254
-0.006108305559399969   -0.0011975875030396444   0.00450445130810253
-0.006108305559399969   -0.0011975875030396444   0.00450445130810253
-0.006108305559399969   -0.0011975875030396444   0.00450445130810253
-0.006108305559399969   -0.0011975875030396444   0.00450445130810253
-0.0012652051520973288   0.0007869939472950682   -0.0009025529332106877
-0.0012652051520973288   0.0007869939472950682   -0.0009025529332106877
-0.0012652051520973288   0.0007869939472950682   -0.0009025529332106877
-0.0012652051520973288   0.0007869939472950682   -0.0009025529332106877
-0.0002655827309473879   -0.0006421230738620782   0.003452724377710447
-0.0002655827309473879   -0.0006421230738620782   0.003452724377710447
-0.0002655827309473879   -0.0006421230738620782   0.003452724377710447
-0.0002655827309473879   -0.0006421230738620782   0.003452724377710447
-0.006386300707150468   -0.0005901543353868313   0.00011713083585869263
-0.006386300707150468   -0.0005901543353868313   0.00011713083585869263
-0.006386300707150468   -0.0005901543353868313   0.00011713083585869263
-0.006386300707150468   -0.0005901543353868313   0.00011713083585869263
-0.003446818197138801   -0.0003521068778182646   0.00031422965969862295
-0.003446818197138801   -0.0003521068778182646   0.00031422965969862295
-0.003446818197138801   -0.0003521068778182646   0.00031422965969862295
-0.003446818197138801   -0.0003521068778182646   0.00031422965969862295
-0.005589527163581235   -0.0014127399935561097   0.004923584211874137
-0.005589527163581235   -0.0014127399935561097   0.004923584211874137
-0.005589527163581235   -0.0014127399935561097   0.004923584211874137
-0.005589527163581235   -0.0014127399935561097   0.004923584211874137
-0.0009341510114102239   0.00030866784741359724   -0.0008409079458794083
-0.0009341510114102239   0.00030866784741359724   -0.0008409079458794083
-0.0009341510114102239   0.00030866784741359724   -0.0008409079458794083
-0.0009341510114102239   0.00030866784741359724   -0.0008409079458794083
3.2080342835991886e-05   -0.00119128916393518   0.003444673625532953
3.2080342835991886e-05   -0.00119128916393518   0.003444673625532953
3.2080342835991886e-05   -0.00119128916393518   0.003444673625532953
3.2080342835991886e-05   -0.00119128916393518   0.003444673625532953
-0.0058028493488455355   -0.0012859147661706018   0.00017564856351855618
-0.0058028493488455355   -0.0012859147661706018   0.00017564856351855618
-0.0058028493488455355   -0.0012859147661706018   0.00017564856351855618
-0.0058028493488455355   -0.0012859147661706018   0.00017564856351855618
-0.002773773152589974   -0.00045603440473324737   0.0006588226368169067
-0.002773773152589974   -0.00045603440473324737   0.0006588226368169067
-0.002773773152589974   -0.00045603440473324737   0.0006588226368169067
-0.002773773152589974   -0.00045603440473324737   0.0006588226368169067
              </DataArray>   
             <DataArray type="Float64" NumberOfComponents="3" Name="Displacements" format="ascii">   
0.0   0.0   0.0
-0.0006505784405860306   -0.0004382700316521584   -0.00021864750125260259
0.0   0.0   0.0
0.0   0.0   0.0
-0.0006505784405860306   -0.0004382700316521584   -0.00021864750125260259
-0.000412858447836998   -0.0003959262407094172   -0.0001607744405507915
0.0   0.0   0.0
-0.0004039217027421984   -0.00041512793925758756   -0.0001349400419511353
0.0   0.0   0.0
0.0   0.0   0.0
-0.0004039217027421984   -0.00041512793925758756   -0.0001349400419511353
0.0   0.0   0.0
0.0   0.0   0.0
-0.0004039217027421984   -0.00041512793925758756   -0.0001349400419511353
-0.0006799067892529294   -0.00046637165786516993   -0.0001759128154343673
-0.0006505784405860306   -0.0004382700316521584   -0.00021864750125260259
0.0   0.0   0.0
-0.0004039217027421984   -0.00041512793925758756   -0.0001349400419511353
-0.0006505784405860306   -0.0004382700316521584   -0.00021864750125260259
0.0   0.0   0.0
0.0   0.0   0.0
-0.0006799067892529294   -0.00046637165786516993   -0.0001759128154343673
0.0   0.0   0.0
0.0   0.0   0.0
-0.0006799067892529294   -0.00046637165786516993   -0.0001759128154343673
-0.0004039217027421984   -0.00041512793925758756   -0.0001349400419511353
0.0   0.0   0.0
-0.00040422632806023023   -0.0004250641958428864   -0.00010923799932530764
0.0   0.0   0.0
0.0   0.0   0.0
-0.00040422632806023023   -0.0004250641958428864   -0.00010923799932530764
0.0   0.0   0.0
0.0   0.0   0.0
-0.00040422632806023023   -0.0004250641958428864   -0.00010923799932530764
-0.0007001206963250514   -0.0004800809704596202   -0.00013514691982729283
-0.0006799067892529294   -0.00046637165786516993   -0.0001759128154343673
0.0   0.0   0.0
-0.00040422632806023023   -0.0004250641958428864   -0.00010923799932530764
-0.0006799067892529294   -0.00046637165786516993   -0.0001759128154343673
0.0   0.0   0.0
0.0   0.0   0.0
-0.0007001206963250514   -0.0004800809704596202   -0.00013514691982729283
0.0   0.0   0.0
0.0   0.0   0.0
-0.0007001206963250514   -0.0004800809704596202   -0.00013514691982729283
-0.00040422632806023023   -0.0004250641958428864   -0.00010923799932530764
0.0   0.0   0.0
-0.0004030731371588099   -0.00042774901024523364   -8.27803841979756e-05
0.0   0.0   0.0
0.0   0.0   0.0
-0.0004030731371588099   -0.00042774901024523364   -8.27803841979756e-05
0.0   0.0   0.0
0.0   0.0   0.0
-0.0004030731371588099   -0.00042774901024523364   -8.27803841979756e-05
-0.0007444951763411155   -0.0004907892909847918   -8.797017033371126e-05
-0.0007001206963250514   -0.0004800809704596202   -0.00013514691982729283
0.0   0.0   0.0
-0.0004030731371588099   -0.00042774901024523364   -8.27803841979756e-05
-0.0007001206963250514   -0.0004800809704596202   -0.00013514691982729283
0.0   0.0   0.0
0.0   0.0   0.0
-0.000412858447836998   -0.0003959262407094172   -0.0001607744405507915
0.0   0.0   0.0
0.0   0.0   0.0
-0.000412858447836998   -0.0003959262407094172   -0.0001607744405507915
-0.00018898301432331265   -0.0003805696935182332   -0.00012264629479307438
0.0   0.0   0.0
-0.00018094784866567865   -0.00039296875982788637   -0.00011034963190171841
0.0   0.0   0.0
0.0   0.0   0.0
-0.00018094784866567865   -0.00039296875982788637   -0.00011034963190171841
0.0   0.0   0.0
0.0   0.0   0.0
-0.00018094784866567865   -0.00039296875982788637   -0.00011034963190171841
-0.0004039217027421984   -0.00041512793925758756   -0.0001349400419511353
-0.000412858447836998   -0.0003959262407094172   -0.0001607744405507915
0.0   0.0   0.0
-0.00018094784866567865   -0.00039296875982788637   -0.00011034963190171841
-0.000412858447836998   -0.0003959262407094172   -0.0001607744405507915
0.0   0.0   0.0
0.0   0.0   0.0
-0.0004039217027421984   -0.00041512793925758756   -0.0001349400419511353
0.0   0.0   0.0
0.0   0.0   0.0
-0.0004039217027421984   -0.00041512793925758756   -0.0001349400419511353
-0.00018094784866567865   -0.00039296875982788637   -0.00011034963190171841
0.0   0.0   0.0
-0.0001760939274293208   -0.00039772900093233124   -9.846781357172062e-05
0.0   0.0   0.0
0.0   0.0   0.0
-0.0001760939274293208   -0.00039772900093233124   -9.846781357172062e-05
0.0   0.0   0.0
0.0   0.0   0.0
-0.0001760939274293208   -0.00039772900093233124   -9.846781357172062e-05
-0.00040422632806023023   -0.0004250641958428864   -0.00010923799932530764
-0.0004039217027421984   -0.00041512793925758756   -0.0001349400419511353
0.0   0.0   0.0
-0.0001760939274293208   -0.00039772900093233124   -9.846781357172062e-05
-0.0004039217027421984   -0.00041512793925758756   -0.0001349400419511353
0.0   0.0   0.0
0.0   0.0   0.0
-0.00040422632806023023   -0.0004250641958428864   -0.00010923799932530764
0.0   0.0   0.0
0.0   0.0   0.0
-0.00040422632806023023   -0.0004250641958428864   -0.00010923799932530764
-0.0001760939274293208   -0.00039772900093233124   -9.846781357172062e-05
0.0   0.0   0.0
-0.0001715361963521419   -0.0003958225544698203   -8.628192250431438e-05
0.0   0.0   0.0
0.0   0.0   0.0
-0.0001715361963521419   -0.0003958225544698203   -8.628192250431438e-05
0.0   0.0   0.0
0.0   0.0   0.0
-0.0001715361963521419   -0.0003958225544698203   -8.628192250431438e-05
-0.0004030731371588099   -0.00042774901024523364   -8.27803841979756e-05
-0.00040422632806023023   -0.0004250641958428864   -0.00010923799932530764
0.0   0.0   0.0
-0.0001715361963521419   -0.0003958225544698203   -8.628192250431438e-05
-0.00040422632806023023   -0.0004250641958428864   -0.00010923799932530764
0.0   0.0   0.0
0.0   0.0   0.0
-0.00018898301432331265   -0.0003805696935182332   -0.00012264629479307438
0.0   0.0   0.0
0.0   0.0   0.0
-0.00018898301432331265   -0.0003805696935182332   -0.00012264629479307438
2.182401807313766e-05   -0.0003826676703242602   -9.85920162355454e-05
0.0   0.0   0.0
2.7339690966297403e-05   -0.00038898293712802433   -0.00010005276819626724
0.0   0.0   0.0
0.0   0.0   0.0
2.7339690966297403e-05   -0.00038898293712802433   -0.00010005276819626724
0.0   0.0   0.0
0.0   0.0   0.0
2.7339690966297403e-05   -0.00038898293712802433   -0.00010005276819626724
-0.00018094784866567865   -0.00039296875982788637   -0.00011034963190171841
-0.00018898301432331265   -0.0003805696935182332   -0.00012264629479307438
0.0   0.0   0.0
2.7339690966297403e-05   -0.00038898293712802433   -0.00010005276819626724
-0.00018898301432331265   -0.0003805696935182332   -0.00012264629479307438
0.0   0.0   0.0
0.0   0.0   0.0
-0.00018094784866567865   -0.00039296875982788637   -0.00011034963190171841
0.0   0.0   0.0
0.0   0.0   0.0
-0.00018094784866567865   -0.00039296875982788637   -0.00011034963190171841
2.7339690966297403e-05   -0.00038898293712802433   -0.00010005276819626724
0.0   0.0   0.0
3.18033098501026e-05   -0.0003883623539369035   -0.00010145307376437585
0.0   0.0   0.0
0.0   0.0   0.0
3.18033098501026e-05   -0.0003883623539369035   -0.00010145307376437585
0.0   0.0   0.0
0.0   0.0   0.0
3.18033098501026e-05   -0.0003883623539369035   -0.00010145307376437585
-0.0001760939274293208   -0.00039772900093233124   -9.846781357172062e-05
-0.00018094784866567865   -0.00039296875982788637   -0.00011034963190171841
0.0   0.0   0.0
3.18033098501026e-05   -0.0003883623539369035   -0.00010145307376437585
-0.00018094784866567865   -0.00039296875982788637   -0.00011034963190171841
0.0   0.0   0.0
0.0   0.0   0.0
-0.0001760939274293208   -0.00039772900093233124   -9.846781357172062e-05
0.0   0.0   0.0
0.0   0.0   0.0
-0.0001760939274293208   -0.00039772900093233124   -9.846781357172062e-05
3.18033098501026e-05   -0.0003883623539369035   -0.00010145307376437585
0.0   0.0   0.0
3.7532111234962274e-05   -0.00038025331160285544   -0.00010298998801013768
0.0   0.0   0.0
0.0   0.0   0.0
3.7532111234962274e-05   -0.00038025331160285544   -0.00010298998801013768
0.0   0.0   0.0
0.0   0.0   0.0
3.7532111234962274e-05   -0.00038025331160285544   -0.00010298998801013768
-0.0001715361963521419   -0.0003958225544698203   -8.628192250431438e-05
-0.0001760939274293208   -0.00039772900093233124   -9.846781357172062e-05
0.0   0.0   0.0
3.7532111234962274e-05   -0.00038025331160285544   -0.00010298998801013768
-0.0001760939274293208   -0.00039772900093233124   -9.846781357172062e-05
0.0   0.0   0.0
0.0   0.0   0.0
2.182401807313766e-05   -0.0003826676703242602   -9.85920162355454e-05
0.0   0.0   0.0
0.0   0.0   0.0
2.182401807313766e-05   -0.0003826676703242602   -9.85920162355454e-05
0.0002513618385554148   -0.0004003596142658157   -8.701329867907336e-05
0.0   0.0   0.0
0.0002528532587596044   -0.00040217918793762023   -0.00010295752805498744
0.0   0.0   0.0
0.0   0.0   0.0
0.0002528532587596044   -0.00040217918793762023   -0.00010295752805498744
0.0   0.0   0.0
0.0   0.0   0.0
0.0002528532587596044   -0.00040217918793762023   -0.00010295752805498744
2.7339690966297403e-05   -0.00038898293712802433   -0.00010005276819626724
2.182401807313766e-05   -0.0003826676703242602   -9.85920162355454e-05
0.0   0.0   0.0
0.0002528532587596044   -0.00040217918793762023   -0.00010295752805498744
2.182401807313766e-05   -0.0003826676703242602   -9.85920162355454e-05
0.0   0.0   0.0
0.0   0.0   0.0
2.7339690966297403e-05   -0.00038898293712802433   -0.00010005276819626724
0.0   0.0   0.0
0.0   0.0   0.0
2.7339690966297403e-05   -0.00038898293712802433   -0.00010005276819626724
0.0002528532587596044   -0.00040217918793762023   -0.00010295752805498744
0.0   0.0   0.0
0.0002526704177481922   -0.0003964437036139704   -0.00011836948292472956
0.0   0.0   0.0
0.0   0.0   0.0
0.0002526704177481922   -0.0003964437036139704   -0.00011836948292472956
0.0   0.0   0.0
0.0   0.0   0.0
0.0002526704177481922   -0.0003964437036139704   -0.00011836948292472956
3.18033098501026e-05   -0.0003883623539369035   -0.00010145307376437585
2.7339690966297403e-05   -0.00038898293712802433   -0.00010005276819626724
0.0   0.0   0.0
0.0002526704177481922   -0.0003964437036139704   -0.00011836948292472956
2.7339690966297403e-05   -0.00038898293712802433   -0.00010005276819626724
0.0   0.0   0.0
0.0   0.0   0.0
3.18033098501026e-05   -0.0003883623539369035   -0.00010145307376437585
0.0   0.0   0.0
0.0   0.0   0.0
3.18033098501026e-05   -0.0003883623539369035   -0.00010145307376437585
0.0002526704177481922   -0.0003964437036139704   -0.00011836948292472956
0.0   0.0   0.0
0.0002584287531294291   -0.00038149428635969736   -0.00013358010704081442
0.0   0.0   0.0
0.0   0.0   0.0
0.0002584287531294291   -0.00038149428635969736   -0.00013358010704081442
0.0   0.0   0.0
0.0   0.0   0.0
0.0002584287531294291   -0.00038149428635969736   -0.00013358010704081442
3.7532111234962274e-05   -0.00038025331160285544   -0.00010298998801013768
3.18033098501026e-05   -0.0003883623539369035   -0.00010145307376437585
0.0   0.0   0.0
0.0002584287531294291   -0.00038149428635969736   -0.00013358010704081442
3.18033098501026e-05   -0.0003883623539369035   -0.00010145307376437585
0.0   0.0   0.0
0.0   0.0   0.0
0.0002513618385554148   -0.0004003596142658157   -8.701329867907336e-05
0.0   0.0   0.0
0.0   0.0   0.0
0.0002513618385554148   -0.0004003596142658157   -8.701329867907336e-05
0.0005730076917639289   -0.0004456301980900266   -8.290178415810165e-05
0.0   0.0   0.0
0.0005395033669335355   -0.0004403662581453905   -0.00011937947274548796
0.0   0.0   0.0
0.0   0.0   0.0
0.0005395033669335355   -0.0004403662581453905   -0.00011937947274548796
0.0   0.0   0.0
0.0   0.0   0.0
0.0005395033669335355   -0.0004403662581453905   -0.00011937947274548796
0.0002528532587596044   -0.00040217918793762023   -0.00010295752805498744
0.0002513618385554148   -0.0004003596142658157   -8.701329867907336e-05
0.0   0.0   0.0
0.0005395033669335355   -0.0004403662581453905   -0.00011937947274548796
0.0002513618385554148   -0.0004003596142658157   -8.701329867907336e-05
0.0   0.0   0.0
0.0   0.0   0.0
0.0002528532587596044   -0.00040217918793762023   -0.00010295752805498744
0.0   0.0   0.0
0.0   0.0   0.0
0.0002528532587596044   -0.00040217918793762023   -0.00010295752805498744
0.0005395033669335355   -0.0004403662581453905   -0.00011937947274548796
0.0   0.0   0.0
0.0005244597459310407   -0.0004312206694654375   -0.00015031811641733712
0.0   0.0   0.0
0.0   0.0   0.0
0.0005244597459310407   -0.0004312206694654375   -0.00015031811641733712
0.0   0.0   0.0
0.0   0.0   0.0
0.0005244597459310407   -0.0004312206694654375   -0.00015031811641733712
0.0002526704177481922   -0.0003964437036139704   -0.00011836948292472956
0.0002528532587596044   -0.00040217918793762023   -0.00010295752805498744
0.0   0.0   0.0
0.0005244597459310407   -0.0004312206694654375   -0.00015031811641733712
0.0002528532587596044   -0.00040217918793762023   -0.00010295752805498744
0.0   0.0   0.0
0.0   0.0   0.0
0.0002526704177481922   -0.0003964437036139704   -0.00011836948292472956
0.0   0.0   0.0
0.0   0.0   0.0
0.0002526704177481922   -0.0003964437036139704   -0.00011836948292472956
0.0005244597459310407   -0.0004312206694654375   -0.00015031811641733712
0.0   0.0   0.0
0.0005014349116758289   -0.00040813473355003933   -0.00018326135714773526
0.0   0.0   0.0
0.0   0.0   0.0
0.0005014349116758289   -0.00040813473355003933   -0.00018326135714773526
0.0   0.0   0.0
0.0   0.0   0.0
0.0005014349116758289   -0.00040813473355003933   -0.00018326135714773526
0.0002584287531294291   -0.00038149428635969736   -0.00013358010704081442
0.0002526704177481922   -0.0003964437036139704   -0.00011836948292472956
0.0   0.0   0.0
0.0005014349116758289   -0.00040813473355003933   -0.00018326135714773526
0.0002526704177481922   -0.0003964437036139704   -0.00011836948292472956
0.0   0.0   0.0
-0.0006505784405860306   -0.0004382700316521584   -0.00021864750125260259
-0.0012066865029284923   -0.001206859912468228   -0.0002949876960936195
-0.000412858447836998   -0.0003959262407094172   -0.0001607744405507915
-0.0006799067892529294   -0.00046637165786516993   -0.0001759128154343673
-0.0012066865029284923   -0.001206859912468228   -0.0002949876960936195
-0.0007697929521459878   -0.0011690846021330291   -0.00024367769490059803
-0.000412858447836998   -0.0003959262407094172   -0.0001607744405507915
-0.0007693872005737532   -0.0011885636530047823   -0.0002200077615807792
-0.0006799067892529294   -0.00046637165786516993   -0.0001759128154343673
-0.0004039217027421984   -0.00041512793925758756   -0.0001349400419511353
-0.0007693872005737532   -0.0011885636530047823   -0.0002200077615807792
-0.000412858447836998   -0.0003959262407094172   -0.0001607744405507915
-0.0006799067892529294   -0.00046637165786516993   -0.0001759128154343673
-0.0007693872005737532   -0.0011885636530047823   -0.0002200077615807792
-0.0012410931240957781   -0.0012341789918793543   -0.00025674936551348793
-0.0012066865029284923   -0.001206859912468228   -0.0002949876960936195
-0.0006799067892529294   -0.00046637165786516993   -0.0001759128154343673
-0.0007693872005737532   -0.0011885636530047823   -0.0002200077615807792
-0.0012066865029284923   -0.001206859912468228   -0.0002949876960936195
-0.000412858447836998   -0.0003959262407094172   -0.0001607744405507915
-0.0006799067892529294   -0.00046637165786516993   -0.0001759128154343673
-0.0012410931240957781   -0.0012341789918793543   -0.00025674936551348793
-0.0004039217027421984   -0.00041512793925758756   -0.0001349400419511353
-0.0007001206963250514   -0.0004800809704596202   -0.00013514691982729283
-0.0012410931240957781   -0.0012341789918793543   -0.00025674936551348793
-0.0007693872005737532   -0.0011885636530047823   -0.0002200077615807792
-0.0004039217027421984   -0.00041512793925758756   -0.0001349400419511353
-0.0007710039291110361   -0.0012005589429055891   -0.0001973475788758584
-0.0007001206963250514   -0.0004800809704596202   -0.00013514691982729283
-0.00040422632806023023   -0.0004250641958428864   -0.00010923799932530764
-0.0007710039291110361   -0.0012005589429055891   -0.0001973475788758584
-0.0004039217027421984   -0.00041512793925758756   -0.0001349400419511353
-0.0007001206963250514   -0.0004800809704596202   -0.00013514691982729283
-0.0007710039291110361   -0.0012005589429055891   -0.0001973475788758584
-0.001264443605952111   -0.0012497233934084214   -0.00021942581485009374
-0.0012410931240957781   -0.0012341789918793543   -0.00025674936551348793
-0.0007001206963250514   -0.0004800809704596202   -0.00013514691982729283
-0.0007710039291110361   -0.0012005589429055891   -0.0001973475788758584
-0.0012410931240957781   -0.0012341789918793543   -0.00025674936551348793
-0.0004039217027421984   -0.00041512793925758756   -0.0001349400419511353
-0.0007001206963250514   -0.0004800809704596202   -0.00013514691982729283
-0.001264443605952111   -0.0012497233934084214   -0.00021942581485009374
-0.00040422632806023023   -0.0004250641958428864   -0.00010923799932530764
-0.0007444951763411155   -0.0004907892909847918   -8.797017033371126e-05
-0.001264443605952111   -0.0012497233934084214   -0.00021942581485009374
-0.0007710039291110361   -0.0012005589429055891   -0.0001973475788758584
-0.00040422632806023023   -0.0004250641958428864   -0.00010923799932530764
-0.0007672406963524966   -0.0012069842381974537   -0.00017622241641225843
-0.0007444951763411155   -0.0004907892909847918   -8.797017033371126e-05
-0.0004030731371588099   -0.00042774901024523364   -8.27803841979756e-05
-0.0007672406963524966   -0.0012069842381974537   -0.00017622241641225843
-0.00040422632806023023   -0.0004250641958428864   -0.00010923799932530764
-0.0007444951763411155   -0.0004907892909847918   -8.797017033371126e-05
-0.0007672406963524966   -0.0012069842381974537   -0.00017622241641225843
-0.001291982683946476   -0.001259119159096933   -0.00018565829386995786
-0.001264443605952111   -0.0012497233934084214   -0.00021942581485009374
-0.0007444951763411155   -0.0004907892909847918   -8.797017033371126e-05
-0.0007672406963524966   -0.0012069842381974537   -0.00017622241641225843
-0.001264443605952111   -0.0012497233934084214   -0.00021942581485009374
-0.00040422632806023023   -0.0004250641958428864   -0.00010923799932530764
-0.000412858447836998   -0.0003959262407094172   -0.0001607744405507915
-0.0007697929521459878   -0.0011690846021330291   -0.00024367769490059803
-0.00018898301432331265   -0.0003805696935182332   -0.00012264629479307438
-0.0004039217027421984   -0.00041512793925758756   -0.0001349400419511353
-0.0007697929521459878   -0.0011690846021330291   -0.00024367769490059803
-0.0003594605174329849   -0.0011514976366023225   -0.00020877640713813398
-0.00018898301432331265   -0.0003805696935182332   -0.00012264629479307438
-0.00035501943287071294   -0.001163773773692164   -0.00019652320540895183
-0.0004039217027421984   -0.00041512793925758756   -0.0001349400419511353
-0.00018094784866567865   -0.00039296875982788637   -0.00011034963190171841
-0.00035501943287071294   -0.001163773773692164   -0.00019652320540895183
-0.00018898301432331265   -0.0003805696935182332   -0.00012264629479307438
-0.0004039217027421984   -0.00041512793925758756   -0.0001349400419511353
-0.00035501943287071294   -0.001163773773692164   -0.00019652320540895183
-0.0007693872005737532   -0.0011885636530047823   -0.0002200077615807792
-0.0007697929521459878   -0.0011690846021330291   -0.00024367769490059803
-0.0004039217027421984   -0.00041512793925758756   -0.0001349400419511353
-0.00035501943287071294   -0.001163773773692164   -0.00019652320540895183
-0.0007697929521459878   -0.0011690846021330291   -0.00024367769490059803
-0.00018898301432331265   -0.0003805696935182332   -0.00012264629479307438
-0.0004039217027421984   -0.00041512793925758756   -0.0001349400419511353
-0.0007693872005737532   -0.0011885636530047823   -0.0002200077615807792
-0.00018094784866567865   -0.00039296875982788637   -0.00011034963190171841
-0.00040422632806023023   -0.0004250641958428864   -0.00010923799932530764
-0.0007693872005737532   -0.0011885636530047823   -0.0002200077615807792
-0.00035501943287071294   -0.001163773773692164   -0.00019652320540895183
-0.00018094784866567865   -0.00039296875982788637   -0.00011034963190171841
-0.000350932989198496   -0.001169773213611109   -0.00018547273339883296
-0.00040422632806023023   -0.0004250641958428864   -0.00010923799932530764
-0.0001760939274293208   -0.00039772900093233124   -9.846781357172062e-05
-0.000350932989198496   -0.001169773213611109   -0.00018547273339883296
-0.00018094784866567865   -0.00039296875982788637   -0.00011034963190171841
-0.00040422632806023023   -0.0004250641958428864   -0.00010923799932530764
-0.000350932989198496   -0.001169773213611109   -0.00018547273339883296
-0.0007710039291110361   -0.0012005589429055891   -0.0001973475788758584
-0.0007693872005737532   -0.0011885636530047823   -0.0002200077615807792
-0.00040422632806023023   -0.0004250641958428864   -0.00010923799932530764
-0.000350932989198496   -0.001169773213611109   -0.00018547273339883296
-0.0007693872005737532   -0.0011885636530047823   -0.0002200077615807792
-0.00018094784866567865   -0.00039296875982788637   -0.00011034963190171841
-0.00040422632806023023   -0.0004250641958428864   -0.00010923799932530764
-0.0007710039291110361   -0.0012005589429055891   -0.0001973475788758584
-0.0001760939274293208   -0.00039772900093233124   -9.846781357172062e-05
-0.0004030731371588099   -0.00042774901024523364   -8.27803841979756e-05
-0.0007710039291110361   -0.0012005589429055891   -0.0001973475788758584
-0.000350932989198496   -0.001169773213611109   -0.00018547273339883296
-0.0001760939274293208   -0.00039772900093233124   -9.846781357172062e-05
-0.0003454598781166096   -0.0011697187032781251   -0.0001759199006528804
-0.0004030731371588099   -0.00042774901024523364   -8.27803841979756e-05
-0.0001715361963521419   -0.0003958225544698203   -8.628192250431438e-05
-0.0003454598781166096   -0.0011697187032781251   -0.0001759199006528804
-0.0001760939274293208   -0.00039772900093233124   -9.846781357172062e-05
-0.0004030731371588099   -0.00042774901024523364   -8.27803841979756e-05
-0.0003454598781166096   -0.0011697187032781251   -0.0001759199006528804
-0.0007672406963524966   -0.0012069842381974537   -0.00017622241641225843
-0.0007710039291110361   -0.0012005589429055891   -0.0001973475788758584
-0.0004030731371588099   -0.00042774901024523364   -8.27803841979756e-05
-0.0003454598781166096   -0.0011697187032781251   -0.0001759199006528804
-0.0007710039291110361   -0.0012005589429055891   -0.0001973475788758584
-0.0001760939274293208   -0.00039772900093233124   -9.846781357172062e-05
-0.00018898301432331265   -0.0003805696935182332   -0.00012264629479307438
-0.0003594605174329849   -0.0011514976366023225   -0.00020877640713813398
2.182401807313766e-05   -0.0003826676703242602   -9.85920162355454e-05
-0.00018094784866567865   -0.00039296875982788637   -0.00011034963190171841
-0.0003594605174329849   -0.0011514976366023225   -0.00020877640713813398
3.536943739095148e-05   -0.0011521016480993893   -0.0001870092559859051
2.182401807313766e-05   -0.0003826676703242602   -9.85920162355454e-05
4.059512984486755e-05   -0.00115772588346842   -0.0001859500595950449
-0.00018094784866567865   -0.00039296875982788637   -0.00011034963190171841
2.7339690966297403e-05   -0.00038898293712802433   -0.00010005276819626724
4.059512984486755e-05   -0.00115772588346842   -0.0001859500595950449
2.182401807313766e-05   -0.0003826676703242602   -9.85920162355454e-05
-0.00018094784866567865   -0.00039296875982788637   -0.00011034963190171841
4.059512984486755e-05   -0.00115772588346842   -0.0001859500595950449
-0.00035501943287071294   -0.001163773773692164   -0.00019652320540895183
-0.0003594605174329849   -0.0011514976366023225   -0.00020877640713813398
-0.00018094784866567865   -0.00039296875982788637   -0.00011034963190171841
4.059512984486755e-05   -0.00115772588346842   -0.0001859500595950449
-0.0003594605174329849   -0.0011514976366023225   -0.00020877640713813398
2.182401807313766e-05   -0.0003826676703242602   -9.85920162355454e-05
-0.00018094784866567865   -0.00039296875982788637   -0.00011034963190171841
-0.00035501943287071294   -0.001163773773692164   -0.00019652320540895183
2.7339690966297403e-05   -0.00038898293712802433   -0.00010005276819626724
-0.0001760939274293208   -0.00039772900093233124   -9.846781357172062e-05
-0.00035501943287071294   -0.001163773773692164   -0.00019652320540895183
4.059512984486755e-05   -0.00115772588346842   -0.0001859500595950449
2.7339690966297403e-05   -0.00038898293712802433   -0.00010005276819626724
4.4536695625753575e-05   -0.001157215903136882   -0.00018625083970493853
-0.0001760939274293208   -0.00039772900093233124   -9.846781357172062e-05
3.18033098501026e-05   -0.0003883623539369035   -0.00010145307376437585
4.4536695625753575e-05   -0.001157215903136882   -0.00018625083970493853
2.7339690966297403e-05   -0.00038898293712802433   -0.00010005276819626724
-0.0001760939274293208   -0.00039772900093233124   -9.846781357172062e-05
4.4536695625753575e-05   -0.001157215903136882   -0.00018625083970493853
-0.000350932989198496   -0.001169773213611109   -0.00018547273339883296
-0.00035501943287071294   -0.001163773773692164   -0.00019652320540895183
-0.0001760939274293208   -0.00039772900093233124   -9.846781357172062e-05
4.4536695625753575e-05   -0.001157215903136882   -0.00018625083970493853
-0.00035501943287071294   -0.001163773773692164   -0.00019652320540895183
2.7339690966297403e-05   -0.00038898293712802433   -0.00010005276819626724
-0.0001760939274293208   -0.00039772900093233124   -9.846781357172062e-05
-0.000350932989198496   -0.001169773213611109   -0.00018547273339883296
3.18033098501026e-05   -0.0003883623539369035   -0.00010145307376437585
-0.0001715361963521419   -0.0003958225544698203   -8.628192250431438e-05
-0.000350932989198496   -0.001169773213611109   -0.00018547273339883296
4.4536695625753575e-05   -0.001157215903136882   -0.00018625083970493853
3.18033098501026e-05   -0.0003883623539369035   -0.00010145307376437585
4.8665559404581226e-05   -0.001150391057784163   -0.00018793141195087834
-0.0001715361963521419   -0.0003958225544698203   -8.628192250431438e-05
3.7532111234962274e-05   -0.00038025331160285544   -0.00010298998801013768
4.8665559404581226e-05   -0.001150391057784163   -0.00018793141195087834
3.18033098501026e-05   -0.0003883623539369035   -0.00010145307376437585
-0.0001715361963521419   -0.0003958225544698203   -8.628192250431438e-05
4.8665559404581226e-05   -0.001150391057784163   -0.00018793141195087834
-0.0003454598781166096   -0.0011697187032781251   -0.0001759199006528804
-0.000350932989198496   -0.001169773213611109   -0.00018547273339883296
-0.0001715361963521419   -0.0003958225544698203   -8.628192250431438e-05
4.8665559404581226e-05   -0.001150391057784163   -0.00018793141195087834
-0.000350932989198496   -0.001169773213611109   -0.00018547273339883296
3.18033098501026e-05   -0.0003883623539369035   -0.00010145307376437585
2.182401807313766e-05   -0.0003826676703242602   -9.85920162355454e-05
3.536943739095148e-05   -0.0011521016480993893   -0.0001870092559859051
0.0002513618385554148   -0.0004003596142658157   -8.701329867907336e-05
2.7339690966297403e-05   -0.00038898293712802433   -0.00010005276819626724
3.536943739095148e-05   -0.0011521016480993893   -0.0001870092559859051
0.00045452278731847925   -0.0011702661866492116   -0.00017732907854819575
0.0002513618385554148   -0.0004003596142658157   -8.701329867907336e-05
0.00045824400556968015   -0.0011697907165724802   -0.0001878175661681257
2.7339690966297403e-05   -0.00038898293712802433   -0.00010005276819626724
0.0002528532587596044   -0.00040217918793762023   -0.00010295752805498744
0.00045824400556968015   -0.0011697907165724802   -0.0001878175661681257
0.0002513618385554148   -0.0004003596142658157   -8.701329867907336e-05
2.7339690966297403e-05   -0.00038898293712802433   -0.00010005276819626724
0.00045824400556968015   -0.0011697907165724802   -0.0001878175661681257
4.059512984486755e-05   -0.00115772588346842   -0.0001859500595950449
3.536943739095148e-05   -0.0011521016480993893   -0.0001870092559859051
2.7339690966297403e-05   -0.00038898293712802433   -0.00010005276819626724
0.00045824400556968015   -0.0011697907165724802   -0.0001878175661681257
3.536943739095148e-05   -0.0011521016480993893   -0.0001870092559859051
0.0002513618385554148   -0.0004003596142658157   -8.701329867907336e-05
2.7339690966297403e-05   -0.00038898293712802433   -0.00010005276819626724
4.059512984486755e-05   -0.00115772588346842   -0.0001859500595950449
0.0002528532587596044   -0.00040217918793762023   -0.00010295752805498744
3.18033098501026e-05   -0.0003883623539369035   -0.00010145307376437585
4.059512984486755e-05   -0.00115772588346842   -0.0001859500595950449
0.00045824400556968015   -0.0011697907165724802   -0.0001878175661681257
0.0002528532587596044   -0.00040217918793762023   -0.00010295752805498744
0.00045763854722219026   -0.0011633406560237823   -0.00019984358475790017
3.18033098501026e-05   -0.0003883623539369035   -0.00010145307376437585
0.0002526704177481922   -0.0003964437036139704   -0.00011836948292472956
0.00045763854722219026   -0.0011633406560237823   -0.00019984358475790017
0.0002528532587596044   -0.00040217918793762023   -0.00010295752805498744
3.18033098501026e-05   -0.0003883623539369035   -0.00010145307376437585
0.00045763854722219026   -0.0011633406560237823   -0.00019984358475790017
4.4536695625753575e-05   -0.001157215903136882   -0.00018625083970493853
4.059512984486755e-05   -0.00115772588346842   -0.0001859500595950449
3.18033098501026e-05   -0.0003883623539369035   -0.00010145307376437585
0.00045763854722219026   -0.0011633406560237823   -0.00019984358475790017
4.059512984486755e-05   -0.00115772588346842   -0.0001859500595950449
0.0002528532587596044   -0.00040217918793762023   -0.00010295752805498744
3.18033098501026e-05   -0.0003883623539369035   -0.00010145307376437585
4.4536695625753575e-05   -0.001157215903136882   -0.00018625083970493853
0.0002526704177481922   -0.0003964437036139704   -0.00011836948292472956
3.7532111234962274e-05   -0.00038025331160285544   -0.00010298998801013768
4.4536695625753575e-05   -0.001157215903136882   -0.00018625083970493853
0.00045763854722219026   -0.0011633406560237823   -0.00019984358475790017
0.0002526704177481922   -0.0003964437036139704   -0.00011836948292472956
0.0004578400371333832   -0.0011492122198847063   -0.00021295701741506635
3.7532111234962274e-05   -0.00038025331160285544   -0.00010298998801013768
0.0002584287531294291   -0.00038149428635969736   -0.00013358010704081442
0.0004578400371333832   -0.0011492122198847063   -0.00021295701741506635
0.0002526704177481922   -0.0003964437036139704   -0.00011836948292472956
3.7532111234962274e-05   -0.00038025331160285544   -0.00010298998801013768
0.0004578400371333832   -0.0011492122198847063   -0.00021295701741506635
4.8665559404581226e-05   -0.001150391057784163   -0.00018793141195087834
4.4536695625753575e-05   -0.001157215903136882   -0.00018625083970493853
3.7532111234962274e-05   -0.00038025331160285544   -0.00010298998801013768
0.0004578400371333832   -0.0011492122198847063   -0.00021295701741506635
4.4536695625753575e-05   -0.001157215903136882   -0.00018625083970493853
0.0002526704177481922   -0.0003964437036139704   -0.00011836948292472956
0.0002513618385554148   -0.0004003596142658157   -8.701329867907336e-05
0.00045452278731847925   -0.0011702661866492116   -0.00017732907854819575
0.0005730076917639289   -0.0004456301980900266   -8.290178415810165e-05
0.0002528532587596044   -0.00040217918793762023   -0.00010295752805498744
0.00045452278731847925   -0.0011702661866492116   -0.00017732907854819575
0.0009622831993388517   -0.0012037620523180725   -0.00017567298124596787
0.0005730076917639289   -0.0004456301980900266   -8.290178415810165e-05
0.0009449391664143996   -0.001199913778712201   -0.00019947307982610282
0.0002528532587596044   -0.00040217918793762023   -0.00010295752805498744
0.0005395033669335355   -0.0004403662581453905   -0.00011937947274548796
0.0009449391664143996   -0.001199913778712201   -0.00019947307982610282
0.0005730076917639289   -0.0004456301980900266   -8.290178415810165e-05
0.0002528532587596044   -0.00040217918793762023   -0.00010295752805498744
0.0009449391664143996   -0.001199913778712201   -0.00019947307982610282
0.00045824400556968015   -0.0011697907165724802   -0.0001878175661681257
0.00045452278731847925   -0.0011702661866492116   -0.00017732907854819575
0.0002528532587596044   -0.00040217918793762023   -0.00010295752805498744
0.0009449391664143996   -0.001199913778712201   -0.00019947307982610282
0.00045452278731847925   -0.0011702661866492116   -0.00017732907854819575
0.0005730076917639289   -0.0004456301980900266   -8.290178415810165e-05
0.0002528532587596044   -0.00040217918793762023   -0.00010295752805498744
0.00045824400556968015   -0.0011697907165724802   -0.0001878175661681257
0.0005395033669335355   -0.0004403662581453905   -0.00011937947274548796
0.0002526704177481922   -0.0003964437036139704   -0.00011836948292472956
0.00045824400556968015   -0.0011697907165724802   -0.0001878175661681257
0.0009449391664143996   -0.001199913778712201   -0.00019947307982610282
0.0005395033669335355   -0.0004403662581453905   -0.00011937947274548796
0.000929248530016549   -0.0011900526022229814   -0.00022649029992344625
0.0002526704177481922   -0.0003964437036139704   -0.00011836948292472956
0.0005244597459310407   -0.0004312206694654375   -0.00015031811641733712
0.000929248530016549   -0.0011900526022229814   -0.00022649029992344625
0.0005395033669335355   -0.0004403662581453905   -0.00011937947274548796
0.0002526704177481922   -0.0003964437036139704   -0.00011836948292472956
0.000929248530016549   -0.0011900526022229814   -0.00022649029992344625
0.00045763854722219026   -0.0011633406560237823   -0.00019984358475790017
0.00045824400556968015   -0.0011697907165724802   -0.0001878175661681257
0.0002526704177481922   -0.0003964437036139704   -0.00011836948292472956
0.000929248530016549   -0.0011900526022229814   -0.00022649029992344625
0.00045824400556968015   -0.0011697907165724802   -0.0001878175661681257
0.0005395033669335355   -0.0004403662581453905   -0.00011937947274548796
0.0002526704177481922   -0.0003964437036139704   -0.00011836948292472956
0.00045763854722219026   -0.0011633406560237823   -0.00019984358475790017
0.0005244597459310407   -0.0004312206694654375   -0.00015031811641733712
0.0002584287531294291   -0.00038149428635969736   -0.00013358010704081442
0.00045763854722219026   -0.0011633406560237823   -0.00019984358475790017
0.000929248530016549   -0.0011900526022229814   -0.00022649029992344625
0.0005244597459310407   -0.0004312206694654375   -0.00015031811641733712
0.0009047866013431085   -0.0011686076388861405   -0.00025476185293972324
0.0002584287531294291   -0.00038149428635969736   -0.00013358010704081442
0.0005014349116758289   -0.00040813473355003933   -0.00018326135714773526
0.0009047866013431085   -0.0011686076388861405   -0.00025476185293972324
0.0005244597459310407   -0.0004312206694654375   -0.00015031811641733712
0.0002584287531294291   -0.00038149428635969736   -0.00013358010704081442
0.0009047866013431085   -0.0011686076388861405   -0.00025476185293972324
0.0004578400371333832   -0.0011492122198847063   -0.00021295701741506635
0.00045763854722219026   -0.0011633406560237823   -0.00019984358475790017
0.0002584287531294291   -0.00038149428635969736   -0.00013358010704081442
0.0009047866013431085   -0.0011686076388861405   -0.00025476185293972324
0.00045763854722219026   -0.0011633406560237823   -0.00019984358475790017
0.0005244597459310407   -0.0004312206694654375   -0.00015031811641733712
-0.0012066865029284923   -0.001206859912468228   -0.0002949876960936195
-0.001642799197186105   -0.0022411849246171465   -0.00033723075186311294
-0.0007697929521459878   -0.0011690846021330291   -0.00024367769490059803
-0.0012410931240957781   -0.0012341789918793543   -0.00025674936551348793
-0.001642799197186105   -0.0022411849246171465   -0.00033723075186311294
-0.0010573656630542207   -0.0022126787479840727   -0.00029626565773127763
-0.0007697929521459878   -0.0011690846021330291   -0.00024367769490059803
-0.0010580810590283994   -0.0022292615496092966   -0.00027811864865358353
-0.0012410931240957781   -0.0012341789918793543   -0.00025674936551348793
-0.0007693872005737532   -0.0011885636530047823   -0.0002200077615807792
-0.0010580810590283994   -0.0022292615496092966   -0.00027811864865358353
-0.0007697929521459878   -0.0011690846021330291   -0.00024367769490059803
-0.0012410931240957781   -0.0012341789918793543   -0.00025674936551348793
-0.0010580810590283994   -0.0022292615496092966   -0.00027811864865358353
-0.001669809962351803   -0.0022639397261107704   -0.0003092064158827024
-0.001642799197186105   -0.0022411849246171465   -0.00033723075186311294
-0.0012410931240957781   -0.0012341789918793543   -0.00025674936551348793
-0.0010580810590283994   -0.0022292615496092966   -0.00027811864865358353
-0.001642799197186105   -0.0022411849246171465   -0.00033723075186311294
-0.0007697929521459878   -0.0011690846021330291   -0.00024367769490059803
-0.0012410931240957781   -0.0012341789918793543   -0.00025674936551348793
-0.001669809962351803   -0.0022639397261107704   -0.0003092064158827024
-0.0007693872005737532   -0.0011885636530047823   -0.0002200077615807792
-0.001264443605952111   -0.0012497233934084214   -0.00021942581485009374
-0.001669809962351803   -0.0022639397261107704   -0.0003092064158827024
-0.0010580810590283994   -0.0022292615496092966   -0.00027811864865358353
-0.0007693872005737532   -0.0011885636530047823   -0.0002200077615807792
-0.0010591189906561192   -0.0022409317676879404   -0.00026134312527053557
-0.001264443605952111   -0.0012497233934084214   -0.00021942581485009374
-0.0007710039291110361   -0.0012005589429055891   -0.0001973475788758584
-0.0010591189906561192   -0.0022409317676879404   -0.00026134312527053557
-0.0007693872005737532   -0.0011885636530047823   -0.0002200077615807792
-0.001264443605952111   -0.0012497233934084214   -0.00021942581485009374
-0.0010591189906561192   -0.0022409317676879404   -0.00026134312527053557
-0.0016861024146990061   -0.002278355438975831   -0.0002831868244235946
-0.001669809962351803   -0.0022639397261107704   -0.0003092064158827024
-0.001264443605952111   -0.0012497233934084214   -0.00021942581485009374
-0.0010591189906561192   -0.0022409317676879404   -0.00026134312527053557
-0.001669809962351803   -0.0022639397261107704   -0.0003092064158827024
-0.0007693872005737532   -0.0011885636530047823   -0.0002200077615807792
-0.001264443605952111   -0.0012497233934084214   -0.00021942581485009374
-0.0016861024146990061   -0.002278355438975831   -0.0002831868244235946
-0.0007710039291110361   -0.0012005589429055891   -0.0001973475788758584
-0.001291982683946476   -0.001259119159096933   -0.00018565829386995786
-0.0016861024146990061   -0.002278355438975831   -0.0002831868244235946
-0.0010591189906561192   -0.0022409317676879404   -0.00026134312527053557
-0.0007710039291110361   -0.0012005589429055891   -0.0001973475788758584
-0.0010554380958990993   -0.0022488090108985807   -0.00024564295016085935
-0.001291982683946476   -0.001259119159096933   -0.00018565829386995786
-0.0007672406963524966   -0.0012069842381974537   -0.00017622241641225843
-0.0010554380958990993   -0.0022488090108985807   -0.00024564295016085935
-0.0007710039291110361   -0.0012005589429055891   -0.0001973475788758584
-0.001291982683946476   -0.001259119159096933   -0.00018565829386995786
-0.0010554380958990993   -0.0022488090108985807   -0.00024564295016085935
-0.0017046386485467008   -0.002289046093228777   -0.0002593608963833292
-0.0016861024146990061   -0.002278355438975831   -0.0002831868244235946
-0.001291982683946476   -0.001259119159096933   -0.00018565829386995786
-0.0010554380958990993   -0.0022488090108985807   -0.00024564295016085935
-0.0016861024146990061   -0.002278355438975831   -0.0002831868244235946
-0.0007710039291110361   -0.0012005589429055891   -0.0001973475788758584
-0.0007697929521459878   -0.0011690846021330291   -0.00024367769490059803
-0.0010573656630542207   -0.0022126787479840727   -0.00029626565773127763
-0.0003594605174329849   -0.0011514976366023225   -0.00020877640713813398
-0.0007693872005737532   -0.0011885636530047823   -0.0002200077615807792
-0.0010573656630542207   -0.0022126787479840727   -0.00029626565773127763
-0.0005076300092328427   -0.0021983293596677996   -0.00026787530065723044
-0.0003594605174329849   -0.0011514976366023225   -0.00020877640713813398
-0.0005047668163480173   -0.0022088132145274275   -0.000257464318752671
-0.0007693872005737532   -0.0011885636530047823   -0.0002200077615807792
-0.00035501943287071294   -0.001163773773692164   -0.00019652320540895183
-0.0005047668163480173   -0.0022088132145274275   -0.000257464318752671
-0.0003594605174329849   -0.0011514976366023225   -0.00020877640713813398
-0.0007693872005737532   -0.0011885636530047823   -0.0002200077615807792
-0.0005047668163480173   -0.0022088132145274275   -0.000257464318752671
-0.0010580810590283994   -0.0022292615496092966   -0.00027811864865358353
-0.0010573656630542207   -0.0022126787479840727   -0.00029626565773127763
-0.0007693872005737532   -0.0011885636530047823   -0.0002200077615807792
-0.0005047668163480173   -0.0022088132145274275   -0.000257464318752671
-0.0010573656630542207   -0.0022126787479840727   -0.00029626565773127763
-0.0003594605174329849   -0.0011514976366023225   -0.00020877640713813398
-0.0007693872005737532   -0.0011885636530047823   -0.0002200077615807792
-0.0010580810590283994   -0.0022292615496092966   -0.00027811864865358353
-0.00035501943287071294   -0.001163773773692164   -0.00019652320540895183
-0.0007710039291110361   -0.0012005589429055891   -0.0001973475788758584
-0.0010580810590283994   -0.0022292615496092966   -0.00027811864865358353
-0.0005047668163480173   -0.0022088132145274275   -0.000257464318752671
-0.00035501943287071294   -0.001163773773692164   -0.00019652320540895183
-0.0005016271318942874   -0.0022150222335286266   -0.0002483494070860086
-0.0007710039291110361   -0.0012005589429055891   -0.0001973475788758584
-0.000350932989198496   -0.001169773213611109   -0.00018547273339883296
-0.0005016271318942874   -0.0022150222335286266   -0.0002483494070860086
-0.00035501943287071294   -0.001163773773692164   -0.00019652320540895183
-0.0007710039291110361   -0.0012005589429055891   -0.0001973475788758584
-0.0005016271318942874   -0.0022150222335286266   -0.0002483494070860086
-0.0010591189906561192   -0.0022409317676879404   -0.00026134312527053557
-0.0010580810590283994   -0.0022292615496092966   -0.00027811864865358353
-0.0007710039291110361   -0.0012005589429055891   -0.0001973475788758584
-0.0005016271318942874   -0.0022150222335286266   -0.0002483494070860086
-0.0010580810590283994   -0.0022292615496092966   -0.00027811864865358353
-0.00035501943287071294   -0.001163773773692164   -0.00019652320540895183
-0.0007710039291110361   -0.0012005589429055891   -0.0001973475788758584
-0.0010591189906561192   -0.0022409317676879404   -0.00026134312527053557
-0.000350932989198496   -0.001169773213611109   -0.00018547273339883296
-0.0007672406963524966   -0.0012069842381974537   -0.00017622241641225843
-0.0010591189906561192   -0.0022409317676879404   -0.00026134312527053557
-0.0005016271318942874   -0.0022150222335286266   -0.0002483494070860086
-0.000350932989198496   -0.001169773213611109   -0.00018547273339883296
-0.0004974613787798841   -0.002217044839609029   -0.00024053131582062472
-0.0007672406963524966   -0.0012069842381974537   -0.00017622241641225843
-0.0003454598781166096   -0.0011697187032781251   -0.0001759199006528804
-0.0004974613787798841   -0.002217044839609029   -0.00024053131582062472
-0.000350932989198496   -0.001169773213611109   -0.00018547273339883296
-0.0007672406963524966   -0.0012069842381974537   -0.00017622241641225843
-0.0004974613787798841   -0.002217044839609029   -0.00024053131582062472
-0.0010554380958990993   -0.0022488090108985807   -0.00024564295016085935
-0.0010591189906561192   -0.0022409317676879404   -0.00026134312527053557
-0.0007672406963524966   -0.0012069842381974537   -0.00017622241641225843
-0.0004974613787798841   -0.002217044839609029   -0.00024053131582062472
-0.0010591189906561192   -0.0022409317676879404   -0.00026134312527053557
-0.000350932989198496   -0.001169773213611109   -0.00018547273339883296
-0.0003594605174329849   -0.0011514976366023225   -0.00020877640713813398
-0.0005076300092328427   -0.0021983293596677996   -0.00026787530065723044
3.536943739095148e-05   -0.0011521016480993893   -0.0001870092559859051
-0.00035501943287071294   -0.001163773773692164   -0.00019652320540895183
-0.0005076300092328427   -0.0021983293596677996   -0.00026787530065723044
2.5281350929680356e-05   -0.002197538852181312   -0.0002505904926391292
3.536943739095148e-05   -0.0011521016480993893   -0.0001870092559859051
2.9269017714293845e-05   -0.002201979960213942   -0.0002478843342638156
-0.00035501943287071294   -0.001163773773692164   -0.00019652320540895183
4.059512984486755e-05   -0.00115772588346842   -0.0001859500595950449
2.9269017714293845e-05   -0.002201979960213942   -0.0002478843342638156
3.536943739095148e-05   -0.0011521016480993893   -0.0001870092559859051
-0.00035501943287071294   -0.001163773773692164   -0.00019652320540895183
2.9269017714293845e-05   -0.002201979960213942   -0.0002478843342638156
-0.0005047668163480173   -0.0022088132145274275   -0.000257464318752671
-0.0005076300092328427   -0.0021983293596677996   -0.00026787530065723044
-0.00035501943287071294   -0.001163773773692164   -0.00019652320540895183
2.9269017714293845e-05   -0.002201979960213942   -0.0002478843342638156
-0.0005076300092328427   -0.0021983293596677996   -0.00026787530065723044
3.536943739095148e-05   -0.0011521016480993893   -0.0001870092559859051
-0.00035501943287071294   -0.001163773773692164   -0.00019652320540895183
-0.0005047668163480173   -0.0022088132145274275   -0.000257464318752671
4.059512984486755e-05   -0.00115772588346842   -0.0001859500595950449
-0.000350932989198496   -0.001169773213611109   -0.00018547273339883296
-0.0005047668163480173   -0.0022088132145274275   -0.000257464318752671
2.9269017714293845e-05   -0.002201979960213942   -0.0002478843342638156
4.059512984486755e-05   -0.00115772588346842   -0.0001859500595950449
3.2393162068390825e-05   -0.002202160220288224   -0.000246445788187334
-0.000350932989198496   -0.001169773213611109   -0.00018547273339883296
4.4536695625753575e-05   -0.001157215903136882   -0.00018625083970493853
3.2393162068390825e-05   -0.002202160220288224   -0.000246445788187334
4.059512984486755e-05   -0.00115772588346842   -0.0001859500595950449
-0.000350932989198496   -0.001169773213611109   -0.00018547273339883296
3.2393162068390825e-05   -0.002202160220288224   -0.000246445788187334
-0.0005016271318942874   -0.0022150222335286266   -0.0002483494070860086
-0.0005047668163480173   -0.0022088132145274275   -0.000257464318752671
-0.000350932989198496   -0.001169773213611109   -0.00018547273339883296
3.2393162068390825e-05   -0.002202160220288224   -0.000246445788187334
-0.0005047668163480173   -0.0022088132145274275   -0.000257464318752671
4.059512984486755e-05   -0.00115772588346842   -0.0001859500595950449
-0.000350932989198496   -0.001169773213611109   -0.00018547273339883296
-0.0005016271318942874   -0.0022150222335286266   -0.0002483494070860086
4.4536695625753575e-05   -0.001157215903136882   -0.00018625083970493853
-0.0003454598781166096   -0.0011697187032781251   -0.0001759199006528804
-0.0005016271318942874   -0.0022150222335286266   -0.0002483494070860086
3.2393162068390825e-05   -0.002202160220288224   -0.000246445788187334
4.4536695625753575e-05   -0.001157215903136882   -0.00018625083970493853
3.5111318886794334e-05   -0.0021980182606748354   -0.00024634584295309077
-0.0003454598781166096   -0.0011697187032781251   -0.0001759199006528804
4.8665559404581226e-05   -0.001150391057784163   -0.00018793141195087834
3.5111318886794334e-05   -0.0021980182606748354   -0.00024634584295309077
4.4536695625753575e-05   -0.001157215903136882   -0.00018625083970493853
-0.0003454598781166096   -0.0011697187032781251   -0.0001759199006528804
3.5111318886794334e-05   -0.0021980182606748354   -0.00024634584295309077
-0.0004974613787798841   -0.002217044839609029   -0.00024053131582062472
-0.0005016271318942874   -0.0022150222335286266   -0.0002483494070860086
-0.0003454598781166096   -0.0011697187032781251   -0.0001759199006528804
3.5111318886794334e-05   -0.0021980182606748354   -0.00024634584295309077
-0.0005016271318942874   -0.0022150222335286266   -0.0002483494070860086
4.4536695625753575e-05   -0.001157215903136882   -0.00018625083970493853
3.536943739095148e-05   -0.0011521016480993893   -0.0001870092559859051
2.5281350929680356e-05   -0.002197538852181312   -0.0002505904926391292
0.00045452278731847925   -0.0011702661866492116   -0.00017732907854819575
4.059512984486755e-05   -0.00115772588346842   -0.0001859500595950449
2.5281350929680356e-05   -0.002197538852181312   -0.0002505904926391292
0.0005813876489098568   -0.002209486948481139   -0.0002441624327095171
0.00045452278731847925   -0.0011702661866492116   -0.00017732907854819575
0.00058523204216395   -0.0022083334343529393   -0.00024930821946171546
4.059512984486755e-05   -0.00115772588346842   -0.0001859500595950449
0.00045824400556968015   -0.0011697907165724802   -0.0001878175661681257
0.00058523204216395   -0.0022083334343529393   -0.00024930821946171546
0.00045452278731847925   -0.0011702661866492116   -0.00017732907854819575
4.059512984486755e-05   -0.00115772588346842   -0.0001859500595950449
0.00058523204216395   -0.0022083334343529393   -0.00024930821946171546
2.9269017714293845e-05   -0.002201979960213942   -0.0002478843342638156
2.5281350929680356e-05   -0.002197538852181312   -0.0002505904926391292
4.059512984486755e-05   -0.00115772588346842   -0.0001859500595950449
0.00058523204216395   -0.0022083334343529393   -0.00024930821946171546
2.5281350929680356e-05   -0.002197538852181312   -0.0002505904926391292
0.00045452278731847925   -0.0011702661866492116   -0.00017732907854819575
4.059512984486755e-05   -0.00115772588346842   -0.0001859500595950449
2.9269017714293845e-05   -0.002201979960213942   -0.0002478843342638156
0.00045824400556968015   -0.0011697907165724802   -0.0001878175661681257
4.4536695625753575e-05   -0.001157215903136882   -0.00018625083970493853
2.9269017714293845e-05   -0.002201979960213942   -0.0002478843342638156
0.00058523204216395   -0.0022083334343529393   -0.00024930821946171546
0.00045824400556968015   -0.0011697907165724802   -0.0001878175661681257
0.0005855559033274457   -0.0022030638523179167   -0.00025562849830757976
4.4536695625753575e-05   -0.001157215903136882   -0.00018625083970493853
0.00045763854722219026   -0.0011633406560237823   -0.00019984358475790017
0.0005855559033274457   -0.0022030638523179167   -0.00025562849830757976
0.00045824400556968015   -0.0011697907165724802   -0.0001878175661681257
4.4536695625753575e-05   -0.001157215903136882   -0.00018625083970493853
0.0005855559033274457   -0.0022030638523179167   -0.00025562849830757976
3.2393162068390825e-05   -0.002202160220288224   -0.000246445788187334
2.9269017714293845e-05   -0.002201979960213942   -0.0002478843342638156
4.4536695625753575e-05   -0.001157215903136882   -0.00018625083970493853
0.0005855559033274457   -0.0022030638523179167   -0.00025562849830757976
2.9269017714293845e-05   -0.002201979960213942   -0.0002478843342638156
0.00045824400556968015   -0.0011697907165724802   -0.0001878175661681257
4.4536695625753575e-05   -0.001157215903136882   -0.00018625083970493853
3.2393162068390825e-05   -0.002202160220288224   -0.000246445788187334
0.00045763854722219026   -0.0011633406560237823   -0.00019984358475790017
4.8665559404581226e-05   -0.001150391057784163   -0.00018793141195087834
3.2393162068390825e-05   -0.002202160220288224   -0.000246445788187334
0.0005855559033274457   -0.0022030638523179167   -0.00025562849830757976
0.00045763854722219026   -0.0011633406560237823   -0.00019984358475790017
0.0005850276001172683   -0.002192599659672876   -0.00026326727841069914
4.8665559404581226e-05   -0.001150391057784163   -0.00018793141195087834
0.0004578400371333832   -0.0011492122198847063   -0.00021295701741506635
0.0005850276001172683   -0.002192599659672876   -0.00026326727841069914
0.00045763854722219026   -0.0011633406560237823   -0.00019984358475790017
4.8665559404581226e-05   -0.001150391057784163   -0.00018793141195087834
0.0005850276001172683   -0.002192599659672876   -0.00026326727841069914
3.5111318886794334e-05   -0.0021980182606748354   -0.00024634584295309077
3.2393162068390825e-05   -0.002202160220288224   -0.000246445788187334
4.8665559404581226e-05   -0.001150391057784163   -0.00018793141195087834
0.0005850276001172683   -0.002192599659672876   -0.00026326727841069914
3.2393162068390825e-05   -0.002202160220288224   -0.000246445788187334
0.00045763854722219026   -0.0011633406560237823   -0.00019984358475790017
0.00045452278731847925   -0.0011702661866492116   -0.00017732907854819575
0.0005813876489098568   -0.002209486948481139   -0.0002441624327095171
0.0009622831993388517   -0.0012037620523180725   -0.00017567298124596787
0.00045824400556968015   -0.0011697907165724802   -0.0001878175661681257
0.0005813876489098568   -0.002209486948481139   -0.0002441624327095171
0.0012156464002790284   -0.002230801859728444   -0.0002455710004052137
0.0009622831993388517   -0.0012037620523180725   -0.00017567298124596787
0.0012077090444887713   -0.0022263367140313624   -0.00025940521702782674
0.00045824400556968015   -0.0011697907165724802   -0.0001878175661681257
0.0009449391664143996   -0.001199913778712201   -0.00019947307982610282
0.0012077090444887713   -0.0022263367140313624   -0.00025940521702782674
0.0009622831993388517   -0.0012037620523180725   -0.00017567298124596787
0.00045824400556968015   -0.0011697907165724802   -0.0001878175661681257
0.0012077090444887713   -0.0022263367140313624   -0.00025940521702782674
0.00058523204216395   -0.0022083334343529393   -0.00024930821946171546
0.0005813876489098568   -0.002209486948481139   -0.0002441624327095171
0.00045824400556968015   -0.0011697907165724802   -0.0001878175661681257
0.0012077090444887713   -0.0022263367140313624   -0.00025940521702782674
0.0005813876489098568   -0.002209486948481139   -0.0002441624327095171
0.0009622831993388517   -0.0012037620523180725   -0.00017567298124596787
0.00045824400556968015   -0.0011697907165724802   -0.0001878175661681257
0.00058523204216395   -0.0022083334343529393   -0.00024930821946171546
0.0009449391664143996   -0.001199913778712201   -0.00019947307982610282
0.00045763854722219026   -0.0011633406560237823   -0.00019984358475790017
0.00058523204216395   -0.0022083334343529393   -0.00024930821946171546
0.0012077090444887713   -0.0022263367140313624   -0.00025940521702782674
0.0009449391664143996   -0.001199913778712201   -0.00019947307982610282
0.0011994150675913033   -0.002218327650190146   -0.000275358716066673
0.00045763854722219026   -0.0011633406560237823   -0.00019984358475790017
0.000929248530016549   -0.0011900526022229814   -0.00022649029992344625
0.0011994150675913033   -0.002218327650190146   -0.000275358716066673
0.0009449391664143996   -0.001199913778712201   -0.00019947307982610282
0.00045763854722219026   -0.0011633406560237823   -0.00019984358475790017
0.0011994150675913033   -0.002218327650190146   -0.000275358716066673
0.0005855559033274457   -0.0022030638523179167   -0.00025562849830757976
0.00058523204216395   -0.0022083334343529393   -0.00024930821946171546
0.00045763854722219026   -0.0011633406560237823   -0.00019984358475790017
0.0011994150675913033   -0.002218327650190146   -0.000275358716066673
0.00058523204216395   -0.0022083334343529393   -0.00024930821946171546
0.0009449391664143996   -0.001199913778712201   -0.00019947307982610282
0.00045763854722219026   -0.0011633406560237823   -0.00019984358475790017
0.0005855559033274457   -0.0022030638523179167   -0.00025562849830757976
0.000929248530016549   -0.0011900526022229814   -0.00022649029992344625
0.0004578400371333832   -0.0011492122198847063   -0.00021295701741506635
0.0005855559033274457   -0.0022030638523179167   -0.00025562849830757976
0.0011994150675913033   -0.002218327650190146   -0.000275358716066673
0.000929248530016549   -0.0011900526022229814   -0.00022649029992344625
0.001182977174918602   -0.002202092819939215   -0.0002934343894981243
0.0004578400371333832   -0.0011492122198847063   -0.00021295701741506635
0.0009047866013431085   -0.0011686076388861405   -0.00025476185293972324
0.001182977174918602   -0.002202092819939215   -0.0002934343894981243
0.000929248530016549   -0.0011900526022229814   -0.00022649029992344625
0.0004578400371333832   -0.0011492122198847063   -0.00021295701741506635
0.001182977174918602   -0.002202092819939215   -0.0002934343894981243
0.0005850276001172683   -0.002192599659672876   -0.00026326727841069914
0.0005855559033274457   -0.0022030638523179167   -0.00025562849830757976
0.0004578400371333832   -0.0011492122198847063   -0.00021295701741506635
0.001182977174918602   -0.002202092819939215   -0.0002934343894981243
0.0005855559033274457   -0.0022030638523179167   -0.00025562849830757976
0.000929248530016549   -0.0011900526022229814   -0.00022649029992344625
-0.001642799197186105   -0.0022411849246171465   -0.00033723075186311294
-0.001950332782590716   -0.0034546845750739463   -0.00036135488427519797
-0.0010573656630542207   -0.0022126787479840727   -0.00029626565773127763
-0.001669809962351803   -0.0022639397261107704   -0.0003092064158827024
-0.001950332782590716   -0.0034546845750739463   -0.00036135488427519797
-0.0012690458524409174   -0.003436887124105499   -0.0003285359877431744
-0.0010573656630542207   -0.0022126787479840727   -0.00029626565773127763
-0.0012689458048880733   -0.003450921337070411   -0.0003157175797509935
-0.001669809962351803   -0.0022639397261107704   -0.0003092064158827024
-0.0010580810590283994   -0.0022292615496092966   -0.00027811864865358353
-0.0012689458048880733   -0.003450921337070411   -0.0003157175797509935
-0.0010573656630542207   -0.0022126787479840727   -0.00029626565773127763
-0.001669809962351803   -0.0022639397261107704   -0.0003092064158827024
-0.0012689458048880733   -0.003450921337070411   -0.0003157175797509935
-0.00196760066383864   -0.0034737512872541234   -0.0003431576961675703
-0.001950332782590716   -0.0034546845750739463   -0.00036135488427519797
-0.001669809962351803   -0.0022639397261107704   -0.0003092064158827024
-0.0012689458048880733   -0.003450921337070411   -0.0003157175797509935
-0.001950332782590716   -0.0034546845750739463   -0.00036135488427519797
-0.0010573656630542207   -0.0022126787479840727   -0.00029626565773127763
-0.001669809962351803   -0.0022639397261107704   -0.0003092064158827024
-0.00196760066383864   -0.0034737512872541234   -0.0003431576961675703
-0.0010580810590283994   -0.0022292615496092966   -0.00027811864865358353
-0.0016861024146990061   -0.002278355438975831   -0.0002831868244235946
-0.00196760066383864   -0.0034737512872541234   -0.0003431576961675703
-0.0012689458048880733   -0.003450921337070411   -0.0003157175797509935
-0.0010580810590283994   -0.0022292615496092966   -0.00027811864865358353
-0.001268354247446521   -0.003462185358065534   -0.00030420508188491524
-0.0016861024146990061   -0.002278355438975831   -0.0002831868244235946
-0.0010591189906561192   -0.0022409317676879404   -0.00026134312527053557
-0.001268354247446521   -0.003462185358065534   -0.00030420508188491524
-0.0010580810590283994   -0.0022292615496092966   -0.00027811864865358353
-0.0016861024146990061   -0.002278355438975831   -0.0002831868244235946
-0.001268354247446521   -0.003462185358065534   -0.00030420508188491524
-0.00197670600920777   -0.0034874072374772784   -0.00032677605065930653
-0.00196760066383864   -0.0034737512872541234   -0.0003431576961675703
-0.0016861024146990061   -0.002278355438975831   -0.0002831868244235946
-0.001268354247446521   -0.003462185358065534   -0.00030420508188491524
-0.00196760066383864   -0.0034737512872541234   -0.0003431576961675703
-0.0010580810590283994   -0.0022292615496092966   -0.00027811864865358353
-0.0016861024146990061   -0.002278355438975831   -0.0002831868244235946
-0.00197670600920777   -0.0034874072374772784   -0.00032677605065930653
-0.0010591189906561192   -0.0022409317676879404   -0.00026134312527053557
-0.0017046386485467008   -0.002289046093228777   -0.0002593608963833292
-0.00197670600920777   -0.0034874072374772784   -0.00032677605065930653
-0.001268354247446521   -0.003462185358065534   -0.00030420508188491524
-0.0010591189906561192   -0.0022409317676879404   -0.00026134312527053557
-0.001264083728549509   -0.003471628378929931   -0.0002938146429297528
-0.0017046386485467008   -0.002289046093228777   -0.0002593608963833292
-0.0010554380958990993   -0.0022488090108985807   -0.00024564295016085935
-0.001264083728549509   -0.003471628378929931   -0.0002938146429297528
-0.0010591189906561192   -0.0022409317676879404   -0.00026134312527053557
-0.0017046386485467008   -0.002289046093228777   -0.0002593608963833292
-0.001264083728549509   -0.003471628378929931   -0.0002938146429297528
-0.001985950052148667   -0.003499930538942009   -0.0003124351771920936
-0.00197670600920777   -0.0034874072374772784   -0.00032677605065930653
-0.0017046386485467008   -0.002289046093228777   -0.0002593608963833292
-0.001264083728549509   -0.003471628378929931   -0.0002938146429297528
-0.00197670600920777   -0.0034874072374772784   -0.00032677605065930653
-0.0010591189906561192   -0.0022409317676879404   -0.00026134312527053557
-0.0010573656630542207   -0.0022126787479840727   -0.00029626565773127763
-0.0012690458524409174   -0.003436887124105499   -0.0003285359877431744
-0.0005076300092328427   -0.0021983293596677996   -0.00026787530065723044
-0.0010580810590283994   -0.0022292615496092966   -0.00027811864865358353
-0.0012690458524409174   -0.003436887124105499   -0.0003285359877431744
-0.0006317182461199676   -0.0034274611339443076   -0.0003058618190936894
-0.0005076300092328427   -0.0021983293596677996   -0.00026787530065723044
-0.0006289373519733808   -0.0034361500090806137   -0.00029721273991527585
-0.0010580810590283994   -0.0022292615496092966   -0.00027811864865358353
-0.0005047668163480173   -0.0022088132145274275   -0.000257464318752671
-0.0006289373519733808   -0.0034361500090806137   -0.00029721273991527585
-0.0005076300092328427   -0.0021983293596677996   -0.00026787530065723044
-0.0010580810590283994   -0.0022292615496092966   -0.00027811864865358353
-0.0006289373519733808   -0.0034361500090806137   -0.00029721273991527585
-0.0012689458048880733   -0.003450921337070411   -0.0003157175797509935
-0.0012690458524409174   -0.003436887124105499   -0.0003285359877431744
-0.0010580810590283994   -0.0022292615496092966   -0.00027811864865358353
-0.0006289373519733808   -0.0034361500090806137   -0.00029721273991527585
-0.0012690458524409174   -0.003436887124105499   -0.0003285359877431744
-0.0005076300092328427   -0.0021983293596677996   -0.00026787530065723044
-0.0010580810590283994   -0.0022292615496092966   -0.00027811864865358353
-0.0012689458048880733   -0.003450921337070411   -0.0003157175797509935
-0.0005047668163480173   -0.0022088132145274275   -0.000257464318752671
-0.0010591189906561192   -0.0022409317676879404   -0.00026134312527053557
-0.0012689458048880733   -0.003450921337070411   -0.0003157175797509935
-0.0006289373519733808   -0.0034361500090806137   -0.00029721273991527585
-0.0005047668163480173   -0.0022088132145274275   -0.000257464318752671
-0.0006257384195018591   -0.0034425030052030892   -0.00028984175235313616
-0.0010591189906561192   -0.0022409317676879404   -0.00026134312527053557
-0.0005016271318942874   -0.0022150222335286266   -0.0002483494070860086
-0.0006257384195018591   -0.0034425030052030892   -0.00028984175235313616
-0.0005047668163480173   -0.0022088132145274275   -0.000257464318752671
-0.0010591189906561192   -0.0022409317676879404   -0.00026134312527053557
-0.0006257384195018591   -0.0034425030052030892   -0.00028984175235313616
-0.001268354247446521   -0.003462185358065534   -0.00030420508188491524
-0.0012689458048880733   -0.003450921337070411   -0.0003157175797509935
-0.0010591189906561192   -0.0022409317676879404   -0.00026134312527053557
-0.0006257384195018591   -0.0034425030052030892   -0.00028984175235313616
-0.0012689458048880733   -0.003450921337070411   -0.0003157175797509935
-0.0005047668163480173   -0.0022088132145274275   -0.000257464318752671
-0.0010591189906561192   -0.0022409317676879404   -0.00026134312527053557
-0.001268354247446521   -0.003462185358065534   -0.00030420508188491524
-0.0005016271318942874   -0.0022150222335286266   -0.0002483494070860086
-0.0010554380958990993   -0.0022488090108985807   -0.00024564295016085935
-0.001268354247446521   -0.003462185358065534   -0.00030420508188491524
-0.0006257384195018591   -0.0034425030052030892   -0.00028984175235313616
-0.0005016271318942874   -0.0022150222335286266   -0.0002483494070860086
-0.000621720172377823   -0.003446563485533222   -0.0002837759759980735
-0.0010554380958990993   -0.0022488090108985807   -0.00024564295016085935
-0.0004974613787798841   -0.002217044839609029   -0.00024053131582062472
-0.000621720172377823   -0.003446563485533222   -0.0002837759759980735
-0.0005016271318942874   -0.0022150222335286266   -0.0002483494070860086
-0.0010554380958990993   -0.0022488090108985807   -0.00024564295016085935
-0.000621720172377823   -0.003446563485533222   -0.0002837759759980735
-0.001264083728549509   -0.003471628378929931   -0.0002938146429297528
-0.001268354247446521   -0.003462185358065534   -0.00030420508188491524
-0.0010554380958990993   -0.0022488090108985807   -0.00024564295016085935
-0.000621720172377823   -0.003446563485533222   -0.0002837759759980735
-0.001268354247446521   -0.003462185358065534   -0.00030420508188491524
-0.0005016271318942874   -0.0022150222335286266   -0.0002483494070860086
-0.0005076300092328427   -0.0021983293596677996   -0.00026787530065723044
-0.0006317182461199676   -0.0034274611339443076   -0.0003058618190936894
2.5281350929680356e-05   -0.002197538852181312   -0.0002505904926391292
-0.0005047668163480173   -0.0022088132145274275   -0.000257464318752671
-0.0006317182461199676   -0.0034274611339443076   -0.0003058618190936894
-1.2087653511640622e-05   -0.0034256983084141428   -0.0002929931373341493
2.5281350929680356e-05   -0.002197538852181312   -0.0002505904926391292
-8.208105604829079e-06   -0.003428963568712672   -0.0002885651738880133
-0.0005047668163480173   -0.0022088132145274275   -0.000257464318752671
2.9269017714293845e-05   -0.002201979960213942   -0.0002478843342638156
-8.208105604829079e-06   -0.003428963568712672   -0.0002885651738880133
2.5281350929680356e-05   -0.002197538852181312   -0.0002505904926391292
-0.0005047668163480173   -0.0022088132145274275   -0.000257464318752671
-8.208105604829079e-06   -0.003428963568712672   -0.0002885651738880133
-0.0006289373519733808   -0.0034361500090806137   -0.00029721273991527585
-0.0006317182461199676   -0.0034274611339443076   -0.0003058618190936894
-0.0005047668163480173   -0.0022088132145274275   -0.000257464318752671
-8.208105604829079e-06   -0.003428963568712672   -0.0002885651738880133
-0.0006317182461199676   -0.0034274611339443076   -0.0003058618190936894
2.5281350929680356e-05   -0.002197538852181312   -0.0002505904926391292
-0.0005047668163480173   -0.0022088132145274275   -0.000257464318752671
-0.0006289373519733808   -0.0034361500090806137   -0.00029721273991527585
2.9269017714293845e-05   -0.002201979960213942   -0.0002478843342638156
-0.0005016271318942874   -0.0022150222335286266   -0.0002483494070860086
-0.0006289373519733808   -0.0034361500090806137   -0.00029721273991527585
-8.208105604829079e-06   -0.003428963568712672   -0.0002885651738880133
2.9269017714293845e-05   -0.002201979960213942   -0.0002478843342638156
-4.993599732865193e-06   -0.0034298748356804097   -0.00028540480500272497
-0.0005016271318942874   -0.0022150222335286266   -0.0002483494070860086
3.2393162068390825e-05   -0.002202160220288224   -0.000246445788187334
-4.993599732865193e-06   -0.0034298748356804097   -0.00028540480500272497
2.9269017714293845e-05   -0.002201979960213942   -0.0002478843342638156
-0.0005016271318942874   -0.0022150222335286266   -0.0002483494070860086
-4.993599732865193e-06   -0.0034298748356804097   -0.00028540480500272497
-0.0006257384195018591   -0.0034425030052030892   -0.00028984175235313616
-0.0006289373519733808   -0.0034361500090806137   -0.00029721273991527585
-0.0005016271318942874   -0.0022150222335286266   -0.0002483494070860086
-4.993599732865193e-06   -0.0034298748356804097   -0.00028540480500272497
-0.0006289373519733808   -0.0034361500090806137   -0.00029721273991527585
2.9269017714293845e-05   -0.002201979960213942   -0.0002478843342638156
-0.0005016271318942874   -0.0022150222335286266   -0.0002483494070860086
-0.0006257384195018591   -0.0034425030052030892   -0.00028984175235313616
3.2393162068390825e-05   -0.002202160220288224   -0.000246445788187334
-0.0004974613787798841   -0.002217044839609029   -0.00024053131582062472
-0.0006257384195018591   -0.0034425030052030892   -0.00028984175235313616
-4.993599732865193e-06   -0.0034298748356804097   -0.00028540480500272497
3.2393162068390825e-05   -0.002202160220288224   -0.000246445788187334
-2.346947959559326e-06   -0.0034283984716592716   -0.0002835633086839719
-0.0004974613787798841   -0.002217044839609029   -0.00024053131582062472
3.5111318886794334e-05   -0.0021980182606748354   -0.00024634584295309077
-2.346947959559326e-06   -0.0034283984716592716   -0.0002835633086839719
3.2393162068390825e-05   -0.002202160220288224   -0.000246445788187334
-0.0004974613787798841   -0.002217044839609029   -0.00024053131582062472
-2.346947959559326e-06   -0.0034283984716592716   -0.0002835633086839719
-0.000621720172377823   -0.003446563485533222   -0.0002837759759980735
-0.0006257384195018591   -0.0034425030052030892   -0.00028984175235313616
-0.0004974613787798841   -0.002217044839609029   -0.00024053131582062472
-2.346947959559326e-06   -0.0034283984716592716   -0.0002835633086839719
-0.0006257384195018591   -0.0034425030052030892   -0.00028984175235313616
3.2393162068390825e-05   -0.002202160220288224   -0.000246445788187334
2.5281350929680356e-05   -0.002197538852181312   -0.0002505904926391292
-1.2087653511640622e-05   -0.0034256983084141428   -0.0002929931373341493
0.0005813876489098568   -0.002209486948481139   -0.0002441624327095171
2.9269017714293845e-05   -0.002201979960213942   -0.0002478843342638156
-1.2087653511640622e-05   -0.0034256983084141428   -0.0002929931373341493
0.0006289433106862066   -0.0034309045125075484   -0.00028993750692957035
0.0005813876489098568   -0.002209486948481139   -0.0002441624327095171
0.0006334619904869889   -0.003429011469487109   -0.00028980700329141933
2.9269017714293845e-05   -0.002201979960213942   -0.0002478843342638156
0.00058523204216395   -0.0022083334343529393   -0.00024930821946171546
0.0006334619904869889   -0.003429011469487109   -0.00028980700329141933
0.0005813876489098568   -0.002209486948481139   -0.0002441624327095171
2.9269017714293845e-05   -0.002201979960213942   -0.0002478843342638156
0.0006334619904869889   -0.003429011469487109   -0.00028980700329141933
-8.208105604829079e-06   -0.003428963568712672   -0.0002885651738880133
-1.2087653511640622e-05   -0.0034256983084141428   -0.0002929931373341493
2.9269017714293845e-05   -0.002201979960213942   -0.0002478843342638156
0.0006334619904869889   -0.003429011469487109   -0.00028980700329141933
-1.2087653511640622e-05   -0.0034256983084141428   -0.0002929931373341493
0.0005813876489098568   -0.002209486948481139   -0.0002441624327095171
2.9269017714293845e-05   -0.002201979960213942   -0.0002478843342638156
-8.208105604829079e-06   -0.003428963568712672   -0.0002885651738880133
0.00058523204216395   -0.0022083334343529393   -0.00024930821946171546
3.2393162068390825e-05   -0.002202160220288224   -0.000246445788187334
-8.208105604829079e-06   -0.003428963568712672   -0.0002885651738880133
0.0006334619904869889   -0.003429011469487109   -0.00028980700329141933
0.00058523204216395   -0.0022083334343529393   -0.00024930821946171546
0.0006355089562415688   -0.0034250063531562356   -0.00029087159584264004
3.2393162068390825e-05   -0.002202160220288224   -0.000246445788187334
0.0005855559033274457   -0.0022030638523179167   -0.00025562849830757976
0.0006355089562415688   -0.0034250063531562356   -0.00029087159584264004
0.00058523204216395   -0.0022083334343529393   -0.00024930821946171546
3.2393162068390825e-05   -0.002202160220288224   -0.000246445788187334
0.0006355089562415688   -0.0034250063531562356   -0.00029087159584264004
-4.993599732865193e-06   -0.0034298748356804097   -0.00028540480500272497
-8.208105604829079e-06   -0.003428963568712672   -0.0002885651738880133
3.2393162068390825e-05   -0.002202160220288224   -0.000246445788187334
0.0006355089562415688   -0.0034250063531562356   -0.00029087159584264004
-8.208105604829079e-06   -0.003428963568712672   -0.0002885651738880133
0.00058523204216395   -0.0022083334343529393   -0.00024930821946171546
3.2393162068390825e-05   -0.002202160220288224   -0.000246445788187334
-4.993599732865193e-06   -0.0034298748356804097   -0.00028540480500272497
0.0005855559033274457   -0.0022030638523179167   -0.00025562849830757976
3.5111318886794334e-05   -0.0021980182606748354   -0.00024634584295309077
-4.993599732865193e-06   -0.0034298748356804097   -0.00028540480500272497
0.0006355089562415688   -0.0034250063531562356   -0.00029087159584264004
0.0005855559033274457   -0.0022030638523179167   -0.00025562849830757976
0.0006358580417994966   -0.0034179466906151274   -0.00029318243152809414
3.5111318886794334e-05   -0.0021980182606748354   -0.00024634584295309077
0.0005850276001172683   -0.002192599659672876   -0.00026326727841069914
0.0006358580417994966   -0.0034179466906151274   -0.00029318243152809414
0.0005855559033274457   -0.0022030638523179167   -0.00025562849830757976
3.5111318886794334e-05   -0.0021980182606748354   -0.00024634584295309077
0.0006358580417994966   -0.0034179466906151274   -0.00029318243152809414
-2.346947959559326e-06   -0.0034283984716592716   -0.0002835633086839719
-4.993599732865193e-06   -0.0034298748356804097   -0.00028540480500272497
3.5111318886794334e-05   -0.0021980182606748354   -0.00024634584295309077
0.0006358580417994966   -0.0034179466906151274   -0.00029318243152809414
-4.993599732865193e-06   -0.0034298748356804097   -0.00028540480500272497
0.0005855559033274457   -0.0022030638523179167   -0.00025562849830757976
0.0005813876489098568   -0.002209486948481139   -0.0002441624327095171
0.0006289433106862066   -0.0034309045125075484   -0.00028993750692957035
0.0012156464002790284   -0.002230801859728444   -0.0002455710004052137
0.00058523204216395   -0.0022083334343529393   -0.00024930821946171546
0.0006289433106862066   -0.0034309045125075484   -0.00028993750692957035
0.001336631174285377   -0.003440186335965411   -0.00029484230681978076
0.0012156464002790284   -0.002230801859728444   -0.0002455710004052137
0.0013381266004980374   -0.0034347350468586714   -0.0002991624211409055
0.00058523204216395   -0.0022083334343529393   -0.00024930821946171546
0.0012077090444887713   -0.0022263367140313624   -0.00025940521702782674
0.0013381266004980374   -0.0034347350468586714   -0.0002991624211409055
0.0012156464002790284   -0.002230801859728444   -0.0002455710004052137
0.00058523204216395   -0.0022083334343529393   -0.00024930821946171546
0.0013381266004980374   -0.0034347350468586714   -0.0002991624211409055
0.0006334619904869889   -0.003429011469487109   -0.00028980700329141933
0.0006289433106862066   -0.0034309045125075484   -0.00028993750692957035
0.00058523204216395   -0.0022083334343529393   -0.00024930821946171546
0.0013381266004980374   -0.0034347350468586714   -0.0002991624211409055
0.0006289433106862066   -0.0034309045125075484   -0.00028993750692957035
0.0012156464002790284   -0.002230801859728444   -0.0002455710004052137
0.00058523204216395   -0.0022083334343529393   -0.00024930821946171546
0.0006334619904869889   -0.003429011469487109   -0.00028980700329141933
0.0012077090444887713   -0.0022263367140313624   -0.00025940521702782674
0.0005855559033274457   -0.0022030638523179167   -0.00025562849830757976
0.0006334619904869889   -0.003429011469487109   -0.00028980700329141933
0.0013381266004980374   -0.0034347350468586714   -0.0002991624211409055
0.0012077090444887713   -0.0022263367140313624   -0.00025940521702782674
0.0013371796557651334   -0.0034283308394765684   -0.0003054330445808335
0.0005855559033274457   -0.0022030638523179167   -0.00025562849830757976
0.0011994150675913033   -0.002218327650190146   -0.000275358716066673
0.0013371796557651334   -0.0034283308394765684   -0.0003054330445808335
0.0012077090444887713   -0.0022263367140313624   -0.00025940521702782674
0.0005855559033274457   -0.0022030638523179167   -0.00025562849830757976
0.0013371796557651334   -0.0034283308394765684   -0.0003054330445808335
0.0006355089562415688   -0.0034250063531562356   -0.00029087159584264004
0.0006334619904869889   -0.003429011469487109   -0.00028980700329141933
0.0005855559033274457   -0.0022030638523179167   -0.00025562849830757976
0.0013371796557651334   -0.0034283308394765684   -0.0003054330445808335
0.0006334619904869889   -0.003429011469487109   -0.00028980700329141933
0.0012077090444887713   -0.0022263367140313624   -0.00025940521702782674
0.0005855559033274457   -0.0022030638523179167   -0.00025562849830757976
0.0006355089562415688   -0.0034250063531562356   -0.00029087159584264004
0.0011994150675913033   -0.002218327650190146   -0.000275358716066673
0.0005850276001172683   -0.002192599659672876   -0.00026326727841069914
0.0006355089562415688   -0.0034250063531562356   -0.00029087159584264004
0.0013371796557651334   -0.0034283308394765684   -0.0003054330445808335
0.0011994150675913033   -0.002218327650190146   -0.000275358716066673
0.001330628092244637   -0.0034166637059433002   -0.0003136397878624938
0.0005850276001172683   -0.002192599659672876   -0.00026326727841069914
0.001182977174918602   -0.002202092819939215   -0.0002934343894981243
0.001330628092244637   -0.0034166637059433002   -0.0003136397878624938
0.0011994150675913033   -0.002218327650190146   -0.000275358716066673
0.0005850276001172683   -0.002192599659672876   -0.00026326727841069914
0.001330628092244637   -0.0034166637059433002   -0.0003136397878624938
0.0006358580417994966   -0.0034179466906151274   -0.00029318243152809414
0.0006355089562415688   -0.0034250063531562356   -0.00029087159584264004
0.0005850276001172683   -0.002192599659672876   -0.00026326727841069914
0.001330628092244637   -0.0034166637059433002   -0.0003136397878624938
0.0006355089562415688   -0.0034250063531562356   -0.00029087159584264004
0.0011994150675913033   -0.002218327650190146   -0.000275358716066673
-0.001950332782590716   -0.0034546845750739463   -0.00036135488427519797
-0.002131308749020802   -0.004763224332305707   -0.0003698494784680718
-0.0012690458524409174   -0.003436887124105499   -0.0003285359877431744
-0.00196760066383864   -0.0034737512872541234   -0.0003431576961675703
-0.002131308749020802   -0.004763224332305707   -0.0003698494784680718
-0.0014057159958374254   -0.004756277957115718   -0.00034422147771228094
-0.0012690458524409174   -0.003436887124105499   -0.0003285359877431744
-0.0014037745596639332   -0.004768037282711092   -0.00033647820625971783
-0.00196760066383864   -0.0034737512872541234   -0.0003431576961675703
-0.0012689458048880733   -0.003450921337070411   -0.0003157175797509935
-0.0014037745596639332   -0.004768037282711092   -0.00033647820625971783
-0.0012690458524409174   -0.003436887124105499   -0.0003285359877431744
-0.00196760066383864   -0.0034737512872541234   -0.0003431576961675703
-0.0014037745596639332   -0.004768037282711092   -0.00033647820625971783
-0.002138367713561114   -0.00477910593975573   -0.0003608390152889851
-0.002131308749020802   -0.004763224332305707   -0.0003698494784680718
-0.00196760066383864   -0.0034737512872541234   -0.0003431576961675703
-0.0014037745596639332   -0.004768037282711092   -0.00033647820625971783
-0.002131308749020802   -0.004763224332305707   -0.0003698494784680718
-0.0012690458524409174   -0.003436887124105499   -0.0003285359877431744
-0.00196760066383864   -0.0034737512872541234   -0.0003431576961675703
-0.002138367713561114   -0.00477910593975573   -0.0003608390152889851
-0.0012689458048880733   -0.003450921337070411   -0.0003157175797509935
-0.00197670600920777   -0.0034874072374772784   -0.00032677605065930653
-0.002138367713561114   -0.00477910593975573   -0.0003608390152889851
-0.0014037745596639332   -0.004768037282711092   -0.00033647820625971783
-0.0012689458048880733   -0.003450921337070411   -0.0003157175797509935
-0.0014005030655547335   -0.004779045395868848   -0.0003300257264667169
-0.00197670600920777   -0.0034874072374772784   -0.00032677605065930653
-0.001268354247446521   -0.003462185358065534   -0.00030420508188491524
-0.0014005030655547335   -0.004779045395868848   -0.0003300257264667169
-0.0012689458048880733   -0.003450921337070411   -0.0003157175797509935
-0.00197670600920777   -0.0034874072374772784   -0.00032677605065930653
-0.0014005030655547335   -0.004779045395868848   -0.0003300257264667169
-0.0021394810534817606   -0.004792253805317087   -0.0003536815768999746
-0.002138367713561114   -0.00477910593975573   -0.0003608390152889851
-0.00197670600920777   -0.0034874072374772784   -0.00032677605065930653
-0.0014005030655547335   -0.004779045395868848   -0.0003300257264667169
-0.002138367713561114   -0.00477910593975573   -0.0003608390152889851
-0.0012689458048880733   -0.003450921337070411   -0.0003157175797509935
-0.00197670600920777   -0.0034874072374772784   -0.00032677605065930653
-0.0021394810534817606   -0.004792253805317087   -0.0003536815768999746
-0.001268354247446521   -0.003462185358065534   -0.00030420508188491524
-0.001985950052148667   -0.003499930538942009   -0.0003124351771920936
-0.0021394810534817606   -0.004792253805317087   -0.0003536815768999746
-0.0014005030655547335   -0.004779045395868848   -0.0003300257264667169
-0.001268354247446521   -0.003462185358065534   -0.00030420508188491524
-0.001394542663085038   -0.004790156454540514   -0.00032475990513271334
-0.001985950052148667   -0.003499930538942009   -0.0003124351771920936
-0.001264083728549509   -0.003471628378929931   -0.0002938146429297528
-0.001394542663085038   -0.004790156454540514   -0.00032475990513271334
-0.001268354247446521   -0.003462185358065534   -0.00030420508188491524
-0.001985950052148667   -0.003499930538942009   -0.0003124351771920936
-0.001394542663085038   -0.004790156454540514   -0.00032475990513271334
-0.002138585341359647   -0.004806782346861429   -0.0003485516770278413
-0.0021394810534817606   -0.004792253805317087   -0.0003536815768999746
-0.001985950052148667   -0.003499930538942009   -0.0003124351771920936
-0.001394542663085038   -0.004790156454540514   -0.00032475990513271334
-0.0021394810534817606   -0.004792253805317087   -0.0003536815768999746
-0.001268354247446521   -0.003462185358065534   -0.00030420508188491524
-0.0012690458524409174   -0.003436887124105499   -0.0003285359877431744
-0.0014057159958374254   -0.004756277957115718   -0.00034422147771228094
-0.0006317182461199676   -0.0034274611339443076   -0.0003058618190936894
-0.0012689458048880733   -0.003450921337070411   -0.0003157175797509935
-0.0014057159958374254   -0.004756277957115718   -0.00034422147771228094
-0.0007320165109878651   -0.004751982552556404   -0.0003268219837881728
-0.0006317182461199676   -0.0034274611339443076   -0.0003058618190936894
-0.0007281461912278732   -0.004758983914915544   -0.00031984810006876915
-0.0012689458048880733   -0.003450921337070411   -0.0003157175797509935
-0.0006289373519733808   -0.0034361500090806137   -0.00029721273991527585
-0.0007281461912278732   -0.004758983914915544   -0.00031984810006876915
-0.0006317182461199676   -0.0034274611339443076   -0.0003058618190936894
-0.0012689458048880733   -0.003450921337070411   -0.0003157175797509935
-0.0007281461912278732   -0.004758983914915544   -0.00031984810006876915
-0.0014037745596639332   -0.004768037282711092   -0.00033647820625971783
-0.0014057159958374254   -0.004756277957115718   -0.00034422147771228094
-0.0012689458048880733   -0.003450921337070411   -0.0003157175797509935
-0.0007281461912278732   -0.004758983914915544   -0.00031984810006876915
-0.0014057159958374254   -0.004756277957115718   -0.00034422147771228094
-0.0006317182461199676   -0.0034274611339443076   -0.0003058618190936894
-0.0012689458048880733   -0.003450921337070411   -0.0003157175797509935
-0.0014037745596639332   -0.004768037282711092   -0.00033647820625971783
-0.0006289373519733808   -0.0034361500090806137   -0.00029721273991527585
-0.001268354247446521   -0.003462185358065534   -0.00030420508188491524
-0.0014037745596639332   -0.004768037282711092   -0.00033647820625971783
-0.0007281461912278732   -0.004758983914915544   -0.00031984810006876915
-0.0006289373519733808   -0.0034361500090806137   -0.00029721273991527585
-0.0007237281947898534   -0.004765520024244024   -0.00031415875620775753
-0.001268354247446521   -0.003462185358065534   -0.00030420508188491524
-0.0006257384195018591   -0.0034425030052030892   -0.00028984175235313616
-0.0007237281947898534   -0.004765520024244024   -0.00031415875620775753
-0.0006289373519733808   -0.0034361500090806137   -0.00029721273991527585
-0.001268354247446521   -0.003462185358065534   -0.00030420508188491524
-0.0007237281947898534   -0.004765520024244024   -0.00031415875620775753
-0.0014005030655547335   -0.004779045395868848   -0.0003300257264667169
-0.0014037745596639332   -0.004768037282711092   -0.00033647820625971783
-0.001268354247446521   -0.003462185358065534   -0.00030420508188491524
-0.0007237281947898534   -0.004765520024244024   -0.00031415875620775753
-0.0014037745596639332   -0.004768037282711092   -0.00033647820625971783
-0.0006289373519733808   -0.0034361500090806137   -0.00029721273991527585
-0.001268354247446521   -0.003462185358065534   -0.00030420508188491524
-0.0014005030655547335   -0.004779045395868848   -0.0003300257264667169
-0.0006257384195018591   -0.0034425030052030892   -0.00028984175235313616
-0.001264083728549509   -0.003471628378929931   -0.0002938146429297528
-0.0014005030655547335   -0.004779045395868848   -0.0003300257264667169
-0.0007237281947898534   -0.004765520024244024   -0.00031415875620775753
-0.0006257384195018591   -0.0034425030052030892   -0.00028984175235313616
-0.0007186711070261359   -0.00477161508520895   -0.00030979183206059644
-0.001264083728549509   -0.003471628378929931   -0.0002938146429297528
-0.000621720172377823   -0.003446563485533222   -0.0002837759759980735
-0.0007186711070261359   -0.00477161508520895   -0.00030979183206059644
-0.0006257384195018591   -0.0034425030052030892   -0.00028984175235313616
-0.001264083728549509   -0.003471628378929931   -0.0002938146429297528
-0.0007186711070261359   -0.00477161508520895   -0.00030979183206059644
-0.001394542663085038   -0.004790156454540514   -0.00032475990513271334
-0.0014005030655547335   -0.004779045395868848   -0.0003300257264667169
-0.001264083728549509   -0.003471628378929931   -0.0002938146429297528
-0.0007186711070261359   -0.00477161508520895   -0.00030979183206059644
-0.0014005030655547335   -0.004779045395868848   -0.0003300257264667169
-0.0006257384195018591   -0.0034425030052030892   -0.00028984175235313616
-0.0006317182461199676   -0.0034274611339443076   -0.0003058618190936894
-0.0007320165109878651   -0.004751982552556404   -0.0003268219837881728
-1.2087653511640622e-05   -0.0034256983084141428   -0.0002929931373341493
-0.0006289373519733808   -0.0034361500090806137   -0.00029721273991527585
-0.0007320165109878651   -0.004751982552556404   -0.0003268219837881728
-7.662615502495157e-05   -0.0047493169743328305   -0.00031819017004602683
-1.2087653511640622e-05   -0.0034256983084141428   -0.0002929931373341493
-7.171269476449364e-05   -0.004751418560487736   -0.00031207183955827975
-0.0006289373519733808   -0.0034361500090806137   -0.00029721273991527585
-8.208105604829079e-06   -0.003428963568712672   -0.0002885651738880133
-7.171269476449364e-05   -0.004751418560487736   -0.00031207183955827975
-1.2087653511640622e-05   -0.0034256983084141428   -0.0002929931373341493
-0.0006289373519733808   -0.0034361500090806137   -0.00029721273991527585
-7.171269476449364e-05   -0.004751418560487736   -0.00031207183955827975
-0.0007281461912278732   -0.004758983914915544   -0.00031984810006876915
-0.0007320165109878651   -0.004751982552556404   -0.0003268219837881728
-0.0006289373519733808   -0.0034361500090806137   -0.00029721273991527585
-7.171269476449364e-05   -0.004751418560487736   -0.00031207183955827975
-0.0007320165109878651   -0.004751982552556404   -0.0003268219837881728
-1.2087653511640622e-05   -0.0034256983084141428   -0.0002929931373341493
-0.0006289373519733808   -0.0034361500090806137   -0.00029721273991527585
-0.0007281461912278732   -0.004758983914915544   -0.00031984810006876915
-8.208105604829079e-06   -0.003428963568712672   -0.0002885651738880133
-0.0006257384195018591   -0.0034425030052030892   -0.00028984175235313616
-0.0007281461912278732   -0.004758983914915544   -0.00031984810006876915
-7.171269476449364e-05   -0.004751418560487736   -0.00031207183955827975
-8.208105604829079e-06   -0.003428963568712672   -0.0002885651738880133
-6.728449322018931e-05   -0.00475301442732393   -0.00030723297000532346
-0.0006257384195018591   -0.0034425030052030892   -0.00028984175235313616
-4.993599732865193e-06   -0.0034298748356804097   -0.00028540480500272497
-6.728449322018931e-05   -0.00475301442732393   -0.00030723297000532346
-8.208105604829079e-06   -0.003428963568712672   -0.0002885651738880133
-0.0006257384195018591   -0.0034425030052030892   -0.00028984175235313616
-6.728449322018931e-05   -0.00475301442732393   -0.00030723297000532346
-0.0007237281947898534   -0.004765520024244024   -0.00031415875620775753
-0.0007281461912278732   -0.004758983914915544   -0.00031984810006876915
-0.0006257384195018591   -0.0034425030052030892   -0.00028984175235313616
-6.728449322018931e-05   -0.00475301442732393   -0.00030723297000532346
-0.0007281461912278732   -0.004758983914915544   -0.00031984810006876915
-8.208105604829079e-06   -0.003428963568712672   -0.0002885651738880133
-0.0006257384195018591   -0.0034425030052030892   -0.00028984175235313616
-0.0007237281947898534   -0.004765520024244024   -0.00031415875620775753
-4.993599732865193e-06   -0.0034298748356804097   -0.00028540480500272497
-0.000621720172377823   -0.003446563485533222   -0.0002837759759980735
-0.0007237281947898534   -0.004765520024244024   -0.00031415875620775753
-6.728449322018931e-05   -0.00475301442732393   -0.00030723297000532346
-4.993599732865193e-06   -0.0034298748356804097   -0.00028540480500272497
-6.356197461823656e-05   -0.004754091838843977   -0.0003037163971206085
-0.000621720172377823   -0.003446563485533222   -0.0002837759759980735
-2.346947959559326e-06   -0.0034283984716592716   -0.0002835633086839719
-6.356197461823656e-05   -0.004754091838843977   -0.0003037163971206085
-4.993599732865193e-06   -0.0034298748356804097   -0.00028540480500272497
-0.000621720172377823   -0.003446563485533222   -0.0002837759759980735
-6.356197461823656e-05   -0.004754091838843977   -0.0003037163971206085
-0.0007186711070261359   -0.00477161508520895   -0.00030979183206059644
-0.0007237281947898534   -0.004765520024244024   -0.00031415875620775753
-0.000621720172377823   -0.003446563485533222   -0.0002837759759980735
-6.356197461823656e-05   -0.004754091838843977   -0.0003037163971206085
-0.0007237281947898534   -0.004765520024244024   -0.00031415875620775753
-4.993599732865193e-06   -0.0034298748356804097   -0.00028540480500272497
-1.2087653511640622e-05   -0.0034256983084141428   -0.0002929931373341493
-7.662615502495157e-05   -0.0047493169743328305   -0.00031819017004602683
0.0006289433106862066   -0.0034309045125075484   -0.00028993750692957035
-8.208105604829079e-06   -0.003428963568712672   -0.0002885651738880133
-7.662615502495157e-05   -0.0047493169743328305   -0.00031819017004602683
0.0005984665273769741   -0.004747811174051495   -0.00031846241788302965
0.0006289433106862066   -0.0034309045125075484   -0.00028993750692957035
0.0006046510366880797   -0.0047451250004816245   -0.0003132355189520706
-8.208105604829079e-06   -0.003428963568712672   -0.0002885651738880133
0.0006334619904869889   -0.003429011469487109   -0.00028980700329141933
0.0006046510366880797   -0.0047451250004816245   -0.0003132355189520706
0.0006289433106862066   -0.0034309045125075484   -0.00028993750692957035
-8.208105604829079e-06   -0.003428963568712672   -0.0002885651738880133
0.0006046510366880797   -0.0047451250004816245   -0.0003132355189520706
-7.171269476449364e-05   -0.004751418560487736   -0.00031207183955827975
-7.662615502495157e-05   -0.0047493169743328305   -0.00031819017004602683
-8.208105604829079e-06   -0.003428963568712672   -0.0002885651738880133
0.0006046510366880797   -0.0047451250004816245   -0.0003132355189520706
-7.662615502495157e-05   -0.0047493169743328305   -0.00031819017004602683
0.0006289433106862066   -0.0034309045125075484   -0.00028993750692957035
-8.208105604829079e-06   -0.003428963568712672   -0.0002885651738880133
-7.171269476449364e-05   -0.004751418560487736   -0.00031207183955827975
0.0006334619904869889   -0.003429011469487109   -0.00028980700329141933
-4.993599732865193e-06   -0.0034298748356804097   -0.00028540480500272497
-7.171269476449364e-05   -0.004751418560487736   -0.00031207183955827975
0.0006046510366880797   -0.0047451250004816245   -0.0003132355189520706
0.0006334619904869889   -0.003429011469487109   -0.00028980700329141933
0.0006093677898148958   -0.004742250272843751   -0.0003092466909412955
-4.993599732865193e-06   -0.0034298748356804097   -0.00028540480500272497
0.0006355089562415688   -0.0034250063531562356   -0.00029087159584264004
0.0006093677898148958   -0.004742250272843751   -0.0003092466909412955
0.0006334619904869889   -0.003429011469487109   -0.00028980700329141933
-4.993599732865193e-06   -0.0034298748356804097   -0.00028540480500272497
0.0006093677898148958   -0.004742250272843751   -0.0003092466909412955
-6.728449322018931e-05   -0.00475301442732393   -0.00030723297000532346
-7.171269476449364e-05   -0.004751418560487736   -0.00031207183955827975
-4.993599732865193e-06   -0.0034298748356804097   -0.00028540480500272497
0.0006093677898148958   -0.004742250272843751   -0.0003092466909412955
-7.171269476449364e-05   -0.004751418560487736   -0.00031207183955827975
0.0006334619904869889   -0.003429011469487109   -0.00028980700329141933
-4.993599732865193e-06   -0.0034298748356804097   -0.00028540480500272497
-6.728449322018931e-05   -0.00475301442732393   -0.00030723297000532346
0.0006355089562415688   -0.0034250063531562356   -0.00029087159584264004
-2.346947959559326e-06   -0.0034283984716592716   -0.0002835633086839719
-6.728449322018931e-05   -0.00475301442732393   -0.00030723297000532346
0.0006093677898148958   -0.004742250272843751   -0.0003092466909412955
0.0006355089562415688   -0.0034250063531562356   -0.00029087159584264004
0.0006115475624285453   -0.004738325061951108   -0.00030647404666587537
-2.346947959559326e-06   -0.0034283984716592716   -0.0002835633086839719
0.0006358580417994966   -0.0034179466906151274   -0.00029318243152809414
0.0006115475624285453   -0.004738325061951108   -0.00030647404666587537
0.0006355089562415688   -0.0034250063531562356   -0.00029087159584264004
-2.346947959559326e-06   -0.0034283984716592716   -0.0002835633086839719
0.0006115475624285453   -0.004738325061951108   -0.00030647404666587537
-6.356197461823656e-05   -0.004754091838843977   -0.0003037163971206085
-6.728449322018931e-05   -0.00475301442732393   -0.00030723297000532346
-2.346947959559326e-06   -0.0034283984716592716   -0.0002835633086839719
0.0006115475624285453   -0.004738325061951108   -0.00030647404666587537
-6.728449322018931e-05   -0.00475301442732393   -0.00030723297000532346
0.0006355089562415688   -0.0034250063531562356   -0.00029087159584264004
0.0006289433106862066   -0.0034309045125075484   -0.00028993750692957035
0.0005984665273769741   -0.004747811174051495   -0.00031846241788302965
0.001336631174285377   -0.003440186335965411   -0.00029484230681978076
0.0006334619904869889   -0.003429011469487109   -0.00028980700329141933
0.0005984665273769741   -0.004747811174051495   -0.00031846241788302965
0.0013288334841642987   -0.0047453137046385065   -0.00032698429943646455
0.001336631174285377   -0.003440186335965411   -0.00029484230681978076
0.0013403931106055348   -0.004738791566410933   -0.0003221588858056208
0.0006334619904869889   -0.003429011469487109   -0.00028980700329141933
0.0013381266004980374   -0.0034347350468586714   -0.0002991624211409055
0.0013403931106055348   -0.004738791566410933   -0.0003221588858056208
0.001336631174285377   -0.003440186335965411   -0.00029484230681978076
0.0006334619904869889   -0.003429011469487109   -0.00028980700329141933
0.0013403931106055348   -0.004738791566410933   -0.0003221588858056208
0.0006046510366880797   -0.0047451250004816245   -0.0003132355189520706
0.0005984665273769741   -0.004747811174051495   -0.00031846241788302965
0.0006334619904869889   -0.003429011469487109   -0.00028980700329141933
0.0013403931106055348   -0.004738791566410933   -0.0003221588858056208
0.0005984665273769741   -0.004747811174051495   -0.00031846241788302965
0.001336631174285377   -0.003440186335965411   -0.00029484230681978076
0.0006334619904869889   -0.003429011469487109   -0.00028980700329141933
0.0006046510366880797   -0.0047451250004816245   -0.0003132355189520706
0.0013381266004980374   -0.0034347350468586714   -0.0002991624211409055
0.0006355089562415688   -0.0034250063531562356   -0.00029087159584264004
0.0006046510366880797   -0.0047451250004816245   -0.0003132355189520706
0.0013403931106055348   -0.004738791566410933   -0.0003221588858056208
0.0013381266004980374   -0.0034347350468586714   -0.0002991624211409055
0.001347422310178781   -0.004733786312619064   -0.000319231279439763
0.0006355089562415688   -0.0034250063531562356   -0.00029087159584264004
0.0013371796557651334   -0.0034283308394765684   -0.0003054330445808335
0.001347422310178781   -0.004733786312619064   -0.000319231279439763
0.0013381266004980374   -0.0034347350468586714   -0.0002991624211409055
0.0006355089562415688   -0.0034250063531562356   -0.00029087159584264004
0.001347422310178781   -0.004733786312619064   -0.000319231279439763
0.0006093677898148958   -0.004742250272843751   -0.0003092466909412955
0.0006046510366880797   -0.0047451250004816245   -0.0003132355189520706
0.0006355089562415688   -0.0034250063531562356   -0.00029087159584264004
0.001347422310178781   -0.004733786312619064   -0.000319231279439763
0.0006046510366880797   -0.0047451250004816245   -0.0003132355189520706
0.0013381266004980374   -0.0034347350468586714   -0.0002991624211409055
0.0006355089562415688   -0.0034250063531562356   -0.00029087159584264004
0.0006093677898148958   -0.004742250272843751   -0.0003092466909412955
0.0013371796557651334   -0.0034283308394765684   -0.0003054330445808335
0.0006358580417994966   -0.0034179466906151274   -0.00029318243152809414
0.0006093677898148958   -0.004742250272843751   -0.0003092466909412955
0.001347422310178781   -0.004733786312619064   -0.000319231279439763
0.0013371796557651334   -0.0034283308394765684   -0.0003054330445808335
0.0013511151519023054   -0.004726208067001803   -0.0003182345538840426
0.0006358580417994966   -0.0034179466906151274   -0.00029318243152809414
0.001330628092244637   -0.0034166637059433002   -0.0003136397878624938
0.0013511151519023054   -0.004726208067001803   -0.0003182345538840426
0.0013371796557651334   -0.0034283308394765684   -0.0003054330445808335
0.0006358580417994966   -0.0034179466906151274   -0.00029318243152809414
0.0013511151519023054   -0.004726208067001803   -0.0003182345538840426
0.0006115475624285453   -0.004738325061951108   -0.00030647404666587537
0.0006093677898148958   -0.004742250272843751   -0.0003092466909412955
0.0006358580417994966   -0.0034179466906151274   -0.00029318243152809414
0.0013511151519023054   -0.004726208067001803   -0.0003182345538840426
0.0006093677898148958   -0.004742250272843751   -0.0003092466909412955
0.0013371796557651334   -0.0034283308394765684   -0.0003054330445808335
-0.002131308749020802   -0.004763224332305707   -0.0003698494784680718
-0.00218883843909995   -0.006083678627627378   -0.0003653915280130736
-0.0014057159958374254   -0.004756277957115718   -0.00034422147771228094
-0.002138367713561114   -0.00477910593975573   -0.0003608390152889851
-0.00218883843909995   -0.006083678627627378   -0.0003653915280130736
-0.0014693349030220054   -0.006087394767693814   -0.000346881391351277
-0.0014057159958374254   -0.004756277957115718   -0.00034422147771228094
-0.0014645163421347152   -0.006096907468570344   -0.0003440218231645829
-0.002138367713561114   -0.00477910593975573   -0.0003608390152889851
-0.0014037745596639332   -0.004768037282711092   -0.00033647820625971783
-0.0014645163421347152   -0.006096907468570344   -0.0003440218231645829
-0.0014057159958374254   -0.004756277957115718   -0.00034422147771228094
-0.002138367713561114   -0.00477910593975573   -0.0003608390152889851
-0.0014645163421347152   -0.006096907468570344   -0.0003440218231645829
-0.002184911381342934   -0.006096463379989277   -0.0003653070540799384
-0.00218883843909995   -0.006083678627627378   -0.0003653915280130736
-0.002138367713561114   -0.00477910593975573   -0.0003608390152889851
-0.0014645163421347152   -0.006096907468570344   -0.0003440218231645829
-0.00218883843909995   -0.006083678627627378   -0.0003653915280130736
-0.0014057159958374254   -0.004756277957115718   -0.00034422147771228094
-0.002138367713561114   -0.00477910593975573   -0.0003608390152889851
-0.002184911381342934   -0.006096463379989277   -0.0003653070540799384
-0.0014037745596639332   -0.004768037282711092   -0.00033647820625971783
-0.0021394810534817606   -0.004792253805317087   -0.0003536815768999746
-0.002184911381342934   -0.006096463379989277   -0.0003653070540799384
-0.0014645163421347152   -0.006096907468570344   -0.0003440218231645829
-0.0014037745596639332   -0.004768037282711092   -0.00033647820625971783
-0.0014575513050148117   -0.006107648235538164   -0.0003424510617644116
-0.0021394810534817606   -0.004792253805317087   -0.0003536815768999746
-0.0014005030655547335   -0.004779045395868848   -0.0003300257264667169
-0.0014575513050148117   -0.006107648235538164   -0.0003424510617644116
-0.0014037745596639332   -0.004768037282711092   -0.00033647820625971783
-0.0021394810534817606   -0.004792253805317087   -0.0003536815768999746
-0.0014575513050148117   -0.006107648235538164   -0.0003424510617644116
-0.0021771197881585947   -0.0061091207727618675   -0.0003671436460596579
-0.002184911381342934   -0.006096463379989277   -0.0003653070540799384
-0.0021394810534817606   -0.004792253805317087   -0.0003536815768999746
-0.0014575513050148117   -0.006107648235538164   -0.0003424510617644116
-0.002184911381342934   -0.006096463379989277   -0.0003653070540799384
-0.0014037745596639332   -0.004768037282711092   -0.00033647820625971783
-0.0021394810534817606   -0.004792253805317087   -0.0003536815768999746
-0.0021771197881585947   -0.0061091207727618675   -0.0003671436460596579
-0.0014005030655547335   -0.004779045395868848   -0.0003300257264667169
-0.002138585341359647   -0.004806782346861429   -0.0003485516770278413
-0.0021771197881585947   -0.0061091207727618675   -0.0003671436460596579
-0.0014575513050148117   -0.006107648235538164   -0.0003424510617644116
-0.0014005030655547335   -0.004779045395868848   -0.0003300257264667169
-0.001448859151825374   -0.006120370778829637   -0.0003421336059300007
-0.002138585341359647   -0.004806782346861429   -0.0003485516770278413
-0.001394542663085038   -0.004790156454540514   -0.00032475990513271334
-0.001448859151825374   -0.006120370778829637   -0.0003421336059300007
-0.0014005030655547335   -0.004779045395868848   -0.0003300257264667169
-0.002138585341359647   -0.004806782346861429   -0.0003485516770278413
-0.001448859151825374   -0.006120370778829637   -0.0003421336059300007
-0.0021652291015607323   -0.006125643126939808   -0.00037101688542571067
-0.0021771197881585947   -0.0061091207727618675   -0.0003671436460596579
-0.002138585341359647   -0.004806782346861429   -0.0003485516770278413
-0.001448859151825374   -0.006120370778829637   -0.0003421336059300007
-0.0021771197881585947   -0.0061091207727618675   -0.0003671436460596579
-0.0014005030655547335   -0.004779045395868848   -0.0003300257264667169
-0.0014057159958374254   -0.004756277957115718   -0.00034422147771228094
-0.0014693349030220054   -0.006087394767693814   -0.000346881391351277
-0.0007320165109878651   -0.004751982552556404   -0.0003268219837881728
-0.0014037745596639332   -0.004768037282711092   -0.00033647820625971783
-0.0014693349030220054   -0.006087394767693814   -0.000346881391351277
-0.0008094358850485931   -0.006087985319102845   -0.0003346339155751177
-0.0007320165109878651   -0.004751982552556404   -0.0003268219837881728
-0.0008033595332319677   -0.006093326769413948   -0.0003292530798024252
-0.0014037745596639332   -0.004768037282711092   -0.00033647820625971783
-0.0007281461912278732   -0.004758983914915544   -0.00031984810006876915
-0.0008033595332319677   -0.006093326769413948   -0.0003292530798024252
-0.0007320165109878651   -0.004751982552556404   -0.0003268219837881728
-0.0014037745596639332   -0.004768037282711092   -0.00033647820625971783
-0.0008033595332319677   -0.006093326769413948   -0.0003292530798024252
-0.0014645163421347152   -0.006096907468570344   -0.0003440218231645829
-0.0014693349030220054   -0.006087394767693814   -0.000346881391351277
-0.0014037745596639332   -0.004768037282711092   -0.00033647820625971783
-0.0008033595332319677   -0.006093326769413948   -0.0003292530798024252
-0.0014693349030220054   -0.006087394767693814   -0.000346881391351277
-0.0007320165109878651   -0.004751982552556404   -0.0003268219837881728
-0.0014037745596639332   -0.004768037282711092   -0.00033647820625971783
-0.0014645163421347152   -0.006096907468570344   -0.0003440218231645829
-0.0007281461912278732   -0.004758983914915544   -0.00031984810006876915
-0.0014005030655547335   -0.004779045395868848   -0.0003300257264667169
-0.0014645163421347152   -0.006096907468570344   -0.0003440218231645829
-0.0008033595332319677   -0.006093326769413948   -0.0003292530798024252
-0.0007281461912278732   -0.004758983914915544   -0.00031984810006876915
-0.0007966366957780029   -0.006100008243486521   -0.0003251603585012223
-0.0014005030655547335   -0.004779045395868848   -0.0003300257264667169
-0.0007237281947898534   -0.004765520024244024   -0.00031415875620775753
-0.0007966366957780029   -0.006100008243486521   -0.0003251603585012223
-0.0007281461912278732   -0.004758983914915544   -0.00031984810006876915
-0.0014005030655547335   -0.004779045395868848   -0.0003300257264667169
-0.0007966366957780029   -0.006100008243486521   -0.0003251603585012223
-0.0014575513050148117   -0.006107648235538164   -0.0003424510617644116
-0.0014645163421347152   -0.006096907468570344   -0.0003440218231645829
-0.0014005030655547335   -0.004779045395868848   -0.0003300257264667169
-0.0007966366957780029   -0.006100008243486521   -0.0003251603585012223
-0.0014645163421347152   -0.006096907468570344   -0.0003440218231645829
-0.0007281461912278732   -0.004758983914915544   -0.00031984810006876915
-0.0014005030655547335   -0.004779045395868848   -0.0003300257264667169
-0.0014575513050148117   -0.006107648235538164   -0.0003424510617644116
-0.0007237281947898534   -0.004765520024244024   -0.00031415875620775753
-0.001394542663085038   -0.004790156454540514   -0.00032475990513271334
-0.0014575513050148117   -0.006107648235538164   -0.0003424510617644116
-0.0007966366957780029   -0.006100008243486521   -0.0003251603585012223
-0.0007237281947898534   -0.004765520024244024   -0.00031415875620775753
-0.0007894503167181617   -0.006108051000351712   -0.0003224051853841544
-0.001394542663085038   -0.004790156454540514   -0.00032475990513271334
-0.0007186711070261359   -0.00477161508520895   -0.00030979183206059644
-0.0007894503167181617   -0.006108051000351712   -0.0003224051853841544
-0.0007237281947898534   -0.004765520024244024   -0.00031415875620775753
-0.001394542663085038   -0.004790156454540514   -0.00032475990513271334
-0.0007894503167181617   -0.006108051000351712   -0.0003224051853841544
-0.001448859151825374   -0.006120370778829637   -0.0003421336059300007
-0.0014575513050148117   -0.006107648235538164   -0.0003424510617644116
-0.001394542663085038   -0.004790156454540514   -0.00032475990513271334
-0.0007894503167181617   -0.006108051000351712   -0.0003224051853841544
-0.0014575513050148117   -0.006107648235538164   -0.0003424510617644116
-0.0007237281947898534   -0.004765520024244024   -0.00031415875620775753
-0.0007320165109878651   -0.004751982552556404   -0.0003268219837881728
-0.0008094358850485931   -0.006087985319102845   -0.0003346339155751177
-7.662615502495157e-05   -0.0047493169743328305   -0.00031819017004602683
-0.0007281461912278732   -0.004758983914915544   -0.00031984810006876915
-0.0008094358850485931   -0.006087985319102845   -0.0003346339155751177
-0.0001680164356108185   -0.006084228294241225   -0.00033005496641964226
-7.662615502495157e-05   -0.0047493169743328305   -0.00031819017004602683
-0.00016096298933821355   -0.006085202521707262   -0.0003222810601707017
-0.0007281461912278732   -0.004758983914915544   -0.00031984810006876915
-7.171269476449364e-05   -0.004751418560487736   -0.00031207183955827975
-0.00016096298933821355   -0.006085202521707262   -0.0003222810601707017
-7.662615502495157e-05   -0.0047493169743328305   -0.00031819017004602683
-0.0007281461912278732   -0.004758983914915544   -0.00031984810006876915
-0.00016096298933821355   -0.006085202521707262   -0.0003222810601707017
-0.0008033595332319677   -0.006093326769413948   -0.0003292530798024252
-0.0008094358850485931   -0.006087985319102845   -0.0003346339155751177
-0.0007281461912278732   -0.004758983914915544   -0.00031984810006876915
-0.00016096298933821355   -0.006085202521707262   -0.0003222810601707017
-0.0008094358850485931   -0.006087985319102845   -0.0003346339155751177
-7.662615502495157e-05   -0.0047493169743328305   -0.00031819017004602683
-0.0007281461912278732   -0.004758983914915544   -0.00031984810006876915
-0.0008033595332319677   -0.006093326769413948   -0.0003292530798024252
-7.171269476449364e-05   -0.004751418560487736   -0.00031207183955827975
-0.0007237281947898534   -0.004765520024244024   -0.00031415875620775753
-0.0008033595332319677   -0.006093326769413948   -0.0003292530798024252
-0.00016096298933821355   -0.006085202521707262   -0.0003222810601707017
-7.171269476449364e-05   -0.004751418560487736   -0.00031207183955827975
-0.00015424170820881454   -0.006087429629289114   -0.00031579247240477525
-0.0007237281947898534   -0.004765520024244024   -0.00031415875620775753
-6.728449322018931e-05   -0.00475301442732393   -0.00030723297000532346
-0.00015424170820881454   -0.006087429629289114   -0.00031579247240477525
-7.171269476449364e-05   -0.004751418560487736   -0.00031207183955827975
-0.0007237281947898534   -0.004765520024244024   -0.00031415875620775753
-0.00015424170820881454   -0.006087429629289114   -0.00031579247240477525
-0.0007966366957780029   -0.006100008243486521   -0.0003251603585012223
-0.0008033595332319677   -0.006093326769413948   -0.0003292530798024252
-0.0007237281947898534   -0.004765520024244024   -0.00031415875620775753
-0.00015424170820881454   -0.006087429629289114   -0.00031579247240477525
-0.0008033595332319677   -0.006093326769413948   -0.0003292530798024252
-7.171269476449364e-05   -0.004751418560487736   -0.00031207183955827975
-0.0007237281947898534   -0.004765520024244024   -0.00031415875620775753
-0.0007966366957780029   -0.006100008243486521   -0.0003251603585012223
-6.728449322018931e-05   -0.00475301442732393   -0.00030723297000532346
-0.0007186711070261359   -0.00477161508520895   -0.00030979183206059644
-0.0007966366957780029   -0.006100008243486521   -0.0003251603585012223
-0.00015424170820881454   -0.006087429629289114   -0.00031579247240477525
-6.728449322018931e-05   -0.00475301442732393   -0.00030723297000532346
-0.0001483675443078655   -0.006090952074791865   -0.0003106306618617957
-0.0007186711070261359   -0.00477161508520895   -0.00030979183206059644
-6.356197461823656e-05   -0.004754091838843977   -0.0003037163971206085
-0.0001483675443078655   -0.006090952074791865   -0.0003106306618617957
-6.728449322018931e-05   -0.00475301442732393   -0.00030723297000532346
-0.0007186711070261359   -0.00477161508520895   -0.00030979183206059644
-0.0001483675443078655   -0.006090952074791865   -0.0003106306618617957
-0.0007894503167181617   -0.006108051000351712   -0.0003224051853841544
-0.0007966366957780029   -0.006100008243486521   -0.0003251603585012223
-0.0007186711070261359   -0.00477161508520895   -0.00030979183206059644
-0.0001483675443078655   -0.006090952074791865   -0.0003106306618617957
-0.0007966366957780029   -0.006100008243486521   -0.0003251603585012223
-6.728449322018931e-05   -0.00475301442732393   -0.00030723297000532346
-7.662615502495157e-05   -0.0047493169743328305   -0.00031819017004602683
-0.0001680164356108185   -0.006084228294241225   -0.00033005496641964226
0.0005984665273769741   -0.004747811174051495   -0.00031846241788302965
-7.171269476449364e-05   -0.004751418560487736   -0.00031207183955827975
-0.0001680164356108185   -0.006084228294241225   -0.00033005496641964226
0.0004919279681365534   -0.006075997331260865   -0.0003334299174077318
0.0005984665273769741   -0.004747811174051495   -0.00031846241788302965
0.0005007846601916844   -0.006072560032513463   -0.00032328027992671447
-7.171269476449364e-05   -0.004751418560487736   -0.00031207183955827975
0.0006046510366880797   -0.0047451250004816245   -0.0003132355189520706
0.0005007846601916844   -0.006072560032513463   -0.00032328027992671447
0.0005984665273769741   -0.004747811174051495   -0.00031846241788302965
-7.171269476449364e-05   -0.004751418560487736   -0.00031207183955827975
0.0005007846601916844   -0.006072560032513463   -0.00032328027992671447
-0.00016096298933821355   -0.006085202521707262   -0.0003222810601707017
-0.0001680164356108185   -0.006084228294241225   -0.00033005496641964226
-7.171269476449364e-05   -0.004751418560487736   -0.00031207183955827975
0.0005007846601916844   -0.006072560032513463   -0.00032328027992671447
-0.0001680164356108185   -0.006084228294241225   -0.00033005496641964226
0.0005984665273769741   -0.004747811174051495   -0.00031846241788302965
-7.171269476449364e-05   -0.004751418560487736   -0.00031207183955827975
-0.00016096298933821355   -0.006085202521707262   -0.0003222810601707017
0.0006046510366880797   -0.0047451250004816245   -0.0003132355189520706
-6.728449322018931e-05   -0.00475301442732393   -0.00030723297000532346
-0.00016096298933821355   -0.006085202521707262   -0.0003222810601707017
0.0005007846601916844   -0.006072560032513463   -0.00032328027992671447
0.0006046510366880797   -0.0047451250004816245   -0.0003132355189520706
0.0005091449365356577   -0.006070753257220451   -0.0003144080969880793
-6.728449322018931e-05   -0.00475301442732393   -0.00030723297000532346
0.0006093677898148958   -0.004742250272843751   -0.0003092466909412955
0.0005091449365356577   -0.006070753257220451   -0.0003144080969880793
0.0006046510366880797   -0.0047451250004816245   -0.0003132355189520706
-6.728449322018931e-05   -0.00475301442732393   -0.00030723297000532346
0.0005091449365356577   -0.006070753257220451   -0.0003144080969880793
-0.00015424170820881454   -0.006087429629289114   -0.00031579247240477525
-0.00016096298933821355   -0.006085202521707262   -0.0003222810601707017
-6.728449322018931e-05   -0.00475301442732393   -0.00030723297000532346
0.0005091449365356577   -0.006070753257220451   -0.0003144080969880793
-0.00016096298933821355   -0.006085202521707262   -0.0003222810601707017
0.0006046510366880797   -0.0047451250004816245   -0.0003132355189520706
-6.728449322018931e-05   -0.00475301442732393   -0.00030723297000532346
-0.00015424170820881454   -0.006087429629289114   -0.00031579247240477525
0.0006093677898148958   -0.004742250272843751   -0.0003092466909412955
-6.356197461823656e-05   -0.004754091838843977   -0.0003037163971206085
-0.00015424170820881454   -0.006087429629289114   -0.00031579247240477525
0.0005091449365356577   -0.006070753257220451   -0.0003144080969880793
0.0006093677898148958   -0.004742250272843751   -0.0003092466909412955
0.0005141388225534002   -0.0060698112900095256   -0.0003067298862407798
-6.356197461823656e-05   -0.004754091838843977   -0.0003037163971206085
0.0006115475624285453   -0.004738325061951108   -0.00030647404666587537
0.0005141388225534002   -0.0060698112900095256   -0.0003067298862407798
0.0006093677898148958   -0.004742250272843751   -0.0003092466909412955
-6.356197461823656e-05   -0.004754091838843977   -0.0003037163971206085
0.0005141388225534002   -0.0060698112900095256   -0.0003067298862407798
-0.0001483675443078655   -0.006090952074791865   -0.0003106306618617957
-0.00015424170820881454   -0.006087429629289114   -0.00031579247240477525
-6.356197461823656e-05   -0.004754091838843977   -0.0003037163971206085
0.0005141388225534002   -0.0060698112900095256   -0.0003067298862407798
-0.00015424170820881454   -0.006087429629289114   -0.00031579247240477525
0.0006093677898148958   -0.004742250272843751   -0.0003092466909412955
0.0005984665273769741   -0.004747811174051495   -0.00031846241788302965
0.0004919279681365534   -0.006075997331260865   -0.0003334299174077318
0.0013288334841642987   -0.0047453137046385065   -0.00032698429943646455
0.0006046510366880797   -0.0047451250004816245   -0.0003132355189520706
0.0004919279681365534   -0.006075997331260865   -0.0003334299174077318
0.001196256400416073   -0.006061944860972272   -0.0003453440712055465
0.0013288334841642987   -0.0047453137046385065   -0.00032698429943646455
0.0012185292185831018   -0.006054458516224044   -0.0003317724355493046
0.0006046510366880797   -0.0047451250004816245   -0.0003132355189520706
0.0013403931106055348   -0.004738791566410933   -0.0003221588858056208
0.0012185292185831018   -0.006054458516224044   -0.0003317724355493046
0.0013288334841642987   -0.0047453137046385065   -0.00032698429943646455
0.0006046510366880797   -0.0047451250004816245   -0.0003132355189520706
0.0012185292185831018   -0.006054458516224044   -0.0003317724355493046
0.0005007846601916844   -0.006072560032513463   -0.00032328027992671447
0.0004919279681365534   -0.006075997331260865   -0.0003334299174077318
0.0006046510366880797   -0.0047451250004816245   -0.0003132355189520706
0.0012185292185831018   -0.006054458516224044   -0.0003317724355493046
0.0004919279681365534   -0.006075997331260865   -0.0003334299174077318
0.0013288334841642987   -0.0047453137046385065   -0.00032698429943646455
0.0006046510366880797   -0.0047451250004816245   -0.0003132355189520706
0.0005007846601916844   -0.006072560032513463   -0.00032328027992671447
0.0013403931106055348   -0.004738791566410933   -0.0003221588858056208
0.0006093677898148958   -0.004742250272843751   -0.0003092466909412955
0.0005007846601916844   -0.006072560032513463   -0.00032328027992671447
0.0012185292185831018   -0.006054458516224044   -0.0003317724355493046
0.0013403931106055348   -0.004738791566410933   -0.0003221588858056208
0.0012342719678478525   -0.006050802321751316   -0.0003200382070511065
0.0006093677898148958   -0.004742250272843751   -0.0003092466909412955
0.001347422310178781   -0.004733786312619064   -0.000319231279439763
0.0012342719678478525   -0.006050802321751316   -0.0003200382070511065
0.0013403931106055348   -0.004738791566410933   -0.0003221588858056208
0.0006093677898148958   -0.004742250272843751   -0.0003092466909412955
0.0012342719678478525   -0.006050802321751316   -0.0003200382070511065
0.0005091449365356577   -0.006070753257220451   -0.0003144080969880793
0.0005007846601916844   -0.006072560032513463   -0.00032328027992671447
0.0006093677898148958   -0.004742250272843751   -0.0003092466909412955
0.0012342719678478525   -0.006050802321751316   -0.0003200382070511065
0.0005007846601916844   -0.006072560032513463   -0.00032328027992671447
0.0013403931106055348   -0.004738791566410933   -0.0003221588858056208
0.0006093677898148958   -0.004742250272843751   -0.0003092466909412955
0.0005091449365356577   -0.006070753257220451   -0.0003144080969880793
0.001347422310178781   -0.004733786312619064   -0.000319231279439763
0.0006115475624285453   -0.004738325061951108   -0.00030647404666587537
0.0005091449365356577   -0.006070753257220451   -0.0003144080969880793
0.0012342719678478525   -0.006050802321751316   -0.0003200382070511065
0.001347422310178781   -0.004733786312619064   -0.000319231279439763
0.0012488280796066058   -0.006047132235401057   -0.0003102221477805287
0.0006115475624285453   -0.004738325061951108   -0.00030647404666587537
0.0013511151519023054   -0.004726208067001803   -0.0003182345538840426
0.0012488280796066058   -0.006047132235401057   -0.0003102221477805287
0.001347422310178781   -0.004733786312619064   -0.000319231279439763
0.0006115475624285453   -0.004738325061951108   -0.00030647404666587537
0.0012488280796066058   -0.006047132235401057   -0.0003102221477805287
0.0005141388225534002   -0.0060698112900095256   -0.0003067298862407798
0.0005091449365356577   -0.006070753257220451   -0.0003144080969880793
0.0006115475624285453   -0.004738325061951108   -0.00030647404666587537
0.0012488280796066058   -0.006047132235401057   -0.0003102221477805287
0.0005091449365356577   -0.006070753257220451   -0.0003144080969880793
0.001347422310178781   -0.004733786312619064   -0.000319231279439763
-0.00218883843909995   -0.006083678627627378   -0.0003653915280130736
-0.0021251109548917073   -0.007334171010898259   -0.00035083578875446346
-0.0014693349030220054   -0.006087394767693814   -0.000346881391351277
-0.002184911381342934   -0.006096463379989277   -0.0003653070540799384
-0.0021251109548917073   -0.007334171010898259   -0.00035083578875446346
-0.0014618161755557651   -0.007348445165143998   -0.0003400235839157654
-0.0014693349030220054   -0.006087394767693814   -0.000346881391351277
-0.0014531268513811274   -0.007355428635383257   -0.0003418131620819203
-0.002184911381342934   -0.006096463379989277   -0.0003653070540799384
-0.0014645163421347152   -0.006096907468570344   -0.0003440218231645829
-0.0014531268513811274   -0.007355428635383257   -0.0003418131620819203
-0.0014693349030220054   -0.006087394767693814   -0.000346881391351277
-0.002184911381342934   -0.006096463379989277   -0.0003653070540799384
-0.0014531268513811274   -0.007355428635383257   -0.0003418131620819203
-0.0021093585866461036   -0.007343619747417909   -0.0003594693535846235
-0.0021251109548917073   -0.007334171010898259   -0.00035083578875446346
-0.002184911381342934   -0.006096463379989277   -0.0003653070540799384
-0.0014531268513811274   -0.007355428635383257   -0.0003418131620819203
-0.0021251109548917073   -0.007334171010898259   -0.00035083578875446346
-0.0014693349030220054   -0.006087394767693814   -0.000346881391351277
-0.002184911381342934   -0.006096463379989277   -0.0003653070540799384
-0.0021093585866461036   -0.007343619747417909   -0.0003594693535846235
-0.0014645163421347152   -0.006096907468570344   -0.0003440218231645829
-0.0021771197881585947   -0.0061091207727618675   -0.0003671436460596579
-0.0021093585866461036   -0.007343619747417909   -0.0003594693535846235
-0.0014531268513811274   -0.007355428635383257   -0.0003418131620819203
-0.0014645163421347152   -0.006096907468570344   -0.0003440218231645829
-0.0014415419871012412   -0.007365623496429509   -0.0003448856908428828
-0.0021771197881585947   -0.0061091207727618675   -0.0003671436460596579
-0.0014575513050148117   -0.006107648235538164   -0.0003424510617644116
-0.0014415419871012412   -0.007365623496429509   -0.0003448856908428828
-0.0014645163421347152   -0.006096907468570344   -0.0003440218231645829
-0.0021771197881585947   -0.0061091207727618675   -0.0003671436460596579
-0.0014415419871012412   -0.007365623496429509   -0.0003448856908428828
-0.002091761038560264   -0.007355534415459569   -0.0003701138971569034
-0.0021093585866461036   -0.007343619747417909   -0.0003594693535846235
-0.0021771197881585947   -0.0061091207727618675   -0.0003671436460596579
-0.0014415419871012412   -0.007365623496429509   -0.0003448856908428828
-0.0021093585866461036   -0.007343619747417909   -0.0003594693535846235
-0.0014645163421347152   -0.006096907468570344   -0.0003440218231645829
-0.0021771197881585947   -0.0061091207727618675   -0.0003671436460596579
-0.002091761038560264   -0.007355534415459569   -0.0003701138971569034
-0.0014575513050148117   -0.006107648235538164   -0.0003424510617644116
-0.0021652291015607323   -0.006125643126939808   -0.00037101688542571067
-0.002091761038560264   -0.007355534415459569   -0.0003701138971569034
-0.0014415419871012412   -0.007365623496429509   -0.0003448856908428828
-0.0014575513050148117   -0.006107648235538164   -0.0003424510617644116
-0.0014291928305699272   -0.007379663915188962   -0.0003492663929559143
-0.0021652291015607323   -0.006125643126939808   -0.00037101688542571067
-0.001448859151825374   -0.006120370778829637   -0.0003421336059300007
-0.0014291928305699272   -0.007379663915188962   -0.0003492663929559143
-0.0014575513050148117   -0.006107648235538164   -0.0003424510617644116
-0.0021652291015607323   -0.006125643126939808   -0.00037101688542571067
-0.0014291928305699272   -0.007379663915188962   -0.0003492663929559143
-0.002068074552405083   -0.007373833885313314   -0.0003828259618765357
-0.002091761038560264   -0.007355534415459569   -0.0003701138971569034
-0.0021652291015607323   -0.006125643126939808   -0.00037101688542571067
-0.0014291928305699272   -0.007379663915188962   -0.0003492663929559143
-0.002091761038560264   -0.007355534415459569   -0.0003701138971569034
-0.0014575513050148117   -0.006107648235538164   -0.0003424510617644116
-0.0014693349030220054   -0.006087394767693814   -0.000346881391351277
-0.0014618161755557651   -0.007348445165143998   -0.0003400235839157654
-0.0008094358850485931   -0.006087985319102845   -0.0003346339155751177
-0.0014645163421347152   -0.006096907468570344   -0.0003440218231645829
-0.0014618161755557651   -0.007348445165143998   -0.0003400235839157654
-0.0008651583346923067   -0.007353777716871403   -0.00033318127810039503
-0.0008094358850485931   -0.006087985319102845   -0.0003346339155751177
-0.000855796337909416   -0.007357298039826056   -0.00032924824497007084
-0.0014645163421347152   -0.006096907468570344   -0.0003440218231645829
-0.0008033595332319677   -0.006093326769413948   -0.0003292530798024252
-0.000855796337909416   -0.007357298039826056   -0.00032924824497007084
-0.0008094358850485931   -0.006087985319102845   -0.0003346339155751177
-0.0014645163421347152   -0.006096907468570344   -0.0003440218231645829
-0.000855796337909416   -0.007357298039826056   -0.00032924824497007084
-0.0014531268513811274   -0.007355428635383257   -0.0003418131620819203
-0.0014618161755557651   -0.007348445165143998   -0.0003400235839157654
-0.0014645163421347152   -0.006096907468570344   -0.0003440218231645829
-0.000855796337909416   -0.007357298039826056   -0.00032924824497007084
-0.0014618161755557651   -0.007348445165143998   -0.0003400235839157654
-0.0008094358850485931   -0.006087985319102845   -0.0003346339155751177
-0.0014645163421347152   -0.006096907468570344   -0.0003440218231645829
-0.0014531268513811274   -0.007355428635383257   -0.0003418131620819203
-0.0008033595332319677   -0.006093326769413948   -0.0003292530798024252
-0.0014575513050148117   -0.006107648235538164   -0.0003424510617644116
-0.0014531268513811274   -0.007355428635383257   -0.0003418131620819203
-0.000855796337909416   -0.007357298039826056   -0.00032924824497007084
-0.0008033595332319677   -0.006093326769413948   -0.0003292530798024252
-0.0008457645045136362   -0.007363885130595207   -0.0003265801500749126
-0.0014575513050148117   -0.006107648235538164   -0.0003424510617644116
-0.0007966366957780029   -0.006100008243486521   -0.0003251603585012223
-0.0008457645045136362   -0.007363885130595207   -0.0003265801500749126
-0.0008033595332319677   -0.006093326769413948   -0.0003292530798024252
-0.0014575513050148117   -0.006107648235538164   -0.0003424510617644116
-0.0008457645045136362   -0.007363885130595207   -0.0003265801500749126
-0.0014415419871012412   -0.007365623496429509   -0.0003448856908428828
-0.0014531268513811274   -0.007355428635383257   -0.0003418131620819203
-0.0014575513050148117   -0.006107648235538164   -0.0003424510617644116
-0.0008457645045136362   -0.007363885130595207   -0.0003265801500749126
-0.0014531268513811274   -0.007355428635383257   -0.0003418131620819203
-0.0008033595332319677   -0.006093326769413948   -0.0003292530798024252
-0.0014575513050148117   -0.006107648235538164   -0.0003424510617644116
-0.0014415419871012412   -0.007365623496429509   -0.0003448856908428828
-0.0007966366957780029   -0.006100008243486521   -0.0003251603585012223
-0.001448859151825374   -0.006120370778829637   -0.0003421336059300007
-0.0014415419871012412   -0.007365623496429509   -0.0003448856908428828
-0.0008457645045136362   -0.007363885130595207   -0.0003265801500749126
-0.0007966366957780029   -0.006100008243486521   -0.0003251603585012223
-0.0008354550299946475   -0.007373611830950552   -0.0003252468719471542
-0.001448859151825374   -0.006120370778829637   -0.0003421336059300007
-0.0007894503167181617   -0.006108051000351712   -0.0003224051853841544
-0.0008354550299946475   -0.007373611830950552   -0.0003252468719471542
-0.0007966366957780029   -0.006100008243486521   -0.0003251603585012223
-0.001448859151825374   -0.006120370778829637   -0.0003421336059300007
-0.0008354550299946475   -0.007373611830950552   -0.0003252468719471542
-0.0014291928305699272   -0.007379663915188962   -0.0003492663929559143
-0.0014415419871012412   -0.007365623496429509   -0.0003448856908428828
-0.001448859151825374   -0.006120370778829637   -0.0003421336059300007
-0.0008354550299946475   -0.007373611830950552   -0.0003252468719471542
-0.0014415419871012412   -0.007365623496429509   -0.0003448856908428828
-0.0007966366957780029   -0.006100008243486521   -0.0003251603585012223
-0.0008094358850485931   -0.006087985319102845   -0.0003346339155751177
-0.0008651583346923067   -0.007353777716871403   -0.00033318127810039503
-0.0001680164356108185   -0.006084228294241225   -0.00033005496641964226
-0.0008033595332319677   -0.006093326769413948   -0.0003292530798024252
-0.0008651583346923067   -0.007353777716871403   -0.00033318127810039503
-0.0002862287129624203   -0.007349060939169856   -0.00033259579122771576
-0.0001680164356108185   -0.006084228294241225   -0.00033005496641964226
-0.0002758908976521204   -0.0073488635894621785   -0.0003231363980034208
-0.0008033595332319677   -0.006093326769413948   -0.0003292530798024252
-0.00016096298933821355   -0.006085202521707262   -0.0003222810601707017
-0.0002758908976521204   -0.0073488635894621785   -0.0003231363980034208
-0.0001680164356108185   -0.006084228294241225   -0.00033005496641964226
-0.0008033595332319677   -0.006093326769413948   -0.0003292530798024252
-0.0002758908976521204   -0.0073488635894621785   -0.0003231363980034208
-0.000855796337909416   -0.007357298039826056   -0.00032924824497007084
-0.0008651583346923067   -0.007353777716871403   -0.00033318127810039503
-0.0008033595332319677   -0.006093326769413948   -0.0003292530798024252
-0.0002758908976521204   -0.0073488635894621785   -0.0003231363980034208
-0.0008651583346923067   -0.007353777716871403   -0.00033318127810039503
-0.0001680164356108185   -0.006084228294241225   -0.00033005496641964226
-0.0008033595332319677   -0.006093326769413948   -0.0003292530798024252
-0.000855796337909416   -0.007357298039826056   -0.00032924824497007084
-0.00016096298933821355   -0.006085202521707262   -0.0003222810601707017
-0.0007966366957780029   -0.006100008243486521   -0.0003251603585012223
-0.000855796337909416   -0.007357298039826056   -0.00032924824497007084
-0.0002758908976521204   -0.0073488635894621785   -0.0003231363980034208
-0.00016096298933821355   -0.006085202521707262   -0.0003222810601707017
-0.0002657974790516745   -0.007351539113982514   -0.00031495048518837
-0.0007966366957780029   -0.006100008243486521   -0.0003251603585012223
-0.00015424170820881454   -0.006087429629289114   -0.00031579247240477525
-0.0002657974790516745   -0.007351539113982514   -0.00031495048518837
-0.00016096298933821355   -0.006085202521707262   -0.0003222810601707017
-0.0007966366957780029   -0.006100008243486521   -0.0003251603585012223
-0.0002657974790516745   -0.007351539113982514   -0.00031495048518837
-0.0008457645045136362   -0.007363885130595207   -0.0003265801500749126
-0.000855796337909416   -0.007357298039826056   -0.00032924824497007084
-0.0007966366957780029   -0.006100008243486521   -0.0003251603585012223
-0.0002657974790516745   -0.007351539113982514   -0.00031495048518837
-0.000855796337909416   -0.007357298039826056   -0.00032924824497007084
-0.00016096298933821355   -0.006085202521707262   -0.0003222810601707017
-0.0007966366957780029   -0.006100008243486521   -0.0003251603585012223
-0.0008457645045136362   -0.007363885130595207   -0.0003265801500749126
-0.00015424170820881454   -0.006087429629289114   -0.00031579247240477525
-0.0007894503167181617   -0.006108051000351712   -0.0003224051853841544
-0.0008457645045136362   -0.007363885130595207   -0.0003265801500749126
-0.0002657974790516745   -0.007351539113982514   -0.00031495048518837
-0.00015424170820881454   -0.006087429629289114   -0.00031579247240477525
-0.00025671444999280654   -0.007357283899938574   -0.00030807986938224014
-0.0007894503167181617   -0.006108051000351712   -0.0003224051853841544
-0.0001483675443078655   -0.006090952074791865   -0.0003106306618617957
-0.00025671444999280654   -0.007357283899938574   -0.00030807986938224014
-0.00015424170820881454   -0.006087429629289114   -0.00031579247240477525
-0.0007894503167181617   -0.006108051000351712   -0.0003224051853841544
-0.00025671444999280654   -0.007357283899938574   -0.00030807986938224014
-0.0008354550299946475   -0.007373611830950552   -0.0003252468719471542
-0.0008457645045136362   -0.007363885130595207   -0.0003265801500749126
-0.0007894503167181617   -0.006108051000351712   -0.0003224051853841544
-0.00025671444999280654   -0.007357283899938574   -0.00030807986938224014
-0.0008457645045136362   -0.007363885130595207   -0.0003265801500749126
-0.00015424170820881454   -0.006087429629289114   -0.00031579247240477525
-0.0001680164356108185   -0.006084228294241225   -0.00033005496641964226
-0.0002862287129624203   -0.007349060939169856   -0.00033259579122771576
0.0004919279681365534   -0.006075997331260865   -0.0003334299174077318
-0.00016096298933821355   -0.006085202521707262   -0.0003222810601707017
-0.0002862287129624203   -0.007349060939169856   -0.00033259579122771576
0.00031118692865956984   -0.007334454327786188   -0.00033874794838710423
0.0004919279681365534   -0.006075997331260865   -0.0003334299174077318
0.00032385783640750406   -0.0073302844441318965   -0.0003237860828773566
-0.00016096298933821355   -0.006085202521707262   -0.0003222810601707017
0.0005007846601916844   -0.006072560032513463   -0.00032328027992671447
0.00032385783640750406   -0.0073302844441318965   -0.0003237860828773566
0.0004919279681365534   -0.006075997331260865   -0.0003334299174077318
-0.00016096298933821355   -0.006085202521707262   -0.0003222810601707017
0.00032385783640750406   -0.0073302844441318965   -0.0003237860828773566
-0.0002758908976521204   -0.0073488635894621785   -0.0003231363980034208
-0.0002862287129624203   -0.007349060939169856   -0.00033259579122771576
-0.00016096298933821355   -0.006085202521707262   -0.0003222810601707017
0.00032385783640750406   -0.0073302844441318965   -0.0003237860828773566
-0.0002862287129624203   -0.007349060939169856   -0.00033259579122771576
0.0004919279681365534   -0.006075997331260865   -0.0003334299174077318
-0.00016096298933821355   -0.006085202521707262   -0.0003222810601707017
-0.0002758908976521204   -0.0073488635894621785   -0.0003231363980034208
0.0005007846601916844   -0.006072560032513463   -0.00032328027992671447
-0.00015424170820881454   -0.006087429629289114   -0.00031579247240477525
-0.0002758908976521204   -0.0073488635894621785   -0.0003231363980034208
0.00032385783640750406   -0.0073302844441318965   -0.0003237860828773566
0.0005007846601916844   -0.006072560032513463   -0.00032328027992671447
0.00033695717349674923   -0.007329410515533429   -0.0003101717823573063
-0.00015424170820881454   -0.006087429629289114   -0.00031579247240477525
0.0005091449365356577   -0.006070753257220451   -0.0003144080969880793
0.00033695717349674923   -0.007329410515533429   -0.0003101717823573063
0.0005007846601916844   -0.006072560032513463   -0.00032328027992671447
-0.00015424170820881454   -0.006087429629289114   -0.00031579247240477525
0.00033695717349674923   -0.007329410515533429   -0.0003101717823573063
-0.0002657974790516745   -0.007351539113982514   -0.00031495048518837
-0.0002758908976521204   -0.0073488635894621785   -0.0003231363980034208
-0.00015424170820881454   -0.006087429629289114   -0.00031579247240477525
0.00033695717349674923   -0.007329410515533429   -0.0003101717823573063
-0.0002758908976521204   -0.0073488635894621785   -0.0003231363980034208
0.0005007846601916844   -0.006072560032513463   -0.00032328027992671447
-0.00015424170820881454   -0.006087429629289114   -0.00031579247240477525
-0.0002657974790516745   -0.007351539113982514   -0.00031495048518837
0.0005091449365356577   -0.006070753257220451   -0.0003144080969880793
-0.0001483675443078655   -0.006090952074791865   -0.0003106306618617957
-0.0002657974790516745   -0.007351539113982514   -0.00031495048518837
0.00033695717349674923   -0.007329410515533429   -0.0003101717823573063
0.0005091449365356577   -0.006070753257220451   -0.0003144080969880793
0.00034585495918845657   -0.007331246814785092   -0.00029772498627765495
-0.0001483675443078655   -0.006090952074791865   -0.0003106306618617957
0.0005141388225534002   -0.0060698112900095256   -0.0003067298862407798
0.00034585495918845657   -0.007331246814785092   -0.00029772498627765495
0.0005091449365356577   -0.006070753257220451   -0.0003144080969880793
-0.0001483675443078655   -0.006090952074791865   -0.0003106306618617957
0.00034585495918845657   -0.007331246814785092   -0.00029772498627765495
-0.00025671444999280654   -0.007357283899938574   -0.00030807986938224014
-0.0002657974790516745   -0.007351539113982514   -0.00031495048518837
-0.0001483675443078655   -0.006090952074791865   -0.0003106306618617957
0.00034585495918845657   -0.007331246814785092   -0.00029772498627765495
-0.0002657974790516745   -0.007351539113982514   -0.00031495048518837
0.0005091449365356577   -0.006070753257220451   -0.0003144080969880793
0.0004919279681365534   -0.006075997331260865   -0.0003334299174077318
0.00031118692865956984   -0.007334454327786188   -0.00033874794838710423
0.001196256400416073   -0.006061944860972272   -0.0003453440712055465
0.0005007846601916844   -0.006072560032513463   -0.00032328027992671447
0.00031118692865956984   -0.007334454327786188   -0.00033874794838710423
0.0009433981307186322   -0.007309252452583588   -0.00035362982684107683
0.001196256400416073   -0.006061944860972272   -0.0003453440712055465
0.0009772287370866616   -0.007300907033273086   -0.00033169731508999456
0.0005007846601916844   -0.006072560032513463   -0.00032328027992671447
0.0012185292185831018   -0.006054458516224044   -0.0003317724355493046
0.0009772287370866616   -0.007300907033273086   -0.00033169731508999456
0.001196256400416073   -0.006061944860972272   -0.0003453440712055465
0.0005007846601916844   -0.006072560032513463   -0.00032328027992671447
0.0009772287370866616   -0.007300907033273086   -0.00033169731508999456
0.00032385783640750406   -0.0073302844441318965   -0.0003237860828773566
0.00031118692865956984   -0.007334454327786188   -0.00033874794838710423
0.0005007846601916844   -0.006072560032513463   -0.00032328027992671447
0.0009772287370866616   -0.007300907033273086   -0.00033169731508999456
0.00031118692865956984   -0.007334454327786188   -0.00033874794838710423
0.001196256400416073   -0.006061944860972272   -0.0003453440712055465
0.0005007846601916844   -0.006072560032513463   -0.00032328027992671447
0.00032385783640750406   -0.0073302844441318965   -0.0003237860828773566
0.0012185292185831018   -0.006054458516224044   -0.0003317724355493046
0.0005091449365356577   -0.006070753257220451   -0.0003144080969880793
0.00032385783640750406   -0.0073302844441318965   -0.0003237860828773566
0.0009772287370866616   -0.007300907033273086   -0.00033169731508999456
0.0012185292185831018   -0.006054458516224044   -0.0003317724355493046
0.0010025169782284632   -0.007298520131401308   -0.0003115729220118515
0.0005091449365356577   -0.006070753257220451   -0.0003144080969880793
0.0012342719678478525   -0.006050802321751316   -0.0003200382070511065
0.0010025169782284632   -0.007298520131401308   -0.0003115729220118515
0.0012185292185831018   -0.006054458516224044   -0.0003317724355493046
0.0005091449365356577   -0.006070753257220451   -0.0003144080969880793
0.0010025169782284632   -0.007298520131401308   -0.0003115729220118515
0.00033695717349674923   -0.007329410515533429   -0.0003101717823573063
0.00032385783640750406   -0.0073302844441318965   -0.0003237860828773566
0.0005091449365356577   -0.006070753257220451   -0.0003144080969880793
0.0010025169782284632   -0.007298520131401308   -0.0003115729220118515
0.00032385783640750406   -0.0073302844441318965   -0.0003237860828773566
0.0012185292185831018   -0.006054458516224044   -0.0003317724355493046
0.0005091449365356577   -0.006070753257220451   -0.0003144080969880793
0.00033695717349674923   -0.007329410515533429   -0.0003101717823573063
0.0012342719678478525   -0.006050802321751316   -0.0003200382070511065
0.0005141388225534002   -0.0060698112900095256   -0.0003067298862407798
0.00033695717349674923   -0.007329410515533429   -0.0003101717823573063
0.0010025169782284632   -0.007298520131401308   -0.0003115729220118515
0.0012342719678478525   -0.006050802321751316   -0.0003200382070511065
0.001028585208072778   -0.007298586603102142   -0.00029335081920140295
0.0005141388225534002   -0.0060698112900095256   -0.0003067298862407798
0.0012488280796066058   -0.006047132235401057   -0.0003102221477805287
0.001028585208072778   -0.007298586603102142   -0.00029335081920140295
0.0012342719678478525   -0.006050802321751316   -0.0003200382070511065
0.0005141388225534002   -0.0060698112900095256   -0.0003067298862407798
0.001028585208072778   -0.007298586603102142   -0.00029335081920140295
0.00034585495918845657   -0.007331246814785092   -0.00029772498627765495
0.00033695717349674923   -0.007329410515533429   -0.0003101717823573063
0.0005141388225534002   -0.0060698112900095256   -0.0003067298862407798
0.001028585208072778   -0.007298586603102142   -0.00029335081920140295
0.00033695717349674923   -0.007329410515533429   -0.0003101717823573063
0.0012342719678478525   -0.006050802321751316   -0.0003200382070511065
-0.0021251109548917073   -0.007334171010898259   -0.00035083578875446346
-0.0019410626465598791   -0.008432540137202828   -0.0003282932442372431
-0.0014618161755557651   -0.007348445165143998   -0.0003400235839157654
-0.0021093585866461036   -0.007343619747417909   -0.0003594693535846235
-0.0019410626465598791   -0.008432540137202828   -0.0003282932442372431
-0.0013848624562990165   -0.008457610828243835   -0.00032678822642612227
-0.0014618161755557651   -0.007348445165143998   -0.0003400235839157654
-0.0013715064084380826   -0.008461191855785711   -0.0003328142246086144
-0.0021093585866461036   -0.007343619747417909   -0.0003594693535846235
-0.0014531268513811274   -0.007355428635383257   -0.0003418131620819203
-0.0013715064084380826   -0.008461191855785711   -0.0003328142246086144
-0.0014618161755557651   -0.007348445165143998   -0.0003400235839157654
-0.0021093585866461036   -0.007343619747417909   -0.0003594693535846235
-0.0013715064084380826   -0.008461191855785711   -0.0003328142246086144
-0.0019127341588865263   -0.008437798115921978   -0.00034539833353020683
-0.0019410626465598791   -0.008432540137202828   -0.0003282932442372431
-0.0021093585866461036   -0.007343619747417909   -0.0003594693535846235
-0.0013715064084380826   -0.008461191855785711   -0.0003328142246086144
-0.0019410626465598791   -0.008432540137202828   -0.0003282932442372431
-0.0014618161755557651   -0.007348445165143998   -0.0003400235839157654
-0.0021093585866461036   -0.007343619747417909   -0.0003594693535846235
-0.0019127341588865263   -0.008437798115921978   -0.00034539833353020683
-0.0014531268513811274   -0.007355428635383257   -0.0003418131620819203
-0.002091761038560264   -0.007355534415459569   -0.0003701138971569034
-0.0019127341588865263   -0.008437798115921978   -0.00034539833353020683
-0.0013715064084380826   -0.008461191855785711   -0.0003328142246086144
-0.0014531268513811274   -0.007355428635383257   -0.0003418131620819203
-0.0013547093691514526   -0.008469998539193904   -0.0003401055837122418
-0.002091761038560264   -0.007355534415459569   -0.0003701138971569034
-0.0014415419871012412   -0.007365623496429509   -0.0003448856908428828
-0.0013547093691514526   -0.008469998539193904   -0.0003401055837122418
-0.0014531268513811274   -0.007355428635383257   -0.0003418131620819203
-0.002091761038560264   -0.007355534415459569   -0.0003701138971569034
-0.0013547093691514526   -0.008469998539193904   -0.0003401055837122418
-0.0018847435901693194   -0.008448143397487628   -0.00036456044853834323
-0.0019127341588865263   -0.008437798115921978   -0.00034539833353020683
-0.002091761038560264   -0.007355534415459569   -0.0003701138971569034
-0.0013547093691514526   -0.008469998539193904   -0.0003401055837122418
-0.0019127341588865263   -0.008437798115921978   -0.00034539833353020683
-0.0014531268513811274   -0.007355428635383257   -0.0003418131620819203
-0.002091761038560264   -0.007355534415459569   -0.0003701138971569034
-0.0018847435901693194   -0.008448143397487628   -0.00036456044853834323
-0.0014415419871012412   -0.007365623496429509   -0.0003448856908428828
-0.002068074552405083   -0.007373833885313314   -0.0003828259618765357
-0.0018847435901693194   -0.008448143397487628   -0.00036456044853834323
-0.0013547093691514526   -0.008469998539193904   -0.0003401055837122418
-0.0014415419871012412   -0.007365623496429509   -0.0003448856908428828
-0.0013381867076791155   -0.008484535684038903   -0.00034864962383284397
-0.002068074552405083   -0.007373833885313314   -0.0003828259618765357
-0.0014291928305699272   -0.007379663915188962   -0.0003492663929559143
-0.0013381867076791155   -0.008484535684038903   -0.00034864962383284397
-0.0014415419871012412   -0.007365623496429509   -0.0003448856908428828
-0.002068074552405083   -0.007373833885313314   -0.0003828259618765357
-0.0013381867076791155   -0.008484535684038903   -0.00034864962383284397
-0.001848965246598965   -0.00846743675398726   -0.00038576274095199144
-0.0018847435901693194   -0.008448143397487628   -0.00036456044853834323
-0.002068074552405083   -0.007373833885313314   -0.0003828259618765357
-0.0013381867076791155   -0.008484535684038903   -0.00034864962383284397
-0.0018847435901693194   -0.008448143397487628   -0.00036456044853834323
-0.0014415419871012412   -0.007365623496429509   -0.0003448856908428828
-0.0014618161755557651   -0.007348445165143998   -0.0003400235839157654
-0.0013848624562990165   -0.008457610828243835   -0.00032678822642612227
-0.0008651583346923067   -0.007353777716871403   -0.00033318127810039503
-0.0014531268513811274   -0.007355428635383257   -0.0003418131620819203
-0.0013848624562990165   -0.008457610828243835   -0.00032678822642612227
-0.000899982076905493   -0.00846884539885673   -0.0003263464876624996
-0.0008651583346923067   -0.007353777716871403   -0.00033318127810039503
-0.0008863742331361721   -0.00846994085143568   -0.00032352481225870556
-0.0014531268513811274   -0.007355428635383257   -0.0003418131620819203
-0.000855796337909416   -0.007357298039826056   -0.00032924824497007084
-0.0008863742331361721   -0.00846994085143568   -0.00032352481225870556
-0.0008651583346923067   -0.007353777716871403   -0.00033318127810039503
-0.0014531268513811274   -0.007355428635383257   -0.0003418131620819203
-0.0008863742331361721   -0.00846994085143568   -0.00032352481225870556
-0.0013715064084380826   -0.008461191855785711   -0.0003328142246086144
-0.0013848624562990165   -0.008457610828243835   -0.00032678822642612227
-0.0014531268513811274   -0.007355428635383257   -0.0003418131620819203
-0.0008863742331361721   -0.00846994085143568   -0.00032352481225870556
-0.0013848624562990165   -0.008457610828243835   -0.00032678822642612227
-0.0008651583346923067   -0.007353777716871403   -0.00033318127810039503
-0.0014531268513811274   -0.007355428635383257   -0.0003418131620819203
-0.0013715064084380826   -0.008461191855785711   -0.0003328142246086144
-0.000855796337909416   -0.007357298039826056   -0.00032924824497007084
-0.0014415419871012412   -0.007365623496429509   -0.0003448856908428828
-0.0013715064084380826   -0.008461191855785711   -0.0003328142246086144
-0.0008863742331361721   -0.00846994085143568   -0.00032352481225870556
-0.000855796337909416   -0.007357298039826056   -0.00032924824497007084
-0.0008722919783784088   -0.008475723831909233   -0.00032193049805529796
-0.0014415419871012412   -0.007365623496429509   -0.0003448856908428828
-0.0008457645045136362   -0.007363885130595207   -0.0003265801500749126
-0.0008722919783784088   -0.008475723831909233   -0.00032193049805529796
-0.000855796337909416   -0.007357298039826056   -0.00032924824497007084
-0.0014415419871012412   -0.007365623496429509   -0.0003448856908428828
-0.0008722919783784088   -0.008475723831909233   -0.00032193049805529796
-0.0013547093691514526   -0.008469998539193904   -0.0003401055837122418
-0.0013715064084380826   -0.008461191855785711   -0.0003328142246086144
-0.0014415419871012412   -0.007365623496429509   -0.0003448856908428828
-0.0008722919783784088   -0.008475723831909233   -0.00032193049805529796
-0.0013715064084380826   -0.008461191855785711   -0.0003328142246086144
-0.000855796337909416   -0.007357298039826056   -0.00032924824497007084
-0.0014415419871012412   -0.007365623496429509   -0.0003448856908428828
-0.0013547093691514526   -0.008469998539193904   -0.0003401055837122418
-0.0008457645045136362   -0.007363885130595207   -0.0003265801500749126
-0.0014291928305699272   -0.007379663915188962   -0.0003492663929559143
-0.0013547093691514526   -0.008469998539193904   -0.0003401055837122418
-0.0008722919783784088   -0.008475723831909233   -0.00032193049805529796
-0.0008457645045136362   -0.007363885130595207   -0.0003265801500749126
-0.0008582128060023336   -0.008486422872101058   -0.00032156315673447774
-0.0014291928305699272   -0.007379663915188962   -0.0003492663929559143
-0.0008354550299946475   -0.007373611830950552   -0.0003252468719471542
-0.0008582128060023336   -0.008486422872101058   -0.00032156315673447774
-0.0008457645045136362   -0.007363885130595207   -0.0003265801500749126
-0.0014291928305699272   -0.007379663915188962   -0.0003492663929559143
-0.0008582128060023336   -0.008486422872101058   -0.00032156315673447774
-0.0013381867076791155   -0.008484535684038903   -0.00034864962383284397
-0.0013547093691514526   -0.008469998539193904   -0.0003401055837122418
-0.0014291928305699272   -0.007379663915188962   -0.0003492663929559143
-0.0008582128060023336   -0.008486422872101058   -0.00032156315673447774
-0.0013547093691514526   -0.008469998539193904   -0.0003401055837122418
-0.0008457645045136362   -0.007363885130595207   -0.0003265801500749126
-0.0008651583346923067   -0.007353777716871403   -0.00033318127810039503
-0.000899982076905493   -0.00846884539885673   -0.0003263464876624996
-0.0002862287129624203   -0.007349060939169856   -0.00033259579122771576
-0.000855796337909416   -0.007357298039826056   -0.00032924824497007084
-0.000899982076905493   -0.00846884539885673   -0.0003263464876624996
-0.00043085459140476906   -0.008465800649875342   -0.0003302260418508891
-0.0002862287129624203   -0.007349060939169856   -0.00033259579122771576
-0.00041595929213208917   -0.008464066572358098   -0.0003188567943451304
-0.000855796337909416   -0.007357298039826056   -0.00032924824497007084
-0.0002758908976521204   -0.0073488635894621785   -0.0003231363980034208
-0.00041595929213208917   -0.008464066572358098   -0.0003188567943451304
-0.0002862287129624203   -0.007349060939169856   -0.00033259579122771576
-0.000855796337909416   -0.007357298039826056   -0.00032924824497007084
-0.00041595929213208917   -0.008464066572358098   -0.0003188567943451304
-0.0008863742331361721   -0.00846994085143568   -0.00032352481225870556
-0.000899982076905493   -0.00846884539885673   -0.0003263464876624996
-0.000855796337909416   -0.007357298039826056   -0.00032924824497007084
-0.00041595929213208917   -0.008464066572358098   -0.0003188567943451304
-0.000899982076905493   -0.00846884539885673   -0.0003263464876624996
-0.0002862287129624203   -0.007349060939169856   -0.00033259579122771576
-0.000855796337909416   -0.007357298039826056   -0.00032924824497007084
-0.0008863742331361721   -0.00846994085143568   -0.00032352481225870556
-0.0002758908976521204   -0.0073488635894621785   -0.0003231363980034208
-0.0008457645045136362   -0.007363885130595207   -0.0003265801500749126
-0.0008863742331361721   -0.00846994085143568   -0.00032352481225870556
-0.00041595929213208917   -0.008464066572358098   -0.0003188567943451304
-0.0002758908976521204   -0.0073488635894621785   -0.0003231363980034208
-0.0004014480176941542   -0.008466628218720535   -0.0003087980480870084
-0.0008457645045136362   -0.007363885130595207   -0.0003265801500749126
-0.0002657974790516745   -0.007351539113982514   -0.00031495048518837
-0.0004014480176941542   -0.008466628218720535   -0.0003087980480870084
-0.0002758908976521204   -0.0073488635894621785   -0.0003231363980034208
-0.0008457645045136362   -0.007363885130595207   -0.0003265801500749126
-0.0004014480176941542   -0.008466628218720535   -0.0003087980480870084
-0.0008722919783784088   -0.008475723831909233   -0.00032193049805529796
-0.0008863742331361721   -0.00846994085143568   -0.00032352481225870556
-0.0008457645045136362   -0.007363885130595207   -0.0003265801500749126
-0.0004014480176941542   -0.008466628218720535   -0.0003087980480870084
-0.0008863742331361721   -0.00846994085143568   -0.00032352481225870556
-0.0002758908976521204   -0.0073488635894621785   -0.0003231363980034208
-0.0008457645045136362   -0.007363885130595207   -0.0003265801500749126
-0.0008722919783784088   -0.008475723831909233   -0.00032193049805529796
-0.0002657974790516745   -0.007351539113982514   -0.00031495048518837
-0.0008354550299946475   -0.007373611830950552   -0.0003252468719471542
-0.0008722919783784088   -0.008475723831909233   -0.00032193049805529796
-0.0004014480176941542   -0.008466628218720535   -0.0003087980480870084
-0.0002657974790516745   -0.007351539113982514   -0.00031495048518837
-0.0003882864385694131   -0.008474008591666285   -0.0002999443991836205
-0.0008354550299946475   -0.007373611830950552   -0.0003252468719471542
-0.00025671444999280654   -0.007357283899938574   -0.00030807986938224014
-0.0003882864385694131   -0.008474008591666285   -0.0002999443991836205
-0.0002657974790516745   -0.007351539113982514   -0.00031495048518837
-0.0008354550299946475   -0.007373611830950552   -0.0003252468719471542
-0.0003882864385694131   -0.008474008591666285   -0.0002999443991836205
-0.0008582128060023336   -0.008486422872101058   -0.00032156315673447774
-0.0008722919783784088   -0.008475723831909233   -0.00032193049805529796
-0.0008354550299946475   -0.007373611830950552   -0.0003252468719471542
-0.0003882864385694131   -0.008474008591666285   -0.0002999443991836205
-0.0008722919783784088   -0.008475723831909233   -0.00032193049805529796
-0.0002657974790516745   -0.007351539113982514   -0.00031495048518837
-0.0002862287129624203   -0.007349060939169856   -0.00033259579122771576
-0.00043085459140476906   -0.008465800649875342   -0.0003302260418508891
0.00031118692865956984   -0.007334454327786188   -0.00033874794838710423
-0.0002758908976521204   -0.0073488635894621785   -0.0003231363980034208
-0.00043085459140476906   -0.008465800649875342   -0.0003302260418508891
5.783225228184633e-05   -0.008447945615723632   -0.0003391216357945511
0.00031118692865956984   -0.007334454327786188   -0.00033874794838710423
7.605704368470784e-05   -0.008442687667400866   -0.0003192042514609401
-0.0002758908976521204   -0.0073488635894621785   -0.0003231363980034208
0.00032385783640750406   -0.0073302844441318965   -0.0003237860828773566
7.605704368470784e-05   -0.008442687667400866   -0.0003192042514609401
0.00031118692865956984   -0.007334454327786188   -0.00033874794838710423
-0.0002758908976521204   -0.0073488635894621785   -0.0003231363980034208
7.605704368470784e-05   -0.008442687667400866   -0.0003192042514609401
-0.00041595929213208917   -0.008464066572358098   -0.0003188567943451304
-0.00043085459140476906   -0.008465800649875342   -0.0003302260418508891
-0.0002758908976521204   -0.0073488635894621785   -0.0003231363980034208
7.605704368470784e-05   -0.008442687667400866   -0.0003192042514609401
-0.00043085459140476906   -0.008465800649875342   -0.0003302260418508891
0.00031118692865956984   -0.007334454327786188   -0.00033874794838710423
-0.0002758908976521204   -0.0073488635894621785   -0.0003231363980034208
-0.00041595929213208917   -0.008464066572358098   -0.0003188567943451304
0.00032385783640750406   -0.0073302844441318965   -0.0003237860828773566
-0.0002657974790516745   -0.007351539113982514   -0.00031495048518837
-0.00041595929213208917   -0.008464066572358098   -0.0003188567943451304
7.605704368470784e-05   -0.008442687667400866   -0.0003192042514609401
0.00032385783640750406   -0.0073302844441318965   -0.0003237860828773566
9.543587553325173e-05   -0.00844222508049879   -0.0003009339109808608
-0.0002657974790516745   -0.007351539113982514   -0.00031495048518837
0.00033695717349674923   -0.007329410515533429   -0.0003101717823573063
9.543587553325173e-05   -0.00844222508049879   -0.0003009339109808608
0.00032385783640750406   -0.0073302844441318965   -0.0003237860828773566
-0.0002657974790516745   -0.007351539113982514   -0.00031495048518837
9.543587553325173e-05   -0.00844222508049879   -0.0003009339109808608
-0.0004014480176941542   -0.008466628218720535   -0.0003087980480870084
-0.00041595929213208917   -0.008464066572358098   -0.0003188567943451304
-0.0002657974790516745   -0.007351539113982514   -0.00031495048518837
9.543587553325173e-05   -0.00844222508049879   -0.0003009339109808608
-0.00041595929213208917   -0.008464066572358098   -0.0003188567943451304
0.00032385783640750406   -0.0073302844441318965   -0.0003237860828773566
-0.0002657974790516745   -0.007351539113982514   -0.00031495048518837
-0.0004014480176941542   -0.008466628218720535   -0.0003087980480870084
0.00033695717349674923   -0.007329410515533429   -0.0003101717823573063
-0.00025671444999280654   -0.007357283899938574   -0.00030807986938224014
-0.0004014480176941542   -0.008466628218720535   -0.0003087980480870084
9.543587553325173e-05   -0.00844222508049879   -0.0003009339109808608
0.00033695717349674923   -0.007329410515533429   -0.0003101717823573063
0.00010960462878717688   -0.008446314589407389   -0.0002837910080206883
-0.00025671444999280654   -0.007357283899938574   -0.00030807986938224014
0.00034585495918845657   -0.007331246814785092   -0.00029772498627765495
0.00010960462878717688   -0.008446314589407389   -0.0002837910080206883
0.00033695717349674923   -0.007329410515533429   -0.0003101717823573063
-0.00025671444999280654   -0.007357283899938574   -0.00030807986938224014
0.00010960462878717688   -0.008446314589407389   -0.0002837910080206883
-0.0003882864385694131   -0.008474008591666285   -0.0002999443991836205
-0.0004014480176941542   -0.008466628218720535   -0.0003087980480870084
-0.00025671444999280654   -0.007357283899938574   -0.00030807986938224014
0.00010960462878717688   -0.008446314589407389   -0.0002837910080206883
-0.0004014480176941542   -0.008466628218720535   -0.0003087980480870084
0.00033695717349674923   -0.007329410515533429   -0.0003101717823573063
0.00031118692865956984   -0.007334454327786188   -0.00033874794838710423
5.783225228184633e-05   -0.008447945615723632   -0.0003391216357945511
0.0009433981307186322   -0.007309252452583588   -0.00035362982684107683
0.00032385783640750406   -0.0073302844441318965   -0.0003237860828773566
5.783225228184633e-05   -0.008447945615723632   -0.0003391216357945511
0.0005742026462681637   -0.008413661013944865   -0.0003573088505422225
0.0009433981307186322   -0.007309252452583588   -0.00035362982684107683
0.0006217250509322923   -0.008403710647426649   -0.0003267477273653658
0.00032385783640750406   -0.0073302844441318965   -0.0003237860828773566
0.0009772287370866616   -0.007300907033273086   -0.00033169731508999456
0.0006217250509322923   -0.008403710647426649   -0.0003267477273653658
0.0009433981307186322   -0.007309252452583588   -0.00035362982684107683
0.00032385783640750406   -0.0073302844441318965   -0.0003237860828773566
0.0006217250509322923   -0.008403710647426649   -0.0003267477273653658
7.605704368470784e-05   -0.008442687667400866   -0.0003192042514609401
5.783225228184633e-05   -0.008447945615723632   -0.0003391216357945511
0.00032385783640750406   -0.0073302844441318965   -0.0003237860828773566
0.0006217250509322923   -0.008403710647426649   -0.0003267477273653658
5.783225228184633e-05   -0.008447945615723632   -0.0003391216357945511
0.0009433981307186322   -0.007309252452583588   -0.00035362982684107683
0.00032385783640750406   -0.0073302844441318965   -0.0003237860828773566
7.605704368470784e-05   -0.008442687667400866   -0.0003192042514609401
0.0009772287370866616   -0.007300907033273086   -0.00033169731508999456
0.00033695717349674923   -0.007329410515533429   -0.0003101717823573063
7.605704368470784e-05   -0.008442687667400866   -0.0003192042514609401
0.0006217250509322923   -0.008403710647426649   -0.0003267477273653658
0.0009772287370866616   -0.007300907033273086   -0.00033169731508999456
0.0006582613770875736   -0.008401982365146202   -0.00029823473842521163
0.00033695717349674923   -0.007329410515533429   -0.0003101717823573063
0.0010025169782284632   -0.007298520131401308   -0.0003115729220118515
0.0006582613770875736   -0.008401982365146202   -0.00029823473842521163
0.0009772287370866616   -0.007300907033273086   -0.00033169731508999456
0.00033695717349674923   -0.007329410515533429   -0.0003101717823573063
0.0006582613770875736   -0.008401982365146202   -0.00029823473842521163
9.543587553325173e-05   -0.00844222508049879   -0.0003009339109808608
7.605704368470784e-05   -0.008442687667400866   -0.0003192042514609401
0.00033695717349674923   -0.007329410515533429   -0.0003101717823573063
0.0006582613770875736   -0.008401982365146202   -0.00029823473842521163
7.605704368470784e-05   -0.008442687667400866   -0.0003192042514609401
0.0009772287370866616   -0.007300907033273086   -0.00033169731508999456
0.00033695717349674923   -0.007329410515533429   -0.0003101717823573063
9.543587553325173e-05   -0.00844222508049879   -0.0003009339109808608
0.0010025169782284632   -0.007298520131401308   -0.0003115729220118515
0.00034585495918845657   -0.007331246814785092   -0.00029772498627765495
9.543587553325173e-05   -0.00844222508049879   -0.0003009339109808608
0.0006582613770875736   -0.008401982365146202   -0.00029823473842521163
0.0010025169782284632   -0.007298520131401308   -0.0003115729220118515
0.0006967008478521833   -0.008405150160915063   -0.00027199230677668894
0.00034585495918845657   -0.007331246814785092   -0.00029772498627765495
0.001028585208072778   -0.007298586603102142   -0.00029335081920140295
0.0006967008478521833   -0.008405150160915063   -0.00027199230677668894
0.0010025169782284632   -0.007298520131401308   -0.0003115729220118515
0.00034585495918845657   -0.007331246814785092   -0.00029772498627765495
0.0006967008478521833   -0.008405150160915063   -0.00027199230677668894
0.00010960462878717688   -0.008446314589407389   -0.0002837910080206883
9.543587553325173e-05   -0.00844222508049879   -0.0003009339109808608
0.00034585495918845657   -0.007331246814785092   -0.00029772498627765495
0.0006967008478521833   -0.008405150160915063   -0.00027199230677668894
9.543587553325173e-05   -0.00844222508049879   -0.0003009339109808608
0.0010025169782284632   -0.007298520131401308   -0.0003115729220118515
-0.0019410626465598791   -0.008432540137202828   -0.0003282932442372431
-0.0016378832419622665   -0.009291003452879136   -0.0002988196389435912
-0.0013848624562990165   -0.008457610828243835   -0.00032678822642612227
-0.0019127341588865263   -0.008437798115921978   -0.00034539833353020683
-0.0016378832419622665   -0.009291003452879136   -0.0002988196389435912
-0.0012406429325198223   -0.009327360583148106   -0.0003095632943829472
-0.0013848624562990165   -0.008457610828243835   -0.00032678822642612227
-0.001222167187933767   -0.009325749537175245   -0.0003187952033285316
-0.0019127341588865263   -0.008437798115921978   -0.00034539833353020683
-0.0013715064084380826   -0.008461191855785711   -0.0003328142246086144
-0.001222167187933767   -0.009325749537175245   -0.0003187952033285316
-0.0013848624562990165   -0.008457610828243835   -0.00032678822642612227
-0.0019127341588865263   -0.008437798115921978   -0.00034539833353020683
-0.001222167187933767   -0.009325749537175245   -0.0003187952033285316
-0.0015969215239411316   -0.009290151299602275   -0.0003236617555088141
-0.0016378832419622665   -0.009291003452879136   -0.0002988196389435912
-0.0019127341588865263   -0.008437798115921978   -0.00034539833353020683
-0.001222167187933767   -0.009325749537175245   -0.0003187952033285316
-0.0016378832419622665   -0.009291003452879136   -0.0002988196389435912
-0.0013848624562990165   -0.008457610828243835   -0.00032678822642612227
-0.0019127341588865263   -0.008437798115921978   -0.00034539833353020683
-0.0015969215239411316   -0.009290151299602275   -0.0003236617555088141
-0.0013715064084380826   -0.008461191855785711   -0.0003328142246086144
-0.0018847435901693194   -0.008448143397487628   -0.00036456044853834323
-0.0015969215239411316   -0.009290151299602275   -0.0003236617555088141
-0.001222167187933767   -0.009325749537175245   -0.0003187952033285316
-0.0013715064084380826   -0.008461191855785711   -0.0003328142246086144
-0.0012002568386270728   -0.009331442282673444   -0.00032928619757895204
-0.0018847435901693194   -0.008448143397487628   -0.00036456044853834323
-0.0013547093691514526   -0.008469998539193904   -0.0003401055837122418
-0.0012002568386270728   -0.009331442282673444   -0.00032928619757895204
-0.0013715064084380826   -0.008461191855785711   -0.0003328142246086144
-0.0018847435901693194   -0.008448143397487628   -0.00036456044853834323
-0.0012002568386270728   -0.009331442282673444   -0.00032928619757895204
-0.0015593485299164025   -0.009297110275648472   -0.00035029046197383214
-0.0015969215239411316   -0.009290151299602275   -0.0003236617555088141
-0.0018847435901693194   -0.008448143397487628   -0.00036456044853834323
-0.0012002568386270728   -0.009331442282673444   -0.00032928619757895204
-0.0015969215239411316   -0.009290151299602275   -0.0003236617555088141
-0.0013715064084380826   -0.008461191855785711   -0.0003328142246086144
-0.0018847435901693194   -0.008448143397487628   -0.00036456044853834323
-0.0015593485299164025   -0.009297110275648472   -0.00035029046197383214
-0.0013547093691514526   -0.008469998539193904   -0.0003401055837122418
-0.001848965246598965   -0.00846743675398726   -0.00038576274095199144
-0.0015593485299164025   -0.009297110275648472   -0.00035029046197383214
-0.0012002568386270728   -0.009331442282673444   -0.00032928619757895204
-0.0013547093691514526   -0.008469998539193904   -0.0003401055837122418
-0.0011803897882390207   -0.009344595833325347   -0.0003409594892157628
-0.001848965246598965   -0.00846743675398726   -0.00038576274095199144
-0.0013381867076791155   -0.008484535684038903   -0.00034864962383284397
-0.0011803897882390207   -0.009344595833325347   -0.0003409594892157628
-0.0013547093691514526   -0.008469998539193904   -0.0003401055837122418
-0.001848965246598965   -0.00846743675398726   -0.00038576274095199144
-0.0011803897882390207   -0.009344595833325347   -0.0003409594892157628
-0.0015133950578523313   -0.00931509256983174   -0.00037862120138324216
-0.0015593485299164025   -0.009297110275648472   -0.00035029046197383214
-0.001848965246598965   -0.00846743675398726   -0.00038576274095199144
-0.0011803897882390207   -0.009344595833325347   -0.0003409594892157628
-0.0015593485299164025   -0.009297110275648472   -0.00035029046197383214
-0.0013547093691514526   -0.008469998539193904   -0.0003401055837122418
-0.0013848624562990165   -0.008457610828243835   -0.00032678822642612227
-0.0012406429325198223   -0.009327360583148106   -0.0003095632943829472
-0.000899982076905493   -0.00846884539885673   -0.0003263464876624996
-0.0013715064084380826   -0.008461191855785711   -0.0003328142246086144
-0.0012406429325198223   -0.009327360583148106   -0.0003095632943829472
-0.0009121032452364796   -0.009349696247988374   -0.0003180136062389321
-0.000899982076905493   -0.00846884539885673   -0.0003263464876624996
-0.0008933140890924096   -0.00934684524949286   -0.0003152202095699373
-0.0013715064084380826   -0.008461191855785711   -0.0003328142246086144
-0.0008863742331361721   -0.00846994085143568   -0.00032352481225870556
-0.0008933140890924096   -0.00934684524949286   -0.0003152202095699373
-0.000899982076905493   -0.00846884539885673   -0.0003263464876624996
-0.0013715064084380826   -0.008461191855785711   -0.0003328142246086144
-0.0008933140890924096   -0.00934684524949286   -0.0003152202095699373
-0.001222167187933767   -0.009325749537175245   -0.0003187952033285316
-0.0012406429325198223   -0.009327360583148106   -0.0003095632943829472
-0.0013715064084380826   -0.008461191855785711   -0.0003328142246086144
-0.0008933140890924096   -0.00934684524949286   -0.0003152202095699373
-0.0012406429325198223   -0.009327360583148106   -0.0003095632943829472
-0.000899982076905493   -0.00846884539885673   -0.0003263464876624996
-0.0013715064084380826   -0.008461191855785711   -0.0003328142246086144
-0.001222167187933767   -0.009325749537175245   -0.0003187952033285316
-0.0008863742331361721   -0.00846994085143568   -0.00032352481225870556
-0.0013547093691514526   -0.008469998539193904   -0.0003401055837122418
-0.001222167187933767   -0.009325749537175245   -0.0003187952033285316
-0.0008933140890924096   -0.00934684524949286   -0.0003152202095699373
-0.0008863742331361721   -0.00846994085143568   -0.00032352481225870556
-0.0008746855429828736   -0.009350354718930228   -0.0003136620534670136
-0.0013547093691514526   -0.008469998539193904   -0.0003401055837122418
-0.0008722919783784088   -0.008475723831909233   -0.00032193049805529796
-0.0008746855429828736   -0.009350354718930228   -0.0003136620534670136
-0.0008863742331361721   -0.00846994085143568   -0.00032352481225870556
-0.0013547093691514526   -0.008469998539193904   -0.0003401055837122418
-0.0008746855429828736   -0.009350354718930228   -0.0003136620534670136
-0.0012002568386270728   -0.009331442282673444   -0.00032928619757895204
-0.001222167187933767   -0.009325749537175245   -0.0003187952033285316
-0.0013547093691514526   -0.008469998539193904   -0.0003401055837122418
-0.0008746855429828736   -0.009350354718930228   -0.0003136620534670136
-0.001222167187933767   -0.009325749537175245   -0.0003187952033285316
-0.0008863742331361721   -0.00846994085143568   -0.00032352481225870556
-0.0013547093691514526   -0.008469998539193904   -0.0003401055837122418
-0.0012002568386270728   -0.009331442282673444   -0.00032928619757895204
-0.0008722919783784088   -0.008475723831909233   -0.00032193049805529796
-0.0013381867076791155   -0.008484535684038903   -0.00034864962383284397
-0.0012002568386270728   -0.009331442282673444   -0.00032928619757895204
-0.0008746855429828736   -0.009350354718930228   -0.0003136620534670136
-0.0008722919783784088   -0.008475723831909233   -0.00032193049805529796
-0.0008574342323579107   -0.009360392229304763   -0.00031357958189311846
-0.0013381867076791155   -0.008484535684038903   -0.00034864962383284397
-0.0008582128060023336   -0.008486422872101058   -0.00032156315673447774
-0.0008574342323579107   -0.009360392229304763   -0.00031357958189311846
-0.0008722919783784088   -0.008475723831909233   -0.00032193049805529796
-0.0013381867076791155   -0.008484535684038903   -0.00034864962383284397
-0.0008574342323579107   -0.009360392229304763   -0.00031357958189311846
-0.0011803897882390207   -0.009344595833325347   -0.0003409594892157628
-0.0012002568386270728   -0.009331442282673444   -0.00032928619757895204
-0.0013381867076791155   -0.008484535684038903   -0.00034864962383284397
-0.0008574342323579107   -0.009360392229304763   -0.00031357958189311846
-0.0012002568386270728   -0.009331442282673444   -0.00032928619757895204
-0.0008722919783784088   -0.008475723831909233   -0.00032193049805529796
-0.000899982076905493   -0.00846884539885673   -0.0003263464876624996
-0.0009121032452364796   -0.009349696247988374   -0.0003180136062389321
-0.00043085459140476906   -0.008465800649875342   -0.0003302260418508891
-0.0008863742331361721   -0.00846994085143568   -0.00032352481225870556
-0.0009121032452364796   -0.009349696247988374   -0.0003180136062389321
-0.0005970168304874914   -0.009359522782163567   -0.00032841775214833814
-0.00043085459140476906   -0.008465800649875342   -0.0003302260418508891
-0.0005758773910427471   -0.009355157345950408   -0.00031420967344707754
-0.0008863742331361721   -0.00846994085143568   -0.00032352481225870556
-0.00041595929213208917   -0.008464066572358098   -0.0003188567943451304
-0.0005758773910427471   -0.009355157345950408   -0.00031420967344707754
-0.00043085459140476906   -0.008465800649875342   -0.0003302260418508891
-0.0008863742331361721   -0.00846994085143568   -0.00032352481225870556
-0.0005758773910427471   -0.009355157345950408   -0.00031420967344707754
-0.0008933140890924096   -0.00934684524949286   -0.0003152202095699373
-0.0009121032452364796   -0.009349696247988374   -0.0003180136062389321
-0.0008863742331361721   -0.00846994085143568   -0.00032352481225870556
-0.0005758773910427471   -0.009355157345950408   -0.00031420967344707754
-0.0009121032452364796   -0.009349696247988374   -0.0003180136062389321
-0.00043085459140476906   -0.008465800649875342   -0.0003302260418508891
-0.0008863742331361721   -0.00846994085143568   -0.00032352481225870556
-0.0008933140890924096   -0.00934684524949286   -0.0003152202095699373
-0.00041595929213208917   -0.008464066572358098   -0.0003188567943451304
-0.0008722919783784088   -0.008475723831909233   -0.00032193049805529796
-0.0008933140890924096   -0.00934684524949286   -0.0003152202095699373
-0.0005758773910427471   -0.009355157345950408   -0.00031420967344707754
-0.00041595929213208917   -0.008464066572358098   -0.0003188567943451304
-0.0005556407738619215   -0.009356489529871214   -0.000301138344486164
-0.0008722919783784088   -0.008475723831909233   -0.00032193049805529796
-0.0004014480176941542   -0.008466628218720535   -0.0003087980480870084
-0.0005556407738619215   -0.009356489529871214   -0.000301138344486164
-0.00041595929213208917   -0.008464066572358098   -0.0003188567943451304
-0.0008722919783784088   -0.008475723831909233   -0.00032193049805529796
-0.0005556407738619215   -0.009356489529871214   -0.000301138344486164
-0.0008746855429828736   -0.009350354718930228   -0.0003136620534670136
-0.0008933140890924096   -0.00934684524949286   -0.0003152202095699373
-0.0008722919783784088   -0.008475723831909233   -0.00032193049805529796
-0.0005556407738619215   -0.009356489529871214   -0.000301138344486164
-0.0008933140890924096   -0.00934684524949286   -0.0003152202095699373
-0.00041595929213208917   -0.008464066572358098   -0.0003188567943451304
-0.0008722919783784088   -0.008475723831909233   -0.00032193049805529796
-0.0008746855429828736   -0.009350354718930228   -0.0003136620534670136
-0.0004014480176941542   -0.008466628218720535   -0.0003087980480870084
-0.0008582128060023336   -0.008486422872101058   -0.00032156315673447774
-0.0008746855429828736   -0.009350354718930228   -0.0003136620534670136
-0.0005556407738619215   -0.009356489529871214   -0.000301138344486164
-0.0004014480176941542   -0.008466628218720535   -0.0003087980480870084
-0.0005386442968333525   -0.009364436877558103   -0.00028981057123962536
-0.0008582128060023336   -0.008486422872101058   -0.00032156315673447774
-0.0003882864385694131   -0.008474008591666285   -0.0002999443991836205
-0.0005386442968333525   -0.009364436877558103   -0.00028981057123962536
-0.0004014480176941542   -0.008466628218720535   -0.0003087980480870084
-0.0008582128060023336   -0.008486422872101058   -0.00032156315673447774
-0.0005386442968333525   -0.009364436877558103   -0.00028981057123962536
-0.0008574342323579107   -0.009360392229304763   -0.00031357958189311846
-0.0008746855429828736   -0.009350354718930228   -0.0003136620534670136
-0.0008582128060023336   -0.008486422872101058   -0.00032156315673447774
-0.0005386442968333525   -0.009364436877558103   -0.00028981057123962536
-0.0008746855429828736   -0.009350354718930228   -0.0003136620534670136
-0.0004014480176941542   -0.008466628218720535   -0.0003087980480870084
-0.00043085459140476906   -0.008465800649875342   -0.0003302260418508891
-0.0005970168304874914   -0.009359522782163567   -0.00032841775214833814
5.783225228184633e-05   -0.008447945615723632   -0.0003391216357945511
-0.00041595929213208917   -0.008464066572358098   -0.0003188567943451304
-0.0005970168304874914   -0.009359522782163567   -0.00032841775214833814
-0.00026493826499544523   -0.009352949190077663   -0.0003410291823409355
5.783225228184633e-05   -0.008447945615723632   -0.0003391216357945511
-0.00023779057494473276   -0.009346036578524492   -0.0003157964270024291
-0.00041595929213208917   -0.008464066572358098   -0.0003188567943451304
7.605704368470784e-05   -0.008442687667400866   -0.0003192042514609401
-0.00023779057494473276   -0.009346036578524492   -0.0003157964270024291
5.783225228184633e-05   -0.008447945615723632   -0.0003391216357945511
-0.00041595929213208917   -0.008464066572358098   -0.0003188567943451304
-0.00023779057494473276   -0.009346036578524492   -0.0003157964270024291
-0.0005758773910427471   -0.009355157345950408   -0.00031420967344707754
-0.0005970168304874914   -0.009359522782163567   -0.00032841775214833814
-0.00041595929213208917   -0.008464066572358098   -0.0003188567943451304
-0.00023779057494473276   -0.009346036578524492   -0.0003157964270024291
-0.0005970168304874914   -0.009359522782163567   -0.00032841775214833814
5.783225228184633e-05   -0.008447945615723632   -0.0003391216357945511
-0.00041595929213208917   -0.008464066572358098   -0.0003188567943451304
-0.0005758773910427471   -0.009355157345950408   -0.00031420967344707754
7.605704368470784e-05   -0.008442687667400866   -0.0003192042514609401
-0.0004014480176941542   -0.008466628218720535   -0.0003087980480870084
-0.0005758773910427471   -0.009355157345950408   -0.00031420967344707754
-0.00023779057494473276   -0.009346036578524492   -0.0003157964270024291
7.605704368470784e-05   -0.008442687667400866   -0.0003192042514609401
-0.00020964418745855306   -0.009345050361271843   -0.00029175292655532866
-0.0004014480176941542   -0.008466628218720535   -0.0003087980480870084
9.543587553325173e-05   -0.00844222508049879   -0.0003009339109808608
-0.00020964418745855306   -0.009345050361271843   -0.00029175292655532866
7.605704368470784e-05   -0.008442687667400866   -0.0003192042514609401
-0.0004014480176941542   -0.008466628218720535   -0.0003087980480870084
-0.00020964418745855306   -0.009345050361271843   -0.00029175292655532866
-0.0005556407738619215   -0.009356489529871214   -0.000301138344486164
-0.0005758773910427471   -0.009355157345950408   -0.00031420967344707754
-0.0004014480176941542   -0.008466628218720535   -0.0003087980480870084
-0.00020964418745855306   -0.009345050361271843   -0.00029175292655532866
-0.0005758773910427471   -0.009355157345950408   -0.00031420967344707754
7.605704368470784e-05   -0.008442687667400866   -0.0003192042514609401
-0.0004014480176941542   -0.008466628218720535   -0.0003087980480870084
-0.0005556407738619215   -0.009356489529871214   -0.000301138344486164
9.543587553325173e-05   -0.00844222508049879   -0.0003009339109808608
-0.0003882864385694131   -0.008474008591666285   -0.0002999443991836205
-0.0005556407738619215   -0.009356489529871214   -0.000301138344486164
-0.00020964418745855306   -0.009345050361271843   -0.00029175292655532866
9.543587553325173e-05   -0.00844222508049879   -0.0003009339109808608
-0.00018903082862842174   -0.009351093224921937   -0.0002697167043107221
-0.0003882864385694131   -0.008474008591666285   -0.0002999443991836205
0.00010960462878717688   -0.008446314589407389   -0.0002837910080206883
-0.00018903082862842174   -0.009351093224921937   -0.0002697167043107221
9.543587553325173e-05   -0.00844222508049879   -0.0003009339109808608
-0.0003882864385694131   -0.008474008591666285   -0.0002999443991836205
-0.00018903082862842174   -0.009351093224921937   -0.0002697167043107221
-0.0005386442968333525   -0.009364436877558103   -0.00028981057123962536
-0.0005556407738619215   -0.009356489529871214   -0.000301138344486164
-0.0003882864385694131   -0.008474008591666285   -0.0002999443991836205
-0.00018903082862842174   -0.009351093224921937   -0.0002697167043107221
-0.0005556407738619215   -0.009356489529871214   -0.000301138344486164
9.543587553325173e-05   -0.00844222508049879   -0.0003009339109808608
5.783225228184633e-05   -0.008447945615723632   -0.0003391216357945511
-0.00026493826499544523   -0.009352949190077663   -0.0003410291823409355
0.0005742026462681637   -0.008413661013944865   -0.0003573088505422225
7.605704368470784e-05   -0.008442687667400866   -0.0003192042514609401
-0.00026493826499544523   -0.009352949190077663   -0.0003410291823409355
8.658744736084743e-05   -0.009319790296515695   -0.00036563973878784586
0.0005742026462681637   -0.008413661013944865   -0.0003573088505422225
0.00015284544024225848   -0.009305141844730573   -0.00032457337732275793
7.605704368470784e-05   -0.008442687667400866   -0.0003192042514609401
0.0006217250509322923   -0.008403710647426649   -0.0003267477273653658
0.00015284544024225848   -0.009305141844730573   -0.00032457337732275793
0.0005742026462681637   -0.008413661013944865   -0.0003573088505422225
7.605704368470784e-05   -0.008442687667400866   -0.0003192042514609401
0.00015284544024225848   -0.009305141844730573   -0.00032457337732275793
-0.00023779057494473276   -0.009346036578524492   -0.0003157964270024291
-0.00026493826499544523   -0.009352949190077663   -0.0003410291823409355
7.605704368470784e-05   -0.008442687667400866   -0.0003192042514609401
0.00015284544024225848   -0.009305141844730573   -0.00032457337732275793
-0.00026493826499544523   -0.009352949190077663   -0.0003410291823409355
0.0005742026462681637   -0.008413661013944865   -0.0003573088505422225
7.605704368470784e-05   -0.008442687667400866   -0.0003192042514609401
-0.00023779057494473276   -0.009346036578524492   -0.0003157964270024291
0.0006217250509322923   -0.008403710647426649   -0.0003267477273653658
9.543587553325173e-05   -0.00844222508049879   -0.0003009339109808608
-0.00023779057494473276   -0.009346036578524492   -0.0003157964270024291
0.00015284544024225848   -0.009305141844730573   -0.00032457337732275793
0.0006217250509322923   -0.008403710647426649   -0.0003267477273653658
0.00020474973691746344   -0.009302368033531457   -0.000285763925818116
9.543587553325173e-05   -0.00844222508049879   -0.0003009339109808608
0.0006582613770875736   -0.008401982365146202   -0.00029823473842521163
0.00020474973691746344   -0.009302368033531457   -0.000285763925818116
0.0006217250509322923   -0.008403710647426649   -0.0003267477273653658
9.543587553325173e-05   -0.00844222508049879   -0.0003009339109808608
0.00020474973691746344   -0.009302368033531457   -0.000285763925818116
-0.00020964418745855306   -0.009345050361271843   -0.00029175292655532866
-0.00023779057494473276   -0.009346036578524492   -0.0003157964270024291
9.543587553325173e-05   -0.00844222508049879   -0.0003009339109808608
0.00020474973691746344   -0.009302368033531457   -0.000285763925818116
-0.00023779057494473276   -0.009346036578524492   -0.0003157964270024291
0.0006217250509322923   -0.008403710647426649   -0.0003267477273653658
9.543587553325173e-05   -0.00844222508049879   -0.0003009339109808608
-0.00020964418745855306   -0.009345050361271843   -0.00029175292655532866
0.0006582613770875736   -0.008401982365146202   -0.00029823473842521163
0.00010960462878717688   -0.008446314589407389   -0.0002837910080206883
-0.00020964418745855306   -0.009345050361271843   -0.00029175292655532866
0.00020474973691746344   -0.009302368033531457   -0.000285763925818116
0.0006582613770875736   -0.008401982365146202   -0.00029823473842521163
0.0002594436102967209   -0.009305664969045032   -0.00025001794808015833
0.00010960462878717688   -0.008446314589407389   -0.0002837910080206883
0.0006967008478521833   -0.008405150160915063   -0.00027199230677668894
0.0002594436102967209   -0.009305664969045032   -0.00025001794808015833
0.0006582613770875736   -0.008401982365146202   -0.00029823473842521163
0.00010960462878717688   -0.008446314589407389   -0.0002837910080206883
0.0002594436102967209   -0.009305664969045032   -0.00025001794808015833
-0.00018903082862842174   -0.009351093224921937   -0.0002697167043107221
-0.00020964418745855306   -0.009345050361271843   -0.00029175292655532866
0.00010960462878717688   -0.008446314589407389   -0.0002837910080206883
0.0002594436102967209   -0.009305664969045032   -0.00025001794808015833
-0.00020964418745855306   -0.009345050361271843   -0.00029175292655532866
0.0006582613770875736   -0.008401982365146202   -0.00029823473842521163
-0.0016378832419622665   -0.009291003452879136   -0.0002988196389435912
-0.0012282272965984833   -0.009806657188465785   -0.0002638436009664551
-0.0012406429325198223   -0.009327360583148106   -0.0003095632943829472
-0.0015969215239411316   -0.009290151299602275   -0.0003236617555088141
-0.0012282272965984833   -0.009806657188465785   -0.0002638436009664551
-0.0010367494855010825   -0.009852038692300126   -0.0002902724536543763
-0.0012406429325198223   -0.009327360583148106   -0.0003095632943829472
-0.001013965106557604   -0.009843682368789837   -0.0003003117961845718
-0.0015969215239411316   -0.009290151299602275   -0.0003236617555088141
-0.001222167187933767   -0.009325749537175245   -0.0003187952033285316
-0.001013965106557604   -0.009843682368789837   -0.0003003117961845718
-0.0012406429325198223   -0.009327360583148106   -0.0003095632943829472
-0.0015969215239411316   -0.009290151299602275   -0.0003236617555088141
-0.001013965106557604   -0.009843682368789837   -0.0003003117961845718
-0.00117793018623159   -0.0097971614710206   -0.00029349714978228704
-0.0012282272965984833   -0.009806657188465785   -0.0002638436009664551
-0.0015969215239411316   -0.009290151299602275   -0.0003236617555088141
-0.001013965106557604   -0.009843682368789837   -0.0003003117961845718
-0.0012282272965984833   -0.009806657188465785   -0.0002638436009664551
-0.0012406429325198223   -0.009327360583148106   -0.0003095632943829472
-0.0015969215239411316   -0.009290151299602275   -0.0003236617555088141
-0.00117793018623159   -0.0097971614710206   -0.00029349714978228704
-0.001222167187933767   -0.009325749537175245   -0.0003187952033285316
-0.0015593485299164025   -0.009297110275648472   -0.00035029046197383214
-0.00117793018623159   -0.0097971614710206   -0.00029349714978228704
-0.001013965106557604   -0.009843682368789837   -0.0003003117961845718
-0.001222167187933767   -0.009325749537175245   -0.0003187952033285316
-0.000988428701373526   -0.009844907702133898   -0.0003104670061159554
-0.0015593485299164025   -0.009297110275648472   -0.00035029046197383214
-0.0012002568386270728   -0.009331442282673444   -0.00032928619757895204
-0.000988428701373526   -0.009844907702133898   -0.0003104670061159554
-0.001222167187933767   -0.009325749537175245   -0.0003187952033285316
-0.0015593485299164025   -0.009297110275648472   -0.00035029046197383214
-0.000988428701373526   -0.009844907702133898   -0.0003104670061159554
-0.0011346077943702147   -0.009798887062407587   -0.00032310810901326365
-0.00117793018623159   -0.0097971614710206   -0.00029349714978228704
-0.0015593485299164025   -0.009297110275648472   -0.00035029046197383214
-0.000988428701373526   -0.009844907702133898   -0.0003104670061159554
-0.00117793018623159   -0.0097971614710206   -0.00029349714978228704
-0.001222167187933767   -0.009325749537175245   -0.0003187952033285316
-0.0015593485299164025   -0.009297110275648472   -0.00035029046197383214
-0.0011346077943702147   -0.009798887062407587   -0.00032310810901326365
-0.0012002568386270728   -0.009331442282673444   -0.00032928619757895204
-0.0015133950578523313   -0.00931509256983174   -0.00037862120138324216
-0.0011346077943702147   -0.009798887062407587   -0.00032310810901326365
-0.000988428701373526   -0.009844907702133898   -0.0003104670061159554
-0.0012002568386270728   -0.009331442282673444   -0.00032928619757895204
-0.000964872195044948   -0.009855797202054806   -0.0003207786915667818
-0.0015133950578523313   -0.00931509256983174   -0.00037862120138324216
-0.0011803897882390207   -0.009344595833325347   -0.0003409594892157628
-0.000964872195044948   -0.009855797202054806   -0.0003207786915667818
-0.0012002568386270728   -0.009331442282673444   -0.00032928619757895204
-0.0015133950578523313   -0.00931509256983174   -0.00037862120138324216
-0.000964872195044948   -0.009855797202054806   -0.0003207786915667818
-0.001082985074865278   -0.009812565753406253   -0.00035333411868408536
-0.0011346077943702147   -0.009798887062407587   -0.00032310810901326365
-0.0015133950578523313   -0.00931509256983174   -0.00037862120138324216
-0.000964872195044948   -0.009855797202054806   -0.0003207786915667818
-0.0011346077943702147   -0.009798887062407587   -0.00032310810901326365
-0.0012002568386270728   -0.009331442282673444   -0.00032928619757895204
-0.0012406429325198223   -0.009327360583148106   -0.0003095632943829472
-0.0010367494855010825   -0.009852038692300126   -0.0002902724536543763
-0.0009121032452364796   -0.009349696247988374   -0.0003180136062389321
-0.001222167187933767   -0.009325749537175245   -0.0003187952033285316
-0.0010367494855010825   -0.009852038692300126   -0.0002902724536543763
-0.0008933343287805688   -0.009894624006560878   -0.00031342385736316257
-0.0009121032452364796   -0.009349696247988374   -0.0003180136062389321
-0.000869587761063389   -0.009885892969262337   -0.0003072453448510275
-0.001222167187933767   -0.009325749537175245   -0.0003187952033285316
-0.0008933140890924096   -0.00934684524949286   -0.0003152202095699373
-0.000869587761063389   -0.009885892969262337   -0.0003072453448510275
-0.0009121032452364796   -0.009349696247988374   -0.0003180136062389321
-0.001222167187933767   -0.009325749537175245   -0.0003187952033285316
-0.000869587761063389   -0.009885892969262337   -0.0003072453448510275
-0.001013965106557604   -0.009843682368789837   -0.0003003117961845718
-0.0010367494855010825   -0.009852038692300126   -0.0002902724536543763
-0.001222167187933767   -0.009325749537175245   -0.0003187952033285316
-0.000869587761063389   -0.009885892969262337   -0.0003072453448510275
-0.0010367494855010825   -0.009852038692300126   -0.0002902724536543763
-0.0009121032452364796   -0.009349696247988374   -0.0003180136062389321
-0.001222167187933767   -0.009325749537175245   -0.0003187952033285316
-0.001013965106557604   -0.009843682368789837   -0.0003003117961845718
-0.0008933140890924096   -0.00934684524949286   -0.0003152202095699373
-0.0012002568386270728   -0.009331442282673444   -0.00032928619757895204
-0.001013965106557604   -0.009843682368789837   -0.0003003117961845718
-0.000869587761063389   -0.009885892969262337   -0.0003072453448510275
-0.0008933140890924096   -0.00934684524949286   -0.0003152202095699373
-0.0008464924177641007   -0.009886341189447359   -0.0003010106298761603
-0.0012002568386270728   -0.009331442282673444   -0.00032928619757895204
-0.0008746855429828736   -0.009350354718930228   -0.0003136620534670136
-0.0008464924177641007   -0.009886341189447359   -0.0003010106298761603
-0.0008933140890924096   -0.00934684524949286   -0.0003152202095699373
-0.0012002568386270728   -0.009331442282673444   -0.00032928619757895204
-0.0008464924177641007   -0.009886341189447359   -0.0003010106298761603
-0.000988428701373526   -0.009844907702133898   -0.0003104670061159554
-0.001013965106557604   -0.009843682368789837   -0.0003003117961845718
-0.0012002568386270728   -0.009331442282673444   -0.00032928619757895204
-0.0008464924177641007   -0.009886341189447359   -0.0003010106298761603
-0.001013965106557604   -0.009843682368789837   -0.0003003117961845718
-0.0008933140890924096   -0.00934684524949286   -0.0003152202095699373
-0.0012002568386270728   -0.009331442282673444   -0.00032928619757895204
-0.000988428701373526   -0.009844907702133898   -0.0003104670061159554
-0.0008746855429828736   -0.009350354718930228   -0.0003136620534670136
-0.0011803897882390207   -0.009344595833325347   -0.0003409594892157628
-0.000988428701373526   -0.009844907702133898   -0.0003104670061159554
-0.0008464924177641007   -0.009886341189447359   -0.0003010106298761603
-0.0008746855429828736   -0.009350354718930228   -0.0003136620534670136
-0.0008225202210025812   -0.009895814594937958   -0.0002950726238697436
-0.0011803897882390207   -0.009344595833325347   -0.0003409594892157628
-0.0008574342323579107   -0.009360392229304763   -0.00031357958189311846
-0.0008225202210025812   -0.009895814594937958   -0.0002950726238697436
-0.0008746855429828736   -0.009350354718930228   -0.0003136620534670136
-0.0011803897882390207   -0.009344595833325347   -0.0003409594892157628
-0.0008225202210025812   -0.009895814594937958   -0.0002950726238697436
-0.000964872195044948   -0.009855797202054806   -0.0003207786915667818
-0.000988428701373526   -0.009844907702133898   -0.0003104670061159554
-0.0011803897882390207   -0.009344595833325347   -0.0003409594892157628
-0.0008225202210025812   -0.009895814594937958   -0.0002950726238697436
-0.000988428701373526   -0.009844907702133898   -0.0003104670061159554
-0.0008746855429828736   -0.009350354718930228   -0.0003136620534670136
-0.0009121032452364796   -0.009349696247988374   -0.0003180136062389321
-0.0008933343287805688   -0.009894624006560878   -0.00031342385736316257
-0.0005970168304874914   -0.009359522782163567   -0.00032841775214833814
-0.0008933140890924096   -0.00934684524949286   -0.0003152202095699373
-0.0008933343287805688   -0.009894624006560878   -0.00031342385736316257
-0.0007612321487878664   -0.009942878619153571   -0.00033934432734683404
-0.0005970168304874914   -0.009359522782163567   -0.00032841775214833814
-0.0007323115899965109   -0.009934975236177987   -0.0003161016522740528
-0.0008933140890924096   -0.00934684524949286   -0.0003152202095699373
-0.0005758773910427471   -0.009355157345950408   -0.00031420967344707754
-0.0007323115899965109   -0.009934975236177987   -0.0003161016522740528
-0.0005970168304874914   -0.009359522782163567   -0.00032841775214833814
-0.0008933140890924096   -0.00934684524949286   -0.0003152202095699373
-0.0007323115899965109   -0.009934975236177987   -0.0003161016522740528
-0.000869587761063389   -0.009885892969262337   -0.0003072453448510275
-0.0008933343287805688   -0.009894624006560878   -0.00031342385736316257
-0.0008933140890924096   -0.00934684524949286   -0.0003152202095699373
-0.0007323115899965109   -0.009934975236177987   -0.0003161016522740528
-0.0008933343287805688   -0.009894624006560878   -0.00031342385736316257
-0.0005970168304874914   -0.009359522782163567   -0.00032841775214833814
-0.0008933140890924096   -0.00934684524949286   -0.0003152202095699373
-0.000869587761063389   -0.009885892969262337   -0.0003072453448510275
-0.0005758773910427471   -0.009355157345950408   -0.00031420967344707754
-0.0008746855429828736   -0.009350354718930228   -0.0003136620534670136
-0.000869587761063389   -0.009885892969262337   -0.0003072453448510275
-0.0007323115899965109   -0.009934975236177987   -0.0003161016522740528
-0.0005758773910427471   -0.009355157345950408   -0.00031420967344707754
-0.0007053021313478484   -0.009934904890565933   -0.00029281081188441783
-0.0008746855429828736   -0.009350354718930228   -0.0003136620534670136
-0.0005556407738619215   -0.009356489529871214   -0.000301138344486164
-0.0007053021313478484   -0.009934904890565933   -0.00029281081188441783
-0.0005758773910427471   -0.009355157345950408   -0.00031420967344707754
-0.0008746855429828736   -0.009350354718930228   -0.0003136620534670136
-0.0007053021313478484   -0.009934904890565933   -0.00029281081188441783
-0.0008464924177641007   -0.009886341189447359   -0.0003010106298761603
-0.000869587761063389   -0.009885892969262337   -0.0003072453448510275
-0.0008746855429828736   -0.009350354718930228   -0.0003136620534670136
-0.0007053021313478484   -0.009934904890565933   -0.00029281081188441783
-0.000869587761063389   -0.009885892969262337   -0.0003072453448510275
-0.0005758773910427471   -0.009355157345950408   -0.00031420967344707754
-0.0008746855429828736   -0.009350354718930228   -0.0003136620534670136
-0.0008464924177641007   -0.009886341189447359   -0.0003010106298761603
-0.0005556407738619215   -0.009356489529871214   -0.000301138344486164
-0.0008574342323579107   -0.009360392229304763   -0.00031357958189311846
-0.0008464924177641007   -0.009886341189447359   -0.0003010106298761603
-0.0007053021313478484   -0.009934904890565933   -0.00029281081188441783
-0.0005556407738619215   -0.009356489529871214   -0.000301138344486164
-0.0006765776410234179   -0.009942336946444648   -0.0002696832529106234
-0.0008574342323579107   -0.009360392229304763   -0.00031357958189311846
-0.0005386442968333525   -0.009364436877558103   -0.00028981057123962536
-0.0006765776410234179   -0.009942336946444648   -0.0002696832529106234
-0.0005556407738619215   -0.009356489529871214   -0.000301138344486164
-0.0008574342323579107   -0.009360392229304763   -0.00031357958189311846
-0.0006765776410234179   -0.009942336946444648   -0.0002696832529106234
-0.0008225202210025812   -0.009895814594937958   -0.0002950726238697436
-0.0008464924177641007   -0.009886341189447359   -0.0003010106298761603
-0.0008574342323579107   -0.009360392229304763   -0.00031357958189311846
-0.0006765776410234179   -0.009942336946444648   -0.0002696832529106234
-0.0008464924177641007   -0.009886341189447359   -0.0003010106298761603
-0.0005556407738619215   -0.009356489529871214   -0.000301138344486164
-0.0005970168304874914   -0.009359522782163567   -0.00032841775214833814
-0.0007612321487878664   -0.009942878619153571   -0.00033934432734683404
-0.00026493826499544523   -0.009352949190077663   -0.0003410291823409355
-0.0005758773910427471   -0.009355157345950408   -0.00031420967344707754
-0.0007612321487878664   -0.009942878619153571   -0.00033934432734683404
-0.0006312127902451041   -0.01   -0.00036090235798953333
-0.00026493826499544523   -0.009352949190077663   -0.0003410291823409355
-0.0005943720969585767   -0.01   -0.0003243034799788975
-0.0005758773910427471   -0.009355157345950408   -0.00031420967344707754
-0.00023779057494473276   -0.009346036578524492   -0.0003157964270024291
-0.0005943720969585767   -0.01   -0.0003243034799788975
-0.00026493826499544523   -0.009352949190077663   -0.0003410291823409355
-0.0005758773910427471   -0.009355157345950408   -0.00031420967344707754
-0.0005943720969585767   -0.01   -0.0003243034799788975
-0.0007323115899965109   -0.009934975236177987   -0.0003161016522740528
-0.0007612321487878664   -0.009942878619153571   -0.00033934432734683404
-0.0005758773910427471   -0.009355157345950408   -0.00031420967344707754
-0.0005943720969585767   -0.01   -0.0003243034799788975
-0.0007612321487878664   -0.009942878619153571   -0.00033934432734683404
-0.00026493826499544523   -0.009352949190077663   -0.0003410291823409355
-0.0005758773910427471   -0.009355157345950408   -0.00031420967344707754
-0.0007323115899965109   -0.009934975236177987   -0.0003161016522740528
-0.00023779057494473276   -0.009346036578524492   -0.0003157964270024291
-0.0005556407738619215   -0.009356489529871214   -0.000301138344486164
-0.0007323115899965109   -0.009934975236177987   -0.0003161016522740528
-0.0005943720969585767   -0.01   -0.0003243034799788975
-0.00023779057494473276   -0.009346036578524492   -0.0003157964270024291
-0.0005569787059891256   -0.01   -0.0002872834022121322
-0.0005556407738619215   -0.009356489529871214   -0.000301138344486164
-0.00020964418745855306   -0.009345050361271843   -0.00029175292655532866
-0.0005569787059891256   -0.01   -0.0002872834022121322
-0.00023779057494473276   -0.009346036578524492   -0.0003157964270024291
-0.0005556407738619215   -0.009356489529871214   -0.000301138344486164
-0.0005569787059891256   -0.01   -0.0002872834022121322
-0.0007053021313478484   -0.009934904890565933   -0.00029281081188441783
-0.0007323115899965109   -0.009934975236177987   -0.0003161016522740528
-0.0005556407738619215   -0.009356489529871214   -0.000301138344486164
-0.0005569787059891256   -0.01   -0.0002872834022121322
-0.0007323115899965109   -0.009934975236177987   -0.0003161016522740528
-0.00023779057494473276   -0.009346036578524492   -0.0003157964270024291
-0.0005556407738619215   -0.009356489529871214   -0.000301138344486164
-0.0007053021313478484   -0.009934904890565933   -0.00029281081188441783
-0.00020964418745855306   -0.009345050361271843   -0.00029175292655532866
-0.0005386442968333525   -0.009364436877558103   -0.00028981057123962536
-0.0007053021313478484   -0.009934904890565933   -0.00029281081188441783
-0.0005569787059891256   -0.01   -0.0002872834022121322
-0.00020964418745855306   -0.009345050361271843   -0.00029175292655532866
-0.0005208993696718895   -0.01   -0.0002507852354874751
-0.0005386442968333525   -0.009364436877558103   -0.00028981057123962536
-0.00018903082862842174   -0.009351093224921937   -0.0002697167043107221
-0.0005208993696718895   -0.01   -0.0002507852354874751
-0.00020964418745855306   -0.009345050361271843   -0.00029175292655532866
-0.0005386442968333525   -0.009364436877558103   -0.00028981057123962536
-0.0005208993696718895   -0.01   -0.0002507852354874751
-0.0006765776410234179   -0.009942336946444648   -0.0002696832529106234
-0.0007053021313478484   -0.009934904890565933   -0.00029281081188441783
-0.0005386442968333525   -0.009364436877558103   -0.00028981057123962536
-0.0005208993696718895   -0.01   -0.0002507852354874751
-0.0007053021313478484   -0.009934904890565933   -0.00029281081188441783
-0.00020964418745855306   -0.009345050361271843   -0.00029175292655532866
-0.00026493826499544523   -0.009352949190077663   -0.0003410291823409355
-0.0006312127902451041   -0.01   -0.00036090235798953333
8.658744736084743e-05   -0.009319790296515695   -0.00036563973878784586
-0.00023779057494473276   -0.009346036578524492   -0.0003157964270024291
-0.0006312127902451041   -0.01   -0.00036090235798953333
-0.0005327729907870946   -0.01   -0.00038699934029182094
8.658744736084743e-05   -0.009319790296515695   -0.00036563973878784586
-0.0004526987399998394   -0.01   -0.0003333686138697308
-0.00023779057494473276   -0.009346036578524492   -0.0003157964270024291
0.00015284544024225848   -0.009305141844730573   -0.00032457337732275793
-0.0004526987399998394   -0.01   -0.0003333686138697308
8.658744736084743e-05   -0.009319790296515695   -0.00036563973878784586
-0.00023779057494473276   -0.009346036578524492   -0.0003157964270024291
-0.0004526987399998394   -0.01   -0.0003333686138697308
-0.0005943720969585767   -0.01   -0.0003243034799788975
-0.0006312127902451041   -0.01   -0.00036090235798953333
-0.00023779057494473276   -0.009346036578524492   -0.0003157964270024291
-0.0004526987399998394   -0.01   -0.0003333686138697308
-0.0006312127902451041   -0.01   -0.00036090235798953333
8.658744736084743e-05   -0.009319790296515695   -0.00036563973878784586
-0.00023779057494473276   -0.009346036578524492   -0.0003157964270024291
-0.0005943720969585767   -0.01   -0.0003243034799788975
0.00015284544024225848   -0.009305141844730573   -0.00032457337732275793
-0.00020964418745855306   -0.009345050361271843   -0.00029175292655532866
-0.0005943720969585767   -0.01   -0.0003243034799788975
-0.0004526987399998394   -0.01   -0.0003333686138697308
0.00015284544024225848   -0.009305141844730573   -0.00032457337732275793
-0.00038887155533304674   -0.01   -0.0002821027615976197
-0.00020964418745855306   -0.009345050361271843   -0.00029175292655532866
0.00020474973691746344   -0.009302368033531457   -0.000285763925818116
-0.00038887155533304674   -0.01   -0.0002821027615976197
0.00015284544024225848   -0.009305141844730573   -0.00032457337732275793
-0.00020964418745855306   -0.009345050361271843   -0.00029175292655532866
-0.00038887155533304674   -0.01   -0.0002821027615976197
-0.0005569787059891256   -0.01   -0.0002872834022121322
-0.0005943720969585767   -0.01   -0.0003243034799788975
-0.00020964418745855306   -0.009345050361271843   -0.00029175292655532866
-0.00038887155533304674   -0.01   -0.0002821027615976197
-0.0005943720969585767   -0.01   -0.0003243034799788975
0.00015284544024225848   -0.009305141844730573   -0.00032457337732275793
-0.00020964418745855306   -0.009345050361271843   -0.00029175292655532866
-0.0005569787059891256   -0.01   -0.0002872834022121322
0.00020474973691746344   -0.009302368033531457   -0.000285763925818116
-0.00018903082862842174   -0.009351093224921937   -0.0002697167043107221
-0.0005569787059891256   -0.01   -0.0002872834022121322
-0.00038887155533304674   -0.01   -0.0002821027615976197
0.00020474973691746344   -0.009302368033531457   -0.000285763925818116
-0.00031014917746894916   -0.01   -0.0002288495119463711
-0.00018903082862842174   -0.009351093224921937   -0.0002697167043107221
0.0002594436102967209   -0.009305664969045032   -0.00025001794808015833
-0.00031014917746894916   -0.01   -0.0002288495119463711
0.00020474973691746344   -0.009302368033531457   -0.000285763925818116
-0.00018903082862842174   -0.009351093224921937   -0.0002697167043107221
-0.00031014917746894916   -0.01   -0.0002288495119463711
-0.0005208993696718895   -0.01   -0.0002507852354874751
-0.0005569787059891256   -0.01   -0.0002872834022121322
-0.00018903082862842174   -0.009351093224921937   -0.0002697167043107221
-0.00031014917746894916   -0.01   -0.0002288495119463711
-0.0005569787059891256   -0.01   -0.0002872834022121322
0.00020474973691746344   -0.009302368033531457   -0.000285763925818116
-0.0012282272965984833   -0.009806657188465785   -0.0002638436009664551
-0.0007751788961180979   -0.00985931550746903   -0.00022640380932182258
-0.0010367494855010825   -0.009852038692300126   -0.0002902724536543763
-0.00117793018623159   -0.0097971614710206   -0.00029349714978228704
-0.0007751788961180979   -0.00985931550746903   -0.00022640380932182258
-0.0008042601157530458   -0.009895474915529449   -0.00026051584992349845
-0.0010367494855010825   -0.009852038692300126   -0.0002902724536543763
-0.0007868007997981749   -0.009883926347189   -0.0002738018846840461
-0.00117793018623159   -0.0097971614710206   -0.00029349714978228704
-0.001013965106557604   -0.009843682368789837   -0.0003003117961845718
-0.0007868007997981749   -0.009883926347189   -0.0002738018846840461
-0.0010367494855010825   -0.009852038692300126   -0.0002902724536543763
-0.00117793018623159   -0.0097971614710206   -0.00029349714978228704
-0.0007868007997981749   -0.009883926347189   -0.0002738018846840461
-0.0007290015544043106   -0.009844392785719377   -0.00025764595600585996
-0.0007751788961180979   -0.00985931550746903   -0.00022640380932182258
-0.00117793018623159   -0.0097971614710206   -0.00029349714978228704
-0.0007868007997981749   -0.009883926347189   -0.0002738018846840461
-0.0007751788961180979   -0.00985931550746903   -0.00022640380932182258
-0.0010367494855010825   -0.009852038692300126   -0.0002902724536543763
-0.00117793018623159   -0.0097971614710206   -0.00029349714978228704
-0.0007290015544043106   -0.009844392785719377   -0.00025764595600585996
-0.001013965106557604   -0.009843682368789837   -0.0003003117961845718
-0.0011346077943702147   -0.009798887062407587   -0.00032310810901326365
-0.0007290015544043106   -0.009844392785719377   -0.00025764595600585996
-0.0007868007997981749   -0.009883926347189   -0.0002738018846840461
-0.001013965106557604   -0.009843682368789837   -0.0003003117961845718
-0.0007661306630085054   -0.009880485873950516   -0.00028619123035568297
-0.0011346077943702147   -0.009798887062407587   -0.00032310810901326365
-0.000988428701373526   -0.009844907702133898   -0.0003104670061159554
-0.0007661306630085054   -0.009880485873950516   -0.00028619123035568297
-0.001013965106557604   -0.009843682368789837   -0.0003003117961845718
-0.0011346077943702147   -0.009798887062407587   -0.00032310810901326365
-0.0007661306630085054   -0.009880485873950516   -0.00028619123035568297
-0.0006906324653101604   -0.009840731889687267   -0.0002877827406517612
-0.0007290015544043106   -0.009844392785719377   -0.00025764595600585996
-0.0011346077943702147   -0.009798887062407587   -0.00032310810901326365
-0.0007661306630085054   -0.009880485873950516   -0.00028619123035568297
-0.0007290015544043106   -0.009844392785719377   -0.00025764595600585996
-0.001013965106557604   -0.009843682368789837   -0.0003003117961845718
-0.0011346077943702147   -0.009798887062407587   -0.00032310810901326365
-0.0006906324653101604   -0.009840731889687267   -0.0002877827406517612
-0.000988428701373526   -0.009844907702133898   -0.0003104670061159554
-0.001082985074865278   -0.009812565753406253   -0.00035333411868408536
-0.0006906324653101604   -0.009840731889687267   -0.0002877827406517612
-0.0007661306630085054   -0.009880485873950516   -0.00028619123035568297
-0.000988428701373526   -0.009844907702133898   -0.0003104670061159554
-0.0007485376497812577   -0.009885240605540243   -0.00029763299255937804
-0.001082985074865278   -0.009812565753406253   -0.00035333411868408536
-0.000964872195044948   -0.009855797202054806   -0.0003207786915667818
-0.0007485376497812577   -0.009885240605540243   -0.00029763299255937804
-0.000988428701373526   -0.009844907702133898   -0.0003104670061159554
-0.001082985074865278   -0.009812565753406253   -0.00035333411868408536
-0.0007485376497812577   -0.009885240605540243   -0.00029763299255937804
-0.0006467880292463607   -0.00984662239204991   -0.00031670886188694166
-0.0006906324653101604   -0.009840731889687267   -0.0002877827406517612
-0.001082985074865278   -0.009812565753406253   -0.00035333411868408536
-0.0007485376497812577   -0.009885240605540243   -0.00029763299255937804
-0.0006906324653101604   -0.009840731889687267   -0.0002877827406517612
-0.000988428701373526   -0.009844907702133898   -0.0003104670061159554
-0.0010367494855010825   -0.009852038692300126   -0.0002902724536543763
-0.0008042601157530458   -0.009895474915529449   -0.00026051584992349845
-0.0008933343287805688   -0.009894624006560878   -0.00031342385736316257
-0.001013965106557604   -0.009843682368789837   -0.0003003117961845718
-0.0008042601157530458   -0.009895474915529449   -0.00026051584992349845
-0.0008510737997002069   -0.009916469301601744   -0.00028758501069545497
-0.0008933343287805688   -0.009894624006560878   -0.00031342385736316257
-0.0008357432071779606   -0.00990609874850136   -0.00028774041450652473
-0.001013965106557604   -0.009843682368789837   -0.0003003117961845718
-0.000869587761063389   -0.009885892969262337   -0.0003072453448510275
-0.0008357432071779606   -0.00990609874850136   -0.00028774041450652473
-0.0008933343287805688   -0.009894624006560878   -0.00031342385736316257
-0.001013965106557604   -0.009843682368789837   -0.0003003117961845718
-0.0008357432071779606   -0.00990609874850136   -0.00028774041450652473
-0.0007868007997981749   -0.009883926347189   -0.0002738018846840461
-0.0008042601157530458   -0.009895474915529449   -0.00026051584992349845
-0.001013965106557604   -0.009843682368789837   -0.0003003117961845718
-0.0008357432071779606   -0.00990609874850136   -0.00028774041450652473
-0.0008042601157530458   -0.009895474915529449   -0.00026051584992349845
-0.0008933343287805688   -0.009894624006560878   -0.00031342385736316257
-0.001013965106557604   -0.009843682368789837   -0.0003003117961845718
-0.0007868007997981749   -0.009883926347189   -0.0002738018846840461
-0.000869587761063389   -0.009885892969262337   -0.0003072453448510275
-0.000988428701373526   -0.009844907702133898   -0.0003104670061159554
-0.0007868007997981749   -0.009883926347189   -0.0002738018846840461
-0.0008357432071779606   -0.00990609874850136   -0.00028774041450652473
-0.000869587761063389   -0.009885892969262337   -0.0003072453448510275
-0.0008187293742733477   -0.009903062010242094   -0.0002867350649613829
-0.000988428701373526   -0.009844907702133898   -0.0003104670061159554
-0.0008464924177641007   -0.009886341189447359   -0.0003010106298761603
-0.0008187293742733477   -0.009903062010242094   -0.0002867350649613829
-0.000869587761063389   -0.009885892969262337   -0.0003072453448510275
-0.000988428701373526   -0.009844907702133898   -0.0003104670061159554
-0.0008187293742733477   -0.009903062010242094   -0.0002867350649613829
-0.0007661306630085054   -0.009880485873950516   -0.00028619123035568297
-0.0007868007997981749   -0.009883926347189   -0.0002738018846840461
-0.000988428701373526   -0.009844907702133898   -0.0003104670061159554
-0.0008187293742733477   -0.009903062010242094   -0.0002867350649613829
-0.0007868007997981749   -0.009883926347189   -0.0002738018846840461
-0.000869587761063389   -0.009885892969262337   -0.0003072453448510275
-0.000988428701373526   -0.009844907702133898   -0.0003104670061159554
-0.0007661306630085054   -0.009880485873950516   -0.00028619123035568297
-0.0008464924177641007   -0.009886341189447359   -0.0003010106298761603
-0.000964872195044948   -0.009855797202054806   -0.0003207786915667818
-0.0007661306630085054   -0.009880485873950516   -0.00028619123035568297
-0.0008187293742733477   -0.009903062010242094   -0.0002867350649613829
-0.0008464924177641007   -0.009886341189447359   -0.0003010106298761603
-0.0008014893148036972   -0.00990709388988209   -0.0002848157698907324
-0.000964872195044948   -0.009855797202054806   -0.0003207786915667818
-0.0008225202210025812   -0.009895814594937958   -0.0002950726238697436
-0.0008014893148036972   -0.00990709388988209   -0.0002848157698907324
-0.0008464924177641007   -0.009886341189447359   -0.0003010106298761603
-0.000964872195044948   -0.009855797202054806   -0.0003207786915667818
-0.0008014893148036972   -0.00990709388988209   -0.0002848157698907324
-0.0007485376497812577   -0.009885240605540243   -0.00029763299255937804
-0.0007661306630085054   -0.009880485873950516   -0.00028619123035568297
-0.000964872195044948   -0.009855797202054806   -0.0003207786915667818
-0.0008014893148036972   -0.00990709388988209   -0.0002848157698907324
-0.0007661306630085054   -0.009880485873950516   -0.00028619123035568297
-0.0008464924177641007   -0.009886341189447359   -0.0003010106298761603
-0.0008933343287805688   -0.009894624006560878   -0.00031342385736316257
-0.0008510737997002069   -0.009916469301601744   -0.00028758501069545497
-0.0007612321487878664   -0.009942878619153571   -0.00033934432734683404
-0.000869587761063389   -0.009885892969262337   -0.0003072453448510275
-0.0008510737997002069   -0.009916469301601744   -0.00028758501069545497
-0.000902230378618742   -0.009923192324276837   -0.0003144460568877
-0.0007612321487878664   -0.009942878619153571   -0.00033934432734683404
-0.0008863417765479937   -0.009913131010524991   -0.0003019569875056525
-0.000869587761063389   -0.009885892969262337   -0.0003072453448510275
-0.0007323115899965109   -0.009934975236177987   -0.0003161016522740528
-0.0008863417765479937   -0.009913131010524991   -0.0003019569875056525
-0.0007612321487878664   -0.009942878619153571   -0.00033934432734683404
-0.000869587761063389   -0.009885892969262337   -0.0003072453448510275
-0.0008863417765479937   -0.009913131010524991   -0.0003019569875056525
-0.0008357432071779606   -0.00990609874850136   -0.00028774041450652473
-0.0008510737997002069   -0.009916469301601744   -0.00028758501069545497
-0.000869587761063389   -0.009885892969262337   -0.0003072453448510275
-0.0008863417765479937   -0.009913131010524991   -0.0003019569875056525
-0.0008510737997002069   -0.009916469301601744   -0.00028758501069545497
-0.0007612321487878664   -0.009942878619153571   -0.00033934432734683404
-0.000869587761063389   -0.009885892969262337   -0.0003072453448510275
-0.0008357432071779606   -0.00990609874850136   -0.00028774041450652473
-0.0007323115899965109   -0.009934975236177987   -0.0003161016522740528
-0.0008464924177641007   -0.009886341189447359   -0.0003010106298761603
-0.0008357432071779606   -0.00990609874850136   -0.00028774041450652473
-0.0008863417765479937   -0.009913131010524991   -0.0003019569875056525
-0.0007323115899965109   -0.009934975236177987   -0.0003161016522740528
-0.0008674302281869167   -0.009910505448787257   -0.0002880493096721439
-0.0008464924177641007   -0.009886341189447359   -0.0003010106298761603
-0.0007053021313478484   -0.009934904890565933   -0.00029281081188441783
-0.0008674302281869167   -0.009910505448787257   -0.0002880493096721439
-0.0007323115899965109   -0.009934975236177987   -0.0003161016522740528
-0.0008464924177641007   -0.009886341189447359   -0.0003010106298761603
-0.0008674302281869167   -0.009910505448787257   -0.0002880493096721439
-0.0008187293742733477   -0.009903062010242094   -0.0002867350649613829
-0.0008357432071779606   -0.00990609874850136   -0.00028774041450652473
-0.0008464924177641007   -0.009886341189447359   -0.0003010106298761603
-0.0008674302281869167   -0.009910505448787257   -0.0002880493096721439
-0.0008357432071779606   -0.00990609874850136   -0.00028774041450652473
-0.0007323115899965109   -0.009934975236177987   -0.0003161016522740528
-0.0008464924177641007   -0.009886341189447359   -0.0003010106298761603
-0.0008187293742733477   -0.009903062010242094   -0.0002867350649613829
-0.0007053021313478484   -0.009934904890565933   -0.00029281081188441783
-0.0008225202210025812   -0.009895814594937958   -0.0002950726238697436
-0.0008187293742733477   -0.009903062010242094   -0.0002867350649613829
-0.0008674302281869167   -0.009910505448787257   -0.0002880493096721439
-0.0007053021313478484   -0.009934904890565933   -0.00029281081188441783
-0.0008480722893262757   -0.009914321193829484   -0.0002733238360456063
-0.0008225202210025812   -0.009895814594937958   -0.0002950726238697436
-0.0006765776410234179   -0.009942336946444648   -0.0002696832529106234
-0.0008480722893262757   -0.009914321193829484   -0.0002733238360456063
-0.0007053021313478484   -0.009934904890565933   -0.00029281081188441783
-0.0008225202210025812   -0.009895814594937958   -0.0002950726238697436
-0.0008480722893262757   -0.009914321193829484   -0.0002733238360456063
-0.0008014893148036972   -0.00990709388988209   -0.0002848157698907324
-0.0008187293742733477   -0.009903062010242094   -0.0002867350649613829
-0.0008225202210025812   -0.009895814594937958   -0.0002950726238697436
-0.0008480722893262757   -0.009914321193829484   -0.0002733238360456063
-0.0008187293742733477   -0.009903062010242094   -0.0002867350649613829
-0.0007053021313478484   -0.009934904890565933   -0.00029281081188441783
-0.0007612321487878664   -0.009942878619153571   -0.00033934432734683404
-0.000902230378618742   -0.009923192324276837   -0.0003144460568877
-0.0006312127902451041   -0.01   -0.00036090235798953333
-0.0007323115899965109   -0.009934975236177987   -0.0003161016522740528
-0.000902230378618742   -0.009923192324276837   -0.0003144460568877
-0.0009769556587001635   -0.009909947056141125   -0.00034053865428453403
-0.0006312127902451041   -0.01   -0.00036090235798953333
-0.0009562693632497286   -0.009900130027678158   -0.00031587931345353193
-0.0007323115899965109   -0.009934975236177987   -0.0003161016522740528
-0.0005943720969585767   -0.01   -0.0003243034799788975
-0.0009562693632497286   -0.009900130027678158   -0.00031587931345353193
-0.0006312127902451041   -0.01   -0.00036090235798953333
-0.0007323115899965109   -0.009934975236177987   -0.0003161016522740528
-0.0009562693632497286   -0.009900130027678158   -0.00031587931345353193
-0.0008863417765479937   -0.009913131010524991   -0.0003019569875056525
-0.000902230378618742   -0.009923192324276837   -0.0003144460568877
-0.0007323115899965109   -0.009934975236177987   -0.0003161016522740528
-0.0009562693632497286   -0.009900130027678158   -0.00031587931345353193
-0.000902230378618742   -0.009923192324276837   -0.0003144460568877
-0.0006312127902451041   -0.01   -0.00036090235798953333
-0.0007323115899965109   -0.009934975236177987   -0.0003161016522740528
-0.0008863417765479937   -0.009913131010524991   -0.0003019569875056525
-0.0005943720969585767   -0.01   -0.0003243034799788975
-0.0007053021313478484   -0.009934904890565933   -0.00029281081188441783
-0.0008863417765479937   -0.009913131010524991   -0.0003019569875056525
-0.0009562693632497286   -0.009900130027678158   -0.00031587931345353193
-0.0005943720969585767   -0.01   -0.0003243034799788975
-0.0009286239162508808   -0.00989833399773095   -0.0002895865556772234
-0.0007053021313478484   -0.009934904890565933   -0.00029281081188441783
-0.0005569787059891256   -0.01   -0.0002872834022121322
-0.0009286239162508808   -0.00989833399773095   -0.0002895865556772234
-0.0005943720969585767   -0.01   -0.0003243034799788975
-0.0007053021313478484   -0.009934904890565933   -0.00029281081188441783
-0.0009286239162508808   -0.00989833399773095   -0.0002895865556772234
-0.0008674302281869167   -0.009910505448787257   -0.0002880493096721439
-0.0008863417765479937   -0.009913131010524991   -0.0003019569875056525
-0.0007053021313478484   -0.009934904890565933   -0.00029281081188441783
-0.0009286239162508808   -0.00989833399773095   -0.0002895865556772234
-0.0008863417765479937   -0.009913131010524991   -0.0003019569875056525
-0.0005943720969585767   -0.01   -0.0003243034799788975
-0.0007053021313478484   -0.009934904890565933   -0.00029281081188441783
-0.0008674302281869167   -0.009910505448787257   -0.0002880493096721439
-0.0005569787059891256   -0.01   -0.0002872834022121322
-0.0006765776410234179   -0.009942336946444648   -0.0002696832529106234
-0.0008674302281869167   -0.009910505448787257   -0.0002880493096721439
-0.0009286239162508808   -0.00989833399773095   -0.0002895865556772234
-0.0005569787059891256   -0.01   -0.0002872834022121322
-0.0009031610403346711   -0.009903138210168916   -0.00026239786013629757
-0.0006765776410234179   -0.009942336946444648   -0.0002696832529106234
-0.0005208993696718895   -0.01   -0.0002507852354874751
-0.0009031610403346711   -0.009903138210168916   -0.00026239786013629757
-0.0005569787059891256   -0.01   -0.0002872834022121322
-0.0006765776410234179   -0.009942336946444648   -0.0002696832529106234
-0.0009031610403346711   -0.009903138210168916   -0.00026239786013629757
-0.0008480722893262757   -0.009914321193829484   -0.0002733238360456063
-0.0008674302281869167   -0.009910505448787257   -0.0002880493096721439
-0.0006765776410234179   -0.009942336946444648   -0.0002696832529106234
-0.0009031610403346711   -0.009903138210168916   -0.00026239786013629757
-0.0008674302281869167   -0.009910505448787257   -0.0002880493096721439
-0.0005569787059891256   -0.01   -0.0002872834022121322
-0.0006312127902451041   -0.01   -0.00036090235798953333
-0.0009769556587001635   -0.009909947056141125   -0.00034053865428453403
-0.0005327729907870946   -0.01   -0.00038699934029182094
-0.0005943720969585767   -0.01   -0.0003243034799788975
-0.0009769556587001635   -0.009909947056141125   -0.00034053865428453403
-0.0011299903506690918   -0.009862155095487237   -0.0003692970057362105
-0.0005327729907870946   -0.01   -0.00038699934029182094
-0.0010712622316144545   -0.009853334822318005   -0.0003289166181585338
-0.0005943720969585767   -0.01   -0.0003243034799788975
-0.0004526987399998394   -0.01   -0.0003333686138697308
-0.0010712622316144545   -0.009853334822318005   -0.0003289166181585338
-0.0005327729907870946   -0.01   -0.00038699934029182094
-0.0005943720969585767   -0.01   -0.0003243034799788975
-0.0010712622316144545   -0.009853334822318005   -0.0003289166181585338
-0.0009562693632497286   -0.009900130027678158   -0.00031587931345353193
-0.0009769556587001635   -0.009909947056141125   -0.00034053865428453403
-0.0005943720969585767   -0.01   -0.0003243034799788975
-0.0010712622316144545   -0.009853334822318005   -0.0003289166181585338
-0.0009769556587001635   -0.009909947056141125   -0.00034053865428453403
-0.0005327729907870946   -0.01   -0.00038699934029182094
-0.0005943720969585767   -0.01   -0.0003243034799788975
-0.0009562693632497286   -0.009900130027678158   -0.00031587931345353193
-0.0004526987399998394   -0.01   -0.0003333686138697308
-0.0005569787059891256   -0.01   -0.0002872834022121322
-0.0009562693632497286   -0.009900130027678158   -0.00031587931345353193
-0.0010712622316144545   -0.009853334822318005   -0.0003289166181585338
-0.0004526987399998394   -0.01   -0.0003333686138697308
-0.001018071023006109   -0.009852490683921765   -0.00028616597280507945
-0.0005569787059891256   -0.01   -0.0002872834022121322
-0.00038887155533304674   -0.01   -0.0002821027615976197
-0.001018071023006109   -0.009852490683921765   -0.00028616597280507945
-0.0004526987399998394   -0.01   -0.0003333686138697308
-0.0005569787059891256   -0.01   -0.0002872834022121322
-0.001018071023006109   -0.009852490683921765   -0.00028616597280507945
-0.0009286239162508808   -0.00989833399773095   -0.0002895865556772234
-0.0009562693632497286   -0.009900130027678158   -0.00031587931345353193
-0.0005569787059891256   -0.01   -0.0002872834022121322
-0.001018071023006109   -0.009852490683921765   -0.00028616597280507945
-0.0009562693632497286   -0.009900130027678158   -0.00031587931345353193
-0.0004526987399998394   -0.01   -0.0003333686138697308
-0.0005569787059891256   -0.01   -0.0002872834022121322
-0.0009286239162508808   -0.00989833399773095   -0.0002895865556772234
-0.00038887155533304674   -0.01   -0.0002821027615976197
-0.0005208993696718895   -0.01   -0.0002507852354874751
-0.0009286239162508808   -0.00989833399773095   -0.0002895865556772234
-0.001018071023006109   -0.009852490683921765   -0.00028616597280507945
-0.00038887155533304674   -0.01   -0.0002821027615976197
-0.0009507535263746492   -0.009863918176697658   -0.00024175685844151387
-0.0005208993696718895   -0.01   -0.0002507852354874751
-0.00031014917746894916   -0.01   -0.0002288495119463711
-0.0009507535263746492   -0.009863918176697658   -0.00024175685844151387
-0.00038887155533304674   -0.01   -0.0002821027615976197
-0.0005208993696718895   -0.01   -0.0002507852354874751
-0.0009507535263746492   -0.009863918176697658   -0.00024175685844151387
-0.0009031610403346711   -0.009903138210168916   -0.00026239786013629757
-0.0009286239162508808   -0.00989833399773095   -0.0002895865556772234
-0.0005208993696718895   -0.01   -0.0002507852354874751
-0.0009507535263746492   -0.009863918176697658   -0.00024175685844151387
-0.0009286239162508808   -0.00989833399773095   -0.0002895865556772234
-0.00038887155533304674   -0.01   -0.0002821027615976197
-0.0007751788961180979   -0.00985931550746903   -0.00022640380932182258
-0.0003680544935161863   -0.009529384528249888   -0.00019410556154866808
-0.0008042601157530458   -0.009895474915529449   -0.00026051584992349845
-0.0007290015544043106   -0.009844392785719377   -0.00025764595600585996
-0.0003680544935161863   -0.009529384528249888   -0.00019410556154866808
-0.0006001559535653682   -0.00955763260631527   -0.00023059300034369677
-0.0008042601157530458   -0.009895474915529449   -0.00026051584992349845
-0.0005875783646540257   -0.009543593165919878   -0.00024266498022298264
-0.0007290015544043106   -0.009844392785719377   -0.00025764595600585996
-0.0007868007997981749   -0.009883926347189   -0.0002738018846840461
-0.0005875783646540257   -0.009543593165919878   -0.00024266498022298264
-0.0008042601157530458   -0.009895474915529449   -0.00026051584992349845
-0.0007290015544043106   -0.009844392785719377   -0.00025764595600585996
-0.0005875783646540257   -0.009543593165919878   -0.00024266498022298264
-0.00033037193505466443   -0.009511838616276363   -0.00022172880782258506
-0.0003680544935161863   -0.009529384528249888   -0.00019410556154866808
-0.0007290015544043106   -0.009844392785719377   -0.00025764595600585996
-0.0005875783646540257   -0.009543593165919878   -0.00024266498022298264
-0.0003680544935161863   -0.009529384528249888   -0.00019410556154866808
-0.0008042601157530458   -0.009895474915529449   -0.00026051584992349845
-0.0007290015544043106   -0.009844392785719377   -0.00025764595600585996
-0.00033037193505466443   -0.009511838616276363   -0.00022172880782258506
-0.0007868007997981749   -0.009883926347189   -0.0002738018846840461
-0.0006906324653101604   -0.009840731889687267   -0.0002877827406517612
-0.00033037193505466443   -0.009511838616276363   -0.00022172880782258506
-0.0005875783646540257   -0.009543593165919878   -0.00024266498022298264
-0.0007868007997981749   -0.009883926347189   -0.0002738018846840461
-0.000573188782091046   -0.00953666327541339   -0.0002537723307551623
-0.0006906324653101604   -0.009840731889687267   -0.0002877827406517612
-0.0007661306630085054   -0.009880485873950516   -0.00028619123035568297
-0.000573188782091046   -0.00953666327541339   -0.0002537723307551623
-0.0007868007997981749   -0.009883926347189   -0.0002738018846840461
-0.0006906324653101604   -0.009840731889687267   -0.0002877827406517612
-0.000573188782091046   -0.00953666327541339   -0.0002537723307551623
-0.0003006974641468231   -0.009504450465422299   -0.0002479296556973106
-0.00033037193505466443   -0.009511838616276363   -0.00022172880782258506
-0.0006906324653101604   -0.009840731889687267   -0.0002877827406517612
-0.000573188782091046   -0.00953666327541339   -0.0002537723307551623
-0.00033037193505466443   -0.009511838616276363   -0.00022172880782258506
-0.0007868007997981749   -0.009883926347189   -0.0002738018846840461
-0.0006906324653101604   -0.009840731889687267   -0.0002877827406517612
-0.0003006974641468231   -0.009504450465422299   -0.0002479296556973106
-0.0007661306630085054   -0.009880485873950516   -0.00028619123035568297
-0.0006467880292463607   -0.00984662239204991   -0.00031670886188694166
-0.0003006974641468231   -0.009504450465422299   -0.0002479296556973106
-0.000573188782091046   -0.00953666327541339   -0.0002537723307551623
-0.0007661306630085054   -0.009880485873950516   -0.00028619123035568297
-0.0005622234141986836   -0.00953663857669732   -0.00026395365849824447
-0.0006467880292463607   -0.00984662239204991   -0.00031670886188694166
-0.0007485376497812577   -0.009885240605540243   -0.00029763299255937804
-0.0005622234141986836   -0.00953663857669732   -0.00026395365849824447
-0.0007661306630085054   -0.009880485873950516   -0.00028619123035568297
-0.0006467880292463607   -0.00984662239204991   -0.00031670886188694166
-0.0005622234141986836   -0.00953663857669732   -0.00026395365849824447
-0.00026776858831887337   -0.00950490918875284   -0.000272657859102124
-0.0003006974641468231   -0.009504450465422299   -0.0002479296556973106
-0.0006467880292463607   -0.00984662239204991   -0.00031670886188694166
-0.0005622234141986836   -0.00953663857669732   -0.00026395365849824447
-0.0003006974641468231   -0.009504450465422299   -0.0002479296556973106
-0.0007661306630085054   -0.009880485873950516   -0.00028619123035568297
-0.0008042601157530458   -0.009895474915529449   -0.00026051584992349845
-0.0006001559535653682   -0.00955763260631527   -0.00023059300034369677
-0.0008510737997002069   -0.009916469301601744   -0.00028758501069545497
-0.0007868007997981749   -0.009883926347189   -0.0002738018846840461
-0.0006001559535653682   -0.00955763260631527   -0.00023059300034369677
-0.0008330600673441923   -0.009567259103208497   -0.00025998474559034857
-0.0008510737997002069   -0.009916469301601744   -0.00028758501069545497
-0.0008226301279784134   -0.009555042620487592   -0.0002604429558625783
-0.0007868007997981749   -0.009883926347189   -0.0002738018846840461
-0.0008357432071779606   -0.00990609874850136   -0.00028774041450652473
-0.0008226301279784134   -0.009555042620487592   -0.0002604429558625783
-0.0008510737997002069   -0.009916469301601744   -0.00028758501069545497
-0.0007868007997981749   -0.009883926347189   -0.0002738018846840461
-0.0008226301279784134   -0.009555042620487592   -0.0002604429558625783
-0.0005875783646540257   -0.009543593165919878   -0.00024266498022298264
-0.0006001559535653682   -0.00955763260631527   -0.00023059300034369677
-0.0007868007997981749   -0.009883926347189   -0.0002738018846840461
-0.0008226301279784134   -0.009555042620487592   -0.0002604429558625783
-0.0006001559535653682   -0.00955763260631527   -0.00023059300034369677
-0.0008510737997002069   -0.009916469301601744   -0.00028758501069545497
-0.0007868007997981749   -0.009883926347189   -0.0002738018846840461
-0.0005875783646540257   -0.009543593165919878   -0.00024266498022298264
-0.0008357432071779606   -0.00990609874850136   -0.00028774041450652473
-0.0007661306630085054   -0.009880485873950516   -0.00028619123035568297
-0.0005875783646540257   -0.009543593165919878   -0.00024266498022298264
-0.0008226301279784134   -0.009555042620487592   -0.0002604429558625783
-0.0008357432071779606   -0.00990609874850136   -0.00028774041450652473
-0.0008118170279531039   -0.009549223731099394   -0.0002600044365322073
-0.0007661306630085054   -0.009880485873950516   -0.00028619123035568297
-0.0008187293742733477   -0.009903062010242094   -0.0002867350649613829
-0.0008118170279531039   -0.009549223731099394   -0.0002600044365322073
-0.0008357432071779606   -0.00990609874850136   -0.00028774041450652473
-0.0007661306630085054   -0.009880485873950516   -0.00028619123035568297
-0.0008118170279531039   -0.009549223731099394   -0.0002600044365322073
-0.000573188782091046   -0.00953666327541339   -0.0002537723307551623
-0.0005875783646540257   -0.009543593165919878   -0.00024266498022298264
-0.0007661306630085054   -0.009880485873950516   -0.00028619123035568297
-0.0008118170279531039   -0.009549223731099394   -0.0002600044365322073
-0.0005875783646540257   -0.009543593165919878   -0.00024266498022298264
-0.0008357432071779606   -0.00990609874850136   -0.00028774041450652473
-0.0007661306630085054   -0.009880485873950516   -0.00028619123035568297
-0.000573188782091046   -0.00953666327541339   -0.0002537723307551623
-0.0008187293742733477   -0.009903062010242094   -0.0002867350649613829
-0.0007485376497812577   -0.009885240605540243   -0.00029763299255937804
-0.000573188782091046   -0.00953666327541339   -0.0002537723307551623
-0.0008118170279531039   -0.009549223731099394   -0.0002600044365322073
-0.0008187293742733477   -0.009903062010242094   -0.0002867350649613829
-0.000801420578538461   -0.009549552073244974   -0.00025867620066517133
-0.0007485376497812577   -0.009885240605540243   -0.00029763299255937804
-0.0008014893148036972   -0.00990709388988209   -0.0002848157698907324
-0.000801420578538461   -0.009549552073244974   -0.00025867620066517133
-0.0008187293742733477   -0.009903062010242094   -0.0002867350649613829
-0.0007485376497812577   -0.009885240605540243   -0.00029763299255937804
-0.000801420578538461   -0.009549552073244974   -0.00025867620066517133
-0.0005622234141986836   -0.00953663857669732   -0.00026395365849824447
-0.000573188782091046   -0.00953666327541339   -0.0002537723307551623
-0.0007485376497812577   -0.009885240605540243   -0.00029763299255937804
-0.000801420578538461   -0.009549552073244974   -0.00025867620066517133
-0.000573188782091046   -0.00953666327541339   -0.0002537723307551623
-0.0008187293742733477   -0.009903062010242094   -0.0002867350649613829
-0.0008510737997002069   -0.009916469301601744   -0.00028758501069545497
-0.0008330600673441923   -0.009567259103208497   -0.00025998474559034857
-0.000902230378618742   -0.009923192324276837   -0.0003144460568877
-0.0008357432071779606   -0.00990609874850136   -0.00028774041450652473
-0.0008330600673441923   -0.009567259103208497   -0.00025998474559034857
-0.0010649186484347772   -0.009557964285114124   -0.0002875852931404839
-0.000902230378618742   -0.009923192324276837   -0.0003144460568877
-0.00105457258006583   -0.00954703179246971   -0.00027687360667204584
-0.0008357432071779606   -0.00990609874850136   -0.00028774041450652473
-0.0008863417765479937   -0.009913131010524991   -0.0003019569875056525
-0.00105457258006583   -0.00954703179246971   -0.00027687360667204584
-0.000902230378618742   -0.009923192324276837   -0.0003144460568877
-0.0008357432071779606   -0.00990609874850136   -0.00028774041450652473
-0.00105457258006583   -0.00954703179246971   -0.00027687360667204584
-0.0008226301279784134   -0.009555042620487592   -0.0002604429558625783
-0.0008330600673441923   -0.009567259103208497   -0.00025998474559034857
-0.0008357432071779606   -0.00990609874850136   -0.00028774041450652473
-0.00105457258006583   -0.00954703179246971   -0.00027687360667204584
-0.0008330600673441923   -0.009567259103208497   -0.00025998474559034857
-0.000902230378618742   -0.009923192324276837   -0.0003144460568877
-0.0008357432071779606   -0.00990609874850136   -0.00028774041450652473
-0.0008226301279784134   -0.009555042620487592   -0.0002604429558625783
-0.0008863417765479937   -0.009913131010524991   -0.0003019569875056525
-0.0008187293742733477   -0.009903062010242094   -0.0002867350649613829
-0.0008226301279784134   -0.009555042620487592   -0.0002604429558625783
-0.00105457258006583   -0.00954703179246971   -0.00027687360667204584
-0.0008863417765479937   -0.009913131010524991   -0.0003019569875056525
-0.0010429671379239638   -0.009542407244167727   -0.00026528546435834955
-0.0008187293742733477   -0.009903062010242094   -0.0002867350649613829
-0.0008674302281869167   -0.009910505448787257   -0.0002880493096721439
-0.0010429671379239638   -0.009542407244167727   -0.00026528546435834955
-0.0008863417765479937   -0.009913131010524991   -0.0003019569875056525
-0.0008187293742733477   -0.009903062010242094   -0.0002867350649613829
-0.0010429671379239638   -0.009542407244167727   -0.00026528546435834955
-0.0008118170279531039   -0.009549223731099394   -0.0002600044365322073
-0.0008226301279784134   -0.009555042620487592   -0.0002604429558625783
-0.0008187293742733477   -0.009903062010242094   -0.0002867350649613829
-0.0010429671379239638   -0.009542407244167727   -0.00026528546435834955
-0.0008226301279784134   -0.009555042620487592   -0.0002604429558625783
-0.0008863417765479937   -0.009913131010524991   -0.0003019569875056525
-0.0008187293742733477   -0.009903062010242094   -0.0002867350649613829
-0.0008118170279531039   -0.009549223731099394   -0.0002600044365322073
-0.0008674302281869167   -0.009910505448787257   -0.0002880493096721439
-0.0008014893148036972   -0.00990709388988209   -0.0002848157698907324
-0.0008118170279531039   -0.009549223731099394   -0.0002600044365322073
-0.0010429671379239638   -0.009542407244167727   -0.00026528546435834955
-0.0008674302281869167   -0.009910505448787257   -0.0002880493096721439
-0.0010313901712314707   -0.009543568231195903   -0.00025271535799515786
-0.0008014893148036972   -0.00990709388988209   -0.0002848157698907324
-0.0008480722893262757   -0.009914321193829484   -0.0002733238360456063
-0.0010313901712314707   -0.009543568231195903   -0.00025271535799515786
-0.0008674302281869167   -0.009910505448787257   -0.0002880493096721439
-0.0008014893148036972   -0.00990709388988209   -0.0002848157698907324
-0.0010313901712314707   -0.009543568231195903   -0.00025271535799515786
-0.000801420578538461   -0.009549552073244974   -0.00025867620066517133
-0.0008118170279531039   -0.009549223731099394   -0.0002600044365322073
-0.0008014893148036972   -0.00990709388988209   -0.0002848157698907324
-0.0010313901712314707   -0.009543568231195903   -0.00025271535799515786
-0.0008118170279531039   -0.009549223731099394   -0.0002600044365322073
-0.0008674302281869167   -0.009910505448787257   -0.0002880493096721439
-0.000902230378618742   -0.009923192324276837   -0.0003144460568877
-0.0010649186484347772   -0.009557964285114124   -0.0002875852931404839
-0.0009769556587001635   -0.009909947056141125   -0.00034053865428453403
-0.0008863417765479937   -0.009913131010524991   -0.0003019569875056525
-0.0010649186484347772   -0.009557964285114124   -0.0002875852931404839
-0.0013181091181596733   -0.009528649188091038   -0.0003132365111033057
-0.0009769556587001635   -0.009909947056141125   -0.00034053865428453403
-0.001305230586099502   -0.009518942033782818   -0.0002915221594224245
-0.0008863417765479937   -0.009913131010524991   -0.0003019569875056525
-0.0009562693632497286   -0.009900130027678158   -0.00031587931345353193
-0.001305230586099502   -0.009518942033782818   -0.0002915221594224245
-0.0009769556587001635   -0.009909947056141125   -0.00034053865428453403
-0.0008863417765479937   -0.009913131010524991   -0.0003019569875056525
-0.001305230586099502   -0.009518942033782818   -0.0002915221594224245
-0.00105457258006583   -0.00954703179246971   -0.00027687360667204584
-0.0010649186484347772   -0.009557964285114124   -0.0002875852931404839
-0.0008863417765479937   -0.009913131010524991   -0.0003019569875056525
-0.001305230586099502   -0.009518942033782818   -0.0002915221594224245
-0.0010649186484347772   -0.009557964285114124   -0.0002875852931404839
-0.0009769556587001635   -0.009909947056141125   -0.00034053865428453403
-0.0008863417765479937   -0.009913131010524991   -0.0003019569875056525
-0.00105457258006583   -0.00954703179246971   -0.00027687360667204584
-0.0009562693632497286   -0.009900130027678158   -0.00031587931345353193
-0.0008674302281869167   -0.009910505448787257   -0.0002880493096721439
-0.00105457258006583   -0.00954703179246971   -0.00027687360667204584
-0.001305230586099502   -0.009518942033782818   -0.0002915221594224245
-0.0009562693632497286   -0.009900130027678158   -0.00031587931345353193
-0.0012872444236776237   -0.00951550760134682   -0.000269017205529938
-0.0008674302281869167   -0.009910505448787257   -0.0002880493096721439
-0.0009286239162508808   -0.00989833399773095   -0.0002895865556772234
-0.0012872444236776237   -0.00951550760134682   -0.000269017205529938
-0.0009562693632497286   -0.009900130027678158   -0.00031587931345353193
-0.0008674302281869167   -0.009910505448787257   -0.0002880493096721439
-0.0012872444236776237   -0.00951550760134682   -0.000269017205529938
-0.0010429671379239638   -0.009542407244167727   -0.00026528546435834955
-0.00105457258006583   -0.00954703179246971   -0.00027687360667204584
-0.0008674302281869167   -0.009910505448787257   -0.0002880493096721439
-0.0012872444236776237   -0.00951550760134682   -0.000269017205529938
-0.00105457258006583   -0.00954703179246971   -0.00027687360667204584
-0.0009562693632497286   -0.009900130027678158   -0.00031587931345353193
-0.0008674302281869167   -0.009910505448787257   -0.0002880493096721439
-0.0010429671379239638   -0.009542407244167727   -0.00026528546435834955
-0.0009286239162508808   -0.00989833399773095   -0.0002895865556772234
-0.0008480722893262757   -0.009914321193829484   -0.0002733238360456063
-0.0010429671379239638   -0.009542407244167727   -0.00026528546435834955
-0.0012872444236776237   -0.00951550760134682   -0.000269017205529938
-0.0009286239162508808   -0.00989833399773095   -0.0002895865556772234
-0.0012718997332806154   -0.009518333353344824   -0.0002451515196238353
-0.0008480722893262757   -0.009914321193829484   -0.0002733238360456063
-0.0009031610403346711   -0.009903138210168916   -0.00026239786013629757
-0.0012718997332806154   -0.009518333353344824   -0.0002451515196238353
-0.0009286239162508808   -0.00989833399773095   -0.0002895865556772234
-0.0008480722893262757   -0.009914321193829484   -0.0002733238360456063
-0.0012718997332806154   -0.009518333353344824   -0.0002451515196238353
-0.0010313901712314707   -0.009543568231195903   -0.00025271535799515786
-0.0010429671379239638   -0.009542407244167727   -0.00026528546435834955
-0.0008480722893262757   -0.009914321193829484   -0.0002733238360456063
-0.0012718997332806154   -0.009518333353344824   -0.0002451515196238353
-0.0010429671379239638   -0.009542407244167727   -0.00026528546435834955
-0.0009286239162508808   -0.00989833399773095   -0.0002895865556772234
-0.0009769556587001635   -0.009909947056141125   -0.00034053865428453403
-0.0013181091181596733   -0.009528649188091038   -0.0003132365111033057
-0.0011299903506690918   -0.009862155095487237   -0.0003692970057362105
-0.0009562693632497286   -0.009900130027678158   -0.00031587931345353193
-0.0013181091181596733   -0.009528649188091038   -0.0003132365111033057
-0.001643837303829774   -0.009480970678366184   -0.0003387658398307321
-0.0011299903506690918   -0.009862155095487237   -0.0003692970057362105
-0.0015992771020673677   -0.009470061561204194   -0.0003043855459530132
-0.0009562693632497286   -0.009900130027678158   -0.00031587931345353193
-0.0010712622316144545   -0.009853334822318005   -0.0003289166181585338
-0.0015992771020673677   -0.009470061561204194   -0.0003043855459530132
-0.0011299903506690918   -0.009862155095487237   -0.0003692970057362105
-0.0009562693632497286   -0.009900130027678158   -0.00031587931345353193
-0.0015992771020673677   -0.009470061561204194   -0.0003043855459530132
-0.001305230586099502   -0.009518942033782818   -0.0002915221594224245
-0.0013181091181596733   -0.009528649188091038   -0.0003132365111033057
-0.0009562693632497286   -0.009900130027678158   -0.00031587931345353193
-0.0015992771020673677   -0.009470061561204194   -0.0003043855459530132
-0.0013181091181596733   -0.009528649188091038   -0.0003132365111033057
-0.0011299903506690918   -0.009862155095487237   -0.0003692970057362105
-0.0009562693632497286   -0.009900130027678158   -0.00031587931345353193
-0.001305230586099502   -0.009518942033782818   -0.0002915221594224245
-0.0010712622316144545   -0.009853334822318005   -0.0003289166181585338
-0.0009286239162508808   -0.00989833399773095   -0.0002895865556772234
-0.001305230586099502   -0.009518942033782818   -0.0002915221594224245
-0.0015992771020673677   -0.009470061561204194   -0.0003043855459530132
-0.0010712622316144545   -0.009853334822318005   -0.0003289166181585338
-0.001559968888338868   -0.009466884970756756   -0.00026829972760856205
-0.0009286239162508808   -0.00989833399773095   -0.0002895865556772234
-0.001018071023006109   -0.009852490683921765   -0.00028616597280507945
-0.001559968888338868   -0.009466884970756756   -0.00026829972760856205
-0.0010712622316144545   -0.009853334822318005   -0.0003289166181585338
-0.0009286239162508808   -0.00989833399773095   -0.0002895865556772234
-0.001559968888338868   -0.009466884970756756   -0.00026829972760856205
-0.0012872444236776237   -0.00951550760134682   -0.000269017205529938
-0.001305230586099502   -0.009518942033782818   -0.0002915221594224245
-0.0009286239162508808   -0.00989833399773095   -0.0002895865556772234
-0.001559968888338868   -0.009466884970756756   -0.00026829972760856205
-0.001305230586099502   -0.009518942033782818   -0.0002915221594224245
-0.0010712622316144545   -0.009853334822318005   -0.0003289166181585338
-0.0009286239162508808   -0.00989833399773095   -0.0002895865556772234
-0.0012872444236776237   -0.00951550760134682   -0.000269017205529938
-0.001018071023006109   -0.009852490683921765   -0.00028616597280507945
-0.0009031610403346711   -0.009903138210168916   -0.00026239786013629757
-0.0012872444236776237   -0.00951550760134682   -0.000269017205529938
-0.001559968888338868   -0.009466884970756756   -0.00026829972760856205
-0.001018071023006109   -0.009852490683921765   -0.00028616597280507945
-0.0015091048483474284   -0.009473285832316608   -0.00023082631194410044
-0.0009031610403346711   -0.009903138210168916   -0.00026239786013629757
-0.0009507535263746492   -0.009863918176697658   -0.00024175685844151387
-0.0015091048483474284   -0.009473285832316608   -0.00023082631194410044
-0.001018071023006109   -0.009852490683921765   -0.00028616597280507945
-0.0009031610403346711   -0.009903138210168916   -0.00026239786013629757
-0.0015091048483474284   -0.009473285832316608   -0.00023082631194410044
-0.0012718997332806154   -0.009518333353344824   -0.0002451515196238353
-0.0012872444236776237   -0.00951550760134682   -0.000269017205529938
-0.0009031610403346711   -0.009903138210168916   -0.00026239786013629757
-0.0015091048483474284   -0.009473285832316608   -0.00023082631194410044
-0.0012872444236776237   -0.00951550760134682   -0.000269017205529938
-0.001018071023006109   -0.009852490683921765   -0.00028616597280507945
-0.0003680544935161863   -0.009529384528249888   -0.00019410556154866808
-2.8358707207268467e-05   -0.008888232168605528   -0.00015926099493683145
-0.0006001559535653682   -0.00955763260631527   -0.00023059300034369677
-0.00033037193505466443   -0.009511838616276363   -0.00022172880782258506
-2.8358707207268467e-05   -0.008888232168605528   -0.00015926099493683145
-0.00043344375288651067   -0.008909699624150984   -0.00019531508515615055
-0.0006001559535653682   -0.00955763260631527   -0.00023059300034369677
-0.0004265168900237645   -0.008894932671268155   -0.00020516863459827238
-0.00033037193505466443   -0.009511838616276363   -0.00022172880782258506
-0.0005875783646540257   -0.009543593165919878   -0.00024266498022298264
-0.0004265168900237645   -0.008894932671268155   -0.00020516863459827238
-0.0006001559535653682   -0.00955763260631527   -0.00023059300034369677
-0.00033037193505466443   -0.009511838616276363   -0.00022172880782258506
-0.0004265168900237645   -0.008894932671268155   -0.00020516863459827238
-9.98255368485517e-07   -0.008870259393835272   -0.00018194081722930822
-2.8358707207268467e-05   -0.008888232168605528   -0.00015926099493683145
-0.00033037193505466443   -0.009511838616276363   -0.00022172880782258506
-0.0004265168900237645   -0.008894932671268155   -0.00020516863459827238
-2.8358707207268467e-05   -0.008888232168605528   -0.00015926099493683145
-0.0006001559535653682   -0.00955763260631527   -0.00023059300034369677
-0.00033037193505466443   -0.009511838616276363   -0.00022172880782258506
-9.98255368485517e-07   -0.008870259393835272   -0.00018194081722930822
-0.0005875783646540257   -0.009543593165919878   -0.00024266498022298264
-0.0003006974641468231   -0.009504450465422299   -0.0002479296556973106
-9.98255368485517e-07   -0.008870259393835272   -0.00018194081722930822
-0.0004265168900237645   -0.008894932671268155   -0.00020516863459827238
-0.0005875783646540257   -0.009543593165919878   -0.00024266498022298264
-0.0004184490225814404   -0.008886135211671992   -0.00021400456207691884
-0.0003006974641468231   -0.009504450465422299   -0.0002479296556973106
-0.000573188782091046   -0.00953666327541339   -0.0002537723307551623
-0.0004184490225814404   -0.008886135211671992   -0.00021400456207691884
-0.0005875783646540257   -0.009543593165919878   -0.00024266498022298264
-0.0003006974641468231   -0.009504450465422299   -0.0002479296556973106
-0.0004184490225814404   -0.008886135211671992   -0.00021400456207691884
1.924013668647947e-05   -0.008860860720653887   -0.0002031953094323284
-9.98255368485517e-07   -0.008870259393835272   -0.00018194081722930822
-0.0003006974641468231   -0.009504450465422299   -0.0002479296556973106
-0.0004184490225814404   -0.008886135211671992   -0.00021400456207691884
-9.98255368485517e-07   -0.008870259393835272   -0.00018194081722930822
-0.0005875783646540257   -0.009543593165919878   -0.00024266498022298264
-0.0003006974641468231   -0.009504450465422299   -0.0002479296556973106
1.924013668647947e-05   -0.008860860720653887   -0.0002031953094323284
-0.000573188782091046   -0.00953666327541339   -0.0002537723307551623
-0.00026776858831887337   -0.00950490918875284   -0.000272657859102124
1.924013668647947e-05   -0.008860860720653887   -0.0002031953094323284
-0.0004184490225814404   -0.008886135211671992   -0.00021400456207691884
-0.000573188782091046   -0.00953666327541339   -0.0002537723307551623
-0.00041360373697502334   -0.008883017352110579   -0.00022192457759037155
-0.00026776858831887337   -0.00950490918875284   -0.000272657859102124
-0.0005622234141986836   -0.00953663857669732   -0.00026395365849824447
-0.00041360373697502334   -0.008883017352110579   -0.00022192457759037155
-0.000573188782091046   -0.00953666327541339   -0.0002537723307551623
-0.00026776858831887337   -0.00950490918875284   -0.000272657859102124
-0.00041360373697502334   -0.008883017352110579   -0.00022192457759037155
4.13978747374533e-05   -0.00885771805586922   -0.00022302561206414865
1.924013668647947e-05   -0.008860860720653887   -0.0002031953094323284
-0.00026776858831887337   -0.00950490918875284   -0.000272657859102124
-0.00041360373697502334   -0.008883017352110579   -0.00022192457759037155
1.924013668647947e-05   -0.008860860720653887   -0.0002031953094323284
-0.000573188782091046   -0.00953666327541339   -0.0002537723307551623
-0.0006001559535653682   -0.00955763260631527   -0.00023059300034369677
-0.00043344375288651067   -0.008909699624150984   -0.00019531508515615055
-0.0008330600673441923   -0.009567259103208497   -0.00025998474559034857
-0.0005875783646540257   -0.009543593165919878   -0.00024266498022298264
-0.00043344375288651067   -0.008909699624150984   -0.00019531508515615055
-0.0008287921438669505   -0.00891389183397605   -0.00022448673923617575
-0.0008330600673441923   -0.009567259103208497   -0.00025998474559034857
-0.000823831825609563   -0.008901343326638271   -0.00022458835134227606
-0.0005875783646540257   -0.009543593165919878   -0.00024266498022298264
-0.0008226301279784134   -0.009555042620487592   -0.0002604429558625783
-0.000823831825609563   -0.008901343326638271   -0.00022458835134227606
-0.0008330600673441923   -0.009567259103208497   -0.00025998474559034857
-0.0005875783646540257   -0.009543593165919878   -0.00024266498022298264
-0.000823831825609563   -0.008901343326638271   -0.00022458835134227606
-0.0004265168900237645   -0.008894932671268155   -0.00020516863459827238
-0.00043344375288651067   -0.008909699624150984   -0.00019531508515615055
-0.0005875783646540257   -0.009543593165919878   -0.00024266498022298264
-0.000823831825609563   -0.008901343326638271   -0.00022458835134227606
-0.00043344375288651067   -0.008909699624150984   -0.00019531508515615055
-0.0008330600673441923   -0.009567259103208497   -0.00025998474559034857
-0.0005875783646540257   -0.009543593165919878   -0.00024266498022298264
-0.0004265168900237645   -0.008894932671268155   -0.00020516863459827238
-0.0008226301279784134   -0.009555042620487592   -0.0002604429558625783
-0.000573188782091046   -0.00953666327541339   -0.0002537723307551623
-0.0004265168900237645   -0.008894932671268155   -0.00020516863459827238
-0.000823831825609563   -0.008901343326638271   -0.00022458835134227606
-0.0008226301279784134   -0.009555042620487592   -0.0002604429558625783
-0.0008187073900359651   -0.008894124676774055   -0.0002237076030447846
-0.000573188782091046   -0.00953666327541339   -0.0002537723307551623
-0.0008118170279531039   -0.009549223731099394   -0.0002600044365322073
-0.0008187073900359651   -0.008894124676774055   -0.0002237076030447846
-0.0008226301279784134   -0.009555042620487592   -0.0002604429558625783
-0.000573188782091046   -0.00953666327541339   -0.0002537723307551623
-0.0008187073900359651   -0.008894124676774055   -0.0002237076030447846
-0.0004184490225814404   -0.008886135211671992   -0.00021400456207691884
-0.0004265168900237645   -0.008894932671268155   -0.00020516863459827238
-0.000573188782091046   -0.00953666327541339   -0.0002537723307551623
-0.0008187073900359651   -0.008894124676774055   -0.0002237076030447846
-0.0004265168900237645   -0.008894932671268155   -0.00020516863459827238
-0.0008226301279784134   -0.009555042620487592   -0.0002604429558625783
-0.000573188782091046   -0.00953666327541339   -0.0002537723307551623
-0.0004184490225814404   -0.008886135211671992   -0.00021400456207691884
-0.0008118170279531039   -0.009549223731099394   -0.0002600044365322073
-0.0005622234141986836   -0.00953663857669732   -0.00026395365849824447
-0.0004184490225814404   -0.008886135211671992   -0.00021400456207691884
-0.0008187073900359651   -0.008894124676774055   -0.0002237076030447846
-0.0008118170279531039   -0.009549223731099394   -0.0002600044365322073
-0.0008142345092037694   -0.008892169094470484   -0.00022192137539659478
-0.0005622234141986836   -0.00953663857669732   -0.00026395365849824447
-0.000801420578538461   -0.009549552073244974   -0.00025867620066517133
-0.0008142345092037694   -0.008892169094470484   -0.00022192137539659478
-0.0008118170279531039   -0.009549223731099394   -0.0002600044365322073
-0.0005622234141986836   -0.00953663857669732   -0.00026395365849824447
-0.0008142345092037694   -0.008892169094470484   -0.00022192137539659478
-0.00041360373697502334   -0.008883017352110579   -0.00022192457759037155
-0.0004184490225814404   -0.008886135211671992   -0.00021400456207691884
-0.0005622234141986836   -0.00953663857669732   -0.00026395365849824447
-0.0008142345092037694   -0.008892169094470484   -0.00022192137539659478
-0.0004184490225814404   -0.008886135211671992   -0.00021400456207691884
-0.0008118170279531039   -0.009549223731099394   -0.0002600044365322073
-0.0008330600673441923   -0.009567259103208497   -0.00025998474559034857
-0.0008287921438669505   -0.00891389183397605   -0.00022448673923617575
-0.0010649186484347772   -0.009557964285114124   -0.0002875852931404839
-0.0008226301279784134   -0.009555042620487592   -0.0002604429558625783
-0.0008287921438669505   -0.00891389183397605   -0.00022448673923617575
-0.0012186629490859896   -0.008900957203399415   -0.0002507648613019535
-0.0010649186484347772   -0.009557964285114124   -0.0002875852931404839
-0.0012140582251591024   -0.008890174918598732   -0.00024134029437687053
-0.0008226301279784134   -0.009555042620487592   -0.0002604429558625783
-0.00105457258006583   -0.00954703179246971   -0.00027687360667204584
-0.0012140582251591024   -0.008890174918598732   -0.00024134029437687053
-0.0010649186484347772   -0.009557964285114124   -0.0002875852931404839
-0.0008226301279784134   -0.009555042620487592   -0.0002604429558625783
-0.0012140582251591024   -0.008890174918598732   -0.00024134029437687053
-0.000823831825609563   -0.008901343326638271   -0.00022458835134227606
-0.0008287921438669505   -0.00891389183397605   -0.00022448673923617575
-0.0008226301279784134   -0.009555042620487592   -0.0002604429558625783
-0.0012140582251591024   -0.008890174918598732   -0.00024134029437687053
-0.0008287921438669505   -0.00891389183397605   -0.00022448673923617575
-0.0010649186484347772   -0.009557964285114124   -0.0002875852931404839
-0.0008226301279784134   -0.009555042620487592   -0.0002604429558625783
-0.000823831825609563   -0.008901343326638271   -0.00022458835134227606
-0.00105457258006583   -0.00954703179246971   -0.00027687360667204584
-0.0008118170279531039   -0.009549223731099394   -0.0002600044365322073
-0.000823831825609563   -0.008901343326638271   -0.00022458835134227606
-0.0012140582251591024   -0.008890174918598732   -0.00024134029437687053
-0.00105457258006583   -0.00954703179246971   -0.00027687360667204584
-0.001208480246867161   -0.008884667659791661   -0.0002309610574490992
-0.0008118170279531039   -0.009549223731099394   -0.0002600044365322073
-0.0010429671379239638   -0.009542407244167727   -0.00026528546435834955
-0.001208480246867161   -0.008884667659791661   -0.0002309610574490992
-0.00105457258006583   -0.00954703179246971   -0.00027687360667204584
-0.0008118170279531039   -0.009549223731099394   -0.0002600044365322073
-0.001208480246867161   -0.008884667659791661   -0.0002309610574490992
-0.0008187073900359651   -0.008894124676774055   -0.0002237076030447846
-0.000823831825609563   -0.008901343326638271   -0.00022458835134227606
-0.0008118170279531039   -0.009549223731099394   -0.0002600044365322073
-0.001208480246867161   -0.008884667659791661   -0.0002309610574490992
-0.000823831825609563   -0.008901343326638271   -0.00022458835134227606
-0.00105457258006583   -0.00954703179246971   -0.00027687360667204584
-0.0008118170279531039   -0.009549223731099394   -0.0002600044365322073
-0.0008187073900359651   -0.008894124676774055   -0.0002237076030447846
-0.0010429671379239638   -0.009542407244167727   -0.00026528546435834955
-0.000801420578538461   -0.009549552073244974   -0.00025867620066517133
-0.0008187073900359651   -0.008894124676774055   -0.0002237076030447846
-0.001208480246867161   -0.008884667659791661   -0.0002309610574490992
-0.0010429671379239638   -0.009542407244167727   -0.00026528546435834955
-0.001203103020803508   -0.008884230403596543   -0.00021965499512209379
-0.000801420578538461   -0.009549552073244974   -0.00025867620066517133
-0.0010313901712314707   -0.009543568231195903   -0.00025271535799515786
-0.001203103020803508   -0.008884230403596543   -0.00021965499512209379
-0.0010429671379239638   -0.009542407244167727   -0.00026528546435834955
-0.000801420578538461   -0.009549552073244974   -0.00025867620066517133
-0.001203103020803508   -0.008884230403596543   -0.00021965499512209379
-0.0008142345092037694   -0.008892169094470484   -0.00022192137539659478
-0.0008187073900359651   -0.008894124676774055   -0.0002237076030447846
-0.000801420578538461   -0.009549552073244974   -0.00025867620066517133
-0.001203103020803508   -0.008884230403596543   -0.00021965499512209379
-0.0008187073900359651   -0.008894124676774055   -0.0002237076030447846
-0.0010429671379239638   -0.009542407244167727   -0.00026528546435834955
-0.0010649186484347772   -0.009557964285114124   -0.0002875852931404839
-0.0012186629490859896   -0.008900957203399415   -0.0002507648613019535
-0.0013181091181596733   -0.009528649188091038   -0.0003132365111033057
-0.00105457258006583   -0.00954703179246971   -0.00027687360667204584
-0.0012186629490859896   -0.008900957203399415   -0.0002507648613019535
-0.001626247235013308   -0.008871251992625926   -0.00027418143513850506
-0.0013181091181596733   -0.009528649188091038   -0.0003132365111033057
-0.001620016668666096   -0.008862085234951456   -0.0002551838500505162
-0.00105457258006583   -0.00954703179246971   -0.00027687360667204584
-0.001305230586099502   -0.009518942033782818   -0.0002915221594224245
-0.001620016668666096   -0.008862085234951456   -0.0002551838500505162
-0.0013181091181596733   -0.009528649188091038   -0.0003132365111033057
-0.00105457258006583   -0.00954703179246971   -0.00027687360667204584
-0.001620016668666096   -0.008862085234951456   -0.0002551838500505162
-0.0012140582251591024   -0.008890174918598732   -0.00024134029437687053
-0.0012186629490859896   -0.008900957203399415   -0.0002507648613019535
-0.00105457258006583   -0.00954703179246971   -0.00027687360667204584
-0.001620016668666096   -0.008862085234951456   -0.0002551838500505162
-0.0012186629490859896   -0.008900957203399415   -0.0002507648613019535
-0.0013181091181596733   -0.009528649188091038   -0.0003132365111033057
-0.00105457258006583   -0.00954703179246971   -0.00027687360667204584
-0.0012140582251591024   -0.008890174918598732   -0.00024134029437687053
-0.001305230586099502   -0.009518942033782818   -0.0002915221594224245
-0.0010429671379239638   -0.009542407244167727   -0.00026528546435834955
-0.0012140582251591024   -0.008890174918598732   -0.00024134029437687053
-0.001620016668666096   -0.008862085234951456   -0.0002551838500505162
-0.001305230586099502   -0.009518942033782818   -0.0002915221594224245
-0.0016093328967000666   -0.008858128456268944   -0.0002353884505471748
-0.0010429671379239638   -0.009542407244167727   -0.00026528546435834955
-0.0012872444236776237   -0.00951550760134682   -0.000269017205529938
-0.0016093328967000666   -0.008858128456268944   -0.0002353884505471748
-0.001305230586099502   -0.009518942033782818   -0.0002915221594224245
-0.0010429671379239638   -0.009542407244167727   -0.00026528546435834955
-0.0016093328967000666   -0.008858128456268944   -0.0002353884505471748
-0.001208480246867161   -0.008884667659791661   -0.0002309610574490992
-0.0012140582251591024   -0.008890174918598732   -0.00024134029437687053
-0.0010429671379239638   -0.009542407244167727   -0.00026528546435834955
-0.0016093328967000666   -0.008858128456268944   -0.0002353884505471748
-0.0012140582251591024   -0.008890174918598732   -0.00024134029437687053
-0.001305230586099502   -0.009518942033782818   -0.0002915221594224245
-0.0010429671379239638   -0.009542407244167727   -0.00026528546435834955
-0.001208480246867161   -0.008884667659791661   -0.0002309610574490992
-0.0012872444236776237   -0.00951550760134682   -0.000269017205529938
-0.0010313901712314707   -0.009543568231195903   -0.00025271535799515786
-0.001208480246867161   -0.008884667659791661   -0.0002309610574490992
-0.0016093328967000666   -0.008858128456268944   -0.0002353884505471748
-0.0012872444236776237   -0.00951550760134682   -0.000269017205529938
-0.001600908475633431   -0.008859640184618657   -0.00021452514846612692
-0.0010313901712314707   -0.009543568231195903   -0.00025271535799515786
-0.0012718997332806154   -0.009518333353344824   -0.0002451515196238353
-0.001600908475633431   -0.008859640184618657   -0.00021452514846612692
-0.0012872444236776237   -0.00951550760134682   -0.000269017205529938
-0.0010313901712314707   -0.009543568231195903   -0.00025271535799515786
-0.001600908475633431   -0.008859640184618657   -0.00021452514846612692
-0.001203103020803508   -0.008884230403596543   -0.00021965499512209379
-0.001208480246867161   -0.008884667659791661   -0.0002309610574490992
-0.0010313901712314707   -0.009543568231195903   -0.00025271535799515786
-0.001600908475633431   -0.008859640184618657   -0.00021452514846612692
-0.001208480246867161   -0.008884667659791661   -0.0002309610574490992
-0.0012872444236776237   -0.00951550760134682   -0.000269017205529938
-0.0013181091181596733   -0.009528649188091038   -0.0003132365111033057
-0.001626247235013308   -0.008871251992625926   -0.00027418143513850506
-0.001643837303829774   -0.009480970678366184   -0.0003387658398307321
-0.001305230586099502   -0.009518942033782818   -0.0002915221594224245
-0.001626247235013308   -0.008871251992625926   -0.00027418143513850506
-0.0021010828977017075   -0.008827786470582006   -0.0002966511360960817
-0.001643837303829774   -0.009480970678366184   -0.0003387658398307321
-0.002067020101045788   -0.00881793421508833   -0.000266766679713623
-0.001305230586099502   -0.009518942033782818   -0.0002915221594224245
-0.0015992771020673677   -0.009470061561204194   -0.0003043855459530132
-0.002067020101045788   -0.00881793421508833   -0.000266766679713623
-0.001643837303829774   -0.009480970678366184   -0.0003387658398307321
-0.001305230586099502   -0.009518942033782818   -0.0002915221594224245
-0.002067020101045788   -0.00881793421508833   -0.000266766679713623
-0.001620016668666096   -0.008862085234951456   -0.0002551838500505162
-0.001626247235013308   -0.008871251992625926   -0.00027418143513850506
-0.001305230586099502   -0.009518942033782818   -0.0002915221594224245
-0.002067020101045788   -0.00881793421508833   -0.000266766679713623
-0.001626247235013308   -0.008871251992625926   -0.00027418143513850506
-0.001643837303829774   -0.009480970678366184   -0.0003387658398307321
-0.001305230586099502   -0.009518942033782818   -0.0002915221594224245
-0.001620016668666096   -0.008862085234951456   -0.0002551838500505162
-0.0015992771020673677   -0.009470061561204194   -0.0003043855459530132
-0.0012872444236776237   -0.00951550760134682   -0.000269017205529938
-0.001620016668666096   -0.008862085234951456   -0.0002551838500505162
-0.002067020101045788   -0.00881793421508833   -0.000266766679713623
-0.0015992771020673677   -0.009470061561204194   -0.0003043855459530132
-0.0020378643449398687   -0.008814400439744696   -0.00023553688359873035
-0.0012872444236776237   -0.00951550760134682   -0.000269017205529938
-0.001559968888338868   -0.009466884970756756   -0.00026829972760856205
-0.0020378643449398687   -0.008814400439744696   -0.00023553688359873035
-0.0015992771020673677   -0.009470061561204194   -0.0003043855459530132
-0.0012872444236776237   -0.00951550760134682   -0.000269017205529938
-0.0020378643449398687   -0.008814400439744696   -0.00023553688359873035
-0.0016093328967000666   -0.008858128456268944   -0.0002353884505471748
-0.001620016668666096   -0.008862085234951456   -0.0002551838500505162
-0.0012872444236776237   -0.00951550760134682   -0.000269017205529938
-0.0020378643449398687   -0.008814400439744696   -0.00023553688359873035
-0.001620016668666096   -0.008862085234951456   -0.0002551838500505162
-0.0015992771020673677   -0.009470061561204194   -0.0003043855459530132
-0.0012872444236776237   -0.00951550760134682   -0.000269017205529938
-0.0016093328967000666   -0.008858128456268944   -0.0002353884505471748
-0.001559968888338868   -0.009466884970756756   -0.00026829972760856205
-0.0012718997332806154   -0.009518333353344824   -0.0002451515196238353
-0.0016093328967000666   -0.008858128456268944   -0.0002353884505471748
-0.0020378643449398687   -0.008814400439744696   -0.00023553688359873035
-0.001559968888338868   -0.009466884970756756   -0.00026829972760856205
-0.0019987588137413115   -0.008819124022379074   -0.00020315508001463403
-0.0012718997332806154   -0.009518333353344824   -0.0002451515196238353
-0.0015091048483474284   -0.009473285832316608   -0.00023082631194410044
-0.0019987588137413115   -0.008819124022379074   -0.00020315508001463403
-0.001559968888338868   -0.009466884970756756   -0.00026829972760856205
-0.0012718997332806154   -0.009518333353344824   -0.0002451515196238353
-0.0019987588137413115   -0.008819124022379074   -0.00020315508001463403
-0.001600908475633431   -0.008859640184618657   -0.00021452514846612692
-0.0016093328967000666   -0.008858128456268944   -0.0002353884505471748
-0.0012718997332806154   -0.009518333353344824   -0.0002451515196238353
-0.0019987588137413115   -0.008819124022379074   -0.00020315508001463403
-0.0016093328967000666   -0.008858128456268944   -0.0002353884505471748
-0.001559968888338868   -0.009466884970756756   -0.00026829972760856205
-2.8358707207268467e-05   -0.008888232168605528   -0.00015926099493683145
0.00023855441596775493   -0.007994263916538324   -0.0001209049289033787
-0.00043344375288651067   -0.008909699624150984   -0.00019531508515615055
-9.98255368485517e-07   -0.008870259393835272   -0.00018194081722930822
0.00023855441596775493   -0.007994263916538324   -0.0001209049289033787
-0.00030859721881518063   -0.008009119949031454   -0.00015542555507503894
-0.00043344375288651067   -0.008909699624150984   -0.00019531508515615055
-0.0003067937220921322   -0.007994420883639271   -0.00016255559222919764
-9.98255368485517e-07   -0.008870259393835272   -0.00018194081722930822
-0.0004265168900237645   -0.008894932671268155   -0.00020516863459827238
-0.0003067937220921322   -0.007994420883639271   -0.00016255559222919764
-0.00043344375288651067   -0.008909699624150984   -0.00019531508515615055
-9.98255368485517e-07   -0.008870259393835272   -0.00018194081722930822
-0.0003067937220921322   -0.007994420883639271   -0.00016255559222919764
0.00025593953572843227   -0.007976634283544571   -0.0001383354681114237
0.00023855441596775493   -0.007994263916538324   -0.0001209049289033787
-9.98255368485517e-07   -0.008870259393835272   -0.00018194081722930822
-0.0003067937220921322   -0.007994420883639271   -0.00016255559222919764
0.00023855441596775493   -0.007994263916538324   -0.0001209049289033787
-0.00043344375288651067   -0.008909699624150984   -0.00019531508515615055
-9.98255368485517e-07   -0.008870259393835272   -0.00018194081722930822
0.00025593953572843227   -0.007976634283544571   -0.0001383354681114237
-0.0004265168900237645   -0.008894932671268155   -0.00020516863459827238
1.924013668647947e-05   -0.008860860720653887   -0.0002031953094323284
0.00025593953572843227   -0.007976634283544571   -0.0001383354681114237
-0.0003067937220921322   -0.007994420883639271   -0.00016255559222919764
-0.0004265168900237645   -0.008894932671268155   -0.00020516863459827238
-0.0003044417399756648   -0.007984578271231882   -0.00016872363801133763
1.924013668647947e-05   -0.008860860720653887   -0.0002031953094323284
-0.0004184490225814404   -0.008886135211671992   -0.00021400456207691884
-0.0003044417399756648   -0.007984578271231882   -0.00016872363801133763
-0.0004265168900237645   -0.008894932671268155   -0.00020516863459827238
1.924013668647947e-05   -0.008860860720653887   -0.0002031953094323284
-0.0003044417399756648   -0.007984578271231882   -0.00016872363801133763
0.0002673582431484778   -0.007966045229462117   -0.00015439914793118287
0.00025593953572843227   -0.007976634283544571   -0.0001383354681114237
1.924013668647947e-05   -0.008860860720653887   -0.0002031953094323284
-0.0003044417399756648   -0.007984578271231882   -0.00016872363801133763
0.00025593953572843227   -0.007976634283544571   -0.0001383354681114237
-0.0004265168900237645   -0.008894932671268155   -0.00020516863459827238
1.924013668647947e-05   -0.008860860720653887   -0.0002031953094323284
0.0002673582431484778   -0.007966045229462117   -0.00015439914793118287
-0.0004184490225814404   -0.008886135211671992   -0.00021400456207691884
4.13978747374533e-05   -0.00885771805586922   -0.00022302561206414865
0.0002673582431484778   -0.007966045229462117   -0.00015439914793118287
-0.0003044417399756648   -0.007984578271231882   -0.00016872363801133763
-0.0004184490225814404   -0.008886135211671992   -0.00021400456207691884
-0.0003049086707135612   -0.007979231573340762   -0.0001739986220506486
4.13978747374533e-05   -0.00885771805586922   -0.00022302561206414865
-0.00041360373697502334   -0.008883017352110579   -0.00022192457759037155
-0.0003049086707135612   -0.007979231573340762   -0.0001739986220506486
-0.0004184490225814404   -0.008886135211671992   -0.00021400456207691884
4.13978747374533e-05   -0.00885771805586922   -0.00022302561206414865
-0.0003049086707135612   -0.007979231573340762   -0.0001739986220506486
0.0002795487365460936   -0.007960170066987023   -0.00016913147561292173
0.0002673582431484778   -0.007966045229462117   -0.00015439914793118287
4.13978747374533e-05   -0.00885771805586922   -0.00022302561206414865
-0.0003049086707135612   -0.007979231573340762   -0.0001739986220506486
0.0002673582431484778   -0.007966045229462117   -0.00015439914793118287
-0.0004184490225814404   -0.008886135211671992   -0.00021400456207691884
-0.00043344375288651067   -0.008909699624150984   -0.00019531508515615055
-0.00030859721881518063   -0.008009119949031454   -0.00015542555507503894
-0.0008287921438669505   -0.00891389183397605   -0.00022448673923617575
-0.0004265168900237645   -0.008894932671268155   -0.00020516863459827238
-0.00030859721881518063   -0.008009119949031454   -0.00015542555507503894
-0.0008379546404489303   -0.008009547969331263   -0.00018321516499332637
-0.0008287921438669505   -0.00891389183397605   -0.00022448673923617575
-0.0008378450784218703   -0.007997334047447766   -0.00018252309277008602
-0.0004265168900237645   -0.008894932671268155   -0.00020516863459827238
-0.000823831825609563   -0.008901343326638271   -0.00022458835134227606
-0.0008378450784218703   -0.007997334047447766   -0.00018252309277008602
-0.0008287921438669505   -0.00891389183397605   -0.00022448673923617575
-0.0004265168900237645   -0.008894932671268155   -0.00020516863459827238
-0.0008378450784218703   -0.007997334047447766   -0.00018252309277008602
-0.0003067937220921322   -0.007994420883639271   -0.00016255559222919764
-0.00030859721881518063   -0.008009119949031454   -0.00015542555507503894
-0.0004265168900237645   -0.008894932671268155   -0.00020516863459827238
-0.0008378450784218703   -0.007997334047447766   -0.00018252309277008602
-0.00030859721881518063   -0.008009119949031454   -0.00015542555507503894
-0.0008287921438669505   -0.00891389183397605   -0.00022448673923617575
-0.0004265168900237645   -0.008894932671268155   -0.00020516863459827238
-0.0003067937220921322   -0.007994420883639271   -0.00016255559222919764
-0.000823831825609563   -0.008901343326638271   -0.00022458835134227606
-0.0004184490225814404   -0.008886135211671992   -0.00021400456207691884
-0.0003067937220921322   -0.007994420883639271   -0.00016255559222919764
-0.0008378450784218703   -0.007997334047447766   -0.00018252309277008602
-0.000823831825609563   -0.008901343326638271   -0.00022458835134227606
-0.0008376885392586019   -0.007989389221124422   -0.00018086468911122748
-0.0004184490225814404   -0.008886135211671992   -0.00021400456207691884
-0.0008187073900359651   -0.008894124676774055   -0.0002237076030447846
-0.0008376885392586019   -0.007989389221124422   -0.00018086468911122748
-0.000823831825609563   -0.008901343326638271   -0.00022458835134227606
-0.0004184490225814404   -0.008886135211671992   -0.00021400456207691884
-0.0008376885392586019   -0.007989389221124422   -0.00018086468911122748
-0.0003044417399756648   -0.007984578271231882   -0.00016872363801133763
-0.0003067937220921322   -0.007994420883639271   -0.00016255559222919764
-0.0004184490225814404   -0.008886135211671992   -0.00021400456207691884
-0.0008376885392586019   -0.007989389221124422   -0.00018086468911122748
-0.0003067937220921322   -0.007994420883639271   -0.00016255559222919764
-0.000823831825609563   -0.008901343326638271   -0.00022458835134227606
-0.0004184490225814404   -0.008886135211671992   -0.00021400456207691884
-0.0003044417399756648   -0.007984578271231882   -0.00016872363801133763
-0.0008187073900359651   -0.008894124676774055   -0.0002237076030447846
-0.00041360373697502334   -0.008883017352110579   -0.00022192457759037155
-0.0003044417399756648   -0.007984578271231882   -0.00016872363801133763
-0.0008376885392586019   -0.007989389221124422   -0.00018086468911122748
-0.0008187073900359651   -0.008894124676774055   -0.0002237076030447846
-0.0008382190387850717   -0.007985724440615023   -0.00017830063581549926
-0.00041360373697502334   -0.008883017352110579   -0.00022192457759037155
-0.0008142345092037694   -0.008892169094470484   -0.00022192137539659478
-0.0008382190387850717   -0.007985724440615023   -0.00017830063581549926
-0.0008187073900359651   -0.008894124676774055   -0.0002237076030447846
-0.00041360373697502334   -0.008883017352110579   -0.00022192457759037155
-0.0008382190387850717   -0.007985724440615023   -0.00017830063581549926
-0.0003049086707135612   -0.007979231573340762   -0.0001739986220506486
-0.0003044417399756648   -0.007984578271231882   -0.00016872363801133763
-0.00041360373697502334   -0.008883017352110579   -0.00022192457759037155
-0.0008382190387850717   -0.007985724440615023   -0.00017830063581549926
-0.0003044417399756648   -0.007984578271231882   -0.00016872363801133763
-0.0008187073900359651   -0.008894124676774055   -0.0002237076030447846
-0.0008287921438669505   -0.00891389183397605   -0.00022448673923617575
-0.0008379546404489303   -0.008009547969331263   -0.00018321516499332637
-0.0012186629490859896   -0.008900957203399415   -0.0002507648613019535
-0.000823831825609563   -0.008901343326638271   -0.00022458835134227606
-0.0008379546404489303   -0.008009547969331263   -0.00018321516499332637
-0.001359009112003583   -0.007996097365889444   -0.00020734412229041527
-0.0012186629490859896   -0.008900957203399415   -0.0002507648613019535
-0.0013593155901740898   -0.00798599864837611   -0.00019893336473738845
-0.000823831825609563   -0.008901343326638271   -0.00022458835134227606
-0.0012140582251591024   -0.008890174918598732   -0.00024134029437687053
-0.0013593155901740898   -0.00798599864837611   -0.00019893336473738845
-0.0012186629490859896   -0.008900957203399415   -0.0002507648613019535
-0.000823831825609563   -0.008901343326638271   -0.00022458835134227606
-0.0013593155901740898   -0.00798599864837611   -0.00019893336473738845
-0.0008378450784218703   -0.007997334047447766   -0.00018252309277008602
-0.0008379546404489303   -0.008009547969331263   -0.00018321516499332637
-0.000823831825609563   -0.008901343326638271   -0.00022458835134227606
-0.0013593155901740898   -0.00798599864837611   -0.00019893336473738845
-0.0008379546404489303   -0.008009547969331263   -0.00018321516499332637
-0.0012186629490859896   -0.008900957203399415   -0.0002507648613019535
-0.000823831825609563   -0.008901343326638271   -0.00022458835134227606
-0.0008378450784218703   -0.007997334047447766   -0.00018252309277008602
-0.0012140582251591024   -0.008890174918598732   -0.00024134029437687053
-0.0008187073900359651   -0.008894124676774055   -0.0002237076030447846
-0.0008378450784218703   -0.007997334047447766   -0.00018252309277008602
-0.0013593155901740898   -0.00798599864837611   -0.00019893336473738845
-0.0012140582251591024   -0.008890174918598732   -0.00024134029437687053
-0.0013587527847900487   -0.007980132258546442   -0.00018958059972192228
-0.0008187073900359651   -0.008894124676774055   -0.0002237076030447846
-0.001208480246867161   -0.008884667659791661   -0.0002309610574490992
-0.0013587527847900487   -0.007980132258546442   -0.00018958059972192228
-0.0012140582251591024   -0.008890174918598732   -0.00024134029437687053
-0.0008187073900359651   -0.008894124676774055   -0.0002237076030447846
-0.0013587527847900487   -0.007980132258546442   -0.00018958059972192228
-0.0008376885392586019   -0.007989389221124422   -0.00018086468911122748
-0.0008378450784218703   -0.007997334047447766   -0.00018252309277008602
-0.0008187073900359651   -0.008894124676774055   -0.0002237076030447846
-0.0013587527847900487   -0.007980132258546442   -0.00018958059972192228
-0.0008378450784218703   -0.007997334047447766   -0.00018252309277008602
-0.0012140582251591024   -0.008890174918598732   -0.00024134029437687053
-0.0008187073900359651   -0.008894124676774055   -0.0002237076030447846
-0.0008376885392586019   -0.007989389221124422   -0.00018086468911122748
-0.001208480246867161   -0.008884667659791661   -0.0002309610574490992
-0.0008142345092037694   -0.008892169094470484   -0.00022192137539659478
-0.0008376885392586019   -0.007989389221124422   -0.00018086468911122748
-0.0013587527847900487   -0.007980132258546442   -0.00018958059972192228
-0.001208480246867161   -0.008884667659791661   -0.0002309610574490992
-0.001358371665304998   -0.00797843445387013   -0.00017931057137882304
-0.0008142345092037694   -0.008892169094470484   -0.00022192137539659478
-0.001203103020803508   -0.008884230403596543   -0.00021965499512209379
-0.001358371665304998   -0.00797843445387013   -0.00017931057137882304
-0.001208480246867161   -0.008884667659791661   -0.0002309610574490992
-0.0008142345092037694   -0.008892169094470484   -0.00022192137539659478
-0.001358371665304998   -0.00797843445387013   -0.00017931057137882304
-0.0008382190387850717   -0.007985724440615023   -0.00017830063581549926
-0.0008376885392586019   -0.007989389221124422   -0.00018086468911122748
-0.0008142345092037694   -0.008892169094470484   -0.00022192137539659478
-0.001358371665304998   -0.00797843445387013   -0.00017931057137882304
-0.0008376885392586019   -0.007989389221124422   -0.00018086468911122748
-0.001208480246867161   -0.008884667659791661   -0.0002309610574490992
-0.0012186629490859896   -0.008900957203399415   -0.0002507648613019535
-0.001359009112003583   -0.007996097365889444   -0.00020734412229041527
-0.001626247235013308   -0.008871251992625926   -0.00027418143513850506
-0.0012140582251591024   -0.008890174918598732   -0.00024134029437687053
-0.001359009112003583   -0.007996097365889444   -0.00020734412229041527
-0.001895851802740854   -0.007969193531678988   -0.00022795892781571144
-0.001626247235013308   -0.008871251992625926   -0.00027418143513850506
-0.0018949348699766754   -0.007961061289864573   -0.0002117222031996774
-0.0012140582251591024   -0.008890174918598732   -0.00024134029437687053
-0.001620016668666096   -0.008862085234951456   -0.0002551838500505162
-0.0018949348699766754   -0.007961061289864573   -0.0002117222031996774
-0.001626247235013308   -0.008871251992625926   -0.00027418143513850506
-0.0012140582251591024   -0.008890174918598732   -0.00024134029437687053
-0.0018949348699766754   -0.007961061289864573   -0.0002117222031996774
-0.0013593155901740898   -0.00798599864837611   -0.00019893336473738845
-0.001359009112003583   -0.007996097365889444   -0.00020734412229041527
-0.0012140582251591024   -0.008890174918598732   -0.00024134029437687053
-0.0018949348699766754   -0.007961061289864573   -0.0002117222031996774
-0.001359009112003583   -0.007996097365889444   -0.00020734412229041527
-0.001626247235013308   -0.008871251992625926   -0.00027418143513850506
-0.0012140582251591024   -0.008890174918598732   -0.00024134029437687053
-0.0013593155901740898   -0.00798599864837611   -0.00019893336473738845
-0.001620016668666096   -0.008862085234951456   -0.0002551838500505162
-0.001208480246867161   -0.008884667659791661   -0.0002309610574490992
-0.0013593155901740898   -0.00798599864837611   -0.00019893336473738845
-0.0018949348699766754   -0.007961061289864573   -0.0002117222031996774
-0.001620016668666096   -0.008862085234951456   -0.0002551838500505162
-0.0018900539499401463   -0.007957082548233824   -0.00019468917625675556
-0.001208480246867161   -0.008884667659791661   -0.0002309610574490992
-0.0016093328967000666   -0.008858128456268944   -0.0002353884505471748
-0.0018900539499401463   -0.007957082548233824   -0.00019468917625675556
-0.001620016668666096   -0.008862085234951456   -0.0002551838500505162
-0.001208480246867161   -0.008884667659791661   -0.0002309610574490992
-0.0018900539499401463   -0.007957082548233824   -0.00019468917625675556
-0.0013587527847900487   -0.007980132258546442   -0.00018958059972192228
-0.0013593155901740898   -0.00798599864837611   -0.00019893336473738845
-0.001208480246867161   -0.008884667659791661   -0.0002309610574490992
-0.0018900539499401463   -0.007957082548233824   -0.00019468917625675556
-0.0013593155901740898   -0.00798599864837611   -0.00019893336473738845
-0.001620016668666096   -0.008862085234951456   -0.0002551838500505162
-0.001208480246867161   -0.008884667659791661   -0.0002309610574490992
-0.0013587527847900487   -0.007980132258546442   -0.00018958059972192228
-0.0016093328967000666   -0.008858128456268944   -0.0002353884505471748
-0.001203103020803508   -0.008884230403596543   -0.00021965499512209379
-0.0013587527847900487   -0.007980132258546442   -0.00018958059972192228
-0.0018900539499401463   -0.007957082548233824   -0.00019468917625675556
-0.0016093328967000666   -0.008858128456268944   -0.0002353884505471748
-0.0018868801548435185   -0.007957633810497581   -0.00017665922194091572
-0.001203103020803508   -0.008884230403596543   -0.00021965499512209379
-0.001600908475633431   -0.008859640184618657   -0.00021452514846612692
-0.0018868801548435185   -0.007957633810497581   -0.00017665922194091572
-0.0016093328967000666   -0.008858128456268944   -0.0002353884505471748
-0.001203103020803508   -0.008884230403596543   -0.00021965499512209379
-0.0018868801548435185   -0.007957633810497581   -0.00017665922194091572
-0.001358371665304998   -0.00797843445387013   -0.00017931057137882304
-0.0013587527847900487   -0.007980132258546442   -0.00018958059972192228
-0.001203103020803508   -0.008884230403596543   -0.00021965499512209379
-0.0018868801548435185   -0.007957633810497581   -0.00017665922194091572
-0.0013587527847900487   -0.007980132258546442   -0.00018958059972192228
-0.0016093328967000666   -0.008858128456268944   -0.0002353884505471748
-0.001626247235013308   -0.008871251992625926   -0.00027418143513850506
-0.001895851802740854   -0.007969193531678988   -0.00022795892781571144
-0.0021010828977017075   -0.008827786470582006   -0.0002966511360960817
-0.001620016668666096   -0.008862085234951456   -0.0002551838500505162
-0.001895851802740854   -0.007969193531678988   -0.00022795892781571144
-0.0024956686305941103   -0.007931388780718774   -0.00024690395502536937
-0.0021010828977017075   -0.008827786470582006   -0.0002966511360960817
-0.002471265571341016   -0.00792323176232772   -0.0002218521727843729
-0.001620016668666096   -0.008862085234951456   -0.0002551838500505162
-0.002067020101045788   -0.00881793421508833   -0.000266766679713623
-0.002471265571341016   -0.00792323176232772   -0.0002218521727843729
-0.0021010828977017075   -0.008827786470582006   -0.0002966511360960817
-0.001620016668666096   -0.008862085234951456   -0.0002551838500505162
-0.002471265571341016   -0.00792323176232772   -0.0002218521727843729
-0.0018949348699766754   -0.007961061289864573   -0.0002117222031996774
-0.001895851802740854   -0.007969193531678988   -0.00022795892781571144
-0.001620016668666096   -0.008862085234951456   -0.0002551838500505162
-0.002471265571341016   -0.00792323176232772   -0.0002218521727843729
-0.001895851802740854   -0.007969193531678988   -0.00022795892781571144
-0.0021010828977017075   -0.008827786470582006   -0.0002966511360960817
-0.001620016668666096   -0.008862085234951456   -0.0002551838500505162
-0.0018949348699766754   -0.007961061289864573   -0.0002117222031996774
-0.002067020101045788   -0.00881793421508833   -0.000266766679713623
-0.0016093328967000666   -0.008858128456268944   -0.0002353884505471748
-0.0018949348699766754   -0.007961061289864573   -0.0002117222031996774
-0.002471265571341016   -0.00792323176232772   -0.0002218521727843729
-0.002067020101045788   -0.00881793421508833   -0.000266766679713623
-0.0024506562118711897   -0.007919952828980446   -0.00019543754198823694
-0.0016093328967000666   -0.008858128456268944   -0.0002353884505471748
-0.0020378643449398687   -0.008814400439744696   -0.00023553688359873035
-0.0024506562118711897   -0.007919952828980446   -0.00019543754198823694
-0.002067020101045788   -0.00881793421508833   -0.000266766679713623
-0.0016093328967000666   -0.008858128456268944   -0.0002353884505471748
-0.0024506562118711897   -0.007919952828980446   -0.00019543754198823694
-0.0018900539499401463   -0.007957082548233824   -0.00019468917625675556
-0.0018949348699766754   -0.007961061289864573   -0.0002117222031996774
-0.0016093328967000666   -0.008858128456268944   -0.0002353884505471748
-0.0024506562118711897   -0.007919952828980446   -0.00019543754198823694
-0.0018949348699766754   -0.007961061289864573   -0.0002117222031996774
-0.002067020101045788   -0.00881793421508833   -0.000266766679713623
-0.0016093328967000666   -0.008858128456268944   -0.0002353884505471748
-0.0018900539499401463   -0.007957082548233824   -0.00019468917625675556
-0.0020378643449398687   -0.008814400439744696   -0.00023553688359873035
-0.001600908475633431   -0.008859640184618657   -0.00021452514846612692
-0.0018900539499401463   -0.007957082548233824   -0.00019468917625675556
-0.0024506562118711897   -0.007919952828980446   -0.00019543754198823694
-0.0020378643449398687   -0.008814400439744696   -0.00023553688359873035
-0.0024212727316109944   -0.00792376183156843   -0.00016785840491924357
-0.001600908475633431   -0.008859640184618657   -0.00021452514846612692
-0.0019987588137413115   -0.008819124022379074   -0.00020315508001463403
-0.0024212727316109944   -0.00792376183156843   -0.00016785840491924357
-0.0020378643449398687   -0.008814400439744696   -0.00023553688359873035
-0.001600908475633431   -0.008859640184618657   -0.00021452514846612692
-0.0024212727316109944   -0.00792376183156843   -0.00016785840491924357
-0.0018868801548435185   -0.007957633810497581   -0.00017665922194091572
-0.0018900539499401463   -0.007957082548233824   -0.00019468917625675556
-0.001600908475633431   -0.008859640184618657   -0.00021452514846612692
-0.0024212727316109944   -0.00792376183156843   -0.00016785840491924357
-0.0018900539499401463   -0.007957082548233824   -0.00019468917625675556
-0.0020378643449398687   -0.008814400439744696   -0.00023553688359873035
0.00023855441596775493   -0.007994263916538324   -0.0001209049289033787
0.0004310237391362481   -0.0068983486266300156   -8.095621421766963e-05
-0.00030859721881518063   -0.008009119949031454   -0.00015542555507503894
0.00025593953572843227   -0.007976634283544571   -0.0001383354681114237
0.0004310237391362481   -0.0068983486266300156   -8.095621421766963e-05
-0.0002281959711083218   -0.006906389457142678   -0.00011336937750143847
-0.00030859721881518063   -0.008009119949031454   -0.00015542555507503894
-0.00023062199962184832   -0.006892097186127401   -0.00011754819002929478
0.00025593953572843227   -0.007976634283544571   -0.0001383354681114237
-0.0003067937220921322   -0.007994420883639271   -0.00016255559222919764
-0.00023062199962184832   -0.006892097186127401   -0.00011754819002929478
-0.00030859721881518063   -0.008009119949031454   -0.00015542555507503894
0.00025593953572843227   -0.007976634283544571   -0.0001383354681114237
-0.00023062199962184832   -0.006892097186127401   -0.00011754819002929478
0.0004392656380654345   -0.006881353831125611   -9.302545837196998e-05
0.0004310237391362481   -0.0068983486266300156   -8.095621421766963e-05
0.00025593953572843227   -0.007976634283544571   -0.0001383354681114237
-0.00023062199962184832   -0.006892097186127401   -0.00011754819002929478
0.0004310237391362481   -0.0068983486266300156   -8.095621421766963e-05
-0.00030859721881518063   -0.008009119949031454   -0.00015542555507503894
0.00025593953572843227   -0.007976634283544571   -0.0001383354681114237
0.0004392656380654345   -0.006881353831125611   -9.302545837196998e-05
-0.0003067937220921322   -0.007994420883639271   -0.00016255559222919764
0.0002673582431484778   -0.007966045229462117   -0.00015439914793118287
0.0004392656380654345   -0.006881353831125611   -9.302545837196998e-05
-0.00023062199962184832   -0.006892097186127401   -0.00011754819002929478
-0.0003067937220921322   -0.007994420883639271   -0.00016255559222919764
-0.00023308961348624639   -0.0068815359949177   -0.00012083494706656756
0.0002673582431484778   -0.007966045229462117   -0.00015439914793118287
-0.0003044417399756648   -0.007984578271231882   -0.00016872363801133763
-0.00023308961348624639   -0.0068815359949177   -0.00012083494706656756
-0.0003067937220921322   -0.007994420883639271   -0.00016255559222919764
0.0002673582431484778   -0.007966045229462117   -0.00015439914793118287
-0.00023308961348624639   -0.0068815359949177   -0.00012083494706656756
0.00044276451622480575   -0.006869905847747803   -0.00010377049255337938
0.0004392656380654345   -0.006881353831125611   -9.302545837196998e-05
0.0002673582431484778   -0.007966045229462117   -0.00015439914793118287
-0.00023308961348624639   -0.0068815359949177   -0.00012083494706656756
0.0004392656380654345   -0.006881353831125611   -9.302545837196998e-05
-0.0003067937220921322   -0.007994420883639271   -0.00016255559222919764
0.0002673582431484778   -0.007966045229462117   -0.00015439914793118287
0.00044276451622480575   -0.006869905847747803   -0.00010377049255337938
-0.0003044417399756648   -0.007984578271231882   -0.00016872363801133763
0.0002795487365460936   -0.007960170066987023   -0.00016913147561292173
0.00044276451622480575   -0.006869905847747803   -0.00010377049255337938
-0.00023308961348624639   -0.0068815359949177   -0.00012083494706656756
-0.0003044417399756648   -0.007984578271231882   -0.00016872363801133763
-0.00023790609027704015   -0.006874319168542982   -0.0001232579586298985
0.0002795487365460936   -0.007960170066987023   -0.00016913147561292173
-0.0003049086707135612   -0.007979231573340762   -0.0001739986220506486
-0.00023790609027704015   -0.006874319168542982   -0.0001232579586298985
-0.0003044417399756648   -0.007984578271231882   -0.00016872363801133763
0.0002795487365460936   -0.007960170066987023   -0.00016913147561292173
-0.00023790609027704015   -0.006874319168542982   -0.0001232579586298985
0.0004458515619831826   -0.006861656698892754   -0.00011325816571668409
0.00044276451622480575   -0.006869905847747803   -0.00010377049255337938
0.0002795487365460936   -0.007960170066987023   -0.00016913147561292173
-0.00023790609027704015   -0.006874319168542982   -0.0001232579586298985
0.00044276451622480575   -0.006869905847747803   -0.00010377049255337938
-0.0003044417399756648   -0.007984578271231882   -0.00016872363801133763
-0.00030859721881518063   -0.008009119949031454   -0.00015542555507503894
-0.0002281959711083218   -0.006906389457142678   -0.00011336937750143847
-0.0008379546404489303   -0.008009547969331263   -0.00018321516499332637
-0.0003067937220921322   -0.007994420883639271   -0.00016255559222919764
-0.0002281959711083218   -0.006906389457142678   -0.00011336937750143847
-0.0008620743252943416   -0.006903237908836876   -0.0001392490096604664
-0.0008379546404489303   -0.008009547969331263   -0.00018321516499332637
-0.0008658813507844593   -0.006891604446467138   -0.00013756761233275954
-0.0003067937220921322   -0.007994420883639271   -0.00016255559222919764
-0.0008378450784218703   -0.007997334047447766   -0.00018252309277008602
-0.0008658813507844593   -0.006891604446467138   -0.00013756761233275954
-0.0008379546404489303   -0.008009547969331263   -0.00018321516499332637
-0.0003067937220921322   -0.007994420883639271   -0.00016255559222919764
-0.0008658813507844593   -0.006891604446467138   -0.00013756761233275954
-0.00023062199962184832   -0.006892097186127401   -0.00011754819002929478
-0.0002281959711083218   -0.006906389457142678   -0.00011336937750143847
-0.0003067937220921322   -0.007994420883639271   -0.00016255559222919764
-0.0008658813507844593   -0.006891604446467138   -0.00013756761233275954
-0.0002281959711083218   -0.006906389457142678   -0.00011336937750143847
-0.0008379546404489303   -0.008009547969331263   -0.00018321516499332637
-0.0003067937220921322   -0.007994420883639271   -0.00016255559222919764
-0.00023062199962184832   -0.006892097186127401   -0.00011754819002929478
-0.0008378450784218703   -0.007997334047447766   -0.00018252309277008602
-0.0003044417399756648   -0.007984578271231882   -0.00016872363801133763
-0.00023062199962184832   -0.006892097186127401   -0.00011754819002929478
-0.0008658813507844593   -0.006891604446467138   -0.00013756761233275954
-0.0008378450784218703   -0.007997334047447766   -0.00018252309277008602
-0.0008697448107332367   -0.006883161041598139   -0.00013496008456549254
-0.0003044417399756648   -0.007984578271231882   -0.00016872363801133763
-0.0008376885392586019   -0.007989389221124422   -0.00018086468911122748
-0.0008697448107332367   -0.006883161041598139   -0.00013496008456549254
-0.0008378450784218703   -0.007997334047447766   -0.00018252309277008602
-0.0003044417399756648   -0.007984578271231882   -0.00016872363801133763
-0.0008697448107332367   -0.006883161041598139   -0.00013496008456549254
-0.00023308961348624639   -0.0068815359949177   -0.00012083494706656756
-0.00023062199962184832   -0.006892097186127401   -0.00011754819002929478
-0.0003044417399756648   -0.007984578271231882   -0.00016872363801133763
-0.0008697448107332367   -0.006883161041598139   -0.00013496008456549254
-0.00023062199962184832   -0.006892097186127401   -0.00011754819002929478
-0.0008378450784218703   -0.007997334047447766   -0.00018252309277008602
-0.0003044417399756648   -0.007984578271231882   -0.00016872363801133763
-0.00023308961348624639   -0.0068815359949177   -0.00012083494706656756
-0.0008376885392586019   -0.007989389221124422   -0.00018086468911122748
-0.0003049086707135612   -0.007979231573340762   -0.0001739986220506486
-0.00023308961348624639   -0.0068815359949177   -0.00012083494706656756
-0.0008697448107332367   -0.006883161041598139   -0.00013496008456549254
-0.0008376885392586019   -0.007989389221124422   -0.00018086468911122748
-0.0008742733779469282   -0.006877957828213907   -0.00013148090753677734
-0.0003049086707135612   -0.007979231573340762   -0.0001739986220506486
-0.0008382190387850717   -0.007985724440615023   -0.00017830063581549926
-0.0008742733779469282   -0.006877957828213907   -0.00013148090753677734
-0.0008376885392586019   -0.007989389221124422   -0.00018086468911122748
-0.0003049086707135612   -0.007979231573340762   -0.0001739986220506486
-0.0008742733779469282   -0.006877957828213907   -0.00013148090753677734
-0.00023790609027704015   -0.006874319168542982   -0.0001232579586298985
-0.00023308961348624639   -0.0068815359949177   -0.00012083494706656756
-0.0003049086707135612   -0.007979231573340762   -0.0001739986220506486
-0.0008742733779469282   -0.006877957828213907   -0.00013148090753677734
-0.00023308961348624639   -0.0068815359949177   -0.00012083494706656756
-0.0008376885392586019   -0.007989389221124422   -0.00018086468911122748
-0.0008379546404489303   -0.008009547969331263   -0.00018321516499332637
-0.0008620743252943416   -0.006903237908836876   -0.0001392490096604664
-0.001359009112003583   -0.007996097365889444   -0.00020734412229041527
-0.0008378450784218703   -0.007997334047447766   -0.00018252309277008602
-0.0008620743252943416   -0.006903237908836876   -0.0001392490096604664
-0.0014856851075705825   -0.006889804282645363   -0.0001610176918458368
-0.001359009112003583   -0.007996097365889444   -0.00020734412229041527
-0.001489889585570286   -0.006880522440903205   -0.00015352411115224815
-0.0008378450784218703   -0.007997334047447766   -0.00018252309277008602
-0.0013593155901740898   -0.00798599864837611   -0.00019893336473738845
-0.001489889585570286   -0.006880522440903205   -0.00015352411115224815
-0.001359009112003583   -0.007996097365889444   -0.00020734412229041527
-0.0008378450784218703   -0.007997334047447766   -0.00018252309277008602
-0.001489889585570286   -0.006880522440903205   -0.00015352411115224815
-0.0008658813507844593   -0.006891604446467138   -0.00013756761233275954
-0.0008620743252943416   -0.006903237908836876   -0.0001392490096604664
-0.0008378450784218703   -0.007997334047447766   -0.00018252309277008602
-0.001489889585570286   -0.006880522440903205   -0.00015352411115224815
-0.0008620743252943416   -0.006903237908836876   -0.0001392490096604664
-0.001359009112003583   -0.007996097365889444   -0.00020734412229041527
-0.0008378450784218703   -0.007997334047447766   -0.00018252309277008602
-0.0008658813507844593   -0.006891604446467138   -0.00013756761233275954
-0.0013593155901740898   -0.00798599864837611   -0.00019893336473738845
-0.0008376885392586019   -0.007989389221124422   -0.00018086468911122748
-0.0008658813507844593   -0.006891604446467138   -0.00013756761233275954
-0.001489889585570286   -0.006880522440903205   -0.00015352411115224815
-0.0013593155901740898   -0.00798599864837611   -0.00019893336473738845
-0.0014933047837364741   -0.00687440164364502   -0.00014512546985033213
-0.0008376885392586019   -0.007989389221124422   -0.00018086468911122748
-0.0013587527847900487   -0.007980132258546442   -0.00018958059972192228
-0.0014933047837364741   -0.00687440164364502   -0.00014512546985033213
-0.0013593155901740898   -0.00798599864837611   -0.00019893336473738845
-0.0008376885392586019   -0.007989389221124422   -0.00018086468911122748
-0.0014933047837364741   -0.00687440164364502   -0.00014512546985033213
-0.0008697448107332367   -0.006883161041598139   -0.00013496008456549254
-0.0008658813507844593   -0.006891604446467138   -0.00013756761233275954
-0.0008376885392586019   -0.007989389221124422   -0.00018086468911122748
-0.0014933047837364741   -0.00687440164364502   -0.00014512546985033213
-0.0008658813507844593   -0.006891604446467138   -0.00013756761233275954
-0.0013593155901740898   -0.00798599864837611   -0.00019893336473738845
-0.0008376885392586019   -0.007989389221124422   -0.00018086468911122748
-0.0008697448107332367   -0.006883161041598139   -0.00013496008456549254
-0.0013587527847900487   -0.007980132258546442   -0.00018958059972192228
-0.0008382190387850717   -0.007985724440615023   -0.00017830063581549926
-0.0008697448107332367   -0.006883161041598139   -0.00013496008456549254
-0.0014933047837364741   -0.00687440164364502   -0.00014512546985033213
-0.0013587527847900487   -0.007980132258546442   -0.00018958059972192228
-0.0014968416356182944   -0.0068714251936103825   -0.00013584529272896487
-0.0008382190387850717   -0.007985724440615023   -0.00017830063581549926
-0.001358371665304998   -0.00797843445387013   -0.00017931057137882304
-0.0014968416356182944   -0.0068714251936103825   -0.00013584529272896487
-0.0013587527847900487   -0.007980132258546442   -0.00018958059972192228
-0.0008382190387850717   -0.007985724440615023   -0.00017830063581549926
-0.0014968416356182944   -0.0068714251936103825   -0.00013584529272896487
-0.0008742733779469282   -0.006877957828213907   -0.00013148090753677734
-0.0008697448107332367   -0.006883161041598139   -0.00013496008456549254
-0.0008382190387850717   -0.007985724440615023   -0.00017830063581549926
-0.0014968416356182944   -0.0068714251936103825   -0.00013584529272896487
-0.0008697448107332367   -0.006883161041598139   -0.00013496008456549254
-0.0013587527847900487   -0.007980132258546442   -0.00018958059972192228
-0.001359009112003583   -0.007996097365889444   -0.00020734412229041527
-0.0014856851075705825   -0.006889804282645363   -0.0001610176918458368
-0.001895851802740854   -0.007969193531678988   -0.00022795892781571144
-0.0013593155901740898   -0.00798599864837611   -0.00019893336473738845
-0.0014856851075705825   -0.006889804282645363   -0.0001610176918458368
-0.002124074717372954   -0.006866318360733349   -0.00017884134095410366
-0.001895851802740854   -0.007969193531678988   -0.00022795892781571144
-0.002127379473108988   -0.006859288736677562   -0.00016544699831157905
-0.0013593155901740898   -0.00798599864837611   -0.00019893336473738845
-0.0018949348699766754   -0.007961061289864573   -0.0002117222031996774
-0.002127379473108988   -0.006859288736677562   -0.00016544699831157905
-0.001895851802740854   -0.007969193531678988   -0.00022795892781571144
-0.0013593155901740898   -0.00798599864837611   -0.00019893336473738845
-0.002127379473108988   -0.006859288736677562   -0.00016544699831157905
-0.001489889585570286   -0.006880522440903205   -0.00015352411115224815
-0.0014856851075705825   -0.006889804282645363   -0.0001610176918458368
-0.0013593155901740898   -0.00798599864837611   -0.00019893336473738845
-0.002127379473108988   -0.006859288736677562   -0.00016544699831157905
-0.0014856851075705825   -0.006889804282645363   -0.0001610176918458368
-0.001895851802740854   -0.007969193531678988   -0.00022795892781571144
-0.0013593155901740898   -0.00798599864837611   -0.00019893336473738845
-0.001489889585570286   -0.006880522440903205   -0.00015352411115224815
-0.0018949348699766754   -0.007961061289864573   -0.0002117222031996774
-0.0013587527847900487   -0.007980132258546442   -0.00018958059972192228
-0.001489889585570286   -0.006880522440903205   -0.00015352411115224815
-0.002127379473108988   -0.006859288736677562   -0.00016544699831157905
-0.0018949348699766754   -0.007961061289864573   -0.0002117222031996774
-0.00212721251443361   -0.0068552997819702165   -0.00015127122338658535
-0.0013587527847900487   -0.007980132258546442   -0.00018958059972192228
-0.0018900539499401463   -0.007957082548233824   -0.00019468917625675556
-0.00212721251443361   -0.0068552997819702165   -0.00015127122338658535
-0.0018949348699766754   -0.007961061289864573   -0.0002117222031996774
-0.0013587527847900487   -0.007980132258546442   -0.00018958059972192228
-0.00212721251443361   -0.0068552997819702165   -0.00015127122338658535
-0.0014933047837364741   -0.00687440164364502   -0.00014512546985033213
-0.001489889585570286   -0.006880522440903205   -0.00015352411115224815
-0.0013587527847900487   -0.007980132258546442   -0.00018958059972192228
-0.00212721251443361   -0.0068552997819702165   -0.00015127122338658535
-0.001489889585570286   -0.006880522440903205   -0.00015352411115224815
-0.0018949348699766754   -0.007961061289864573   -0.0002117222031996774
-0.0013587527847900487   -0.007980132258546442   -0.00018958059972192228
-0.0014933047837364741   -0.00687440164364502   -0.00014512546985033213
-0.0018900539499401463   -0.007957082548233824   -0.00019468917625675556
-0.001358371665304998   -0.00797843445387013   -0.00017931057137882304
-0.0014933047837364741   -0.00687440164364502   -0.00014512546985033213
-0.00212721251443361   -0.0068552997819702165   -0.00015127122338658535
-0.0018900539499401463   -0.007957082548233824   -0.00019468917625675556
-0.002128170438649889   -0.006854753671420348   -0.0001361434866224294
-0.001358371665304998   -0.00797843445387013   -0.00017931057137882304
-0.0018868801548435185   -0.007957633810497581   -0.00017665922194091572
-0.002128170438649889   -0.006854753671420348   -0.0001361434866224294
-0.0018900539499401463   -0.007957082548233824   -0.00019468917625675556
-0.001358371665304998   -0.00797843445387013   -0.00017931057137882304
-0.002128170438649889   -0.006854753671420348   -0.0001361434866224294
-0.0014968416356182944   -0.0068714251936103825   -0.00013584529272896487
-0.0014933047837364741   -0.00687440164364502   -0.00014512546985033213
-0.001358371665304998   -0.00797843445387013   -0.00017931057137882304
-0.002128170438649889   -0.006854753671420348   -0.0001361434866224294
-0.0014933047837364741   -0.00687440164364502   -0.00014512546985033213
-0.0018900539499401463   -0.007957082548233824   -0.00019468917625675556
-0.001895851802740854   -0.007969193531678988   -0.00022795892781571144
-0.002124074717372954   -0.006866318360733349   -0.00017884134095410366
-0.0024956686305941103   -0.007931388780718774   -0.00024690395502536937
-0.0018949348699766754   -0.007961061289864573   -0.0002117222031996774
-0.002124074717372954   -0.006866318360733349   -0.00017884134095410366
-0.0028212290913676922   -0.0068348121370182995   -0.00019410571828468208
-0.0024956686305941103   -0.007931388780718774   -0.00024690395502536937
-0.0028058064155679165   -0.0068283827861026   -0.00017425355962343827
-0.0018949348699766754   -0.007961061289864573   -0.0002117222031996774
-0.002471265571341016   -0.00792323176232772   -0.0002218521727843729
-0.0028058064155679165   -0.0068283827861026   -0.00017425355962343827
-0.0024956686305941103   -0.007931388780718774   -0.00024690395502536937
-0.0018949348699766754   -0.007961061289864573   -0.0002117222031996774
-0.0028058064155679165   -0.0068283827861026   -0.00017425355962343827
-0.002127379473108988   -0.006859288736677562   -0.00016544699831157905
-0.002124074717372954   -0.006866318360733349   -0.00017884134095410366
-0.0018949348699766754   -0.007961061289864573   -0.0002117222031996774
-0.0028058064155679165   -0.0068283827861026   -0.00017425355962343827
-0.002124074717372954   -0.006866318360733349   -0.00017884134095410366
-0.0024956686305941103   -0.007931388780718774   -0.00024690395502536937
-0.0018949348699766754   -0.007961061289864573   -0.0002117222031996774
-0.002127379473108988   -0.006859288736677562   -0.00016544699831157905
-0.002471265571341016   -0.00792323176232772   -0.0002218521727843729
-0.0018900539499401463   -0.007957082548233824   -0.00019468917625675556
-0.002127379473108988   -0.006859288736677562   -0.00016544699831157905
-0.0028058064155679165   -0.0068283827861026   -0.00017425355962343827
-0.002471265571341016   -0.00792323176232772   -0.0002218521727843729
-0.002792930170195148   -0.006825308255833468   -0.00015302265490369331
-0.0018900539499401463   -0.007957082548233824   -0.00019468917625675556
-0.0024506562118711897   -0.007919952828980446   -0.00019543754198823694
-0.002792930170195148   -0.006825308255833468   -0.00015302265490369331
-0.002471265571341016   -0.00792323176232772   -0.0002218521727843729
-0.0018900539499401463   -0.007957082548233824   -0.00019468917625675556
-0.002792930170195148   -0.006825308255833468   -0.00015302265490369331
-0.00212721251443361   -0.0068552997819702165   -0.00015127122338658535
-0.002127379473108988   -0.006859288736677562   -0.00016544699831157905
-0.0018900539499401463   -0.007957082548233824   -0.00019468917625675556
-0.002792930170195148   -0.006825308255833468   -0.00015302265490369331
-0.002127379473108988   -0.006859288736677562   -0.00016544699831157905
-0.002471265571341016   -0.00792323176232772   -0.0002218521727843729
-0.0018900539499401463   -0.007957082548233824   -0.00019468917625675556
-0.00212721251443361   -0.0068552997819702165   -0.00015127122338658535
-0.0024506562118711897   -0.007919952828980446   -0.00019543754198823694
-0.0018868801548435185   -0.007957633810497581   -0.00017665922194091572
-0.00212721251443361   -0.0068552997819702165   -0.00015127122338658535
-0.002792930170195148   -0.006825308255833468   -0.00015302265490369331
-0.0024506562118711897   -0.007919952828980446   -0.00019543754198823694
-0.0027724280155350155   -0.006827971596549872   -0.0001305892681586097
-0.0018868801548435185   -0.007957633810497581   -0.00017665922194091572
-0.0024212727316109944   -0.00792376183156843   -0.00016785840491924357
-0.0027724280155350155   -0.006827971596549872   -0.0001305892681586097
-0.0024506562118711897   -0.007919952828980446   -0.00019543754198823694
-0.0018868801548435185   -0.007957633810497581   -0.00017665922194091572
-0.0027724280155350155   -0.006827971596549872   -0.0001305892681586097
-0.002128170438649889   -0.006854753671420348   -0.0001361434866224294
-0.00212721251443361   -0.0068552997819702165   -0.00015127122338658535
-0.0018868801548435185   -0.007957633810497581   -0.00017665922194091572
-0.0027724280155350155   -0.006827971596549872   -0.0001305892681586097
-0.00212721251443361   -0.0068552997819702165   -0.00015127122338658535
-0.0024506562118711897   -0.007919952828980446   -0.00019543754198823694
0.0004310237391362481   -0.0068983486266300156   -8.095621421766963e-05
0.0005471244695432589   -0.005649650102280713   -4.2488594070896016e-05
-0.0002281959711083218   -0.006906389457142678   -0.00011336937750143847
0.0004392656380654345   -0.006881353831125611   -9.302545837196998e-05
0.0005471244695432589   -0.005649650102280713   -4.2488594070896016e-05
-0.00019425987137523977   -0.005650701990045433   -7.227439346451435e-05
-0.0002281959711083218   -0.006906389457142678   -0.00011336937750143847
-0.0001999970918649873   -0.0056369940343564745   -7.334631582716432e-05
0.0004392656380654345   -0.006881353831125611   -9.302545837196998e-05
-0.00023062199962184832   -0.006892097186127401   -0.00011754819002929478
-0.0001999970918649873   -0.0056369940343564745   -7.334631582716432e-05
-0.0002281959711083218   -0.006906389457142678   -0.00011336937750143847
0.0004392656380654345   -0.006881353831125611   -9.302545837196998e-05
-0.0001999970918649873   -0.0056369940343564745   -7.334631582716432e-05
0.0005470760566210594   -0.00563346712903482   -4.904904935978544e-05
0.0005471244695432589   -0.005649650102280713   -4.2488594070896016e-05
0.0004392656380654345   -0.006881353831125611   -9.302545837196998e-05
-0.0001999970918649873   -0.0056369940343564745   -7.334631582716432e-05
0.0005471244695432589   -0.005649650102280713   -4.2488594070896016e-05
-0.0002281959711083218   -0.006906389457142678   -0.00011336937750143847
0.0004392656380654345   -0.006881353831125611   -9.302545837196998e-05
0.0005470760566210594   -0.00563346712903482   -4.904904935978544e-05
-0.00023062199962184832   -0.006892097186127401   -0.00011754819002929478
0.00044276451622480575   -0.006869905847747803   -0.00010377049255337938
0.0005470760566210594   -0.00563346712903482   -4.904904935978544e-05
-0.0001999970918649873   -0.0056369940343564745   -7.334631582716432e-05
-0.00023062199962184832   -0.006892097186127401   -0.00011754819002929478
-0.00020638881647653347   -0.005625828236125902   -7.359430943048952e-05
0.00044276451622480575   -0.006869905847747803   -0.00010377049255337938
-0.00023308961348624639   -0.0068815359949177   -0.00012083494706656756
-0.00020638881647653347   -0.005625828236125902   -7.359430943048952e-05
-0.00023062199962184832   -0.006892097186127401   -0.00011754819002929478
0.00044276451622480575   -0.006869905847747803   -0.00010377049255337938
-0.00020638881647653347   -0.005625828236125902   -7.359430943048952e-05
0.0005434805188569443   -0.005621296065097639   -5.4288655884043724e-05
0.0005470760566210594   -0.00563346712903482   -4.904904935978544e-05
0.00044276451622480575   -0.006869905847747803   -0.00010377049255337938
-0.00020638881647653347   -0.005625828236125902   -7.359430943048952e-05
0.0005470760566210594   -0.00563346712903482   -4.904904935978544e-05
-0.00023062199962184832   -0.006892097186127401   -0.00011754819002929478
0.00044276451622480575   -0.006869905847747803   -0.00010377049255337938
0.0005434805188569443   -0.005621296065097639   -5.4288655884043724e-05
-0.00023308961348624639   -0.0068815359949177   -0.00012083494706656756
0.0004458515619831826   -0.006861656698892754   -0.00011325816571668409
0.0005434805188569443   -0.005621296065097639   -5.4288655884043724e-05
-0.00020638881647653347   -0.005625828236125902   -7.359430943048952e-05
-0.00023308961348624639   -0.0068815359949177   -0.00012083494706656756
-0.00021463916529586722   -0.0056168640609317155   -7.29858877426169e-05
0.0004458515619831826   -0.006861656698892754   -0.00011325816571668409
-0.00023790609027704015   -0.006874319168542982   -0.0001232579586298985
-0.00021463916529586722   -0.0056168640609317155   -7.29858877426169e-05
-0.00023308961348624639   -0.0068815359949177   -0.00012083494706656756
0.0004458515619831826   -0.006861656698892754   -0.00011325816571668409
-0.00021463916529586722   -0.0056168640609317155   -7.29858877426169e-05
0.0005381522457349259   -0.005610774427714948   -5.8299989845700474e-05
0.0005434805188569443   -0.005621296065097639   -5.4288655884043724e-05
0.0004458515619831826   -0.006861656698892754   -0.00011325816571668409
-0.00021463916529586722   -0.0056168640609317155   -7.29858877426169e-05
0.0005434805188569443   -0.005621296065097639   -5.4288655884043724e-05
-0.00023308961348624639   -0.0068815359949177   -0.00012083494706656756
-0.0002281959711083218   -0.006906389457142678   -0.00011336937750143847
-0.00019425987137523977   -0.005650701990045433   -7.227439346451435e-05
-0.0008620743252943416   -0.006903237908836876   -0.0001392490096604664
-0.00023062199962184832   -0.006892097186127401   -0.00011754819002929478
-0.00019425987137523977   -0.005650701990045433   -7.227439346451435e-05
-0.0009023908677521128   -0.0056442591186326415   -9.59333873941985e-05
-0.0008620743252943416   -0.006903237908836876   -0.0001392490096604664
-0.0009091423396935235   -0.0056332656147491   -9.313433087056302e-05
-0.00023062199962184832   -0.006892097186127401   -0.00011754819002929478
-0.0008658813507844593   -0.006891604446467138   -0.00013756761233275954
-0.0009091423396935235   -0.0056332656147491   -9.313433087056302e-05
-0.0008620743252943416   -0.006903237908836876   -0.0001392490096604664
-0.00023062199962184832   -0.006892097186127401   -0.00011754819002929478
-0.0009091423396935235   -0.0056332656147491   -9.313433087056302e-05
-0.0001999970918649873   -0.0056369940343564745   -7.334631582716432e-05
-0.00019425987137523977   -0.005650701990045433   -7.227439346451435e-05
-0.00023062199962184832   -0.006892097186127401   -0.00011754819002929478
-0.0009091423396935235   -0.0056332656147491   -9.313433087056302e-05
-0.00019425987137523977   -0.005650701990045433   -7.227439346451435e-05
-0.0008620743252943416   -0.006903237908836876   -0.0001392490096604664
-0.00023062199962184832   -0.006892097186127401   -0.00011754819002929478
-0.0001999970918649873   -0.0056369940343564745   -7.334631582716432e-05
-0.0008658813507844593   -0.006891604446467138   -0.00013756761233275954
-0.00023308961348624639   -0.0068815359949177   -0.00012083494706656756
-0.0001999970918649873   -0.0056369940343564745   -7.334631582716432e-05
-0.0009091423396935235   -0.0056332656147491   -9.313433087056302e-05
-0.0008658813507844593   -0.006891604446467138   -0.00013756761233275954
-0.0009160511971171478   -0.005624339311524385   -8.946868342009312e-05
-0.00023308961348624639   -0.0068815359949177   -0.00012083494706656756
-0.0008697448107332367   -0.006883161041598139   -0.00013496008456549254
-0.0009160511971171478   -0.005624339311524385   -8.946868342009312e-05
-0.0008658813507844593   -0.006891604446467138   -0.00013756761233275954
-0.00023308961348624639   -0.0068815359949177   -0.00012083494706656756
-0.0009160511971171478   -0.005624339311524385   -8.946868342009312e-05
-0.00020638881647653347   -0.005625828236125902   -7.359430943048952e-05
-0.0001999970918649873   -0.0056369940343564745   -7.334631582716432e-05
-0.00023308961348624639   -0.0068815359949177   -0.00012083494706656756
-0.0009160511971171478   -0.005624339311524385   -8.946868342009312e-05
-0.0001999970918649873   -0.0056369940343564745   -7.334631582716432e-05
-0.0008658813507844593   -0.006891604446467138   -0.00013756761233275954
-0.00023308961348624639   -0.0068815359949177   -0.00012083494706656756
-0.00020638881647653347   -0.005625828236125902   -7.359430943048952e-05
-0.0008697448107332367   -0.006883161041598139   -0.00013496008456549254
-0.00023790609027704015   -0.006874319168542982   -0.0001232579586298985
-0.00020638881647653347   -0.005625828236125902   -7.359430943048952e-05
-0.0009160511971171478   -0.005624339311524385   -8.946868342009312e-05
-0.0008697448107332367   -0.006883161041598139   -0.00013496008456549254
-0.0009235968240237302   -0.005617589095309301   -8.498663376198942e-05
-0.00023790609027704015   -0.006874319168542982   -0.0001232579586298985
-0.0008742733779469282   -0.006877957828213907   -0.00013148090753677734
-0.0009235968240237302   -0.005617589095309301   -8.498663376198942e-05
-0.0008697448107332367   -0.006883161041598139   -0.00013496008456549254
-0.00023790609027704015   -0.006874319168542982   -0.0001232579586298985
-0.0009235968240237302   -0.005617589095309301   -8.498663376198942e-05
-0.00021463916529586722   -0.0056168640609317155   -7.29858877426169e-05
-0.00020638881647653347   -0.005625828236125902   -7.359430943048952e-05
-0.00023790609027704015   -0.006874319168542982   -0.0001232579586298985
-0.0009235968240237302   -0.005617589095309301   -8.498663376198942e-05
-0.00020638881647653347   -0.005625828236125902   -7.359430943048952e-05
-0.0008697448107332367   -0.006883161041598139   -0.00013496008456549254
-0.0008620743252943416   -0.006903237908836876   -0.0001392490096604664
-0.0009023908677521128   -0.0056442591186326415   -9.59333873941985e-05
-0.0014856851075705825   -0.006889804282645363   -0.0001610176918458368
-0.0008658813507844593   -0.006891604446467138   -0.00013756761233275954
-0.0009023908677521128   -0.0056442591186326415   -9.59333873941985e-05
-0.001598597593365611   -0.0056314014476250345   -0.00011537773985282697
-0.0014856851075705825   -0.006889804282645363   -0.0001610176918458368
-0.0016056590553677325   -0.005622848172382872   -0.00010874324530438015
-0.0008658813507844593   -0.006891604446467138   -0.00013756761233275954
-0.001489889585570286   -0.006880522440903205   -0.00015352411115224815
-0.0016056590553677325   -0.005622848172382872   -0.00010874324530438015
-0.0014856851075705825   -0.006889804282645363   -0.0001610176918458368
-0.0008658813507844593   -0.006891604446467138   -0.00013756761233275954
-0.0016056590553677325   -0.005622848172382872   -0.00010874324530438015
-0.0009091423396935235   -0.0056332656147491   -9.313433087056302e-05
-0.0009023908677521128   -0.0056442591186326415   -9.59333873941985e-05
-0.0008658813507844593   -0.006891604446467138   -0.00013756761233275954
-0.0016056590553677325   -0.005622848172382872   -0.00010874324530438015
-0.0009023908677521128   -0.0056442591186326415   -9.59333873941985e-05
-0.0014856851075705825   -0.006889804282645363   -0.0001610176918458368
-0.0008658813507844593   -0.006891604446467138   -0.00013756761233275954
-0.0009091423396935235   -0.0056332656147491   -9.313433087056302e-05
-0.001489889585570286   -0.006880522440903205   -0.00015352411115224815
-0.0008697448107332367   -0.006883161041598139   -0.00013496008456549254
-0.0009091423396935235   -0.0056332656147491   -9.313433087056302e-05
-0.0016056590553677325   -0.005622848172382872   -0.00010874324530438015
-0.001489889585570286   -0.006880522440903205   -0.00015352411115224815
-0.0016120126117335678   -0.005616347767122506   -0.0001012654129903224
-0.0008697448107332367   -0.006883161041598139   -0.00013496008456549254
-0.0014933047837364741   -0.00687440164364502   -0.00014512546985033213
-0.0016120126117335678   -0.005616347767122506   -0.0001012654129903224
-0.001489889585570286   -0.006880522440903205   -0.00015352411115224815
-0.0008697448107332367   -0.006883161041598139   -0.00013496008456549254
-0.0016120126117335678   -0.005616347767122506   -0.0001012654129903224
-0.0009160511971171478   -0.005624339311524385   -8.946868342009312e-05
-0.0009091423396935235   -0.0056332656147491   -9.313433087056302e-05
-0.0008697448107332367   -0.006883161041598139   -0.00013496008456549254
-0.0016120126117335678   -0.005616347767122506   -0.0001012654129903224
-0.0009091423396935235   -0.0056332656147491   -9.313433087056302e-05
-0.001489889585570286   -0.006880522440903205   -0.00015352411115224815
-0.0008697448107332367   -0.006883161041598139   -0.00013496008456549254
-0.0009160511971171478   -0.005624339311524385   -8.946868342009312e-05
-0.0014933047837364741   -0.00687440164364502   -0.00014512546985033213
-0.0008742733779469282   -0.006877957828213907   -0.00013148090753677734
-0.0009160511971171478   -0.005624339311524385   -8.946868342009312e-05
-0.0016120126117335678   -0.005616347767122506   -0.0001012654129903224
-0.0014933047837364741   -0.00687440164364502   -0.00014512546985033213
-0.001618433546744997   -0.005611904143480375   -9.297275717343055e-05
-0.0008742733779469282   -0.006877957828213907   -0.00013148090753677734
-0.0014968416356182944   -0.0068714251936103825   -0.00013584529272896487
-0.001618433546744997   -0.005611904143480375   -9.297275717343055e-05
-0.0014933047837364741   -0.00687440164364502   -0.00014512546985033213
-0.0008742733779469282   -0.006877957828213907   -0.00013148090753677734
-0.001618433546744997   -0.005611904143480375   -9.297275717343055e-05
-0.0009235968240237302   -0.005617589095309301   -8.498663376198942e-05
-0.0009160511971171478   -0.005624339311524385   -8.946868342009312e-05
-0.0008742733779469282   -0.006877957828213907   -0.00013148090753677734
-0.001618433546744997   -0.005611904143480375   -9.297275717343055e-05
-0.0009160511971171478   -0.005624339311524385   -8.946868342009312e-05
-0.0014933047837364741   -0.00687440164364502   -0.00014512546985033213
-0.0014856851075705825   -0.006889804282645363   -0.0001610176918458368
-0.001598597593365611   -0.0056314014476250345   -0.00011537773985282697
-0.002124074717372954   -0.006866318360733349   -0.00017884134095410366
-0.001489889585570286   -0.006880522440903205   -0.00015352411115224815
-0.001598597593365611   -0.0056314014476250345   -0.00011537773985282697
-0.002308824798508274   -0.005611872456568475   -0.00013071144231397534
-0.002124074717372954   -0.006866318360733349   -0.00017884134095410366
-0.002315278712352501   -0.005605751586233494   -0.00012020701457165944
-0.001489889585570286   -0.006880522440903205   -0.00015352411115224815
-0.002127379473108988   -0.006859288736677562   -0.00016544699831157905
-0.002315278712352501   -0.005605751586233494   -0.00012020701457165944
-0.002124074717372954   -0.006866318360733349   -0.00017884134095410366
-0.001489889585570286   -0.006880522440903205   -0.00015352411115224815
-0.002315278712352501   -0.005605751586233494   -0.00012020701457165944
-0.0016056590553677325   -0.005622848172382872   -0.00010874324530438015
-0.001598597593365611   -0.0056314014476250345   -0.00011537773985282697
-0.001489889585570286   -0.006880522440903205   -0.00015352411115224815
-0.002315278712352501   -0.005605751586233494   -0.00012020701457165944
-0.001598597593365611   -0.0056314014476250345   -0.00011537773985282697
-0.002124074717372954   -0.006866318360733349   -0.00017884134095410366
-0.001489889585570286   -0.006880522440903205   -0.00015352411115224815
-0.0016056590553677325   -0.005622848172382872   -0.00010874324530438015
-0.002127379473108988   -0.006859288736677562   -0.00016544699831157905
-0.0014933047837364741   -0.00687440164364502   -0.00014512546985033213
-0.0016056590553677325   -0.005622848172382872   -0.00010874324530438015
-0.002315278712352501   -0.005605751586233494   -0.00012020701457165944
-0.002127379473108988   -0.006859288736677562   -0.00016544699831157905
-0.002318799162780785   -0.005601503332420453   -0.00010896490322162767
-0.0014933047837364741   -0.00687440164364502   -0.00014512546985033213
-0.00212721251443361   -0.0068552997819702165   -0.00015127122338658535
-0.002318799162780785   -0.005601503332420453   -0.00010896490322162767
-0.002127379473108988   -0.006859288736677562   -0.00016544699831157905
-0.0014933047837364741   -0.00687440164364502   -0.00014512546985033213
-0.002318799162780785   -0.005601503332420453   -0.00010896490322162767
-0.0016120126117335678   -0.005616347767122506   -0.0001012654129903224
-0.0016056590553677325   -0.005622848172382872   -0.00010874324530438015
-0.0014933047837364741   -0.00687440164364502   -0.00014512546985033213
-0.002318799162780785   -0.005601503332420453   -0.00010896490322162767
-0.0016056590553677325   -0.005622848172382872   -0.00010874324530438015
-0.002127379473108988   -0.006859288736677562   -0.00016544699831157905
-0.0014933047837364741   -0.00687440164364502   -0.00014512546985033213
-0.0016120126117335678   -0.005616347767122506   -0.0001012654129903224
-0.00212721251443361   -0.0068552997819702165   -0.00015127122338658535
-0.0014968416356182944   -0.0068714251936103825   -0.00013584529272896487
-0.0016120126117335678   -0.005616347767122506   -0.0001012654129903224
-0.002318799162780785   -0.005601503332420453   -0.00010896490322162767
-0.00212721251443361   -0.0068552997819702165   -0.00015127122338658535
-0.0023228682432684306   -0.0055995095041420535   -9.683649650552657e-05
-0.0014968416356182944   -0.0068714251936103825   -0.00013584529272896487
-0.002128170438649889   -0.006854753671420348   -0.0001361434866224294
-0.0023228682432684306   -0.0055995095041420535   -9.683649650552657e-05
-0.00212721251443361   -0.0068552997819702165   -0.00015127122338658535
-0.0014968416356182944   -0.0068714251936103825   -0.00013584529272896487
-0.0023228682432684306   -0.0055995095041420535   -9.683649650552657e-05
-0.001618433546744997   -0.005611904143480375   -9.297275717343055e-05
-0.0016120126117335678   -0.005616347767122506   -0.0001012654129903224
-0.0014968416356182944   -0.0068714251936103825   -0.00013584529272896487
-0.0023228682432684306   -0.0055995095041420535   -9.683649650552657e-05
-0.0016120126117335678   -0.005616347767122506   -0.0001012654129903224
-0.00212721251443361   -0.0068552997819702165   -0.00015127122338658535
-0.002124074717372954   -0.006866318360733349   -0.00017884134095410366
-0.002308824798508274   -0.005611872456568475   -0.00013071144231397534
-0.0028212290913676922   -0.0068348121370182995   -0.00019410571828468208
-0.002127379473108988   -0.006859288736677562   -0.00016544699831157905
-0.002308824798508274   -0.005611872456568475   -0.00013071144231397534
-0.003072935114717625   -0.005587177921373407   -0.00014255075089467592
-0.0028212290913676922   -0.0068348121370182995   -0.00019410571828468208
-0.0030656797587128447   -0.005582236682453111   -0.00012814619596417597
-0.002127379473108988   -0.006859288736677562   -0.00016544699831157905
-0.0028058064155679165   -0.0068283827861026   -0.00017425355962343827
-0.0030656797587128447   -0.005582236682453111   -0.00012814619596417597
-0.0028212290913676922   -0.0068348121370182995   -0.00019410571828468208
-0.002127379473108988   -0.006859288736677562   -0.00016544699831157905
-0.0030656797587128447   -0.005582236682453111   -0.00012814619596417597
-0.002315278712352501   -0.005605751586233494   -0.00012020701457165944
-0.002308824798508274   -0.005611872456568475   -0.00013071144231397534
-0.002127379473108988   -0.006859288736677562   -0.00016544699831157905
-0.0030656797587128447   -0.005582236682453111   -0.00012814619596417597
-0.002308824798508274   -0.005611872456568475   -0.00013071144231397534
-0.0028212290913676922   -0.0068348121370182995   -0.00019410571828468208
-0.002127379473108988   -0.006859288736677562   -0.00016544699831157905
-0.002315278712352501   -0.005605751586233494   -0.00012020701457165944
-0.0028058064155679165   -0.0068283827861026   -0.00017425355962343827
-0.00212721251443361   -0.0068552997819702165   -0.00015127122338658535
-0.002315278712352501   -0.005605751586233494   -0.00012020701457165944
-0.0030656797587128447   -0.005582236682453111   -0.00012814619596417597
-0.0028058064155679165   -0.0068283827861026   -0.00017425355962343827
-0.003059739364043425   -0.0055790572696695784   -0.0001123866267167496
-0.00212721251443361   -0.0068552997819702165   -0.00015127122338658535
-0.002792930170195148   -0.006825308255833468   -0.00015302265490369331
-0.003059739364043425   -0.0055790572696695784   -0.0001123866267167496
-0.0028058064155679165   -0.0068283827861026   -0.00017425355962343827
-0.00212721251443361   -0.0068552997819702165   -0.00015127122338658535
-0.003059739364043425   -0.0055790572696695784   -0.0001123866267167496
-0.002318799162780785   -0.005601503332420453   -0.00010896490322162767
-0.002315278712352501   -0.005605751586233494   -0.00012020701457165944
-0.00212721251443361   -0.0068552997819702165   -0.00015127122338658535
-0.003059739364043425   -0.0055790572696695784   -0.0001123866267167496
-0.002315278712352501   -0.005605751586233494   -0.00012020701457165944
-0.0028058064155679165   -0.0068283827861026   -0.00017425355962343827
-0.00212721251443361   -0.0068552997819702165   -0.00015127122338658535
-0.002318799162780785   -0.005601503332420453   -0.00010896490322162767
-0.002792930170195148   -0.006825308255833468   -0.00015302265490369331
-0.002128170438649889   -0.006854753671420348   -0.0001361434866224294
-0.002318799162780785   -0.005601503332420453   -0.00010896490322162767
-0.003059739364043425   -0.0055790572696695784   -0.0001123866267167496
-0.002792930170195148   -0.006825308255833468   -0.00015302265490369331
-0.0030474315965067444   -0.005580106094655547   -9.542404512119141e-05
-0.002128170438649889   -0.006854753671420348   -0.0001361434866224294
-0.0027724280155350155   -0.006827971596549872   -0.0001305892681586097
-0.0030474315965067444   -0.005580106094655547   -9.542404512119141e-05
-0.002792930170195148   -0.006825308255833468   -0.00015302265490369331
-0.002128170438649889   -0.006854753671420348   -0.0001361434866224294
-0.0030474315965067444   -0.005580106094655547   -9.542404512119141e-05
-0.0023228682432684306   -0.0055995095041420535   -9.683649650552657e-05
-0.002318799162780785   -0.005601503332420453   -0.00010896490322162767
-0.002128170438649889   -0.006854753671420348   -0.0001361434866224294
-0.0030474315965067444   -0.005580106094655547   -9.542404512119141e-05
-0.002318799162780785   -0.005601503332420453   -0.00010896490322162767
-0.002792930170195148   -0.006825308255833468   -0.00015302265490369331
0.0005471244695432589   -0.005649650102280713   -4.2488594070896016e-05
0.000584066684679066   -0.004297230410236085   -9.054082117703645e-06
-0.00019425987137523977   -0.005650701990045433   -7.227439346451435e-05
0.0005470760566210594   -0.00563346712903482   -4.904904935978544e-05
0.000584066684679066   -0.004297230410236085   -9.054082117703645e-06
-0.000208428347821081   -0.004291367369402723   -3.5285158650119916e-05
-0.00019425987137523977   -0.005650701990045433   -7.227439346451435e-05
-0.000216719836116321   -0.004278435173322901   -3.312616885621695e-05
0.0005470760566210594   -0.00563346712903482   -4.904904935978544e-05
-0.0001999970918649873   -0.0056369940343564745   -7.334631582716432e-05
-0.000216719836116321   -0.004278435173322901   -3.312616885621695e-05
-0.00019425987137523977   -0.005650701990045433   -7.227439346451435e-05
0.0005470760566210594   -0.00563346712903482   -4.904904935978544e-05
-0.000216719836116321   -0.004278435173322901   -3.312616885621695e-05
0.0005764162705475682   -0.004281980770157414   -9.825517831895265e-06
0.000584066684679066   -0.004297230410236085   -9.054082117703645e-06
0.0005470760566210594   -0.00563346712903482   -4.904904935978544e-05
-0.000216719836116321   -0.004278435173322901   -3.312616885621695e-05
0.000584066684679066   -0.004297230410236085   -9.054082117703645e-06
-0.00019425987137523977   -0.005650701990045433   -7.227439346451435e-05
0.0005470760566210594   -0.00563346712903482   -4.904904935978544e-05
0.0005764162705475682   -0.004281980770157414   -9.825517831895265e-06
-0.0001999970918649873   -0.0056369940343564745   -7.334631582716432e-05
0.0005434805188569443   -0.005621296065097639   -5.4288655884043724e-05
0.0005764162705475682   -0.004281980770157414   -9.825517831895265e-06
-0.000216719836116321   -0.004278435173322901   -3.312616885621695e-05
-0.0001999970918649873   -0.0056369940343564745   -7.334631582716432e-05
-0.00022630199151010992   -0.004266683990114151   -3.019090524396892e-05
0.0005434805188569443   -0.005621296065097639   -5.4288655884043724e-05
-0.00020638881647653347   -0.005625828236125902   -7.359430943048952e-05
-0.00022630199151010992   -0.004266683990114151   -3.019090524396892e-05
-0.0001999970918649873   -0.0056369940343564745   -7.334631582716432e-05
0.0005434805188569443   -0.005621296065097639   -5.4288655884043724e-05
-0.00022630199151010992   -0.004266683990114151   -3.019090524396892e-05
0.0005661324047522965   -0.004269041737291259   -9.030596750924852e-06
0.0005764162705475682   -0.004281980770157414   -9.825517831895265e-06
0.0005434805188569443   -0.005621296065097639   -5.4288655884043724e-05
-0.00022630199151010992   -0.004266683990114151   -3.019090524396892e-05
0.0005764162705475682   -0.004281980770157414   -9.825517831895265e-06
-0.0001999970918649873   -0.0056369940343564745   -7.334631582716432e-05
0.0005434805188569443   -0.005621296065097639   -5.4288655884043724e-05
0.0005661324047522965   -0.004269041737291259   -9.030596750924852e-06
-0.00020638881647653347   -0.005625828236125902   -7.359430943048952e-05
0.0005381522457349259   -0.005610774427714948   -5.8299989845700474e-05
0.0005661324047522965   -0.004269041737291259   -9.030596750924852e-06
-0.00022630199151010992   -0.004266683990114151   -3.019090524396892e-05
-0.00020638881647653347   -0.005625828236125902   -7.359430943048952e-05
-0.00023727814411910147   -0.004255929698557926   -2.6288645214712356e-05
0.0005381522457349259   -0.005610774427714948   -5.8299989845700474e-05
-0.00021463916529586722   -0.0056168640609317155   -7.29858877426169e-05
-0.00023727814411910147   -0.004255929698557926   -2.6288645214712356e-05
-0.00020638881647653347   -0.005625828236125902   -7.359430943048952e-05
0.0005381522457349259   -0.005610774427714948   -5.8299989845700474e-05
-0.00023727814411910147   -0.004255929698557926   -2.6288645214712356e-05
0.0005523408351678963   -0.004255853087099195   -6.73406304345221e-06
0.0005661324047522965   -0.004269041737291259   -9.030596750924852e-06
0.0005381522457349259   -0.005610774427714948   -5.8299989845700474e-05
-0.00023727814411910147   -0.004255929698557926   -2.6288645214712356e-05
0.0005661324047522965   -0.004269041737291259   -9.030596750924852e-06
-0.00020638881647653347   -0.005625828236125902   -7.359430943048952e-05
-0.00019425987137523977   -0.005650701990045433   -7.227439346451435e-05
-0.000208428347821081   -0.004291367369402723   -3.5285158650119916e-05
-0.0009023908677521128   -0.0056442591186326415   -9.59333873941985e-05
-0.0001999970918649873   -0.0056369940343564745   -7.334631582716432e-05
-0.000208428347821081   -0.004291367369402723   -3.5285158650119916e-05
-0.0009590499686248351   -0.004283392746606317   -5.652873110611134e-05
-0.0009023908677521128   -0.0056442591186326415   -9.59333873941985e-05
-0.0009678014260404311   -0.004273001153775635   -5.248128058456905e-05
-0.0001999970918649873   -0.0056369940343564745   -7.334631582716432e-05
-0.0009091423396935235   -0.0056332656147491   -9.313433087056302e-05
-0.0009678014260404311   -0.004273001153775635   -5.248128058456905e-05
-0.0009023908677521128   -0.0056442591186326415   -9.59333873941985e-05
-0.0001999970918649873   -0.0056369940343564745   -7.334631582716432e-05
-0.0009678014260404311   -0.004273001153775635   -5.248128058456905e-05
-0.000216719836116321   -0.004278435173322901   -3.312616885621695e-05
-0.000208428347821081   -0.004291367369402723   -3.5285158650119916e-05
-0.0001999970918649873   -0.0056369940343564745   -7.334631582716432e-05
-0.0009678014260404311   -0.004273001153775635   -5.248128058456905e-05
-0.000208428347821081   -0.004291367369402723   -3.5285158650119916e-05
-0.0009023908677521128   -0.0056442591186326415   -9.59333873941985e-05
-0.0001999970918649873   -0.0056369940343564745   -7.334631582716432e-05
-0.000216719836116321   -0.004278435173322901   -3.312616885621695e-05
-0.0009091423396935235   -0.0056332656147491   -9.313433087056302e-05
-0.00020638881647653347   -0.005625828236125902   -7.359430943048952e-05
-0.000216719836116321   -0.004278435173322901   -3.312616885621695e-05
-0.0009678014260404311   -0.004273001153775635   -5.248128058456905e-05
-0.0009091423396935235   -0.0056332656147491   -9.313433087056302e-05
-0.000976783721576251   -0.004263516145114901   -4.767829078612448e-05
-0.00020638881647653347   -0.005625828236125902   -7.359430943048952e-05
-0.0009160511971171478   -0.005624339311524385   -8.946868342009312e-05
-0.000976783721576251   -0.004263516145114901   -4.767829078612448e-05
-0.0009091423396935235   -0.0056332656147491   -9.313433087056302e-05
-0.00020638881647653347   -0.005625828236125902   -7.359430943048952e-05
-0.000976783721576251   -0.004263516145114901   -4.767829078612448e-05
-0.00022630199151010992   -0.004266683990114151   -3.019090524396892e-05
-0.000216719836116321   -0.004278435173322901   -3.312616885621695e-05
-0.00020638881647653347   -0.005625828236125902   -7.359430943048952e-05
-0.000976783721576251   -0.004263516145114901   -4.767829078612448e-05
-0.000216719836116321   -0.004278435173322901   -3.312616885621695e-05
-0.0009091423396935235   -0.0056332656147491   -9.313433087056302e-05
-0.00020638881647653347   -0.005625828236125902   -7.359430943048952e-05
-0.00022630199151010992   -0.004266683990114151   -3.019090524396892e-05
-0.0009160511971171478   -0.005624339311524385   -8.946868342009312e-05
-0.00021463916529586722   -0.0056168640609317155   -7.29858877426169e-05
-0.00022630199151010992   -0.004266683990114151   -3.019090524396892e-05
-0.000976783721576251   -0.004263516145114901   -4.767829078612448e-05
-0.0009160511971171478   -0.005624339311524385   -8.946868342009312e-05
-0.0009863911555661369   -0.004255133050180018   -4.212381501118507e-05
-0.00021463916529586722   -0.0056168640609317155   -7.29858877426169e-05
-0.0009235968240237302   -0.005617589095309301   -8.498663376198942e-05
-0.0009863911555661369   -0.004255133050180018   -4.212381501118507e-05
-0.0009160511971171478   -0.005624339311524385   -8.946868342009312e-05
-0.00021463916529586722   -0.0056168640609317155   -7.29858877426169e-05
-0.0009863911555661369   -0.004255133050180018   -4.212381501118507e-05
-0.00023727814411910147   -0.004255929698557926   -2.6288645214712356e-05
-0.00022630199151010992   -0.004266683990114151   -3.019090524396892e-05
-0.00021463916529586722   -0.0056168640609317155   -7.29858877426169e-05
-0.0009863911555661369   -0.004255133050180018   -4.212381501118507e-05
-0.00022630199151010992   -0.004266683990114151   -3.019090524396892e-05
-0.0009160511971171478   -0.005624339311524385   -8.946868342009312e-05
-0.0009023908677521128   -0.0056442591186326415   -9.59333873941985e-05
-0.0009590499686248351   -0.004283392746606317   -5.652873110611134e-05
-0.001598597593365611   -0.0056314014476250345   -0.00011537773985282697
-0.0009091423396935235   -0.0056332656147491   -9.313433087056302e-05
-0.0009590499686248351   -0.004283392746606317   -5.652873110611134e-05
-0.0016968658419769193   -0.00427330712966254   -7.400180266079765e-05
-0.001598597593365611   -0.0056314014476250345   -0.00011537773985282697
-0.0017056686276526734   -0.004265207259273235   -6.811237954944077e-05
-0.0009091423396935235   -0.0056332656147491   -9.313433087056302e-05
-0.0016056590553677325   -0.005622848172382872   -0.00010874324530438015
-0.0017056686276526734   -0.004265207259273235   -6.811237954944077e-05
-0.001598597593365611   -0.0056314014476250345   -0.00011537773985282697
-0.0009091423396935235   -0.0056332656147491   -9.313433087056302e-05
-0.0017056686276526734   -0.004265207259273235   -6.811237954944077e-05
-0.0009678014260404311   -0.004273001153775635   -5.248128058456905e-05
-0.0009590499686248351   -0.004283392746606317   -5.652873110611134e-05
-0.0009091423396935235   -0.0056332656147491   -9.313433087056302e-05
-0.0017056686276526734   -0.004265207259273235   -6.811237954944077e-05
-0.0009590499686248351   -0.004283392746606317   -5.652873110611134e-05
-0.001598597593365611   -0.0056314014476250345   -0.00011537773985282697
-0.0009091423396935235   -0.0056332656147491   -9.313433087056302e-05
-0.0009678014260404311   -0.004273001153775635   -5.248128058456905e-05
-0.0016056590553677325   -0.005622848172382872   -0.00010874324530438015
-0.0009160511971171478   -0.005624339311524385   -8.946868342009312e-05
-0.0009678014260404311   -0.004273001153775635   -5.248128058456905e-05
-0.0017056686276526734   -0.004265207259273235   -6.811237954944077e-05
-0.0016056590553677325   -0.005622848172382872   -0.00010874324530438015
-0.0017138692787120444   -0.004258044900886943   -6.149250413951301e-05
-0.0009160511971171478   -0.005624339311524385   -8.946868342009312e-05
-0.0016120126117335678   -0.005616347767122506   -0.0001012654129903224
-0.0017138692787120444   -0.004258044900886943   -6.149250413951301e-05
-0.0016056590553677325   -0.005622848172382872   -0.00010874324530438015
-0.0009160511971171478   -0.005624339311524385   -8.946868342009312e-05
-0.0017138692787120444   -0.004258044900886943   -6.149250413951301e-05
-0.000976783721576251   -0.004263516145114901   -4.767829078612448e-05
-0.0009678014260404311   -0.004273001153775635   -5.248128058456905e-05
-0.0009160511971171478   -0.005624339311524385   -8.946868342009312e-05
-0.0017138692787120444   -0.004258044900886943   -6.149250413951301e-05
-0.0009678014260404311   -0.004273001153775635   -5.248128058456905e-05
-0.0016056590553677325   -0.005622848172382872   -0.00010874324530438015
-0.0009160511971171478   -0.005624339311524385   -8.946868342009312e-05
-0.000976783721576251   -0.004263516145114901   -4.767829078612448e-05
-0.0016120126117335678   -0.005616347767122506   -0.0001012654129903224
-0.0009235968240237302   -0.005617589095309301   -8.498663376198942e-05
-0.000976783721576251   -0.004263516145114901   -4.767829078612448e-05
-0.0017138692787120444   -0.004258044900886943   -6.149250413951301e-05
-0.0016120126117335678   -0.005616347767122506   -0.0001012654129903224
-0.0017221003370078973   -0.0042518324259356215   -5.41747178931597e-05
-0.0009235968240237302   -0.005617589095309301   -8.498663376198942e-05
-0.001618433546744997   -0.005611904143480375   -9.297275717343055e-05
-0.0017221003370078973   -0.0042518324259356215   -5.41747178931597e-05
-0.0016120126117335678   -0.005616347767122506   -0.0001012654129903224
-0.0009235968240237302   -0.005617589095309301   -8.498663376198942e-05
-0.0017221003370078973   -0.0042518324259356215   -5.41747178931597e-05
-0.0009863911555661369   -0.004255133050180018   -4.212381501118507e-05
-0.000976783721576251   -0.004263516145114901   -4.767829078612448e-05
-0.0009235968240237302   -0.005617589095309301   -8.498663376198942e-05
-0.0017221003370078973   -0.0042518324259356215   -5.41747178931597e-05
-0.000976783721576251   -0.004263516145114901   -4.767829078612448e-05
-0.0016120126117335678   -0.005616347767122506   -0.0001012654129903224
-0.001598597593365611   -0.0056314014476250345   -0.00011537773985282697
-0.0016968658419769193   -0.00427330712966254   -7.400180266079765e-05
-0.002308824798508274   -0.005611872456568475   -0.00013071144231397534
-0.0016056590553677325   -0.005622848172382872   -0.00010874324530438015
-0.0016968658419769193   -0.00427330712966254   -7.400180266079765e-05
-0.0024483650673594154   -0.0042593335795903   -8.754626666526273e-05
-0.002308824798508274   -0.005611872456568475   -0.00013071144231397534
-0.0024567489246817395   -0.004253637170824266   -7.983924461864342e-05
-0.0016056590553677325   -0.005622848172382872   -0.00010874324530438015
-0.002315278712352501   -0.005605751586233494   -0.00012020701457165944
-0.0024567489246817395   -0.004253637170824266   -7.983924461864342e-05
-0.002308824798508274   -0.005611872456568475   -0.00013071144231397534
-0.0016056590553677325   -0.005622848172382872   -0.00010874324530438015
-0.0024567489246817395   -0.004253637170824266   -7.983924461864342e-05
-0.0017056686276526734   -0.004265207259273235   -6.811237954944077e-05
-0.0016968658419769193   -0.00427330712966254   -7.400180266079765e-05
-0.0016056590553677325   -0.005622848172382872   -0.00010874324530438015
-0.0024567489246817395   -0.004253637170824266   -7.983924461864342e-05
-0.0016968658419769193   -0.00427330712966254   -7.400180266079765e-05
-0.002308824798508274   -0.005611872456568475   -0.00013071144231397534
-0.0016056590553677325   -0.005622848172382872   -0.00010874324530438015
-0.0017056686276526734   -0.004265207259273235   -6.811237954944077e-05
-0.002315278712352501   -0.005605751586233494   -0.00012020701457165944
-0.0016120126117335678   -0.005616347767122506   -0.0001012654129903224
-0.0017056686276526734   -0.004265207259273235   -6.811237954944077e-05
-0.0024567489246817395   -0.004253637170824266   -7.983924461864342e-05
-0.002315278712352501   -0.005605751586233494   -0.00012020701457165944
-0.0024628367288671593   -0.004248644491462664   -7.150519539054503e-05
-0.0016120126117335678   -0.005616347767122506   -0.0001012654129903224
-0.002318799162780785   -0.005601503332420453   -0.00010896490322162767
-0.0024628367288671593   -0.004248644491462664   -7.150519539054503e-05
-0.002315278712352501   -0.005605751586233494   -0.00012020701457165944
-0.0016120126117335678   -0.005616347767122506   -0.0001012654129903224
-0.0024628367288671593   -0.004248644491462664   -7.150519539054503e-05
-0.0017138692787120444   -0.004258044900886943   -6.149250413951301e-05
-0.0017056686276526734   -0.004265207259273235   -6.811237954944077e-05
-0.0016120126117335678   -0.005616347767122506   -0.0001012654129903224
-0.0024628367288671593   -0.004248644491462664   -7.150519539054503e-05
-0.0017056686276526734   -0.004265207259273235   -6.811237954944077e-05
-0.002315278712352501   -0.005605751586233494   -0.00012020701457165944
-0.0016120126117335678   -0.005616347767122506   -0.0001012654129903224
-0.0017138692787120444   -0.004258044900886943   -6.149250413951301e-05
-0.002318799162780785   -0.005601503332420453   -0.00010896490322162767
-0.001618433546744997   -0.005611904143480375   -9.297275717343055e-05
-0.0017138692787120444   -0.004258044900886943   -6.149250413951301e-05
-0.0024628367288671593   -0.004248644491462664   -7.150519539054503e-05
-0.002318799162780785   -0.005601503332420453   -0.00010896490322162767
-0.0024689407897584273   -0.004244675911891075   -6.239555290407147e-05
-0.001618433546744997   -0.005611904143480375   -9.297275717343055e-05
-0.0023228682432684306   -0.0055995095041420535   -9.683649650552657e-05
-0.0024689407897584273   -0.004244675911891075   -6.239555290407147e-05
-0.002318799162780785   -0.005601503332420453   -0.00010896490322162767
-0.001618433546744997   -0.005611904143480375   -9.297275717343055e-05
-0.0024689407897584273   -0.004244675911891075   -6.239555290407147e-05
-0.0017221003370078973   -0.0042518324259356215   -5.41747178931597e-05
-0.0017138692787120444   -0.004258044900886943   -6.149250413951301e-05
-0.001618433546744997   -0.005611904143480375   -9.297275717343055e-05
-0.0024689407897584273   -0.004244675911891075   -6.239555290407147e-05
-0.0017138692787120444   -0.004258044900886943   -6.149250413951301e-05
-0.002318799162780785   -0.005601503332420453   -0.00010896490322162767
-0.002308824798508274   -0.005611872456568475   -0.00013071144231397534
-0.0024483650673594154   -0.0042593335795903   -8.754626666526273e-05
-0.003072935114717625   -0.005587177921373407   -0.00014255075089467592
-0.002315278712352501   -0.005605751586233494   -0.00012020701457165944
-0.0024483650673594154   -0.0042593335795903   -8.754626666526273e-05
-0.0032474678229107265   -0.004242236235349907   -9.681323017789075e-05
-0.003072935114717625   -0.005587177921373407   -0.00014255075089467592
-0.0032472028918181374   -0.004238130299440974   -8.780889984868509e-05
-0.002315278712352501   -0.005605751586233494   -0.00012020701457165944
-0.0030656797587128447   -0.005582236682453111   -0.00012814619596417597
-0.0032472028918181374   -0.004238130299440974   -8.780889984868509e-05
-0.003072935114717625   -0.005587177921373407   -0.00014255075089467592
-0.002315278712352501   -0.005605751586233494   -0.00012020701457165944
-0.0032472028918181374   -0.004238130299440974   -8.780889984868509e-05
-0.0024567489246817395   -0.004253637170824266   -7.983924461864342e-05
-0.0024483650673594154   -0.0042593335795903   -8.754626666526273e-05
-0.002315278712352501   -0.005605751586233494   -0.00012020701457165944
-0.0032472028918181374   -0.004238130299440974   -8.780889984868509e-05
-0.0024483650673594154   -0.0042593335795903   -8.754626666526273e-05
-0.003072935114717625   -0.005587177921373407   -0.00014255075089467592
-0.002315278712352501   -0.005605751586233494   -0.00012020701457165944
-0.0024567489246817395   -0.004253637170824266   -7.983924461864342e-05
-0.0030656797587128447   -0.005582236682453111   -0.00012814619596417597
-0.002318799162780785   -0.005601503332420453   -0.00010896490322162767
-0.0024567489246817395   -0.004253637170824266   -7.983924461864342e-05
-0.0032472028918181374   -0.004238130299440974   -8.780889984868509e-05
-0.0030656797587128447   -0.005582236682453111   -0.00012814619596417597
-0.0032471887119453367   -0.004234258823916826   -7.75614242407032e-05
-0.002318799162780785   -0.005601503332420453   -0.00010896490322162767
-0.003059739364043425   -0.0055790572696695784   -0.0001123866267167496
-0.0032471887119453367   -0.004234258823916826   -7.75614242407032e-05
-0.0030656797587128447   -0.005582236682453111   -0.00012814619596417597
-0.002318799162780785   -0.005601503332420453   -0.00010896490322162767
-0.0032471887119453367   -0.004234258823916826   -7.75614242407032e-05
-0.0024628367288671593   -0.004248644491462664   -7.150519539054503e-05
-0.0024567489246817395   -0.004253637170824266   -7.983924461864342e-05
-0.002318799162780785   -0.005601503332420453   -0.00010896490322162767
-0.0032471887119453367   -0.004234258823916826   -7.75614242407032e-05
-0.0024567489246817395   -0.004253637170824266   -7.983924461864342e-05
-0.0030656797587128447   -0.005582236682453111   -0.00012814619596417597
-0.002318799162780785   -0.005601503332420453   -0.00010896490322162767
-0.0024628367288671593   -0.004248644491462664   -7.150519539054503e-05
-0.003059739364043425   -0.0055790572696695784   -0.0001123866267167496
-0.0023228682432684306   -0.0055995095041420535   -9.683649650552657e-05
-0.0024628367288671593   -0.004248644491462664   -7.150519539054503e-05
-0.0032471887119453367   -0.004234258823916826   -7.75614242407032e-05
-0.003059739364043425   -0.0055790572696695784   -0.0001123866267167496
-0.0032422605006311917   -0.004233007382435149   -6.62072521113687e-05
-0.0023228682432684306   -0.0055995095041420535   -9.683649650552657e-05
-0.0030474315965067444   -0.005580106094655547   -9.542404512119141e-05
-0.0032422605006311917   -0.004233007382435149   -6.62072521113687e-05
-0.003059739364043425   -0.0055790572696695784   -0.0001123866267167496
-0.0023228682432684306   -0.0055995095041420535   -9.683649650552657e-05
-0.0032422605006311917   -0.004233007382435149   -6.62072521113687e-05
-0.0024689407897584273   -0.004244675911891075   -6.239555290407147e-05
-0.0024628367288671593   -0.004248644491462664   -7.150519539054503e-05
-0.0023228682432684306   -0.0055995095041420535   -9.683649650552657e-05
-0.0032422605006311917   -0.004233007382435149   -6.62072521113687e-05
-0.0024628367288671593   -0.004248644491462664   -7.150519539054503e-05
-0.003059739364043425   -0.0055790572696695784   -0.0001123866267167496
0.000584066684679066   -0.004297230410236085   -9.054082117703645e-06
0.0005359866156232756   -0.002888483910569744   1.4192914481391434e-05
-0.000208428347821081   -0.004291367369402723   -3.5285158650119916e-05
0.0005764162705475682   -0.004281980770157414   -9.825517831895265e-06
0.0005359866156232756   -0.002888483910569744   1.4192914481391434e-05
-0.0002712082369339214   -0.0028762959134387483   -5.494284550344844e-06
-0.000208428347821081   -0.004291367369402723   -3.5285158650119916e-05
-0.0002816272548083134   -0.00286488733670771   -2.1560358879362455e-07
0.0005764162705475682   -0.004281980770157414   -9.825517831895265e-06
-0.000216719836116321   -0.004278435173322901   -3.312616885621695e-05
-0.0002816272548083134   -0.00286488733670771   -2.1560358879362455e-07
-0.000208428347821081   -0.004291367369402723   -3.5285158650119916e-05
0.0005764162705475682   -0.004281980770157414   -9.825517831895265e-06
-0.0002816272548083134   -0.00286488733670771   -2.1560358879362455e-07
0.000520391855414322   -0.002874187287007702   2.006661234177761e-05
0.0005359866156232756   -0.002888483910569744   1.4192914481391434e-05
0.0005764162705475682   -0.004281980770157414   -9.825517831895265e-06
-0.0002816272548083134   -0.00286488733670771   -2.1560358879362455e-07
0.0005359866156232756   -0.002888483910569744   1.4192914481391434e-05
-0.000208428347821081   -0.004291367369402723   -3.5285158650119916e-05
0.0005764162705475682   -0.004281980770157414   -9.825517831895265e-06
0.000520391855414322   -0.002874187287007702   2.006661234177761e-05
-0.000216719836116321   -0.004278435173322901   -3.312616885621695e-05
0.0005661324047522965   -0.004269041737291259   -9.030596750924852e-06
0.000520391855414322   -0.002874187287007702   2.006661234177761e-05
-0.0002816272548083134   -0.00286488733670771   -2.1560358879362455e-07
-0.000216719836116321   -0.004278435173322901   -3.312616885621695e-05
-0.00029395101985295444   -0.0028530228426348397   6.109622282332832e-06
0.0005661324047522965   -0.004269041737291259   -9.030596750924852e-06
-0.00022630199151010992   -0.004266683990114151   -3.019090524396892e-05
-0.00029395101985295444   -0.0028530228426348397   6.109622282332832e-06
-0.000216719836116321   -0.004278435173322901   -3.312616885621695e-05
0.0005661324047522965   -0.004269041737291259   -9.030596750924852e-06
-0.00029395101985295444   -0.0028530228426348397   6.109622282332832e-06
0.000502262926602066   -0.002860414007182434   2.913386222941667e-05
0.000520391855414322   -0.002874187287007702   2.006661234177761e-05
0.0005661324047522965   -0.004269041737291259   -9.030596750924852e-06
-0.00029395101985295444   -0.0028530228426348397   6.109622282332832e-06
0.000520391855414322   -0.002874187287007702   2.006661234177761e-05
-0.000216719836116321   -0.004278435173322901   -3.312616885621695e-05
0.0005661324047522965   -0.004269041737291259   -9.030596750924852e-06
0.000502262926602066   -0.002860414007182434   2.913386222941667e-05
-0.00022630199151010992   -0.004266683990114151   -3.019090524396892e-05
0.0005523408351678963   -0.004255853087099195   -6.73406304345221e-06
0.000502262926602066   -0.002860414007182434   2.913386222941667e-05
-0.00029395101985295444   -0.0028530228426348397   6.109622282332832e-06
-0.00022630199151010992   -0.004266683990114151   -3.019090524396892e-05
-0.0003068582084875099   -0.0028405845631642238   1.3489044384290611e-05
0.0005523408351678963   -0.004255853087099195   -6.73406304345221e-06
-0.00023727814411910147   -0.004255929698557926   -2.6288645214712356e-05
-0.0003068582084875099   -0.0028405845631642238   1.3489044384290611e-05
-0.00022630199151010992   -0.004266683990114151   -3.019090524396892e-05
0.0005523408351678963   -0.004255853087099195   -6.73406304345221e-06
-0.0003068582084875099   -0.0028405845631642238   1.3489044384290611e-05
0.0004800436465010354   -0.0028433294192768076   3.9220734255953985e-05
0.000502262926602066   -0.002860414007182434   2.913386222941667e-05
0.0005523408351678963   -0.004255853087099195   -6.73406304345221e-06
-0.0003068582084875099   -0.0028405845631642238   1.3489044384290611e-05
0.000502262926602066   -0.002860414007182434   2.913386222941667e-05
-0.00022630199151010992   -0.004266683990114151   -3.019090524396892e-05
-0.000208428347821081   -0.004291367369402723   -3.5285158650119916e-05
-0.0002712082369339214   -0.0028762959134387483   -5.494284550344844e-06
-0.0009590499686248351   -0.004283392746606317   -5.652873110611134e-05
-0.000216719836116321   -0.004278435173322901   -3.312616885621695e-05
-0.0002712082369339214   -0.0028762959134387483   -5.494284550344844e-06
-0.0010289265033300234   -0.0028730844573455054   -2.3959988672901437e-05
-0.0009590499686248351   -0.004283392746606317   -5.652873110611134e-05
-0.0010386112479600477   -0.0028635170021164614   -1.8710086577126784e-05
-0.000216719836116321   -0.004278435173322901   -3.312616885621695e-05
-0.0009678014260404311   -0.004273001153775635   -5.248128058456905e-05
-0.0010386112479600477   -0.0028635170021164614   -1.8710086577126784e-05
-0.0009590499686248351   -0.004283392746606317   -5.652873110611134e-05
-0.000216719836116321   -0.004278435173322901   -3.312616885621695e-05
-0.0010386112479600477   -0.0028635170021164614   -1.8710086577126784e-05
-0.0002816272548083134   -0.00286488733670771   -2.1560358879362455e-07
-0.0002712082369339214   -0.0028762959134387483   -5.494284550344844e-06
-0.000216719836116321   -0.004278435173322901   -3.312616885621695e-05
-0.0010386112479600477   -0.0028635170021164614   -1.8710086577126784e-05
-0.0002712082369339214   -0.0028762959134387483   -5.494284550344844e-06
-0.0009590499686248351   -0.004283392746606317   -5.652873110611134e-05
-0.000216719836116321   -0.004278435173322901   -3.312616885621695e-05
-0.0002816272548083134   -0.00286488733670771   -2.1560358879362455e-07
-0.0009678014260404311   -0.004273001153775635   -5.248128058456905e-05
-0.00022630199151010992   -0.004266683990114151   -3.019090524396892e-05
-0.0002816272548083134   -0.00286488733670771   -2.1560358879362455e-07
-0.0010386112479600477   -0.0028635170021164614   -1.8710086577126784e-05
-0.0009678014260404311   -0.004273001153775635   -5.248128058456905e-05
-0.001048696185625515   -0.0028536336012686373   -1.2874632058002907e-05
-0.00022630199151010992   -0.004266683990114151   -3.019090524396892e-05
-0.000976783721576251   -0.004263516145114901   -4.767829078612448e-05
-0.001048696185625515   -0.0028536336012686373   -1.2874632058002907e-05
-0.0009678014260404311   -0.004273001153775635   -5.248128058456905e-05
-0.00022630199151010992   -0.004266683990114151   -3.019090524396892e-05
-0.001048696185625515   -0.0028536336012686373   -1.2874632058002907e-05
-0.00029395101985295444   -0.0028530228426348397   6.109622282332832e-06
-0.0002816272548083134   -0.00286488733670771   -2.1560358879362455e-07
-0.00022630199151010992   -0.004266683990114151   -3.019090524396892e-05
-0.001048696185625515   -0.0028536336012686373   -1.2874632058002907e-05
-0.0002816272548083134   -0.00286488733670771   -2.1560358879362455e-07
-0.0009678014260404311   -0.004273001153775635   -5.248128058456905e-05
-0.00022630199151010992   -0.004266683990114151   -3.019090524396892e-05
-0.00029395101985295444   -0.0028530228426348397   6.109622282332832e-06
-0.000976783721576251   -0.004263516145114901   -4.767829078612448e-05
-0.00023727814411910147   -0.004255929698557926   -2.6288645214712356e-05
-0.00029395101985295444   -0.0028530228426348397   6.109622282332832e-06
-0.001048696185625515   -0.0028536336012686373   -1.2874632058002907e-05
-0.000976783721576251   -0.004263516145114901   -4.767829078612448e-05
-0.0010592622171456702   -0.002843704003821512   -6.351420901878825e-06
-0.00023727814411910147   -0.004255929698557926   -2.6288645214712356e-05
-0.0009863911555661369   -0.004255133050180018   -4.212381501118507e-05
-0.0010592622171456702   -0.002843704003821512   -6.351420901878825e-06
-0.000976783721576251   -0.004263516145114901   -4.767829078612448e-05
-0.00023727814411910147   -0.004255929698557926   -2.6288645214712356e-05
-0.0010592622171456702   -0.002843704003821512   -6.351420901878825e-06
-0.0003068582084875099   -0.0028405845631642238   1.3489044384290611e-05
-0.00029395101985295444   -0.0028530228426348397   6.109622282332832e-06
-0.00023727814411910147   -0.004255929698557926   -2.6288645214712356e-05
-0.0010592622171456702   -0.002843704003821512   -6.351420901878825e-06
-0.00029395101985295444   -0.0028530228426348397   6.109622282332832e-06
-0.000976783721576251   -0.004263516145114901   -4.767829078612448e-05
-0.0009590499686248351   -0.004283392746606317   -5.652873110611134e-05
-0.0010289265033300234   -0.0028730844573455054   -2.3959988672901437e-05
-0.0016968658419769193   -0.00427330712966254   -7.400180266079765e-05
-0.0009678014260404311   -0.004273001153775635   -5.248128058456905e-05
-0.0010289265033300234   -0.0028730844573455054   -2.3959988672901437e-05
-0.0017771519938923888   -0.002872110137699655   -4.03327590411032e-05
-0.0016968658419769193   -0.00427330712966254   -7.400180266079765e-05
-0.0017865414952977822   -0.0028640026497428646   -3.503488768623023e-05
-0.0009678014260404311   -0.004273001153775635   -5.248128058456905e-05
-0.0017056686276526734   -0.004265207259273235   -6.811237954944077e-05
-0.0017865414952977822   -0.0028640026497428646   -3.503488768623023e-05
-0.0016968658419769193   -0.00427330712966254   -7.400180266079765e-05
-0.0009678014260404311   -0.004273001153775635   -5.248128058456905e-05
-0.0017865414952977822   -0.0028640026497428646   -3.503488768623023e-05
-0.0010386112479600477   -0.0028635170021164614   -1.8710086577126784e-05
-0.0010289265033300234   -0.0028730844573455054   -2.3959988672901437e-05
-0.0009678014260404311   -0.004273001153775635   -5.248128058456905e-05
-0.0017865414952977822   -0.0028640026497428646   -3.503488768623023e-05
-0.0010289265033300234   -0.0028730844573455054   -2.3959988672901437e-05
-0.0016968658419769193   -0.00427330712966254   -7.400180266079765e-05
-0.0009678014260404311   -0.004273001153775635   -5.248128058456905e-05
-0.0010386112479600477   -0.0028635170021164614   -1.8710086577126784e-05
-0.0017056686276526734   -0.004265207259273235   -6.811237954944077e-05
-0.000976783721576251   -0.004263516145114901   -4.767829078612448e-05
-0.0010386112479600477   -0.0028635170021164614   -1.8710086577126784e-05
-0.0017865414952977822   -0.0028640026497428646   -3.503488768623023e-05
-0.0017056686276526734   -0.004265207259273235   -6.811237954944077e-05
-0.0017954936982468534   -0.0028558603209108834   -2.9214086066716327e-05
-0.000976783721576251   -0.004263516145114901   -4.767829078612448e-05
-0.0017138692787120444   -0.004258044900886943   -6.149250413951301e-05
-0.0017954936982468534   -0.0028558603209108834   -2.9214086066716327e-05
-0.0017056686276526734   -0.004265207259273235   -6.811237954944077e-05
-0.000976783721576251   -0.004263516145114901   -4.767829078612448e-05
-0.0017954936982468534   -0.0028558603209108834   -2.9214086066716327e-05
-0.001048696185625515   -0.0028536336012686373   -1.2874632058002907e-05
-0.0010386112479600477   -0.0028635170021164614   -1.8710086577126784e-05
-0.000976783721576251   -0.004263516145114901   -4.767829078612448e-05
-0.0017954936982468534   -0.0028558603209108834   -2.9214086066716327e-05
-0.0010386112479600477   -0.0028635170021164614   -1.8710086577126784e-05
-0.0017056686276526734   -0.004265207259273235   -6.811237954944077e-05
-0.000976783721576251   -0.004263516145114901   -4.767829078612448e-05
-0.001048696185625515   -0.0028536336012686373   -1.2874632058002907e-05
-0.0017138692787120444   -0.004258044900886943   -6.149250413951301e-05
-0.0009863911555661369   -0.004255133050180018   -4.212381501118507e-05
-0.001048696185625515   -0.0028536336012686373   -1.2874632058002907e-05
-0.0017954936982468534   -0.0028558603209108834   -2.9214086066716327e-05
-0.0017138692787120444   -0.004258044900886943   -6.149250413951301e-05
-0.0018043631114707888   -0.002847619288672421   -2.288979262801868e-05
-0.0009863911555661369   -0.004255133050180018   -4.212381501118507e-05
-0.0017221003370078973   -0.0042518324259356215   -5.41747178931597e-05
-0.0018043631114707888   -0.002847619288672421   -2.288979262801868e-05
-0.0017138692787120444   -0.004258044900886943   -6.149250413951301e-05
-0.0009863911555661369   -0.004255133050180018   -4.212381501118507e-05
-0.0018043631114707888   -0.002847619288672421   -2.288979262801868e-05
-0.0010592622171456702   -0.002843704003821512   -6.351420901878825e-06
-0.001048696185625515   -0.0028536336012686373   -1.2874632058002907e-05
-0.0009863911555661369   -0.004255133050180018   -4.212381501118507e-05
-0.0018043631114707888   -0.002847619288672421   -2.288979262801868e-05
-0.001048696185625515   -0.0028536336012686373   -1.2874632058002907e-05
-0.0017138692787120444   -0.004258044900886943   -6.149250413951301e-05
-0.0016968658419769193   -0.00427330712966254   -7.400180266079765e-05
-0.0017771519938923888   -0.002872110137699655   -4.03327590411032e-05
-0.0024483650673594154   -0.0042593335795903   -8.754626666526273e-05
-0.0017056686276526734   -0.004265207259273235   -6.811237954944077e-05
-0.0017771519938923888   -0.002872110137699655   -4.03327590411032e-05
-0.0025414838031484702   -0.0028673581635809586   -5.345198466095358e-05
-0.0024483650673594154   -0.0042593335795903   -8.754626666526273e-05
-0.0025504303197724306   -0.0028612066685184145   -4.816955937472022e-05
-0.0017056686276526734   -0.004265207259273235   -6.811237954944077e-05
-0.0024567489246817395   -0.004253637170824266   -7.983924461864342e-05
-0.0025504303197724306   -0.0028612066685184145   -4.816955937472022e-05
-0.0024483650673594154   -0.0042593335795903   -8.754626666526273e-05
-0.0017056686276526734   -0.004265207259273235   -6.811237954944077e-05
-0.0025504303197724306   -0.0028612066685184145   -4.816955937472022e-05
-0.0017865414952977822   -0.0028640026497428646   -3.503488768623023e-05
-0.0017771519938923888   -0.002872110137699655   -4.03327590411032e-05
-0.0017056686276526734   -0.004265207259273235   -6.811237954944077e-05
-0.0025504303197724306   -0.0028612066685184145   -4.816955937472022e-05
-0.0017771519938923888   -0.002872110137699655   -4.03327590411032e-05
-0.0024483650673594154   -0.0042593335795903   -8.754626666526273e-05
-0.0017056686276526734   -0.004265207259273235   -6.811237954944077e-05
-0.0017865414952977822   -0.0028640026497428646   -3.503488768623023e-05
-0.0024567489246817395   -0.004253637170824266   -7.983924461864342e-05
-0.0017138692787120444   -0.004258044900886943   -6.149250413951301e-05
-0.0017865414952977822   -0.0028640026497428646   -3.503488768623023e-05
-0.0025504303197724306   -0.0028612066685184145   -4.816955937472022e-05
-0.0024567489246817395   -0.004253637170824266   -7.983924461864342e-05
-0.002557866341404384   -0.0028547574271221496   -4.248391775602132e-05
-0.0017138692787120444   -0.004258044900886943   -6.149250413951301e-05
-0.0024628367288671593   -0.004248644491462664   -7.150519539054503e-05
-0.002557866341404384   -0.0028547574271221496   -4.248391775602132e-05
-0.0024567489246817395   -0.004253637170824266   -7.983924461864342e-05
-0.0017138692787120444   -0.004258044900886943   -6.149250413951301e-05
-0.002557866341404384   -0.0028547574271221496   -4.248391775602132e-05
-0.0017954936982468534   -0.0028558603209108834   -2.9214086066716327e-05
-0.0017865414952977822   -0.0028640026497428646   -3.503488768623023e-05
-0.0017138692787120444   -0.004258044900886943   -6.149250413951301e-05
-0.002557866341404384   -0.0028547574271221496   -4.248391775602132e-05
-0.0017865414952977822   -0.0028640026497428646   -3.503488768623023e-05
-0.0024567489246817395   -0.004253637170824266   -7.983924461864342e-05
-0.0017138692787120444   -0.004258044900886943   -6.149250413951301e-05
-0.0017954936982468534   -0.0028558603209108834   -2.9214086066716327e-05
-0.0024628367288671593   -0.004248644491462664   -7.150519539054503e-05
-0.0017221003370078973   -0.0042518324259356215   -5.41747178931597e-05
-0.0017954936982468534   -0.0028558603209108834   -2.9214086066716327e-05
-0.002557866341404384   -0.0028547574271221496   -4.248391775602132e-05
-0.0024628367288671593   -0.004248644491462664   -7.150519539054503e-05
-0.0025648862088105107   -0.0028482350667074726   -3.624980403700234e-05
-0.0017221003370078973   -0.0042518324259356215   -5.41747178931597e-05
-0.0024689407897584273   -0.004244675911891075   -6.239555290407147e-05
-0.0025648862088105107   -0.0028482350667074726   -3.624980403700234e-05
-0.0024628367288671593   -0.004248644491462664   -7.150519539054503e-05
-0.0017221003370078973   -0.0042518324259356215   -5.41747178931597e-05
-0.0025648862088105107   -0.0028482350667074726   -3.624980403700234e-05
-0.0018043631114707888   -0.002847619288672421   -2.288979262801868e-05
-0.0017954936982468534   -0.0028558603209108834   -2.9214086066716327e-05
-0.0017221003370078973   -0.0042518324259356215   -5.41747178931597e-05
-0.0025648862088105107   -0.0028482350667074726   -3.624980403700234e-05
-0.0017954936982468534   -0.0028558603209108834   -2.9214086066716327e-05
-0.0024628367288671593   -0.004248644491462664   -7.150519539054503e-05
-0.0024483650673594154   -0.0042593335795903   -8.754626666526273e-05
-0.0025414838031484702   -0.0028673581635809586   -5.345198466095358e-05
-0.0032474678229107265   -0.004242236235349907   -9.681323017789075e-05
-0.0024567489246817395   -0.004253637170824266   -7.983924461864342e-05
-0.0025414838031484702   -0.0028673581635809586   -5.345198466095358e-05
-0.0033452238768002427   -0.0028591143660460635   -6.213256102504448e-05
-0.0032474678229107265   -0.004242236235349907   -9.681323017789075e-05
-0.0033500144144194316   -0.002854399257576834   -5.770818292625439e-05
-0.0024567489246817395   -0.004253637170824266   -7.983924461864342e-05
-0.0032472028918181374   -0.004238130299440974   -8.780889984868509e-05
-0.0033500144144194316   -0.002854399257576834   -5.770818292625439e-05
-0.0032474678229107265   -0.004242236235349907   -9.681323017789075e-05
-0.0024567489246817395   -0.004253637170824266   -7.983924461864342e-05
-0.0033500144144194316   -0.002854399257576834   -5.770818292625439e-05
-0.0025504303197724306   -0.0028612066685184145   -4.816955937472022e-05
-0.0025414838031484702   -0.0028673581635809586   -5.345198466095358e-05
-0.0024567489246817395   -0.004253637170824266   -7.983924461864342e-05
-0.0033500144144194316   -0.002854399257576834   -5.770818292625439e-05
-0.0025414838031484702   -0.0028673581635809586   -5.345198466095358e-05
-0.0032474678229107265   -0.004242236235349907   -9.681323017789075e-05
-0.0024567489246817395   -0.004253637170824266   -7.983924461864342e-05
-0.0025504303197724306   -0.0028612066685184145   -4.816955937472022e-05
-0.0032472028918181374   -0.004238130299440974   -8.780889984868509e-05
-0.0024628367288671593   -0.004248644491462664   -7.150519539054503e-05
-0.0025504303197724306   -0.0028612066685184145   -4.816955937472022e-05
-0.0033500144144194316   -0.002854399257576834   -5.770818292625439e-05
-0.0032472028918181374   -0.004238130299440974   -8.780889984868509e-05
-0.0033543953231118593   -0.0028488761143816033   -5.235963841591737e-05
-0.0024628367288671593   -0.004248644491462664   -7.150519539054503e-05
-0.0032471887119453367   -0.004234258823916826   -7.75614242407032e-05
-0.0033543953231118593   -0.0028488761143816033   -5.235963841591737e-05
-0.0032472028918181374   -0.004238130299440974   -8.780889984868509e-05
-0.0024628367288671593   -0.004248644491462664   -7.150519539054503e-05
-0.0033543953231118593   -0.0028488761143816033   -5.235963841591737e-05
-0.002557866341404384   -0.0028547574271221496   -4.248391775602132e-05
-0.0025504303197724306   -0.0028612066685184145   -4.816955937472022e-05
-0.0024628367288671593   -0.004248644491462664   -7.150519539054503e-05
-0.0033543953231118593   -0.0028488761143816033   -5.235963841591737e-05
-0.0025504303197724306   -0.0028612066685184145   -4.816955937472022e-05
-0.0032472028918181374   -0.004238130299440974   -8.780889984868509e-05
-0.0024628367288671593   -0.004248644491462664   -7.150519539054503e-05
-0.002557866341404384   -0.0028547574271221496   -4.248391775602132e-05
-0.0032471887119453367   -0.004234258823916826   -7.75614242407032e-05
-0.0024689407897584273   -0.004244675911891075   -6.239555290407147e-05
-0.002557866341404384   -0.0028547574271221496   -4.248391775602132e-05
-0.0033543953231118593   -0.0028488761143816033   -5.235963841591737e-05
-0.0032471887119453367   -0.004234258823916826   -7.75614242407032e-05
-0.003355654690687753   -0.002844368500491264   -4.62817174653785e-05
-0.0024689407897584273   -0.004244675911891075   -6.239555290407147e-05
-0.0032422605006311917   -0.004233007382435149   -6.62072521113687e-05
-0.003355654690687753   -0.002844368500491264   -4.62817174653785e-05
-0.0032471887119453367   -0.004234258823916826   -7.75614242407032e-05
-0.0024689407897584273   -0.004244675911891075   -6.239555290407147e-05
-0.003355654690687753   -0.002844368500491264   -4.62817174653785e-05
-0.0025648862088105107   -0.0028482350667074726   -3.624980403700234e-05
-0.002557866341404384   -0.0028547574271221496   -4.248391775602132e-05
-0.0024689407897584273   -0.004244675911891075   -6.239555290407147e-05
-0.003355654690687753   -0.002844368500491264   -4.62817174653785e-05
-0.002557866341404384   -0.0028547574271221496   -4.248391775602132e-05
-0.0032471887119453367   -0.004234258823916826   -7.75614242407032e-05
0.0005359866156232756   -0.002888483910569744   1.4192914481391434e-05
0.00038351315611589813   -0.0014658857349448818   1.6188459979921067e-05
-0.0002712082369339214   -0.0028762959134387483   -5.494284550344844e-06
0.000520391855414322   -0.002874187287007702   2.006661234177761e-05
0.00038351315611589813   -0.0014658857349448818   1.6188459979921067e-05
-0.0003788733435002721   -0.001449357361667506   1.230832288738302e-05
-0.0002712082369339214   -0.0028762959134387483   -5.494284550344844e-06
-0.0003895695377691219   -0.0014448428046117527   2.0152527131024292e-05
0.000520391855414322   -0.002874187287007702   2.006661234177761e-05
-0.0002816272548083134   -0.00286488733670771   -2.1560358879362455e-07
-0.0003895695377691219   -0.0014448428046117527   2.0152527131024292e-05
-0.0002712082369339214   -0.0028762959134387483   -5.494284550344844e-06
0.000520391855414322   -0.002874187287007702   2.006661234177761e-05
-0.0003895695377691219   -0.0014448428046117527   2.0152527131024292e-05
0.00034980003979164604   -0.0014501288043787415   3.511332894470671e-05
0.00038351315611589813   -0.0014658857349448818   1.6188459979921067e-05
0.000520391855414322   -0.002874187287007702   2.006661234177761e-05
-0.0003895695377691219   -0.0014448428046117527   2.0152527131024292e-05
0.00038351315611589813   -0.0014658857349448818   1.6188459979921067e-05
-0.0002712082369339214   -0.0028762959134387483   -5.494284550344844e-06
0.000520391855414322   -0.002874187287007702   2.006661234177761e-05
0.00034980003979164604   -0.0014501288043787415   3.511332894470671e-05
-0.0002816272548083134   -0.00286488733670771   -2.1560358879362455e-07
0.000502262926602066   -0.002860414007182434   2.913386222941667e-05
0.00034980003979164604   -0.0014501288043787415   3.511332894470671e-05
-0.0003895695377691219   -0.0014448428046117527   2.0152527131024292e-05
-0.0002816272548083134   -0.00286488733670771   -2.1560358879362455e-07
-0.000404199949537927   -0.0014348638533772436   2.9842623721247874e-05
0.000502262926602066   -0.002860414007182434   2.913386222941667e-05
-0.00029395101985295444   -0.0028530228426348397   6.109622282332832e-06
-0.000404199949537927   -0.0014348638533772436   2.9842623721247874e-05
-0.0002816272548083134   -0.00286488733670771   -2.1560358879362455e-07
0.000502262926602066   -0.002860414007182434   2.913386222941667e-05
-0.000404199949537927   -0.0014348638533772436   2.9842623721247874e-05
0.00033031432600026667   -0.0014381565342973517   4.891715115694299e-05
0.00034980003979164604   -0.0014501288043787415   3.511332894470671e-05
0.000502262926602066   -0.002860414007182434   2.913386222941667e-05
-0.000404199949537927   -0.0014348638533772436   2.9842623721247874e-05
0.00034980003979164604   -0.0014501288043787415   3.511332894470671e-05
-0.0002816272548083134   -0.00286488733670771   -2.1560358879362455e-07
0.000502262926602066   -0.002860414007182434   2.913386222941667e-05
0.00033031432600026667   -0.0014381565342973517   4.891715115694299e-05
-0.00029395101985295444   -0.0028530228426348397   6.109622282332832e-06
0.0004800436465010354   -0.0028433294192768076   3.9220734255953985e-05
0.00033031432600026667   -0.0014381565342973517   4.891715115694299e-05
-0.000404199949537927   -0.0014348638533772436   2.9842623721247874e-05
-0.00029395101985295444   -0.0028530228426348397   6.109622282332832e-06
-0.00041675209279556723   -0.0014244826353519617   3.833808903163651e-05
0.0004800436465010354   -0.0028433294192768076   3.9220734255953985e-05
-0.0003068582084875099   -0.0028405845631642238   1.3489044384290611e-05
-0.00041675209279556723   -0.0014244826353519617   3.833808903163651e-05
-0.00029395101985295444   -0.0028530228426348397   6.109622282332832e-06
0.0004800436465010354   -0.0028433294192768076   3.9220734255953985e-05
-0.00041675209279556723   -0.0014244826353519617   3.833808903163651e-05
0.0003049294498331267   -0.0014190027412669026   6.48728389172457e-05
0.00033031432600026667   -0.0014381565342973517   4.891715115694299e-05
0.0004800436465010354   -0.0028433294192768076   3.9220734255953985e-05
-0.00041675209279556723   -0.0014244826353519617   3.833808903163651e-05
0.00033031432600026667   -0.0014381565342973517   4.891715115694299e-05
-0.00029395101985295444   -0.0028530228426348397   6.109622282332832e-06
-0.0002712082369339214   -0.0028762959134387483   -5.494284550344844e-06
-0.0003788733435002721   -0.001449357361667506   1.230832288738302e-05
-0.0010289265033300234   -0.0028730844573455054   -2.3959988672901437e-05
-0.0002816272548083134   -0.00286488733670771   -2.1560358879362455e-07
-0.0003788733435002721   -0.001449357361667506   1.230832288738302e-05
-0.0010972612092017943   -0.0014725551090913073   -1.0787422648140892e-06
-0.0010289265033300234   -0.0028730844573455054   -2.3959988672901437e-05
-0.001107618274991893   -0.001464286220801175   4.68480438599054e-06
-0.0002816272548083134   -0.00286488733670771   -2.1560358879362455e-07
-0.0010386112479600477   -0.0028635170021164614   -1.8710086577126784e-05
-0.001107618274991893   -0.001464286220801175   4.68480438599054e-06
-0.0010289265033300234   -0.0028730844573455054   -2.3959988672901437e-05
-0.0002816272548083134   -0.00286488733670771   -2.1560358879362455e-07
-0.001107618274991893   -0.001464286220801175   4.68480438599054e-06
-0.0003895695377691219   -0.0014448428046117527   2.0152527131024292e-05
-0.0003788733435002721   -0.001449357361667506   1.230832288738302e-05
-0.0002816272548083134   -0.00286488733670771   -2.1560358879362455e-07
-0.001107618274991893   -0.001464286220801175   4.68480438599054e-06
-0.0003788733435002721   -0.001449357361667506   1.230832288738302e-05
-0.0010289265033300234   -0.0028730844573455054   -2.3959988672901437e-05
-0.0002816272548083134   -0.00286488733670771   -2.1560358879362455e-07
-0.0003895695377691219   -0.0014448428046117527   2.0152527131024292e-05
-0.0010386112479600477   -0.0028635170021164614   -1.8710086577126784e-05
-0.00029395101985295444   -0.0028530228426348397   6.109622282332832e-06
-0.0003895695377691219   -0.0014448428046117527   2.0152527131024292e-05
-0.001107618274991893   -0.001464286220801175   4.68480438599054e-06
-0.0010386112479600477   -0.0028635170021164614   -1.8710086577126784e-05
-0.0011187349169232365   -0.0014545977900968811   1.0923079465560665e-05
-0.00029395101985295444   -0.0028530228426348397   6.109622282332832e-06
-0.001048696185625515   -0.0028536336012686373   -1.2874632058002907e-05
-0.0011187349169232365   -0.0014545977900968811   1.0923079465560665e-05
-0.0010386112479600477   -0.0028635170021164614   -1.8710086577126784e-05
-0.00029395101985295444   -0.0028530228426348397   6.109622282332832e-06
-0.0011187349169232365   -0.0014545977900968811   1.0923079465560665e-05
-0.000404199949537927   -0.0014348638533772436   2.9842623721247874e-05
-0.0003895695377691219   -0.0014448428046117527   2.0152527131024292e-05
-0.00029395101985295444   -0.0028530228426348397   6.109622282332832e-06
-0.0011187349169232365   -0.0014545977900968811   1.0923079465560665e-05
-0.0003895695377691219   -0.0014448428046117527   2.0152527131024292e-05
-0.0010386112479600477   -0.0028635170021164614   -1.8710086577126784e-05
-0.00029395101985295444   -0.0028530228426348397   6.109622282332832e-06
-0.000404199949537927   -0.0014348638533772436   2.9842623721247874e-05
-0.001048696185625515   -0.0028536336012686373   -1.2874632058002907e-05
-0.0003068582084875099   -0.0028405845631642238   1.3489044384290611e-05
-0.000404199949537927   -0.0014348638533772436   2.9842623721247874e-05
-0.0011187349169232365   -0.0014545977900968811   1.0923079465560665e-05
-0.001048696185625515   -0.0028536336012686373   -1.2874632058002907e-05
-0.0011295298302087364   -0.0014439751139943482   1.7885385620355518e-05
-0.0003068582084875099   -0.0028405845631642238   1.3489044384290611e-05
-0.0010592622171456702   -0.002843704003821512   -6.351420901878825e-06
-0.0011295298302087364   -0.0014439751139943482   1.7885385620355518e-05
-0.001048696185625515   -0.0028536336012686373   -1.2874632058002907e-05
-0.0003068582084875099   -0.0028405845631642238   1.3489044384290611e-05
-0.0011295298302087364   -0.0014439751139943482   1.7885385620355518e-05
-0.00041675209279556723   -0.0014244826353519617   3.833808903163651e-05
-0.000404199949537927   -0.0014348638533772436   2.9842623721247874e-05
-0.0003068582084875099   -0.0028405845631642238   1.3489044384290611e-05
-0.0011295298302087364   -0.0014439751139943482   1.7885385620355518e-05
-0.000404199949537927   -0.0014348638533772436   2.9842623721247874e-05
-0.001048696185625515   -0.0028536336012686373   -1.2874632058002907e-05
-0.0010289265033300234   -0.0028730844573455054   -2.3959988672901437e-05
-0.0010972612092017943   -0.0014725551090913073   -1.0787422648140892e-06
-0.0017771519938923888   -0.002872110137699655   -4.03327590411032e-05
-0.0010386112479600477   -0.0028635170021164614   -1.8710086577126784e-05
-0.0010972612092017943   -0.0014725551090913073   -1.0787422648140892e-06
-0.0018301361211160705   -0.0014907263360539958   -1.6800491096257927e-05
-0.0017771519938923888   -0.002872110137699655   -4.03327590411032e-05
-0.001839661312503705   -0.0014821345675992785   -1.2163210241889458e-05
-0.0010386112479600477   -0.0028635170021164614   -1.8710086577126784e-05
-0.0017865414952977822   -0.0028640026497428646   -3.503488768623023e-05
-0.001839661312503705   -0.0014821345675992785   -1.2163210241889458e-05
-0.0017771519938923888   -0.002872110137699655   -4.03327590411032e-05
-0.0010386112479600477   -0.0028635170021164614   -1.8710086577126784e-05
-0.001839661312503705   -0.0014821345675992785   -1.2163210241889458e-05
-0.001107618274991893   -0.001464286220801175   4.68480438599054e-06
-0.0010972612092017943   -0.0014725551090913073   -1.0787422648140892e-06
-0.0010386112479600477   -0.0028635170021164614   -1.8710086577126784e-05
-0.001839661312503705   -0.0014821345675992785   -1.2163210241889458e-05
-0.0010972612092017943   -0.0014725551090913073   -1.0787422648140892e-06
-0.0017771519938923888   -0.002872110137699655   -4.03327590411032e-05
-0.0010386112479600477   -0.0028635170021164614   -1.8710086577126784e-05
-0.001107618274991893   -0.001464286220801175   4.68480438599054e-06
-0.0017865414952977822   -0.0028640026497428646   -3.503488768623023e-05
-0.001048696185625515   -0.0028536336012686373   -1.2874632058002907e-05
-0.001107618274991893   -0.001464286220801175   4.68480438599054e-06
-0.001839661312503705   -0.0014821345675992785   -1.2163210241889458e-05
-0.0017865414952977822   -0.0028640026497428646   -3.503488768623023e-05
-0.0018489351746828165   -0.0014729042864571767   -7.441673988330243e-06
-0.001048696185625515   -0.0028536336012686373   -1.2874632058002907e-05
-0.0017954936982468534   -0.0028558603209108834   -2.9214086066716327e-05
-0.0018489351746828165   -0.0014729042864571767   -7.441673988330243e-06
-0.0017865414952977822   -0.0028640026497428646   -3.503488768623023e-05
-0.001048696185625515   -0.0028536336012686373   -1.2874632058002907e-05
-0.0018489351746828165   -0.0014729042864571767   -7.441673988330243e-06
-0.0011187349169232365   -0.0014545977900968811   1.0923079465560665e-05
-0.001107618274991893   -0.001464286220801175   4.68480438599054e-06
-0.001048696185625515   -0.0028536336012686373   -1.2874632058002907e-05
-0.0018489351746828165   -0.0014729042864571767   -7.441673988330243e-06
-0.001107618274991893   -0.001464286220801175   4.68480438599054e-06
-0.0017865414952977822   -0.0028640026497428646   -3.503488768623023e-05
-0.001048696185625515   -0.0028536336012686373   -1.2874632058002907e-05
-0.0011187349169232365   -0.0014545977900968811   1.0923079465560665e-05
-0.0017954936982468534   -0.0028558603209108834   -2.9214086066716327e-05
-0.0010592622171456702   -0.002843704003821512   -6.351420901878825e-06
-0.0011187349169232365   -0.0014545977900968811   1.0923079465560665e-05
-0.0018489351746828165   -0.0014729042864571767   -7.441673988330243e-06
-0.0017954936982468534   -0.0028558603209108834   -2.9214086066716327e-05
-0.001857611851443432   -0.001462788688555076   -2.1960880079522025e-06
-0.0010592622171456702   -0.002843704003821512   -6.351420901878825e-06
-0.0018043631114707888   -0.002847619288672421   -2.288979262801868e-05
-0.001857611851443432   -0.001462788688555076   -2.1960880079522025e-06
-0.0017954936982468534   -0.0028558603209108834   -2.9214086066716327e-05
-0.0010592622171456702   -0.002843704003821512   -6.351420901878825e-06
-0.001857611851443432   -0.001462788688555076   -2.1960880079522025e-06
-0.0011295298302087364   -0.0014439751139943482   1.7885385620355518e-05
-0.0011187349169232365   -0.0014545977900968811   1.0923079465560665e-05
-0.0010592622171456702   -0.002843704003821512   -6.351420901878825e-06
-0.001857611851443432   -0.001462788688555076   -2.1960880079522025e-06
-0.0011187349169232365   -0.0014545977900968811   1.0923079465560665e-05
-0.0017954936982468534   -0.0028558603209108834   -2.9214086066716327e-05
-0.0017771519938923888   -0.002872110137699655   -4.03327590411032e-05
-0.0018301361211160705   -0.0014907263360539958   -1.6800491096257927e-05
-0.0025414838031484702   -0.0028673581635809586   -5.345198466095358e-05
-0.0017865414952977822   -0.0028640026497428646   -3.503488768623023e-05
-0.0018301361211160705   -0.0014907263360539958   -1.6800491096257927e-05
-0.002588846599364008   -0.0014983467215397505   -3.1105307771927824e-05
-0.0025414838031484702   -0.0028673581635809586   -5.345198466095358e-05
-0.0025974769829031916   -0.001490901333478048   -2.7582910108538863e-05
-0.0017865414952977822   -0.0028640026497428646   -3.503488768623023e-05
-0.0025504303197724306   -0.0028612066685184145   -4.816955937472022e-05
-0.0025974769829031916   -0.001490901333478048   -2.7582910108538863e-05
-0.0025414838031484702   -0.0028673581635809586   -5.345198466095358e-05
-0.0017865414952977822   -0.0028640026497428646   -3.503488768623023e-05
-0.0025974769829031916   -0.001490901333478048   -2.7582910108538863e-05
-0.001839661312503705   -0.0014821345675992785   -1.2163210241889458e-05
-0.0018301361211160705   -0.0014907263360539958   -1.6800491096257927e-05
-0.0017865414952977822   -0.0028640026497428646   -3.503488768623023e-05
-0.0025974769829031916   -0.001490901333478048   -2.7582910108538863e-05
-0.0018301361211160705   -0.0014907263360539958   -1.6800491096257927e-05
-0.0025414838031484702   -0.0028673581635809586   -5.345198466095358e-05
-0.0017865414952977822   -0.0028640026497428646   -3.503488768623023e-05
-0.001839661312503705   -0.0014821345675992785   -1.2163210241889458e-05
-0.0025504303197724306   -0.0028612066685184145   -4.816955937472022e-05
-0.0017954936982468534   -0.0028558603209108834   -2.9214086066716327e-05
-0.001839661312503705   -0.0014821345675992785   -1.2163210241889458e-05
-0.0025974769829031916   -0.001490901333478048   -2.7582910108538863e-05
-0.0025504303197724306   -0.0028612066685184145   -4.816955937472022e-05
-0.002605177458623777   -0.0014825797694158328   -2.4069582711253557e-05
-0.0017954936982468534   -0.0028558603209108834   -2.9214086066716327e-05
-0.002557866341404384   -0.0028547574271221496   -4.248391775602132e-05
-0.002605177458623777   -0.0014825797694158328   -2.4069582711253557e-05
-0.0025504303197724306   -0.0028612066685184145   -4.816955937472022e-05
-0.0017954936982468534   -0.0028558603209108834   -2.9214086066716327e-05
-0.002605177458623777   -0.0014825797694158328   -2.4069582711253557e-05
-0.0018489351746828165   -0.0014729042864571767   -7.441673988330243e-06
-0.001839661312503705   -0.0014821345675992785   -1.2163210241889458e-05
-0.0017954936982468534   -0.0028558603209108834   -2.9214086066716327e-05
-0.002605177458623777   -0.0014825797694158328   -2.4069582711253557e-05
-0.001839661312503705   -0.0014821345675992785   -1.2163210241889458e-05
-0.0025504303197724306   -0.0028612066685184145   -4.816955937472022e-05
-0.0017954936982468534   -0.0028558603209108834   -2.9214086066716327e-05
-0.0018489351746828165   -0.0014729042864571767   -7.441673988330243e-06
-0.002557866341404384   -0.0028547574271221496   -4.248391775602132e-05
-0.0018043631114707888   -0.002847619288672421   -2.288979262801868e-05
-0.0018489351746828165   -0.0014729042864571767   -7.441673988330243e-06
-0.002605177458623777   -0.0014825797694158328   -2.4069582711253557e-05
-0.002557866341404384   -0.0028547574271221496   -4.248391775602132e-05
-0.0026121890816066294   -0.001473617418896332   -2.034517891661186e-05
-0.0018043631114707888   -0.002847619288672421   -2.288979262801868e-05
-0.0025648862088105107   -0.0028482350667074726   -3.624980403700234e-05
-0.0026121890816066294   -0.001473617418896332   -2.034517891661186e-05
-0.002557866341404384   -0.0028547574271221496   -4.248391775602132e-05
-0.0018043631114707888   -0.002847619288672421   -2.288979262801868e-05
-0.0026121890816066294   -0.001473617418896332   -2.034517891661186e-05
-0.001857611851443432   -0.001462788688555076   -2.1960880079522025e-06
-0.0018489351746828165   -0.0014729042864571767   -7.441673988330243e-06
-0.0018043631114707888   -0.002847619288672421   -2.288979262801868e-05
-0.0026121890816066294   -0.001473617418896332   -2.034517891661186e-05
-0.0018489351746828165   -0.0014729042864571767   -7.441673988330243e-06
-0.002557866341404384   -0.0028547574271221496   -4.248391775602132e-05
-0.0025414838031484702   -0.0028673581635809586   -5.345198466095358e-05
-0.002588846599364008   -0.0014983467215397505   -3.1105307771927824e-05
-0.0033452238768002427   -0.0028591143660460635   -6.213256102504448e-05
-0.0025504303197724306   -0.0028612066685184145   -4.816955937472022e-05
-0.002588846599364008   -0.0014983467215397505   -3.1105307771927824e-05
-0.0033775487340797776   -0.0014989335174867358   -4.2274550736740076e-05
-0.0033452238768002427   -0.0028591143660460635   -6.213256102504448e-05
-0.003384725822660181   -0.001491830821095836   -4.048799941773632e-05
-0.0025504303197724306   -0.0028612066685184145   -4.816955937472022e-05
-0.0033500144144194316   -0.002854399257576834   -5.770818292625439e-05
-0.003384725822660181   -0.001491830821095836   -4.048799941773632e-05
-0.0033452238768002427   -0.0028591143660460635   -6.213256102504448e-05
-0.0025504303197724306   -0.0028612066685184145   -4.816955937472022e-05
-0.003384725822660181   -0.001491830821095836   -4.048799941773632e-05
-0.0025974769829031916   -0.001490901333478048   -2.7582910108538863e-05
-0.002588846599364008   -0.0014983467215397505   -3.1105307771927824e-05
-0.0025504303197724306   -0.0028612066685184145   -4.816955937472022e-05
-0.003384725822660181   -0.001491830821095836   -4.048799941773632e-05
-0.002588846599364008   -0.0014983467215397505   -3.1105307771927824e-05
-0.0033452238768002427   -0.0028591143660460635   -6.213256102504448e-05
-0.0025504303197724306   -0.0028612066685184145   -4.816955937472022e-05
-0.0025974769829031916   -0.001490901333478048   -2.7582910108538863e-05
-0.0033500144144194316   -0.002854399257576834   -5.770818292625439e-05
-0.002557866341404384   -0.0028547574271221496   -4.248391775602132e-05
-0.0025974769829031916   -0.001490901333478048   -2.7582910108538863e-05
-0.003384725822660181   -0.001491830821095836   -4.048799941773632e-05
-0.0033500144144194316   -0.002854399257576834   -5.770818292625439e-05
-0.003391156164449498   -0.0014839361843309014   -3.8347678134654846e-05
-0.002557866341404384   -0.0028547574271221496   -4.248391775602132e-05
-0.0033543953231118593   -0.0028488761143816033   -5.235963841591737e-05
-0.003391156164449498   -0.0014839361843309014   -3.8347678134654846e-05
-0.0033500144144194316   -0.002854399257576834   -5.770818292625439e-05
-0.002557866341404384   -0.0028547574271221496   -4.248391775602132e-05
-0.003391156164449498   -0.0014839361843309014   -3.8347678134654846e-05
-0.002605177458623777   -0.0014825797694158328   -2.4069582711253557e-05
-0.0025974769829031916   -0.001490901333478048   -2.7582910108538863e-05
-0.002557866341404384   -0.0028547574271221496   -4.248391775602132e-05
-0.003391156164449498   -0.0014839361843309014   -3.8347678134654846e-05
-0.0025974769829031916   -0.001490901333478048   -2.7582910108538863e-05
-0.0033500144144194316   -0.002854399257576834   -5.770818292625439e-05
-0.002557866341404384   -0.0028547574271221496   -4.248391775602132e-05
-0.002605177458623777   -0.0014825797694158328   -2.4069582711253557e-05
-0.0033543953231118593   -0.0028488761143816033   -5.235963841591737e-05
-0.0025648862088105107   -0.0028482350667074726   -3.624980403700234e-05
-0.002605177458623777   -0.0014825797694158328   -2.4069582711253557e-05
-0.003391156164449498   -0.0014839361843309014   -3.8347678134654846e-05
-0.0033543953231118593   -0.0028488761143816033   -5.235963841591737e-05
-0.0033962567786713703   -0.0014756173905828434   -3.618247472490643e-05
-0.0025648862088105107   -0.0028482350667074726   -3.624980403700234e-05
-0.003355654690687753   -0.002844368500491264   -4.62817174653785e-05
-0.0033962567786713703   -0.0014756173905828434   -3.618247472490643e-05
-0.0033543953231118593   -0.0028488761143816033   -5.235963841591737e-05
-0.0025648862088105107   -0.0028482350667074726   -3.624980403700234e-05
-0.0033962567786713703   -0.0014756173905828434   -3.618247472490643e-05
-0.0026121890816066294   -0.001473617418896332   -2.034517891661186e-05
-0.002605177458623777   -0.0014825797694158328   -2.4069582711253557e-05
-0.0025648862088105107   -0.0028482350667074726   -3.624980403700234e-05
-0.0033962567786713703   -0.0014756173905828434   -3.618247472490643e-05
-0.002605177458623777   -0.0014825797694158328   -2.4069582711253557e-05
-0.0033543953231118593   -0.0028488761143816033   -5.235963841591737e-05
0.00038351315611589813   -0.0014658857349448818   1.6188459979921067e-05
0.0   0.0   0.0
-0.0003788733435002721   -0.001449357361667506   1.230832288738302e-05
0.00034980003979164604   -0.0014501288043787415   3.511332894470671e-05
0.0   0.0   0.0
-0.0004654742169399363   -0.00013516912637264223   1.389587561949272e-07
-0.0003788733435002721   -0.001449357361667506   1.230832288738302e-05
-0.000493651758310761   -0.00010849269604171586   1.7916901948988274e-05
0.00034980003979164604   -0.0014501288043787415   3.511332894470671e-05
-0.0003895695377691219   -0.0014448428046117527   2.0152527131024292e-05
-0.000493651758310761   -0.00010849269604171586   1.7916901948988274e-05
-0.0003788733435002721   -0.001449357361667506   1.230832288738302e-05
0.00034980003979164604   -0.0014501288043787415   3.511332894470671e-05
-0.000493651758310761   -0.00010849269604171586   1.7916901948988274e-05
0.0   0.0   0.0
0.0   0.0   0.0
0.00034980003979164604   -0.0014501288043787415   3.511332894470671e-05
-0.000493651758310761   -0.00010849269604171586   1.7916901948988274e-05
0.0   0.0   0.0
-0.0003788733435002721   -0.001449357361667506   1.230832288738302e-05
0.00034980003979164604   -0.0014501288043787415   3.511332894470671e-05
0.0   0.0   0.0
-0.0003895695377691219   -0.0014448428046117527   2.0152527131024292e-05
0.00033031432600026667   -0.0014381565342973517   4.891715115694299e-05
0.0   0.0   0.0
-0.000493651758310761   -0.00010849269604171586   1.7916901948988274e-05
-0.0003895695377691219   -0.0014448428046117527   2.0152527131024292e-05
-0.00051185275849407   -9.609641358550744e-05   2.8753324761143566e-05
0.00033031432600026667   -0.0014381565342973517   4.891715115694299e-05
-0.000404199949537927   -0.0014348638533772436   2.9842623721247874e-05
-0.00051185275849407   -9.609641358550744e-05   2.8753324761143566e-05
-0.0003895695377691219   -0.0014448428046117527   2.0152527131024292e-05
0.00033031432600026667   -0.0014381565342973517   4.891715115694299e-05
-0.00051185275849407   -9.609641358550744e-05   2.8753324761143566e-05
0.0   0.0   0.0
0.0   0.0   0.0
0.00033031432600026667   -0.0014381565342973517   4.891715115694299e-05
-0.00051185275849407   -9.609641358550744e-05   2.8753324761143566e-05
0.0   0.0   0.0
-0.0003895695377691219   -0.0014448428046117527   2.0152527131024292e-05
0.00033031432600026667   -0.0014381565342973517   4.891715115694299e-05
0.0   0.0   0.0
-0.000404199949537927   -0.0014348638533772436   2.9842623721247874e-05
0.0003049294498331267   -0.0014190027412669026   6.48728389172457e-05
0.0   0.0   0.0
-0.00051185275849407   -9.609641358550744e-05   2.8753324761143566e-05
-0.000404199949537927   -0.0014348638533772436   2.9842623721247874e-05
-0.0005371573524488252   -7.934057155077109e-05   4.1301748029897474e-05
0.0003049294498331267   -0.0014190027412669026   6.48728389172457e-05
-0.00041675209279556723   -0.0014244826353519617   3.833808903163651e-05
-0.0005371573524488252   -7.934057155077109e-05   4.1301748029897474e-05
-0.000404199949537927   -0.0014348638533772436   2.9842623721247874e-05
0.0003049294498331267   -0.0014190027412669026   6.48728389172457e-05
-0.0005371573524488252   -7.934057155077109e-05   4.1301748029897474e-05
0.0   0.0   0.0
0.0   0.0   0.0
0.0003049294498331267   -0.0014190027412669026   6.48728389172457e-05
-0.0005371573524488252   -7.934057155077109e-05   4.1301748029897474e-05
0.0   0.0   0.0
-0.000404199949537927   -0.0014348638533772436   2.9842623721247874e-05
-0.0003788733435002721   -0.001449357361667506   1.230832288738302e-05
-0.0004654742169399363   -0.00013516912637264223   1.389587561949272e-07
-0.0010972612092017943   -0.0014725551090913073   -1.0787422648140892e-06
-0.0003895695377691219   -0.0014448428046117527   2.0152527131024292e-05
-0.0004654742169399363   -0.00013516912637264223   1.389587561949272e-07
-0.001126386726819686   -0.00018334922979666493   6.050101709314267e-06
-0.0010972612092017943   -0.0014725551090913073   -1.0787422648140892e-06
-0.0011415859621079721   -0.00016974770477823874   1.1392886968630447e-05
-0.0003895695377691219   -0.0014448428046117527   2.0152527131024292e-05
-0.001107618274991893   -0.001464286220801175   4.68480438599054e-06
-0.0011415859621079721   -0.00016974770477823874   1.1392886968630447e-05
-0.0010972612092017943   -0.0014725551090913073   -1.0787422648140892e-06
-0.0003895695377691219   -0.0014448428046117527   2.0152527131024292e-05
-0.0011415859621079721   -0.00016974770477823874   1.1392886968630447e-05
-0.000493651758310761   -0.00010849269604171586   1.7916901948988274e-05
-0.0004654742169399363   -0.00013516912637264223   1.389587561949272e-07
-0.0003895695377691219   -0.0014448428046117527   2.0152527131024292e-05
-0.0011415859621079721   -0.00016974770477823874   1.1392886968630447e-05
-0.0004654742169399363   -0.00013516912637264223   1.389587561949272e-07
-0.0010972612092017943   -0.0014725551090913073   -1.0787422648140892e-06
-0.0003895695377691219   -0.0014448428046117527   2.0152527131024292e-05
-0.000493651758310761   -0.00010849269604171586   1.7916901948988274e-05
-0.001107618274991893   -0.001464286220801175   4.68480438599054e-06
-0.000404199949537927   -0.0014348638533772436   2.9842623721247874e-05
-0.000493651758310761   -0.00010849269604171586   1.7916901948988274e-05
-0.0011415859621079721   -0.00016974770477823874   1.1392886968630447e-05
-0.001107618274991893   -0.001464286220801175   4.68480438599054e-06
-0.0011569610628719552   -0.00015357290425683452   2.036743928172414e-05
-0.000404199949537927   -0.0014348638533772436   2.9842623721247874e-05
-0.0011187349169232365   -0.0014545977900968811   1.0923079465560665e-05
-0.0011569610628719552   -0.00015357290425683452   2.036743928172414e-05
-0.001107618274991893   -0.001464286220801175   4.68480438599054e-06
-0.000404199949537927   -0.0014348638533772436   2.9842623721247874e-05
-0.0011569610628719552   -0.00015357290425683452   2.036743928172414e-05
-0.00051185275849407   -9.609641358550744e-05   2.8753324761143566e-05
-0.000493651758310761   -0.00010849269604171586   1.7916901948988274e-05
-0.000404199949537927   -0.0014348638533772436   2.9842623721247874e-05
-0.0011569610628719552   -0.00015357290425683452   2.036743928172414e-05
-0.000493651758310761   -0.00010849269604171586   1.7916901948988274e-05
-0.001107618274991893   -0.001464286220801175   4.68480438599054e-06
-0.000404199949537927   -0.0014348638533772436   2.9842623721247874e-05
-0.00051185275849407   -9.609641358550744e-05   2.8753324761143566e-05
-0.0011187349169232365   -0.0014545977900968811   1.0923079465560665e-05
-0.00041675209279556723   -0.0014244826353519617   3.833808903163651e-05
-0.00051185275849407   -9.609641358550744e-05   2.8753324761143566e-05
-0.0011569610628719552   -0.00015357290425683452   2.036743928172414e-05
-0.0011187349169232365   -0.0014545977900968811   1.0923079465560665e-05
-0.0011749225532960731   -0.00013427947244167354   2.933259958060859e-05
-0.00041675209279556723   -0.0014244826353519617   3.833808903163651e-05
-0.0011295298302087364   -0.0014439751139943482   1.7885385620355518e-05
-0.0011749225532960731   -0.00013427947244167354   2.933259958060859e-05
-0.0011187349169232365   -0.0014545977900968811   1.0923079465560665e-05
-0.00041675209279556723   -0.0014244826353519617   3.833808903163651e-05
-0.0011749225532960731   -0.00013427947244167354   2.933259958060859e-05
-0.0005371573524488252   -7.934057155077109e-05   4.1301748029897474e-05
-0.00051185275849407   -9.609641358550744e-05   2.8753324761143566e-05
-0.00041675209279556723   -0.0014244826353519617   3.833808903163651e-05
-0.0011749225532960731   -0.00013427947244167354   2.933259958060859e-05
-0.00051185275849407   -9.609641358550744e-05   2.8753324761143566e-05
-0.0011187349169232365   -0.0014545977900968811   1.0923079465560665e-05
-0.0010972612092017943   -0.0014725551090913073   -1.0787422648140892e-06
-0.001126386726819686   -0.00018334922979666493   6.050101709314267e-06
-0.0018301361211160705   -0.0014907263360539958   -1.6800491096257927e-05
-0.001107618274991893   -0.001464286220801175   4.68480438599054e-06
-0.001126386726819686   -0.00018334922979666493   6.050101709314267e-06
-0.0018470301338354069   -0.00020036006553217212   -1.711310025458169e-06
-0.0018301361211160705   -0.0014907263360539958   -1.6800491096257927e-05
-0.0018566433079653004   -0.0001908482721404751   1.295177905085092e-07
-0.001107618274991893   -0.001464286220801175   4.68480438599054e-06
-0.001839661312503705   -0.0014821345675992785   -1.2163210241889458e-05
-0.0018566433079653004   -0.0001908482721404751   1.295177905085092e-07
-0.0018301361211160705   -0.0014907263360539958   -1.6800491096257927e-05
-0.001107618274991893   -0.001464286220801175   4.68480438599054e-06
-0.0018566433079653004   -0.0001908482721404751   1.295177905085092e-07
-0.0011415859621079721   -0.00016974770477823874   1.1392886968630447e-05
-0.001126386726819686   -0.00018334922979666493   6.050101709314267e-06
-0.001107618274991893   -0.001464286220801175   4.68480438599054e-06
-0.0018566433079653004   -0.0001908482721404751   1.295177905085092e-07
-0.001126386726819686   -0.00018334922979666493   6.050101709314267e-06
-0.0018301361211160705   -0.0014907263360539958   -1.6800491096257927e-05
-0.001107618274991893   -0.001464286220801175   4.68480438599054e-06
-0.0011415859621079721   -0.00016974770477823874   1.1392886968630447e-05
-0.001839661312503705   -0.0014821345675992785   -1.2163210241889458e-05
-0.0011187349169232365   -0.0014545977900968811   1.0923079465560665e-05
-0.0011415859621079721   -0.00016974770477823874   1.1392886968630447e-05
-0.0018566433079653004   -0.0001908482721404751   1.295177905085092e-07
-0.001839661312503705   -0.0014821345675992785   -1.2163210241889458e-05
-0.0018667093493090607   -0.0001792634035794535   3.1531363492616675e-06
-0.0011187349169232365   -0.0014545977900968811   1.0923079465560665e-05
-0.0018489351746828165   -0.0014729042864571767   -7.441673988330243e-06
-0.0018667093493090607   -0.0001792634035794535   3.1531363492616675e-06
-0.001839661312503705   -0.0014821345675992785   -1.2163210241889458e-05
-0.0011187349169232365   -0.0014545977900968811   1.0923079465560665e-05
-0.0018667093493090607   -0.0001792634035794535   3.1531363492616675e-06
-0.0011569610628719552   -0.00015357290425683452   2.036743928172414e-05
-0.0011415859621079721   -0.00016974770477823874   1.1392886968630447e-05
-0.0011187349169232365   -0.0014545977900968811   1.0923079465560665e-05
-0.0018667093493090607   -0.0001792634035794535   3.1531363492616675e-06
-0.0011415859621079721   -0.00016974770477823874   1.1392886968630447e-05
-0.001839661312503705   -0.0014821345675992785   -1.2163210241889458e-05
-0.0011187349169232365   -0.0014545977900968811   1.0923079465560665e-05
-0.0011569610628719552   -0.00015357290425683452   2.036743928172414e-05
-0.0018489351746828165   -0.0014729042864571767   -7.441673988330243e-06
-0.0011295298302087364   -0.0014439751139943482   1.7885385620355518e-05
-0.0011569610628719552   -0.00015357290425683452   2.036743928172414e-05
-0.0018667093493090607   -0.0001792634035794535   3.1531363492616675e-06
-0.0018489351746828165   -0.0014729042864571767   -7.441673988330243e-06
-0.0018770346851808468   -0.00016426303461297448   7.15629087281479e-06
-0.0011295298302087364   -0.0014439751139943482   1.7885385620355518e-05
-0.001857611851443432   -0.001462788688555076   -2.1960880079522025e-06
-0.0018770346851808468   -0.00016426303461297448   7.15629087281479e-06
-0.0018489351746828165   -0.0014729042864571767   -7.441673988330243e-06
-0.0011295298302087364   -0.0014439751139943482   1.7885385620355518e-05
-0.0018770346851808468   -0.00016426303461297448   7.15629087281479e-06
-0.0011749225532960731   -0.00013427947244167354   2.933259958060859e-05
-0.0011569610628719552   -0.00015357290425683452   2.036743928172414e-05
-0.0011295298302087364   -0.0014439751139943482   1.7885385620355518e-05
-0.0018770346851808468   -0.00016426303461297448   7.15629087281479e-06
-0.0011569610628719552   -0.00015357290425683452   2.036743928172414e-05
-0.0018489351746828165   -0.0014729042864571767   -7.441673988330243e-06
-0.0018301361211160705   -0.0014907263360539958   -1.6800491096257927e-05
-0.0018470301338354069   -0.00020036006553217212   -1.711310025458169e-06
-0.002588846599364008   -0.0014983467215397505   -3.1105307771927824e-05
-0.001839661312503705   -0.0014821345675992785   -1.2163210241889458e-05
-0.0018470301338354069   -0.00020036006553217212   -1.711310025458169e-06
-0.0026028431758494132   -0.00020148672850801828   -1.5685582604126966e-05
-0.002588846599364008   -0.0014983467215397505   -3.1105307771927824e-05
-0.0026094375453067473   -0.00019375664277833187   -1.4842944333544875e-05
-0.001839661312503705   -0.0014821345675992785   -1.2163210241889458e-05
-0.0025974769829031916   -0.001490901333478048   -2.7582910108538863e-05
-0.0026094375453067473   -0.00019375664277833187   -1.4842944333544875e-05
-0.002588846599364008   -0.0014983467215397505   -3.1105307771927824e-05
-0.001839661312503705   -0.0014821345675992785   -1.2163210241889458e-05
-0.0026094375453067473   -0.00019375664277833187   -1.4842944333544875e-05
-0.0018566433079653004   -0.0001908482721404751   1.295177905085092e-07
-0.0018470301338354069   -0.00020036006553217212   -1.711310025458169e-06
-0.001839661312503705   -0.0014821345675992785   -1.2163210241889458e-05
-0.0026094375453067473   -0.00019375664277833187   -1.4842944333544875e-05
-0.0018470301338354069   -0.00020036006553217212   -1.711310025458169e-06
-0.002588846599364008   -0.0014983467215397505   -3.1105307771927824e-05
-0.001839661312503705   -0.0014821345675992785   -1.2163210241889458e-05
-0.0018566433079653004   -0.0001908482721404751   1.295177905085092e-07
-0.0025974769829031916   -0.001490901333478048   -2.7582910108538863e-05
-0.0018489351746828165   -0.0014729042864571767   -7.441673988330243e-06
-0.0018566433079653004   -0.0001908482721404751   1.295177905085092e-07
-0.0026094375453067473   -0.00019375664277833187   -1.4842944333544875e-05
-0.0025974769829031916   -0.001490901333478048   -2.7582910108538863e-05
-0.002616293529307955   -0.00018462734867380424   -1.395223653356481e-05
-0.0018489351746828165   -0.0014729042864571767   -7.441673988330243e-06
-0.002605177458623777   -0.0014825797694158328   -2.4069582711253557e-05
-0.002616293529307955   -0.00018462734867380424   -1.395223653356481e-05
-0.0025974769829031916   -0.001490901333478048   -2.7582910108538863e-05
-0.0018489351746828165   -0.0014729042864571767   -7.441673988330243e-06
-0.002616293529307955   -0.00018462734867380424   -1.395223653356481e-05
-0.0018667093493090607   -0.0001792634035794535   3.1531363492616675e-06
-0.0018566433079653004   -0.0001908482721404751   1.295177905085092e-07
-0.0018489351746828165   -0.0014729042864571767   -7.441673988330243e-06
-0.002616293529307955   -0.00018462734867380424   -1.395223653356481e-05
-0.0018566433079653004   -0.0001908482721404751   1.295177905085092e-07
-0.0025974769829031916   -0.001490901333478048   -2.7582910108538863e-05
-0.0018489351746828165   -0.0014729042864571767   -7.441673988330243e-06
-0.0018667093493090607   -0.0001792634035794535   3.1531363492616675e-06
-0.002605177458623777   -0.0014825797694158328   -2.4069582711253557e-05
-0.001857611851443432   -0.001462788688555076   -2.1960880079522025e-06
-0.0018667093493090607   -0.0001792634035794535   3.1531363492616675e-06
-0.002616293529307955   -0.00018462734867380424   -1.395223653356481e-05
-0.002605177458623777   -0.0014825797694158328   -2.4069582711253557e-05
-0.0026220491454022393   -0.0001742085274025411   -1.3013837601573184e-05
-0.001857611851443432   -0.001462788688555076   -2.1960880079522025e-06
-0.0026121890816066294   -0.001473617418896332   -2.034517891661186e-05
-0.0026220491454022393   -0.0001742085274025411   -1.3013837601573184e-05
-0.002605177458623777   -0.0014825797694158328   -2.4069582711253557e-05
-0.001857611851443432   -0.001462788688555076   -2.1960880079522025e-06
-0.0026220491454022393   -0.0001742085274025411   -1.3013837601573184e-05
-0.0018770346851808468   -0.00016426303461297448   7.15629087281479e-06
-0.0018667093493090607   -0.0001792634035794535   3.1531363492616675e-06
-0.001857611851443432   -0.001462788688555076   -2.1960880079522025e-06
-0.0026220491454022393   -0.0001742085274025411   -1.3013837601573184e-05
-0.0018667093493090607   -0.0001792634035794535   3.1531363492616675e-06
-0.002605177458623777   -0.0014825797694158328   -2.4069582711253557e-05
-0.002588846599364008   -0.0014983467215397505   -3.1105307771927824e-05
-0.0026028431758494132   -0.00020148672850801828   -1.5685582604126966e-05
-0.0033775487340797776   -0.0014989335174867358   -4.2274550736740076e-05
-0.0025974769829031916   -0.001490901333478048   -2.7582910108538863e-05
-0.0026028431758494132   -0.00020148672850801828   -1.5685582604126966e-05
-0.003381686068645472   -0.00020065431802364722   -2.9703859642718327e-05
-0.0033775487340797776   -0.0014989335174867358   -4.2274550736740076e-05
-0.003386920333887945   -0.00019246277822247674   -2.9521113665687083e-05
-0.0025974769829031916   -0.001490901333478048   -2.7582910108538863e-05
-0.003384725822660181   -0.001491830821095836   -4.048799941773632e-05
-0.003386920333887945   -0.00019246277822247674   -2.9521113665687083e-05
-0.0033775487340797776   -0.0014989335174867358   -4.2274550736740076e-05
-0.0025974769829031916   -0.001490901333478048   -2.7582910108538863e-05
-0.003386920333887945   -0.00019246277822247674   -2.9521113665687083e-05
-0.0026094375453067473   -0.00019375664277833187   -1.4842944333544875e-05
-0.0026028431758494132   -0.00020148672850801828   -1.5685582604126966e-05
-0.0025974769829031916   -0.001490901333478048   -2.7582910108538863e-05
-0.003386920333887945   -0.00019246277822247674   -2.9521113665687083e-05
-0.0026028431758494132   -0.00020148672850801828   -1.5685582604126966e-05
-0.0033775487340797776   -0.0014989335174867358   -4.2274550736740076e-05
-0.0025974769829031916   -0.001490901333478048   -2.7582910108538863e-05
-0.0026094375453067473   -0.00019375664277833187   -1.4842944333544875e-05
-0.003384725822660181   -0.001491830821095836   -4.048799941773632e-05
-0.002605177458623777   -0.0014825797694158328   -2.4069582711253557e-05
-0.0026094375453067473   -0.00019375664277833187   -1.4842944333544875e-05
-0.003386920333887945   -0.00019246277822247674   -2.9521113665687083e-05
-0.003384725822660181   -0.001491830821095836   -4.048799941773632e-05
-0.003392618537226383   -0.00018392380135344574   -2.9996326087507008e-05
-0.002605177458623777   -0.0014825797694158328   -2.4069582711253557e-05
-0.003391156164449498   -0.0014839361843309014   -3.8347678134654846e-05
-0.003392618537226383   -0.00018392380135344574   -2.9996326087507008e-05
-0.003384725822660181   -0.001491830821095836   -4.048799941773632e-05
-0.002605177458623777   -0.0014825797694158328   -2.4069582711253557e-05
-0.003392618537226383   -0.00018392380135344574   -2.9996326087507008e-05
-0.002616293529307955   -0.00018462734867380424   -1.395223653356481e-05
-0.0026094375453067473   -0.00019375664277833187   -1.4842944333544875e-05
-0.002605177458623777   -0.0014825797694158328   -2.4069582711253557e-05
-0.003392618537226383   -0.00018392380135344574   -2.9996326087507008e-05
-0.0026094375453067473   -0.00019375664277833187   -1.4842944333544875e-05
-0.003384725822660181   -0.001491830821095836   -4.048799941773632e-05
-0.002605177458623777   -0.0014825797694158328   -2.4069582711253557e-05
-0.002616293529307955   -0.00018462734867380424   -1.395223653356481e-05
-0.003391156164449498   -0.0014839361843309014   -3.8347678134654846e-05
-0.0026121890816066294   -0.001473617418896332   -2.034517891661186e-05
-0.002616293529307955   -0.00018462734867380424   -1.395223653356481e-05
-0.003392618537226383   -0.00018392380135344574   -2.9996326087507008e-05
-0.003391156164449498   -0.0014839361843309014   -3.8347678134654846e-05
-0.0033969963485467832   -0.0001743786418291544   -3.0417887520416362e-05
-0.0026121890816066294   -0.001473617418896332   -2.034517891661186e-05
-0.0033962567786713703   -0.0014756173905828434   -3.618247472490643e-05
-0.0033969963485467832   -0.0001743786418291544   -3.0417887520416362e-05
-0.003391156164449498   -0.0014839361843309014   -3.8347678134654846e-05
-0.0026121890816066294   -0.001473617418896332   -2.034517891661186e-05
-0.0033969963485467832   -0.0001743786418291544   -3.0417887520416362e-05
-0.0026220491454022393   -0.0001742085274025411   -1.3013837601573184e-05
-0.002616293529307955   -0.00018462734867380424   -1.395223653356481e-05
-0.0026121890816066294   -0.001473617418896332   -2.034517891661186e-05
-0.0033969963485467832   -0.0001743786418291544   -3.0417887520416362e-05
-0.002616293529307955   -0.00018462734867380424   -1.395223653356481e-05
-0.003391156164449498   -0.0014839361843309014   -3.8347678134654846e-05
              </DataArray>   
          </PointData>  
       </Piece>  
   </UnstructuredGrid> 
</VTKFile> 
