<?xml version="1.0"?> 
<VTKFile type="UnstructuredGrid"> 
   <UnstructuredGrid> 
      <Piece NumberOfPoints="6000"  NumberOfCells="1500">  
          <Points>  
             <DataArray type="Float64" NumberOfComponents="3" format="ascii">   
-500.0   0.0   0.0
-450.0   0.0   0.0
-500.0   30.0   0.0
-500.0   0.0   16.666666666666668
-450.0   0.0   0.0
-450.0   30.0   0.0
-500.0   30.0   0.0
-450.0   30.0   16.666666666666668
-500.0   0.0   16.666666666666668
-500.0   30.0   16.666666666666668
-450.0   30.0   16.666666666666668
-500.0   30.0   0.0
-500.0   0.0   16.666666666666668
-450.0   30.0   16.666666666666668
-450.0   0.0   16.666666666666668
-450.0   0.0   0.0
-500.0   0.0   16.666666666666668
-450.0   30.0   16.666666666666668
-450.0   0.0   0.0
-500.0   30.0   0.0
-500.0   0.0   16.666666666666668
-450.0   0.0   16.666666666666668
-500.0   30.0   16.666666666666668
-500.0   0.0   33.333333333333336
-450.0   0.0   16.666666666666668
-450.0   30.0   16.666666666666668
-500.0   30.0   16.666666666666668
-450.0   30.0   33.333333333333336
-500.0   0.0   33.333333333333336
-500.0   30.0   33.333333333333336
-450.0   30.0   33.333333333333336
-500.0   30.0   16.666666666666668
-500.0   0.0   33.333333333333336
-450.0   30.0   33.333333333333336
-450.0   0.0   33.333333333333336
-450.0   0.0   16.666666666666668
-500.0   0.0   33.333333333333336
-450.0   30.0   33.333333333333336
-450.0   0.0   16.666666666666668
-500.0   30.0   16.666666666666668
-500.0   0.0   33.333333333333336
-450.0   0.0   33.333333333333336
-500.0   30.0   33.333333333333336
-500.0   0.0   50.0
-450.0   0.0   33.333333333333336
-450.0   30.0   33.333333333333336
-500.0   30.0   33.333333333333336
-450.0   30.0   50.0
-500.0   0.0   50.0
-500.0   30.0   50.0
-450.0   30.0   50.0
-500.0   30.0   33.333333333333336
-500.0   0.0   50.0
-450.0   30.0   50.0
-450.0   0.0   50.0
-450.0   0.0   33.333333333333336
-500.0   0.0   50.0
-450.0   30.0   50.0
-450.0   0.0   33.333333333333336
-500.0   30.0   33.333333333333336
-500.0   30.0   0.0
-450.0   30.0   0.0
-500.0   60.0   0.0
-500.0   30.0   16.666666666666668
-450.0   30.0   0.0
-450.0   60.0   0.0
-500.0   60.0   0.0
-450.0   60.0   16.666666666666668
-500.0   30.0   16.666666666666668
-500.0   60.0   16.666666666666668
-450.0   60.0   16.666666666666668
-500.0   60.0   0.0
-500.0   30.0   16.666666666666668
-450.0   60.0   16.666666666666668
-450.0   30.0   16.666666666666668
-450.0   30.0   0.0
-500.0   30.0   16.666666666666668
-450.0   60.0   16.666666666666668
-450.0   30.0   0.0
-500.0   60.0   0.0
-500.0   30.0   16.666666666666668
-450.0   30.0   16.666666666666668
-500.0   60.0   16.666666666666668
-500.0   30.0   33.333333333333336
-450.0   30.0   16.666666666666668
-450.0   60.0   16.666666666666668
-500.0   60.0   16.666666666666668
-450.0   60.0   33.333333333333336
-500.0   30.0   33.333333333333336
-500.0   60.0   33.333333333333336
-450.0   60.0   33.333333333333336
-500.0   60.0   16.666666666666668
-500.0   30.0   33.333333333333336
-450.0   60.0   33.333333333333336
-450.0   30.0   33.333333333333336
-450.0   30.0   16.666666666666668
-500.0   30.0   33.333333333333336
-450.0   60.0   33.333333333333336
-450.0   30.0   16.666666666666668
-500.0   60.0   16.666666666666668
-500.0   30.0   33.333333333333336
-450.0   30.0   33.333333333333336
-500.0   60.0   33.333333333333336
-500.0   30.0   50.0
-450.0   30.0   33.333333333333336
-450.0   60.0   33.333333333333336
-500.0   60.0   33.333333333333336
-450.0   60.0   50.0
-500.0   30.0   50.0
-500.0   60.0   50.0
-450.0   60.0   50.0
-500.0   60.0   33.333333333333336
-500.0   30.0   50.0
-450.0   60.0   50.0
-450.0   30.0   50.0
-450.0   30.0   33.333333333333336
-500.0   30.0   50.0
-450.0   60.0   50.0
-450.0   30.0   33.333333333333336
-500.0   60.0   33.333333333333336
-500.0   60.0   0.0
-450.0   60.0   0.0
-500.0   90.0   0.0
-500.0   60.0   16.666666666666668
-450.0   60.0   0.0
-450.0   90.0   0.0
-500.0   90.0   0.0
-450.0   90.0   16.666666666666668
-500.0   60.0   16.666666666666668
-500.0   90.0   16.666666666666668
-450.0   90.0   16.666666666666668
-500.0   90.0   0.0
-500.0   60.0   16.666666666666668
-450.0   90.0   16.666666666666668
-450.0   60.0   16.666666666666668
-450.0   60.0   0.0
-500.0   60.0   16.666666666666668
-450.0   90.0   16.666666666666668
-450.0   60.0   0.0
-500.0   90.0   0.0
-500.0   60.0   16.666666666666668
-450.0   60.0   16.666666666666668
-500.0   90.0   16.666666666666668
-500.0   60.0   33.333333333333336
-450.0   60.0   16.666666666666668
-450.0   90.0   16.666666666666668
-500.0   90.0   16.666666666666668
-450.0   90.0   33.333333333333336
-500.0   60.0   33.333333333333336
-500.0   90.0   33.333333333333336
-450.0   90.0   33.333333333333336
-500.0   90.0   16.666666666666668
-500.0   60.0   33.333333333333336
-450.0   90.0   33.333333333333336
-450.0   60.0   33.333333333333336
-450.0   60.0   16.666666666666668
-500.0   60.0   33.333333333333336
-450.0   90.0   33.333333333333336
-450.0   60.0   16.666666666666668
-500.0   90.0   16.666666666666668
-500.0   60.0   33.333333333333336
-450.0   60.0   33.333333333333336
-500.0   90.0   33.333333333333336
-500.0   60.0   50.0
-450.0   60.0   33.333333333333336
-450.0   90.0   33.333333333333336
-500.0   90.0   33.333333333333336
-450.0   90.0   50.0
-500.0   60.0   50.0
-500.0   90.0   50.0
-450.0   90.0   50.0
-500.0   90.0   33.333333333333336
-500.0   60.0   50.0
-450.0   90.0   50.0
-450.0   60.0   50.0
-450.0   60.0   33.333333333333336
-500.0   60.0   50.0
-450.0   90.0   50.0
-450.0   60.0   33.333333333333336
-500.0   90.0   33.333333333333336
-500.0   90.0   0.0
-450.0   90.0   0.0
-500.0   120.0   0.0
-500.0   90.0   16.666666666666668
-450.0   90.0   0.0
-450.0   120.0   0.0
-500.0   120.0   0.0
-450.0   120.0   16.666666666666668
-500.0   90.0   16.666666666666668
-500.0   120.0   16.666666666666668
-450.0   120.0   16.666666666666668
-500.0   120.0   0.0
-500.0   90.0   16.666666666666668
-450.0   120.0   16.666666666666668
-450.0   90.0   16.666666666666668
-450.0   90.0   0.0
-500.0   90.0   16.666666666666668
-450.0   120.0   16.666666666666668
-450.0   90.0   0.0
-500.0   120.0   0.0
-500.0   90.0   16.666666666666668
-450.0   90.0   16.666666666666668
-500.0   120.0   16.666666666666668
-500.0   90.0   33.333333333333336
-450.0   90.0   16.666666666666668
-450.0   120.0   16.666666666666668
-500.0   120.0   16.666666666666668
-450.0   120.0   33.333333333333336
-500.0   90.0   33.333333333333336
-500.0   120.0   33.333333333333336
-450.0   120.0   33.333333333333336
-500.0   120.0   16.666666666666668
-500.0   90.0   33.333333333333336
-450.0   120.0   33.333333333333336
-450.0   90.0   33.333333333333336
-450.0   90.0   16.666666666666668
-500.0   90.0   33.333333333333336
-450.0   120.0   33.333333333333336
-450.0   90.0   16.666666666666668
-500.0   120.0   16.666666666666668
-500.0   90.0   33.333333333333336
-450.0   90.0   33.333333333333336
-500.0   120.0   33.333333333333336
-500.0   90.0   50.0
-450.0   90.0   33.333333333333336
-450.0   120.0   33.333333333333336
-500.0   120.0   33.333333333333336
-450.0   120.0   50.0
-500.0   90.0   50.0
-500.0   120.0   50.0
-450.0   120.0   50.0
-500.0   120.0   33.333333333333336
-500.0   90.0   50.0
-450.0   120.0   50.0
-450.0   90.0   50.0
-450.0   90.0   33.333333333333336
-500.0   90.0   50.0
-450.0   120.0   50.0
-450.0   90.0   33.333333333333336
-500.0   120.0   33.333333333333336
-500.0   120.0   0.0
-450.0   120.0   0.0
-500.0   150.0   0.0
-500.0   120.0   16.666666666666668
-450.0   120.0   0.0
-450.0   150.0   0.0
-500.0   150.0   0.0
-450.0   150.0   16.666666666666668
-500.0   120.0   16.666666666666668
-500.0   150.0   16.666666666666668
-450.0   150.0   16.666666666666668
-500.0   150.0   0.0
-500.0   120.0   16.666666666666668
-450.0   150.0   16.666666666666668
-450.0   120.0   16.666666666666668
-450.0   120.0   0.0
-500.0   120.0   16.666666666666668
-450.0   150.0   16.666666666666668
-450.0   120.0   0.0
-500.0   150.0   0.0
-500.0   120.0   16.666666666666668
-450.0   120.0   16.666666666666668
-500.0   150.0   16.666666666666668
-500.0   120.0   33.333333333333336
-450.0   120.0   16.666666666666668
-450.0   150.0   16.666666666666668
-500.0   150.0   16.666666666666668
-450.0   150.0   33.333333333333336
-500.0   120.0   33.333333333333336
-500.0   150.0   33.333333333333336
-450.0   150.0   33.333333333333336
-500.0   150.0   16.666666666666668
-500.0   120.0   33.333333333333336
-450.0   150.0   33.333333333333336
-450.0   120.0   33.333333333333336
-450.0   120.0   16.666666666666668
-500.0   120.0   33.333333333333336
-450.0   150.0   33.333333333333336
-450.0   120.0   16.666666666666668
-500.0   150.0   16.666666666666668
-500.0   120.0   33.333333333333336
-450.0   120.0   33.333333333333336
-500.0   150.0   33.333333333333336
-500.0   120.0   50.0
-450.0   120.0   33.333333333333336
-450.0   150.0   33.333333333333336
-500.0   150.0   33.333333333333336
-450.0   150.0   50.0
-500.0   120.0   50.0
-500.0   150.0   50.0
-450.0   150.0   50.0
-500.0   150.0   33.333333333333336
-500.0   120.0   50.0
-450.0   150.0   50.0
-450.0   120.0   50.0
-450.0   120.0   33.333333333333336
-500.0   120.0   50.0
-450.0   150.0   50.0
-450.0   120.0   33.333333333333336
-500.0   150.0   33.333333333333336
-450.0   0.0   0.0
-400.0   0.0   0.0
-450.0   30.0   0.0
-450.0   0.0   16.666666666666668
-400.0   0.0   0.0
-400.0   30.0   0.0
-450.0   30.0   0.0
-400.0   30.0   16.666666666666668
-450.0   0.0   16.666666666666668
-450.0   30.0   16.666666666666668
-400.0   30.0   16.666666666666668
-450.0   30.0   0.0
-450.0   0.0   16.666666666666668
-400.0   30.0   16.666666666666668
-400.0   0.0   16.666666666666668
-400.0   0.0   0.0
-450.0   0.0   16.666666666666668
-400.0   30.0   16.666666666666668
-400.0   0.0   0.0
-450.0   30.0   0.0
-450.0   0.0   16.666666666666668
-400.0   0.0   16.666666666666668
-450.0   30.0   16.666666666666668
-450.0   0.0   33.333333333333336
-400.0   0.0   16.666666666666668
-400.0   30.0   16.666666666666668
-450.0   30.0   16.666666666666668
-400.0   30.0   33.333333333333336
-450.0   0.0   33.333333333333336
-450.0   30.0   33.333333333333336
-400.0   30.0   33.333333333333336
-450.0   30.0   16.666666666666668
-450.0   0.0   33.333333333333336
-400.0   30.0   33.333333333333336
-400.0   0.0   33.333333333333336
-400.0   0.0   16.666666666666668
-450.0   0.0   33.333333333333336
-400.0   30.0   33.333333333333336
-400.0   0.0   16.666666666666668
-450.0   30.0   16.666666666666668
-450.0   0.0   33.333333333333336
-400.0   0.0   33.333333333333336
-450.0   30.0   33.333333333333336
-450.0   0.0   50.0
-400.0   0.0   33.333333333333336
-400.0   30.0   33.333333333333336
-450.0   30.0   33.333333333333336
-400.0   30.0   50.0
-450.0   0.0   50.0
-450.0   30.0   50.0
-400.0   30.0   50.0
-450.0   30.0   33.333333333333336
-450.0   0.0   50.0
-400.0   30.0   50.0
-400.0   0.0   50.0
-400.0   0.0   33.333333333333336
-450.0   0.0   50.0
-400.0   30.0   50.0
-400.0   0.0   33.333333333333336
-450.0   30.0   33.333333333333336
-450.0   30.0   0.0
-400.0   30.0   0.0
-450.0   60.0   0.0
-450.0   30.0   16.666666666666668
-400.0   30.0   0.0
-400.0   60.0   0.0
-450.0   60.0   0.0
-400.0   60.0   16.666666666666668
-450.0   30.0   16.666666666666668
-450.0   60.0   16.666666666666668
-400.0   60.0   16.666666666666668
-450.0   60.0   0.0
-450.0   30.0   16.666666666666668
-400.0   60.0   16.666666666666668
-400.0   30.0   16.666666666666668
-400.0   30.0   0.0
-450.0   30.0   16.666666666666668
-400.0   60.0   16.666666666666668
-400.0   30.0   0.0
-450.0   60.0   0.0
-450.0   30.0   16.666666666666668
-400.0   30.0   16.666666666666668
-450.0   60.0   16.666666666666668
-450.0   30.0   33.333333333333336
-400.0   30.0   16.666666666666668
-400.0   60.0   16.666666666666668
-450.0   60.0   16.666666666666668
-400.0   60.0   33.333333333333336
-450.0   30.0   33.333333333333336
-450.0   60.0   33.333333333333336
-400.0   60.0   33.333333333333336
-450.0   60.0   16.666666666666668
-450.0   30.0   33.333333333333336
-400.0   60.0   33.333333333333336
-400.0   30.0   33.333333333333336
-400.0   30.0   16.666666666666668
-450.0   30.0   33.333333333333336
-400.0   60.0   33.333333333333336
-400.0   30.0   16.666666666666668
-450.0   60.0   16.666666666666668
-450.0   30.0   33.333333333333336
-400.0   30.0   33.333333333333336
-450.0   60.0   33.333333333333336
-450.0   30.0   50.0
-400.0   30.0   33.333333333333336
-400.0   60.0   33.333333333333336
-450.0   60.0   33.333333333333336
-400.0   60.0   50.0
-450.0   30.0   50.0
-450.0   60.0   50.0
-400.0   60.0   50.0
-450.0   60.0   33.333333333333336
-450.0   30.0   50.0
-400.0   60.0   50.0
-400.0   30.0   50.0
-400.0   30.0   33.333333333333336
-450.0   30.0   50.0
-400.0   60.0   50.0
-400.0   30.0   33.333333333333336
-450.0   60.0   33.333333333333336
-450.0   60.0   0.0
-400.0   60.0   0.0
-450.0   90.0   0.0
-450.0   60.0   16.666666666666668
-400.0   60.0   0.0
-400.0   90.0   0.0
-450.0   90.0   0.0
-400.0   90.0   16.666666666666668
-450.0   60.0   16.666666666666668
-450.0   90.0   16.666666666666668
-400.0   90.0   16.666666666666668
-450.0   90.0   0.0
-450.0   60.0   16.666666666666668
-400.0   90.0   16.666666666666668
-400.0   60.0   16.666666666666668
-400.0   60.0   0.0
-450.0   60.0   16.666666666666668
-400.0   90.0   16.666666666666668
-400.0   60.0   0.0
-450.0   90.0   0.0
-450.0   60.0   16.666666666666668
-400.0   60.0   16.666666666666668
-450.0   90.0   16.666666666666668
-450.0   60.0   33.333333333333336
-400.0   60.0   16.666666666666668
-400.0   90.0   16.666666666666668
-450.0   90.0   16.666666666666668
-400.0   90.0   33.333333333333336
-450.0   60.0   33.333333333333336
-450.0   90.0   33.333333333333336
-400.0   90.0   33.333333333333336
-450.0   90.0   16.666666666666668
-450.0   60.0   33.333333333333336
-400.0   90.0   33.333333333333336
-400.0   60.0   33.333333333333336
-400.0   60.0   16.666666666666668
-450.0   60.0   33.333333333333336
-400.0   90.0   33.333333333333336
-400.0   60.0   16.666666666666668
-450.0   90.0   16.666666666666668
-450.0   60.0   33.333333333333336
-400.0   60.0   33.333333333333336
-450.0   90.0   33.333333333333336
-450.0   60.0   50.0
-400.0   60.0   33.333333333333336
-400.0   90.0   33.333333333333336
-450.0   90.0   33.333333333333336
-400.0   90.0   50.0
-450.0   60.0   50.0
-450.0   90.0   50.0
-400.0   90.0   50.0
-450.0   90.0   33.333333333333336
-450.0   60.0   50.0
-400.0   90.0   50.0
-400.0   60.0   50.0
-400.0   60.0   33.333333333333336
-450.0   60.0   50.0
-400.0   90.0   50.0
-400.0   60.0   33.333333333333336
-450.0   90.0   33.333333333333336
-450.0   90.0   0.0
-400.0   90.0   0.0
-450.0   120.0   0.0
-450.0   90.0   16.666666666666668
-400.0   90.0   0.0
-400.0   120.0   0.0
-450.0   120.0   0.0
-400.0   120.0   16.666666666666668
-450.0   90.0   16.666666666666668
-450.0   120.0   16.666666666666668
-400.0   120.0   16.666666666666668
-450.0   120.0   0.0
-450.0   90.0   16.666666666666668
-400.0   120.0   16.666666666666668
-400.0   90.0   16.666666666666668
-400.0   90.0   0.0
-450.0   90.0   16.666666666666668
-400.0   120.0   16.666666666666668
-400.0   90.0   0.0
-450.0   120.0   0.0
-450.0   90.0   16.666666666666668
-400.0   90.0   16.666666666666668
-450.0   120.0   16.666666666666668
-450.0   90.0   33.333333333333336
-400.0   90.0   16.666666666666668
-400.0   120.0   16.666666666666668
-450.0   120.0   16.666666666666668
-400.0   120.0   33.333333333333336
-450.0   90.0   33.333333333333336
-450.0   120.0   33.333333333333336
-400.0   120.0   33.333333333333336
-450.0   120.0   16.666666666666668
-450.0   90.0   33.333333333333336
-400.0   120.0   33.333333333333336
-400.0   90.0   33.333333333333336
-400.0   90.0   16.666666666666668
-450.0   90.0   33.333333333333336
-400.0   120.0   33.333333333333336
-400.0   90.0   16.666666666666668
-450.0   120.0   16.666666666666668
-450.0   90.0   33.333333333333336
-400.0   90.0   33.333333333333336
-450.0   120.0   33.333333333333336
-450.0   90.0   50.0
-400.0   90.0   33.333333333333336
-400.0   120.0   33.333333333333336
-450.0   120.0   33.333333333333336
-400.0   120.0   50.0
-450.0   90.0   50.0
-450.0   120.0   50.0
-400.0   120.0   50.0
-450.0   120.0   33.333333333333336
-450.0   90.0   50.0
-400.0   120.0   50.0
-400.0   90.0   50.0
-400.0   90.0   33.333333333333336
-450.0   90.0   50.0
-400.0   120.0   50.0
-400.0   90.0   33.333333333333336
-450.0   120.0   33.333333333333336
-450.0   120.0   0.0
-400.0   120.0   0.0
-450.0   150.0   0.0
-450.0   120.0   16.666666666666668
-400.0   120.0   0.0
-400.0   150.0   0.0
-450.0   150.0   0.0
-400.0   150.0   16.666666666666668
-450.0   120.0   16.666666666666668
-450.0   150.0   16.666666666666668
-400.0   150.0   16.666666666666668
-450.0   150.0   0.0
-450.0   120.0   16.666666666666668
-400.0   150.0   16.666666666666668
-400.0   120.0   16.666666666666668
-400.0   120.0   0.0
-450.0   120.0   16.666666666666668
-400.0   150.0   16.666666666666668
-400.0   120.0   0.0
-450.0   150.0   0.0
-450.0   120.0   16.666666666666668
-400.0   120.0   16.666666666666668
-450.0   150.0   16.666666666666668
-450.0   120.0   33.333333333333336
-400.0   120.0   16.666666666666668
-400.0   150.0   16.666666666666668
-450.0   150.0   16.666666666666668
-400.0   150.0   33.333333333333336
-450.0   120.0   33.333333333333336
-450.0   150.0   33.333333333333336
-400.0   150.0   33.333333333333336
-450.0   150.0   16.666666666666668
-450.0   120.0   33.333333333333336
-400.0   150.0   33.333333333333336
-400.0   120.0   33.333333333333336
-400.0   120.0   16.666666666666668
-450.0   120.0   33.333333333333336
-400.0   150.0   33.333333333333336
-400.0   120.0   16.666666666666668
-450.0   150.0   16.666666666666668
-450.0   120.0   33.333333333333336
-400.0   120.0   33.333333333333336
-450.0   150.0   33.333333333333336
-450.0   120.0   50.0
-400.0   120.0   33.333333333333336
-400.0   150.0   33.333333333333336
-450.0   150.0   33.333333333333336
-400.0   150.0   50.0
-450.0   120.0   50.0
-450.0   150.0   50.0
-400.0   150.0   50.0
-450.0   150.0   33.333333333333336
-450.0   120.0   50.0
-400.0   150.0   50.0
-400.0   120.0   50.0
-400.0   120.0   33.333333333333336
-450.0   120.0   50.0
-400.0   150.0   50.0
-400.0   120.0   33.333333333333336
-450.0   150.0   33.333333333333336
-400.0   0.0   0.0
-350.0   0.0   0.0
-400.0   30.0   0.0
-400.0   0.0   16.666666666666668
-350.0   0.0   0.0
-350.0   30.0   0.0
-400.0   30.0   0.0
-350.0   30.0   16.666666666666668
-400.0   0.0   16.666666666666668
-400.0   30.0   16.666666666666668
-350.0   30.0   16.666666666666668
-400.0   30.0   0.0
-400.0   0.0   16.666666666666668
-350.0   30.0   16.666666666666668
-350.0   0.0   16.666666666666668
-350.0   0.0   0.0
-400.0   0.0   16.666666666666668
-350.0   30.0   16.666666666666668
-350.0   0.0   0.0
-400.0   30.0   0.0
-400.0   0.0   16.666666666666668
-350.0   0.0   16.666666666666668
-400.0   30.0   16.666666666666668
-400.0   0.0   33.333333333333336
-350.0   0.0   16.666666666666668
-350.0   30.0   16.666666666666668
-400.0   30.0   16.666666666666668
-350.0   30.0   33.333333333333336
-400.0   0.0   33.333333333333336
-400.0   30.0   33.333333333333336
-350.0   30.0   33.333333333333336
-400.0   30.0   16.666666666666668
-400.0   0.0   33.333333333333336
-350.0   30.0   33.333333333333336
-350.0   0.0   33.333333333333336
-350.0   0.0   16.666666666666668
-400.0   0.0   33.333333333333336
-350.0   30.0   33.333333333333336
-350.0   0.0   16.666666666666668
-400.0   30.0   16.666666666666668
-400.0   0.0   33.333333333333336
-350.0   0.0   33.333333333333336
-400.0   30.0   33.333333333333336
-400.0   0.0   50.0
-350.0   0.0   33.333333333333336
-350.0   30.0   33.333333333333336
-400.0   30.0   33.333333333333336
-350.0   30.0   50.0
-400.0   0.0   50.0
-400.0   30.0   50.0
-350.0   30.0   50.0
-400.0   30.0   33.333333333333336
-400.0   0.0   50.0
-350.0   30.0   50.0
-350.0   0.0   50.0
-350.0   0.0   33.333333333333336
-400.0   0.0   50.0
-350.0   30.0   50.0
-350.0   0.0   33.333333333333336
-400.0   30.0   33.333333333333336
-400.0   30.0   0.0
-350.0   30.0   0.0
-400.0   60.0   0.0
-400.0   30.0   16.666666666666668
-350.0   30.0   0.0
-350.0   60.0   0.0
-400.0   60.0   0.0
-350.0   60.0   16.666666666666668
-400.0   30.0   16.666666666666668
-400.0   60.0   16.666666666666668
-350.0   60.0   16.666666666666668
-400.0   60.0   0.0
-400.0   30.0   16.666666666666668
-350.0   60.0   16.666666666666668
-350.0   30.0   16.666666666666668
-350.0   30.0   0.0
-400.0   30.0   16.666666666666668
-350.0   60.0   16.666666666666668
-350.0   30.0   0.0
-400.0   60.0   0.0
-400.0   30.0   16.666666666666668
-350.0   30.0   16.666666666666668
-400.0   60.0   16.666666666666668
-400.0   30.0   33.333333333333336
-350.0   30.0   16.666666666666668
-350.0   60.0   16.666666666666668
-400.0   60.0   16.666666666666668
-350.0   60.0   33.333333333333336
-400.0   30.0   33.333333333333336
-400.0   60.0   33.333333333333336
-350.0   60.0   33.333333333333336
-400.0   60.0   16.666666666666668
-400.0   30.0   33.333333333333336
-350.0   60.0   33.333333333333336
-350.0   30.0   33.333333333333336
-350.0   30.0   16.666666666666668
-400.0   30.0   33.333333333333336
-350.0   60.0   33.333333333333336
-350.0   30.0   16.666666666666668
-400.0   60.0   16.666666666666668
-400.0   30.0   33.333333333333336
-350.0   30.0   33.333333333333336
-400.0   60.0   33.333333333333336
-400.0   30.0   50.0
-350.0   30.0   33.333333333333336
-350.0   60.0   33.333333333333336
-400.0   60.0   33.333333333333336
-350.0   60.0   50.0
-400.0   30.0   50.0
-400.0   60.0   50.0
-350.0   60.0   50.0
-400.0   60.0   33.333333333333336
-400.0   30.0   50.0
-350.0   60.0   50.0
-350.0   30.0   50.0
-350.0   30.0   33.333333333333336
-400.0   30.0   50.0
-350.0   60.0   50.0
-350.0   30.0   33.333333333333336
-400.0   60.0   33.333333333333336
-400.0   60.0   0.0
-350.0   60.0   0.0
-400.0   90.0   0.0
-400.0   60.0   16.666666666666668
-350.0   60.0   0.0
-350.0   90.0   0.0
-400.0   90.0   0.0
-350.0   90.0   16.666666666666668
-400.0   60.0   16.666666666666668
-400.0   90.0   16.666666666666668
-350.0   90.0   16.666666666666668
-400.0   90.0   0.0
-400.0   60.0   16.666666666666668
-350.0   90.0   16.666666666666668
-350.0   60.0   16.666666666666668
-350.0   60.0   0.0
-400.0   60.0   16.666666666666668
-350.0   90.0   16.666666666666668
-350.0   60.0   0.0
-400.0   90.0   0.0
-400.0   60.0   16.666666666666668
-350.0   60.0   16.666666666666668
-400.0   90.0   16.666666666666668
-400.0   60.0   33.333333333333336
-350.0   60.0   16.666666666666668
-350.0   90.0   16.666666666666668
-400.0   90.0   16.666666666666668
-350.0   90.0   33.333333333333336
-400.0   60.0   33.333333333333336
-400.0   90.0   33.333333333333336
-350.0   90.0   33.333333333333336
-400.0   90.0   16.666666666666668
-400.0   60.0   33.333333333333336
-350.0   90.0   33.333333333333336
-350.0   60.0   33.333333333333336
-350.0   60.0   16.666666666666668
-400.0   60.0   33.333333333333336
-350.0   90.0   33.333333333333336
-350.0   60.0   16.666666666666668
-400.0   90.0   16.666666666666668
-400.0   60.0   33.333333333333336
-350.0   60.0   33.333333333333336
-400.0   90.0   33.333333333333336
-400.0   60.0   50.0
-350.0   60.0   33.333333333333336
-350.0   90.0   33.333333333333336
-400.0   90.0   33.333333333333336
-350.0   90.0   50.0
-400.0   60.0   50.0
-400.0   90.0   50.0
-350.0   90.0   50.0
-400.0   90.0   33.333333333333336
-400.0   60.0   50.0
-350.0   90.0   50.0
-350.0   60.0   50.0
-350.0   60.0   33.333333333333336
-400.0   60.0   50.0
-350.0   90.0   50.0
-350.0   60.0   33.333333333333336
-400.0   90.0   33.333333333333336
-400.0   90.0   0.0
-350.0   90.0   0.0
-400.0   120.0   0.0
-400.0   90.0   16.666666666666668
-350.0   90.0   0.0
-350.0   120.0   0.0
-400.0   120.0   0.0
-350.0   120.0   16.666666666666668
-400.0   90.0   16.666666666666668
-400.0   120.0   16.666666666666668
-350.0   120.0   16.666666666666668
-400.0   120.0   0.0
-400.0   90.0   16.666666666666668
-350.0   120.0   16.666666666666668
-350.0   90.0   16.666666666666668
-350.0   90.0   0.0
-400.0   90.0   16.666666666666668
-350.0   120.0   16.666666666666668
-350.0   90.0   0.0
-400.0   120.0   0.0
-400.0   90.0   16.666666666666668
-350.0   90.0   16.666666666666668
-400.0   120.0   16.666666666666668
-400.0   90.0   33.333333333333336
-350.0   90.0   16.666666666666668
-350.0   120.0   16.666666666666668
-400.0   120.0   16.666666666666668
-350.0   120.0   33.333333333333336
-400.0   90.0   33.333333333333336
-400.0   120.0   33.333333333333336
-350.0   120.0   33.333333333333336
-400.0   120.0   16.666666666666668
-400.0   90.0   33.333333333333336
-350.0   120.0   33.333333333333336
-350.0   90.0   33.333333333333336
-350.0   90.0   16.666666666666668
-400.0   90.0   33.333333333333336
-350.0   120.0   33.333333333333336
-350.0   90.0   16.666666666666668
-400.0   120.0   16.666666666666668
-400.0   90.0   33.333333333333336
-350.0   90.0   33.333333333333336
-400.0   120.0   33.333333333333336
-400.0   90.0   50.0
-350.0   90.0   33.333333333333336
-350.0   120.0   33.333333333333336
-400.0   120.0   33.333333333333336
-350.0   120.0   50.0
-400.0   90.0   50.0
-400.0   120.0   50.0
-350.0   120.0   50.0
-400.0   120.0   33.333333333333336
-400.0   90.0   50.0
-350.0   120.0   50.0
-350.0   90.0   50.0
-350.0   90.0   33.333333333333336
-400.0   90.0   50.0
-350.0   120.0   50.0
-350.0   90.0   33.333333333333336
-400.0   120.0   33.333333333333336
-400.0   120.0   0.0
-350.0   120.0   0.0
-400.0   150.0   0.0
-400.0   120.0   16.666666666666668
-350.0   120.0   0.0
-350.0   150.0   0.0
-400.0   150.0   0.0
-350.0   150.0   16.666666666666668
-400.0   120.0   16.666666666666668
-400.0   150.0   16.666666666666668
-350.0   150.0   16.666666666666668
-400.0   150.0   0.0
-400.0   120.0   16.666666666666668
-350.0   150.0   16.666666666666668
-350.0   120.0   16.666666666666668
-350.0   120.0   0.0
-400.0   120.0   16.666666666666668
-350.0   150.0   16.666666666666668
-350.0   120.0   0.0
-400.0   150.0   0.0
-400.0   120.0   16.666666666666668
-350.0   120.0   16.666666666666668
-400.0   150.0   16.666666666666668
-400.0   120.0   33.333333333333336
-350.0   120.0   16.666666666666668
-350.0   150.0   16.666666666666668
-400.0   150.0   16.666666666666668
-350.0   150.0   33.333333333333336
-400.0   120.0   33.333333333333336
-400.0   150.0   33.333333333333336
-350.0   150.0   33.333333333333336
-400.0   150.0   16.666666666666668
-400.0   120.0   33.333333333333336
-350.0   150.0   33.333333333333336
-350.0   120.0   33.333333333333336
-350.0   120.0   16.666666666666668
-400.0   120.0   33.333333333333336
-350.0   150.0   33.333333333333336
-350.0   120.0   16.666666666666668
-400.0   150.0   16.666666666666668
-400.0   120.0   33.333333333333336
-350.0   120.0   33.333333333333336
-400.0   150.0   33.333333333333336
-400.0   120.0   50.0
-350.0   120.0   33.333333333333336
-350.0   150.0   33.333333333333336
-400.0   150.0   33.333333333333336
-350.0   150.0   50.0
-400.0   120.0   50.0
-400.0   150.0   50.0
-350.0   150.0   50.0
-400.0   150.0   33.333333333333336
-400.0   120.0   50.0
-350.0   150.0   50.0
-350.0   120.0   50.0
-350.0   120.0   33.333333333333336
-400.0   120.0   50.0
-350.0   150.0   50.0
-350.0   120.0   33.333333333333336
-400.0   150.0   33.333333333333336
-350.0   0.0   0.0
-300.0   0.0   0.0
-350.0   30.0   0.0
-350.0   0.0   16.666666666666668
-300.0   0.0   0.0
-300.0   30.0   0.0
-350.0   30.0   0.0
-300.0   30.0   16.666666666666668
-350.0   0.0   16.666666666666668
-350.0   30.0   16.666666666666668
-300.0   30.0   16.666666666666668
-350.0   30.0   0.0
-350.0   0.0   16.666666666666668
-300.0   30.0   16.666666666666668
-300.0   0.0   16.666666666666668
-300.0   0.0   0.0
-350.0   0.0   16.666666666666668
-300.0   30.0   16.666666666666668
-300.0   0.0   0.0
-350.0   30.0   0.0
-350.0   0.0   16.666666666666668
-300.0   0.0   16.666666666666668
-350.0   30.0   16.666666666666668
-350.0   0.0   33.333333333333336
-300.0   0.0   16.666666666666668
-300.0   30.0   16.666666666666668
-350.0   30.0   16.666666666666668
-300.0   30.0   33.333333333333336
-350.0   0.0   33.333333333333336
-350.0   30.0   33.333333333333336
-300.0   30.0   33.333333333333336
-350.0   30.0   16.666666666666668
-350.0   0.0   33.333333333333336
-300.0   30.0   33.333333333333336
-300.0   0.0   33.333333333333336
-300.0   0.0   16.666666666666668
-350.0   0.0   33.333333333333336
-300.0   30.0   33.333333333333336
-300.0   0.0   16.666666666666668
-350.0   30.0   16.666666666666668
-350.0   0.0   33.333333333333336
-300.0   0.0   33.333333333333336
-350.0   30.0   33.333333333333336
-350.0   0.0   50.0
-300.0   0.0   33.333333333333336
-300.0   30.0   33.333333333333336
-350.0   30.0   33.333333333333336
-300.0   30.0   50.0
-350.0   0.0   50.0
-350.0   30.0   50.0
-300.0   30.0   50.0
-350.0   30.0   33.333333333333336
-350.0   0.0   50.0
-300.0   30.0   50.0
-300.0   0.0   50.0
-300.0   0.0   33.333333333333336
-350.0   0.0   50.0
-300.0   30.0   50.0
-300.0   0.0   33.333333333333336
-350.0   30.0   33.333333333333336
-350.0   30.0   0.0
-300.0   30.0   0.0
-350.0   60.0   0.0
-350.0   30.0   16.666666666666668
-300.0   30.0   0.0
-300.0   60.0   0.0
-350.0   60.0   0.0
-300.0   60.0   16.666666666666668
-350.0   30.0   16.666666666666668
-350.0   60.0   16.666666666666668
-300.0   60.0   16.666666666666668
-350.0   60.0   0.0
-350.0   30.0   16.666666666666668
-300.0   60.0   16.666666666666668
-300.0   30.0   16.666666666666668
-300.0   30.0   0.0
-350.0   30.0   16.666666666666668
-300.0   60.0   16.666666666666668
-300.0   30.0   0.0
-350.0   60.0   0.0
-350.0   30.0   16.666666666666668
-300.0   30.0   16.666666666666668
-350.0   60.0   16.666666666666668
-350.0   30.0   33.333333333333336
-300.0   30.0   16.666666666666668
-300.0   60.0   16.666666666666668
-350.0   60.0   16.666666666666668
-300.0   60.0   33.333333333333336
-350.0   30.0   33.333333333333336
-350.0   60.0   33.333333333333336
-300.0   60.0   33.333333333333336
-350.0   60.0   16.666666666666668
-350.0   30.0   33.333333333333336
-300.0   60.0   33.333333333333336
-300.0   30.0   33.333333333333336
-300.0   30.0   16.666666666666668
-350.0   30.0   33.333333333333336
-300.0   60.0   33.333333333333336
-300.0   30.0   16.666666666666668
-350.0   60.0   16.666666666666668
-350.0   30.0   33.333333333333336
-300.0   30.0   33.333333333333336
-350.0   60.0   33.333333333333336
-350.0   30.0   50.0
-300.0   30.0   33.333333333333336
-300.0   60.0   33.333333333333336
-350.0   60.0   33.333333333333336
-300.0   60.0   50.0
-350.0   30.0   50.0
-350.0   60.0   50.0
-300.0   60.0   50.0
-350.0   60.0   33.333333333333336
-350.0   30.0   50.0
-300.0   60.0   50.0
-300.0   30.0   50.0
-300.0   30.0   33.333333333333336
-350.0   30.0   50.0
-300.0   60.0   50.0
-300.0   30.0   33.333333333333336
-350.0   60.0   33.333333333333336
-350.0   60.0   0.0
-300.0   60.0   0.0
-350.0   90.0   0.0
-350.0   60.0   16.666666666666668
-300.0   60.0   0.0
-300.0   90.0   0.0
-350.0   90.0   0.0
-300.0   90.0   16.666666666666668
-350.0   60.0   16.666666666666668
-350.0   90.0   16.666666666666668
-300.0   90.0   16.666666666666668
-350.0   90.0   0.0
-350.0   60.0   16.666666666666668
-300.0   90.0   16.666666666666668
-300.0   60.0   16.666666666666668
-300.0   60.0   0.0
-350.0   60.0   16.666666666666668
-300.0   90.0   16.666666666666668
-300.0   60.0   0.0
-350.0   90.0   0.0
-350.0   60.0   16.666666666666668
-300.0   60.0   16.666666666666668
-350.0   90.0   16.666666666666668
-350.0   60.0   33.333333333333336
-300.0   60.0   16.666666666666668
-300.0   90.0   16.666666666666668
-350.0   90.0   16.666666666666668
-300.0   90.0   33.333333333333336
-350.0   60.0   33.333333333333336
-350.0   90.0   33.333333333333336
-300.0   90.0   33.333333333333336
-350.0   90.0   16.666666666666668
-350.0   60.0   33.333333333333336
-300.0   90.0   33.333333333333336
-300.0   60.0   33.333333333333336
-300.0   60.0   16.666666666666668
-350.0   60.0   33.333333333333336
-300.0   90.0   33.333333333333336
-300.0   60.0   16.666666666666668
-350.0   90.0   16.666666666666668
-350.0   60.0   33.333333333333336
-300.0   60.0   33.333333333333336
-350.0   90.0   33.333333333333336
-350.0   60.0   50.0
-300.0   60.0   33.333333333333336
-300.0   90.0   33.333333333333336
-350.0   90.0   33.333333333333336
-300.0   90.0   50.0
-350.0   60.0   50.0
-350.0   90.0   50.0
-300.0   90.0   50.0
-350.0   90.0   33.333333333333336
-350.0   60.0   50.0
-300.0   90.0   50.0
-300.0   60.0   50.0
-300.0   60.0   33.333333333333336
-350.0   60.0   50.0
-300.0   90.0   50.0
-300.0   60.0   33.333333333333336
-350.0   90.0   33.333333333333336
-350.0   90.0   0.0
-300.0   90.0   0.0
-350.0   120.0   0.0
-350.0   90.0   16.666666666666668
-300.0   90.0   0.0
-300.0   120.0   0.0
-350.0   120.0   0.0
-300.0   120.0   16.666666666666668
-350.0   90.0   16.666666666666668
-350.0   120.0   16.666666666666668
-300.0   120.0   16.666666666666668
-350.0   120.0   0.0
-350.0   90.0   16.666666666666668
-300.0   120.0   16.666666666666668
-300.0   90.0   16.666666666666668
-300.0   90.0   0.0
-350.0   90.0   16.666666666666668
-300.0   120.0   16.666666666666668
-300.0   90.0   0.0
-350.0   120.0   0.0
-350.0   90.0   16.666666666666668
-300.0   90.0   16.666666666666668
-350.0   120.0   16.666666666666668
-350.0   90.0   33.333333333333336
-300.0   90.0   16.666666666666668
-300.0   120.0   16.666666666666668
-350.0   120.0   16.666666666666668
-300.0   120.0   33.333333333333336
-350.0   90.0   33.333333333333336
-350.0   120.0   33.333333333333336
-300.0   120.0   33.333333333333336
-350.0   120.0   16.666666666666668
-350.0   90.0   33.333333333333336
-300.0   120.0   33.333333333333336
-300.0   90.0   33.333333333333336
-300.0   90.0   16.666666666666668
-350.0   90.0   33.333333333333336
-300.0   120.0   33.333333333333336
-300.0   90.0   16.666666666666668
-350.0   120.0   16.666666666666668
-350.0   90.0   33.333333333333336
-300.0   90.0   33.333333333333336
-350.0   120.0   33.333333333333336
-350.0   90.0   50.0
-300.0   90.0   33.333333333333336
-300.0   120.0   33.333333333333336
-350.0   120.0   33.333333333333336
-300.0   120.0   50.0
-350.0   90.0   50.0
-350.0   120.0   50.0
-300.0   120.0   50.0
-350.0   120.0   33.333333333333336
-350.0   90.0   50.0
-300.0   120.0   50.0
-300.0   90.0   50.0
-300.0   90.0   33.333333333333336
-350.0   90.0   50.0
-300.0   120.0   50.0
-300.0   90.0   33.333333333333336
-350.0   120.0   33.333333333333336
-350.0   120.0   0.0
-300.0   120.0   0.0
-350.0   150.0   0.0
-350.0   120.0   16.666666666666668
-300.0   120.0   0.0
-300.0   150.0   0.0
-350.0   150.0   0.0
-300.0   150.0   16.666666666666668
-350.0   120.0   16.666666666666668
-350.0   150.0   16.666666666666668
-300.0   150.0   16.666666666666668
-350.0   150.0   0.0
-350.0   120.0   16.666666666666668
-300.0   150.0   16.666666666666668
-300.0   120.0   16.666666666666668
-300.0   120.0   0.0
-350.0   120.0   16.666666666666668
-300.0   150.0   16.666666666666668
-300.0   120.0   0.0
-350.0   150.0   0.0
-350.0   120.0   16.666666666666668
-300.0   120.0   16.666666666666668
-350.0   150.0   16.666666666666668
-350.0   120.0   33.333333333333336
-300.0   120.0   16.666666666666668
-300.0   150.0   16.666666666666668
-350.0   150.0   16.666666666666668
-300.0   150.0   33.333333333333336
-350.0   120.0   33.333333333333336
-350.0   150.0   33.333333333333336
-300.0   150.0   33.333333333333336
-350.0   150.0   16.666666666666668
-350.0   120.0   33.333333333333336
-300.0   150.0   33.333333333333336
-300.0   120.0   33.333333333333336
-300.0   120.0   16.666666666666668
-350.0   120.0   33.333333333333336
-300.0   150.0   33.333333333333336
-300.0   120.0   16.666666666666668
-350.0   150.0   16.666666666666668
-350.0   120.0   33.333333333333336
-300.0   120.0   33.333333333333336
-350.0   150.0   33.333333333333336
-350.0   120.0   50.0
-300.0   120.0   33.333333333333336
-300.0   150.0   33.333333333333336
-350.0   150.0   33.333333333333336
-300.0   150.0   50.0
-350.0   120.0   50.0
-350.0   150.0   50.0
-300.0   150.0   50.0
-350.0   150.0   33.333333333333336
-350.0   120.0   50.0
-300.0   150.0   50.0
-300.0   120.0   50.0
-300.0   120.0   33.333333333333336
-350.0   120.0   50.0
-300.0   150.0   50.0
-300.0   120.0   33.333333333333336
-350.0   150.0   33.333333333333336
-300.0   0.0   0.0
-250.0   0.0   0.0
-300.0   30.0   0.0
-300.0   0.0   16.666666666666668
-250.0   0.0   0.0
-250.0   30.0   0.0
-300.0   30.0   0.0
-250.0   30.0   16.666666666666668
-300.0   0.0   16.666666666666668
-300.0   30.0   16.666666666666668
-250.0   30.0   16.666666666666668
-300.0   30.0   0.0
-300.0   0.0   16.666666666666668
-250.0   30.0   16.666666666666668
-250.0   0.0   16.666666666666668
-250.0   0.0   0.0
-300.0   0.0   16.666666666666668
-250.0   30.0   16.666666666666668
-250.0   0.0   0.0
-300.0   30.0   0.0
-300.0   0.0   16.666666666666668
-250.0   0.0   16.666666666666668
-300.0   30.0   16.666666666666668
-300.0   0.0   33.333333333333336
-250.0   0.0   16.666666666666668
-250.0   30.0   16.666666666666668
-300.0   30.0   16.666666666666668
-250.0   30.0   33.333333333333336
-300.0   0.0   33.333333333333336
-300.0   30.0   33.333333333333336
-250.0   30.0   33.333333333333336
-300.0   30.0   16.666666666666668
-300.0   0.0   33.333333333333336
-250.0   30.0   33.333333333333336
-250.0   0.0   33.333333333333336
-250.0   0.0   16.666666666666668
-300.0   0.0   33.333333333333336
-250.0   30.0   33.333333333333336
-250.0   0.0   16.666666666666668
-300.0   30.0   16.666666666666668
-300.0   0.0   33.333333333333336
-250.0   0.0   33.333333333333336
-300.0   30.0   33.333333333333336
-300.0   0.0   50.0
-250.0   0.0   33.333333333333336
-250.0   30.0   33.333333333333336
-300.0   30.0   33.333333333333336
-250.0   30.0   50.0
-300.0   0.0   50.0
-300.0   30.0   50.0
-250.0   30.0   50.0
-300.0   30.0   33.333333333333336
-300.0   0.0   50.0
-250.0   30.0   50.0
-250.0   0.0   50.0
-250.0   0.0   33.333333333333336
-300.0   0.0   50.0
-250.0   30.0   50.0
-250.0   0.0   33.333333333333336
-300.0   30.0   33.333333333333336
-300.0   30.0   0.0
-250.0   30.0   0.0
-300.0   60.0   0.0
-300.0   30.0   16.666666666666668
-250.0   30.0   0.0
-250.0   60.0   0.0
-300.0   60.0   0.0
-250.0   60.0   16.666666666666668
-300.0   30.0   16.666666666666668
-300.0   60.0   16.666666666666668
-250.0   60.0   16.666666666666668
-300.0   60.0   0.0
-300.0   30.0   16.666666666666668
-250.0   60.0   16.666666666666668
-250.0   30.0   16.666666666666668
-250.0   30.0   0.0
-300.0   30.0   16.666666666666668
-250.0   60.0   16.666666666666668
-250.0   30.0   0.0
-300.0   60.0   0.0
-300.0   30.0   16.666666666666668
-250.0   30.0   16.666666666666668
-300.0   60.0   16.666666666666668
-300.0   30.0   33.333333333333336
-250.0   30.0   16.666666666666668
-250.0   60.0   16.666666666666668
-300.0   60.0   16.666666666666668
-250.0   60.0   33.333333333333336
-300.0   30.0   33.333333333333336
-300.0   60.0   33.333333333333336
-250.0   60.0   33.333333333333336
-300.0   60.0   16.666666666666668
-300.0   30.0   33.333333333333336
-250.0   60.0   33.333333333333336
-250.0   30.0   33.333333333333336
-250.0   30.0   16.666666666666668
-300.0   30.0   33.333333333333336
-250.0   60.0   33.333333333333336
-250.0   30.0   16.666666666666668
-300.0   60.0   16.666666666666668
-300.0   30.0   33.333333333333336
-250.0   30.0   33.333333333333336
-300.0   60.0   33.333333333333336
-300.0   30.0   50.0
-250.0   30.0   33.333333333333336
-250.0   60.0   33.333333333333336
-300.0   60.0   33.333333333333336
-250.0   60.0   50.0
-300.0   30.0   50.0
-300.0   60.0   50.0
-250.0   60.0   50.0
-300.0   60.0   33.333333333333336
-300.0   30.0   50.0
-250.0   60.0   50.0
-250.0   30.0   50.0
-250.0   30.0   33.333333333333336
-300.0   30.0   50.0
-250.0   60.0   50.0
-250.0   30.0   33.333333333333336
-300.0   60.0   33.333333333333336
-300.0   60.0   0.0
-250.0   60.0   0.0
-300.0   90.0   0.0
-300.0   60.0   16.666666666666668
-250.0   60.0   0.0
-250.0   90.0   0.0
-300.0   90.0   0.0
-250.0   90.0   16.666666666666668
-300.0   60.0   16.666666666666668
-300.0   90.0   16.666666666666668
-250.0   90.0   16.666666666666668
-300.0   90.0   0.0
-300.0   60.0   16.666666666666668
-250.0   90.0   16.666666666666668
-250.0   60.0   16.666666666666668
-250.0   60.0   0.0
-300.0   60.0   16.666666666666668
-250.0   90.0   16.666666666666668
-250.0   60.0   0.0
-300.0   90.0   0.0
-300.0   60.0   16.666666666666668
-250.0   60.0   16.666666666666668
-300.0   90.0   16.666666666666668
-300.0   60.0   33.333333333333336
-250.0   60.0   16.666666666666668
-250.0   90.0   16.666666666666668
-300.0   90.0   16.666666666666668
-250.0   90.0   33.333333333333336
-300.0   60.0   33.333333333333336
-300.0   90.0   33.333333333333336
-250.0   90.0   33.333333333333336
-300.0   90.0   16.666666666666668
-300.0   60.0   33.333333333333336
-250.0   90.0   33.333333333333336
-250.0   60.0   33.333333333333336
-250.0   60.0   16.666666666666668
-300.0   60.0   33.333333333333336
-250.0   90.0   33.333333333333336
-250.0   60.0   16.666666666666668
-300.0   90.0   16.666666666666668
-300.0   60.0   33.333333333333336
-250.0   60.0   33.333333333333336
-300.0   90.0   33.333333333333336
-300.0   60.0   50.0
-250.0   60.0   33.333333333333336
-250.0   90.0   33.333333333333336
-300.0   90.0   33.333333333333336
-250.0   90.0   50.0
-300.0   60.0   50.0
-300.0   90.0   50.0
-250.0   90.0   50.0
-300.0   90.0   33.333333333333336
-300.0   60.0   50.0
-250.0   90.0   50.0
-250.0   60.0   50.0
-250.0   60.0   33.333333333333336
-300.0   60.0   50.0
-250.0   90.0   50.0
-250.0   60.0   33.333333333333336
-300.0   90.0   33.333333333333336
-300.0   90.0   0.0
-250.0   90.0   0.0
-300.0   120.0   0.0
-300.0   90.0   16.666666666666668
-250.0   90.0   0.0
-250.0   120.0   0.0
-300.0   120.0   0.0
-250.0   120.0   16.666666666666668
-300.0   90.0   16.666666666666668
-300.0   120.0   16.666666666666668
-250.0   120.0   16.666666666666668
-300.0   120.0   0.0
-300.0   90.0   16.666666666666668
-250.0   120.0   16.666666666666668
-250.0   90.0   16.666666666666668
-250.0   90.0   0.0
-300.0   90.0   16.666666666666668
-250.0   120.0   16.666666666666668
-250.0   90.0   0.0
-300.0   120.0   0.0
-300.0   90.0   16.666666666666668
-250.0   90.0   16.666666666666668
-300.0   120.0   16.666666666666668
-300.0   90.0   33.333333333333336
-250.0   90.0   16.666666666666668
-250.0   120.0   16.666666666666668
-300.0   120.0   16.666666666666668
-250.0   120.0   33.333333333333336
-300.0   90.0   33.333333333333336
-300.0   120.0   33.333333333333336
-250.0   120.0   33.333333333333336
-300.0   120.0   16.666666666666668
-300.0   90.0   33.333333333333336
-250.0   120.0   33.333333333333336
-250.0   90.0   33.333333333333336
-250.0   90.0   16.666666666666668
-300.0   90.0   33.333333333333336
-250.0   120.0   33.333333333333336
-250.0   90.0   16.666666666666668
-300.0   120.0   16.666666666666668
-300.0   90.0   33.333333333333336
-250.0   90.0   33.333333333333336
-300.0   120.0   33.333333333333336
-300.0   90.0   50.0
-250.0   90.0   33.333333333333336
-250.0   120.0   33.333333333333336
-300.0   120.0   33.333333333333336
-250.0   120.0   50.0
-300.0   90.0   50.0
-300.0   120.0   50.0
-250.0   120.0   50.0
-300.0   120.0   33.333333333333336
-300.0   90.0   50.0
-250.0   120.0   50.0
-250.0   90.0   50.0
-250.0   90.0   33.333333333333336
-300.0   90.0   50.0
-250.0   120.0   50.0
-250.0   90.0   33.333333333333336
-300.0   120.0   33.333333333333336
-300.0   120.0   0.0
-250.0   120.0   0.0
-300.0   150.0   0.0
-300.0   120.0   16.666666666666668
-250.0   120.0   0.0
-250.0   150.0   0.0
-300.0   150.0   0.0
-250.0   150.0   16.666666666666668
-300.0   120.0   16.666666666666668
-300.0   150.0   16.666666666666668
-250.0   150.0   16.666666666666668
-300.0   150.0   0.0
-300.0   120.0   16.666666666666668
-250.0   150.0   16.666666666666668
-250.0   120.0   16.666666666666668
-250.0   120.0   0.0
-300.0   120.0   16.666666666666668
-250.0   150.0   16.666666666666668
-250.0   120.0   0.0
-300.0   150.0   0.0
-300.0   120.0   16.666666666666668
-250.0   120.0   16.666666666666668
-300.0   150.0   16.666666666666668
-300.0   120.0   33.333333333333336
-250.0   120.0   16.666666666666668
-250.0   150.0   16.666666666666668
-300.0   150.0   16.666666666666668
-250.0   150.0   33.333333333333336
-300.0   120.0   33.333333333333336
-300.0   150.0   33.333333333333336
-250.0   150.0   33.333333333333336
-300.0   150.0   16.666666666666668
-300.0   120.0   33.333333333333336
-250.0   150.0   33.333333333333336
-250.0   120.0   33.333333333333336
-250.0   120.0   16.666666666666668
-300.0   120.0   33.333333333333336
-250.0   150.0   33.333333333333336
-250.0   120.0   16.666666666666668
-300.0   150.0   16.666666666666668
-300.0   120.0   33.333333333333336
-250.0   120.0   33.333333333333336
-300.0   150.0   33.333333333333336
-300.0   120.0   50.0
-250.0   120.0   33.333333333333336
-250.0   150.0   33.333333333333336
-300.0   150.0   33.333333333333336
-250.0   150.0   50.0
-300.0   120.0   50.0
-300.0   150.0   50.0
-250.0   150.0   50.0
-300.0   150.0   33.333333333333336
-300.0   120.0   50.0
-250.0   150.0   50.0
-250.0   120.0   50.0
-250.0   120.0   33.333333333333336
-300.0   120.0   50.0
-250.0   150.0   50.0
-250.0   120.0   33.333333333333336
-300.0   150.0   33.333333333333336
-250.0   0.0   0.0
-200.0   0.0   0.0
-250.0   30.0   0.0
-250.0   0.0   16.666666666666668
-200.0   0.0   0.0
-200.0   30.0   0.0
-250.0   30.0   0.0
-200.0   30.0   16.666666666666668
-250.0   0.0   16.666666666666668
-250.0   30.0   16.666666666666668
-200.0   30.0   16.666666666666668
-250.0   30.0   0.0
-250.0   0.0   16.666666666666668
-200.0   30.0   16.666666666666668
-200.0   0.0   16.666666666666668
-200.0   0.0   0.0
-250.0   0.0   16.666666666666668
-200.0   30.0   16.666666666666668
-200.0   0.0   0.0
-250.0   30.0   0.0
-250.0   0.0   16.666666666666668
-200.0   0.0   16.666666666666668
-250.0   30.0   16.666666666666668
-250.0   0.0   33.333333333333336
-200.0   0.0   16.666666666666668
-200.0   30.0   16.666666666666668
-250.0   30.0   16.666666666666668
-200.0   30.0   33.333333333333336
-250.0   0.0   33.333333333333336
-250.0   30.0   33.333333333333336
-200.0   30.0   33.333333333333336
-250.0   30.0   16.666666666666668
-250.0   0.0   33.333333333333336
-200.0   30.0   33.333333333333336
-200.0   0.0   33.333333333333336
-200.0   0.0   16.666666666666668
-250.0   0.0   33.333333333333336
-200.0   30.0   33.333333333333336
-200.0   0.0   16.666666666666668
-250.0   30.0   16.666666666666668
-250.0   0.0   33.333333333333336
-200.0   0.0   33.333333333333336
-250.0   30.0   33.333333333333336
-250.0   0.0   50.0
-200.0   0.0   33.333333333333336
-200.0   30.0   33.333333333333336
-250.0   30.0   33.333333333333336
-200.0   30.0   50.0
-250.0   0.0   50.0
-250.0   30.0   50.0
-200.0   30.0   50.0
-250.0   30.0   33.333333333333336
-250.0   0.0   50.0
-200.0   30.0   50.0
-200.0   0.0   50.0
-200.0   0.0   33.333333333333336
-250.0   0.0   50.0
-200.0   30.0   50.0
-200.0   0.0   33.333333333333336
-250.0   30.0   33.333333333333336
-250.0   30.0   0.0
-200.0   30.0   0.0
-250.0   60.0   0.0
-250.0   30.0   16.666666666666668
-200.0   30.0   0.0
-200.0   60.0   0.0
-250.0   60.0   0.0
-200.0   60.0   16.666666666666668
-250.0   30.0   16.666666666666668
-250.0   60.0   16.666666666666668
-200.0   60.0   16.666666666666668
-250.0   60.0   0.0
-250.0   30.0   16.666666666666668
-200.0   60.0   16.666666666666668
-200.0   30.0   16.666666666666668
-200.0   30.0   0.0
-250.0   30.0   16.666666666666668
-200.0   60.0   16.666666666666668
-200.0   30.0   0.0
-250.0   60.0   0.0
-250.0   30.0   16.666666666666668
-200.0   30.0   16.666666666666668
-250.0   60.0   16.666666666666668
-250.0   30.0   33.333333333333336
-200.0   30.0   16.666666666666668
-200.0   60.0   16.666666666666668
-250.0   60.0   16.666666666666668
-200.0   60.0   33.333333333333336
-250.0   30.0   33.333333333333336
-250.0   60.0   33.333333333333336
-200.0   60.0   33.333333333333336
-250.0   60.0   16.666666666666668
-250.0   30.0   33.333333333333336
-200.0   60.0   33.333333333333336
-200.0   30.0   33.333333333333336
-200.0   30.0   16.666666666666668
-250.0   30.0   33.333333333333336
-200.0   60.0   33.333333333333336
-200.0   30.0   16.666666666666668
-250.0   60.0   16.666666666666668
-250.0   30.0   33.333333333333336
-200.0   30.0   33.333333333333336
-250.0   60.0   33.333333333333336
-250.0   30.0   50.0
-200.0   30.0   33.333333333333336
-200.0   60.0   33.333333333333336
-250.0   60.0   33.333333333333336
-200.0   60.0   50.0
-250.0   30.0   50.0
-250.0   60.0   50.0
-200.0   60.0   50.0
-250.0   60.0   33.333333333333336
-250.0   30.0   50.0
-200.0   60.0   50.0
-200.0   30.0   50.0
-200.0   30.0   33.333333333333336
-250.0   30.0   50.0
-200.0   60.0   50.0
-200.0   30.0   33.333333333333336
-250.0   60.0   33.333333333333336
-250.0   60.0   0.0
-200.0   60.0   0.0
-250.0   90.0   0.0
-250.0   60.0   16.666666666666668
-200.0   60.0   0.0
-200.0   90.0   0.0
-250.0   90.0   0.0
-200.0   90.0   16.666666666666668
-250.0   60.0   16.666666666666668
-250.0   90.0   16.666666666666668
-200.0   90.0   16.666666666666668
-250.0   90.0   0.0
-250.0   60.0   16.666666666666668
-200.0   90.0   16.666666666666668
-200.0   60.0   16.666666666666668
-200.0   60.0   0.0
-250.0   60.0   16.666666666666668
-200.0   90.0   16.666666666666668
-200.0   60.0   0.0
-250.0   90.0   0.0
-250.0   60.0   16.666666666666668
-200.0   60.0   16.666666666666668
-250.0   90.0   16.666666666666668
-250.0   60.0   33.333333333333336
-200.0   60.0   16.666666666666668
-200.0   90.0   16.666666666666668
-250.0   90.0   16.666666666666668
-200.0   90.0   33.333333333333336
-250.0   60.0   33.333333333333336
-250.0   90.0   33.333333333333336
-200.0   90.0   33.333333333333336
-250.0   90.0   16.666666666666668
-250.0   60.0   33.333333333333336
-200.0   90.0   33.333333333333336
-200.0   60.0   33.333333333333336
-200.0   60.0   16.666666666666668
-250.0   60.0   33.333333333333336
-200.0   90.0   33.333333333333336
-200.0   60.0   16.666666666666668
-250.0   90.0   16.666666666666668
-250.0   60.0   33.333333333333336
-200.0   60.0   33.333333333333336
-250.0   90.0   33.333333333333336
-250.0   60.0   50.0
-200.0   60.0   33.333333333333336
-200.0   90.0   33.333333333333336
-250.0   90.0   33.333333333333336
-200.0   90.0   50.0
-250.0   60.0   50.0
-250.0   90.0   50.0
-200.0   90.0   50.0
-250.0   90.0   33.333333333333336
-250.0   60.0   50.0
-200.0   90.0   50.0
-200.0   60.0   50.0
-200.0   60.0   33.333333333333336
-250.0   60.0   50.0
-200.0   90.0   50.0
-200.0   60.0   33.333333333333336
-250.0   90.0   33.333333333333336
-250.0   90.0   0.0
-200.0   90.0   0.0
-250.0   120.0   0.0
-250.0   90.0   16.666666666666668
-200.0   90.0   0.0
-200.0   120.0   0.0
-250.0   120.0   0.0
-200.0   120.0   16.666666666666668
-250.0   90.0   16.666666666666668
-250.0   120.0   16.666666666666668
-200.0   120.0   16.666666666666668
-250.0   120.0   0.0
-250.0   90.0   16.666666666666668
-200.0   120.0   16.666666666666668
-200.0   90.0   16.666666666666668
-200.0   90.0   0.0
-250.0   90.0   16.666666666666668
-200.0   120.0   16.666666666666668
-200.0   90.0   0.0
-250.0   120.0   0.0
-250.0   90.0   16.666666666666668
-200.0   90.0   16.666666666666668
-250.0   120.0   16.666666666666668
-250.0   90.0   33.333333333333336
-200.0   90.0   16.666666666666668
-200.0   120.0   16.666666666666668
-250.0   120.0   16.666666666666668
-200.0   120.0   33.333333333333336
-250.0   90.0   33.333333333333336
-250.0   120.0   33.333333333333336
-200.0   120.0   33.333333333333336
-250.0   120.0   16.666666666666668
-250.0   90.0   33.333333333333336
-200.0   120.0   33.333333333333336
-200.0   90.0   33.333333333333336
-200.0   90.0   16.666666666666668
-250.0   90.0   33.333333333333336
-200.0   120.0   33.333333333333336
-200.0   90.0   16.666666666666668
-250.0   120.0   16.666666666666668
-250.0   90.0   33.333333333333336
-200.0   90.0   33.333333333333336
-250.0   120.0   33.333333333333336
-250.0   90.0   50.0
-200.0   90.0   33.333333333333336
-200.0   120.0   33.333333333333336
-250.0   120.0   33.333333333333336
-200.0   120.0   50.0
-250.0   90.0   50.0
-250.0   120.0   50.0
-200.0   120.0   50.0
-250.0   120.0   33.333333333333336
-250.0   90.0   50.0
-200.0   120.0   50.0
-200.0   90.0   50.0
-200.0   90.0   33.333333333333336
-250.0   90.0   50.0
-200.0   120.0   50.0
-200.0   90.0   33.333333333333336
-250.0   120.0   33.333333333333336
-250.0   120.0   0.0
-200.0   120.0   0.0
-250.0   150.0   0.0
-250.0   120.0   16.666666666666668
-200.0   120.0   0.0
-200.0   150.0   0.0
-250.0   150.0   0.0
-200.0   150.0   16.666666666666668
-250.0   120.0   16.666666666666668
-250.0   150.0   16.666666666666668
-200.0   150.0   16.666666666666668
-250.0   150.0   0.0
-250.0   120.0   16.666666666666668
-200.0   150.0   16.666666666666668
-200.0   120.0   16.666666666666668
-200.0   120.0   0.0
-250.0   120.0   16.666666666666668
-200.0   150.0   16.666666666666668
-200.0   120.0   0.0
-250.0   150.0   0.0
-250.0   120.0   16.666666666666668
-200.0   120.0   16.666666666666668
-250.0   150.0   16.666666666666668
-250.0   120.0   33.333333333333336
-200.0   120.0   16.666666666666668
-200.0   150.0   16.666666666666668
-250.0   150.0   16.666666666666668
-200.0   150.0   33.333333333333336
-250.0   120.0   33.333333333333336
-250.0   150.0   33.333333333333336
-200.0   150.0   33.333333333333336
-250.0   150.0   16.666666666666668
-250.0   120.0   33.333333333333336
-200.0   150.0   33.333333333333336
-200.0   120.0   33.333333333333336
-200.0   120.0   16.666666666666668
-250.0   120.0   33.333333333333336
-200.0   150.0   33.333333333333336
-200.0   120.0   16.666666666666668
-250.0   150.0   16.666666666666668
-250.0   120.0   33.333333333333336
-200.0   120.0   33.333333333333336
-250.0   150.0   33.333333333333336
-250.0   120.0   50.0
-200.0   120.0   33.333333333333336
-200.0   150.0   33.333333333333336
-250.0   150.0   33.333333333333336
-200.0   150.0   50.0
-250.0   120.0   50.0
-250.0   150.0   50.0
-200.0   150.0   50.0
-250.0   150.0   33.333333333333336
-250.0   120.0   50.0
-200.0   150.0   50.0
-200.0   120.0   50.0
-200.0   120.0   33.333333333333336
-250.0   120.0   50.0
-200.0   150.0   50.0
-200.0   120.0   33.333333333333336
-250.0   150.0   33.333333333333336
-200.0   0.0   0.0
-150.0   0.0   0.0
-200.0   30.0   0.0
-200.0   0.0   16.666666666666668
-150.0   0.0   0.0
-150.0   30.0   0.0
-200.0   30.0   0.0
-150.0   30.0   16.666666666666668
-200.0   0.0   16.666666666666668
-200.0   30.0   16.666666666666668
-150.0   30.0   16.666666666666668
-200.0   30.0   0.0
-200.0   0.0   16.666666666666668
-150.0   30.0   16.666666666666668
-150.0   0.0   16.666666666666668
-150.0   0.0   0.0
-200.0   0.0   16.666666666666668
-150.0   30.0   16.666666666666668
-150.0   0.0   0.0
-200.0   30.0   0.0
-200.0   0.0   16.666666666666668
-150.0   0.0   16.666666666666668
-200.0   30.0   16.666666666666668
-200.0   0.0   33.333333333333336
-150.0   0.0   16.666666666666668
-150.0   30.0   16.666666666666668
-200.0   30.0   16.666666666666668
-150.0   30.0   33.333333333333336
-200.0   0.0   33.333333333333336
-200.0   30.0   33.333333333333336
-150.0   30.0   33.333333333333336
-200.0   30.0   16.666666666666668
-200.0   0.0   33.333333333333336
-150.0   30.0   33.333333333333336
-150.0   0.0   33.333333333333336
-150.0   0.0   16.666666666666668
-200.0   0.0   33.333333333333336
-150.0   30.0   33.333333333333336
-150.0   0.0   16.666666666666668
-200.0   30.0   16.666666666666668
-200.0   0.0   33.333333333333336
-150.0   0.0   33.333333333333336
-200.0   30.0   33.333333333333336
-200.0   0.0   50.0
-150.0   0.0   33.333333333333336
-150.0   30.0   33.333333333333336
-200.0   30.0   33.333333333333336
-150.0   30.0   50.0
-200.0   0.0   50.0
-200.0   30.0   50.0
-150.0   30.0   50.0
-200.0   30.0   33.333333333333336
-200.0   0.0   50.0
-150.0   30.0   50.0
-150.0   0.0   50.0
-150.0   0.0   33.333333333333336
-200.0   0.0   50.0
-150.0   30.0   50.0
-150.0   0.0   33.333333333333336
-200.0   30.0   33.333333333333336
-200.0   30.0   0.0
-150.0   30.0   0.0
-200.0   60.0   0.0
-200.0   30.0   16.666666666666668
-150.0   30.0   0.0
-150.0   60.0   0.0
-200.0   60.0   0.0
-150.0   60.0   16.666666666666668
-200.0   30.0   16.666666666666668
-200.0   60.0   16.666666666666668
-150.0   60.0   16.666666666666668
-200.0   60.0   0.0
-200.0   30.0   16.666666666666668
-150.0   60.0   16.666666666666668
-150.0   30.0   16.666666666666668
-150.0   30.0   0.0
-200.0   30.0   16.666666666666668
-150.0   60.0   16.666666666666668
-150.0   30.0   0.0
-200.0   60.0   0.0
-200.0   30.0   16.666666666666668
-150.0   30.0   16.666666666666668
-200.0   60.0   16.666666666666668
-200.0   30.0   33.333333333333336
-150.0   30.0   16.666666666666668
-150.0   60.0   16.666666666666668
-200.0   60.0   16.666666666666668
-150.0   60.0   33.333333333333336
-200.0   30.0   33.333333333333336
-200.0   60.0   33.333333333333336
-150.0   60.0   33.333333333333336
-200.0   60.0   16.666666666666668
-200.0   30.0   33.333333333333336
-150.0   60.0   33.333333333333336
-150.0   30.0   33.333333333333336
-150.0   30.0   16.666666666666668
-200.0   30.0   33.333333333333336
-150.0   60.0   33.333333333333336
-150.0   30.0   16.666666666666668
-200.0   60.0   16.666666666666668
-200.0   30.0   33.333333333333336
-150.0   30.0   33.333333333333336
-200.0   60.0   33.333333333333336
-200.0   30.0   50.0
-150.0   30.0   33.333333333333336
-150.0   60.0   33.333333333333336
-200.0   60.0   33.333333333333336
-150.0   60.0   50.0
-200.0   30.0   50.0
-200.0   60.0   50.0
-150.0   60.0   50.0
-200.0   60.0   33.333333333333336
-200.0   30.0   50.0
-150.0   60.0   50.0
-150.0   30.0   50.0
-150.0   30.0   33.333333333333336
-200.0   30.0   50.0
-150.0   60.0   50.0
-150.0   30.0   33.333333333333336
-200.0   60.0   33.333333333333336
-200.0   60.0   0.0
-150.0   60.0   0.0
-200.0   90.0   0.0
-200.0   60.0   16.666666666666668
-150.0   60.0   0.0
-150.0   90.0   0.0
-200.0   90.0   0.0
-150.0   90.0   16.666666666666668
-200.0   60.0   16.666666666666668
-200.0   90.0   16.666666666666668
-150.0   90.0   16.666666666666668
-200.0   90.0   0.0
-200.0   60.0   16.666666666666668
-150.0   90.0   16.666666666666668
-150.0   60.0   16.666666666666668
-150.0   60.0   0.0
-200.0   60.0   16.666666666666668
-150.0   90.0   16.666666666666668
-150.0   60.0   0.0
-200.0   90.0   0.0
-200.0   60.0   16.666666666666668
-150.0   60.0   16.666666666666668
-200.0   90.0   16.666666666666668
-200.0   60.0   33.333333333333336
-150.0   60.0   16.666666666666668
-150.0   90.0   16.666666666666668
-200.0   90.0   16.666666666666668
-150.0   90.0   33.333333333333336
-200.0   60.0   33.333333333333336
-200.0   90.0   33.333333333333336
-150.0   90.0   33.333333333333336
-200.0   90.0   16.666666666666668
-200.0   60.0   33.333333333333336
-150.0   90.0   33.333333333333336
-150.0   60.0   33.333333333333336
-150.0   60.0   16.666666666666668
-200.0   60.0   33.333333333333336
-150.0   90.0   33.333333333333336
-150.0   60.0   16.666666666666668
-200.0   90.0   16.666666666666668
-200.0   60.0   33.333333333333336
-150.0   60.0   33.333333333333336
-200.0   90.0   33.333333333333336
-200.0   60.0   50.0
-150.0   60.0   33.333333333333336
-150.0   90.0   33.333333333333336
-200.0   90.0   33.333333333333336
-150.0   90.0   50.0
-200.0   60.0   50.0
-200.0   90.0   50.0
-150.0   90.0   50.0
-200.0   90.0   33.333333333333336
-200.0   60.0   50.0
-150.0   90.0   50.0
-150.0   60.0   50.0
-150.0   60.0   33.333333333333336
-200.0   60.0   50.0
-150.0   90.0   50.0
-150.0   60.0   33.333333333333336
-200.0   90.0   33.333333333333336
-200.0   90.0   0.0
-150.0   90.0   0.0
-200.0   120.0   0.0
-200.0   90.0   16.666666666666668
-150.0   90.0   0.0
-150.0   120.0   0.0
-200.0   120.0   0.0
-150.0   120.0   16.666666666666668
-200.0   90.0   16.666666666666668
-200.0   120.0   16.666666666666668
-150.0   120.0   16.666666666666668
-200.0   120.0   0.0
-200.0   90.0   16.666666666666668
-150.0   120.0   16.666666666666668
-150.0   90.0   16.666666666666668
-150.0   90.0   0.0
-200.0   90.0   16.666666666666668
-150.0   120.0   16.666666666666668
-150.0   90.0   0.0
-200.0   120.0   0.0
-200.0   90.0   16.666666666666668
-150.0   90.0   16.666666666666668
-200.0   120.0   16.666666666666668
-200.0   90.0   33.333333333333336
-150.0   90.0   16.666666666666668
-150.0   120.0   16.666666666666668
-200.0   120.0   16.666666666666668
-150.0   120.0   33.333333333333336
-200.0   90.0   33.333333333333336
-200.0   120.0   33.333333333333336
-150.0   120.0   33.333333333333336
-200.0   120.0   16.666666666666668
-200.0   90.0   33.333333333333336
-150.0   120.0   33.333333333333336
-150.0   90.0   33.333333333333336
-150.0   90.0   16.666666666666668
-200.0   90.0   33.333333333333336
-150.0   120.0   33.333333333333336
-150.0   90.0   16.666666666666668
-200.0   120.0   16.666666666666668
-200.0   90.0   33.333333333333336
-150.0   90.0   33.333333333333336
-200.0   120.0   33.333333333333336
-200.0   90.0   50.0
-150.0   90.0   33.333333333333336
-150.0   120.0   33.333333333333336
-200.0   120.0   33.333333333333336
-150.0   120.0   50.0
-200.0   90.0   50.0
-200.0   120.0   50.0
-150.0   120.0   50.0
-200.0   120.0   33.333333333333336
-200.0   90.0   50.0
-150.0   120.0   50.0
-150.0   90.0   50.0
-150.0   90.0   33.333333333333336
-200.0   90.0   50.0
-150.0   120.0   50.0
-150.0   90.0   33.333333333333336
-200.0   120.0   33.333333333333336
-200.0   120.0   0.0
-150.0   120.0   0.0
-200.0   150.0   0.0
-200.0   120.0   16.666666666666668
-150.0   120.0   0.0
-150.0   150.0   0.0
-200.0   150.0   0.0
-150.0   150.0   16.666666666666668
-200.0   120.0   16.666666666666668
-200.0   150.0   16.666666666666668
-150.0   150.0   16.666666666666668
-200.0   150.0   0.0
-200.0   120.0   16.666666666666668
-150.0   150.0   16.666666666666668
-150.0   120.0   16.666666666666668
-150.0   120.0   0.0
-200.0   120.0   16.666666666666668
-150.0   150.0   16.666666666666668
-150.0   120.0   0.0
-200.0   150.0   0.0
-200.0   120.0   16.666666666666668
-150.0   120.0   16.666666666666668
-200.0   150.0   16.666666666666668
-200.0   120.0   33.333333333333336
-150.0   120.0   16.666666666666668
-150.0   150.0   16.666666666666668
-200.0   150.0   16.666666666666668
-150.0   150.0   33.333333333333336
-200.0   120.0   33.333333333333336
-200.0   150.0   33.333333333333336
-150.0   150.0   33.333333333333336
-200.0   150.0   16.666666666666668
-200.0   120.0   33.333333333333336
-150.0   150.0   33.333333333333336
-150.0   120.0   33.333333333333336
-150.0   120.0   16.666666666666668
-200.0   120.0   33.333333333333336
-150.0   150.0   33.333333333333336
-150.0   120.0   16.666666666666668
-200.0   150.0   16.666666666666668
-200.0   120.0   33.333333333333336
-150.0   120.0   33.333333333333336
-200.0   150.0   33.333333333333336
-200.0   120.0   50.0
-150.0   120.0   33.333333333333336
-150.0   150.0   33.333333333333336
-200.0   150.0   33.333333333333336
-150.0   150.0   50.0
-200.0   120.0   50.0
-200.0   150.0   50.0
-150.0   150.0   50.0
-200.0   150.0   33.333333333333336
-200.0   120.0   50.0
-150.0   150.0   50.0
-150.0   120.0   50.0
-150.0   120.0   33.333333333333336
-200.0   120.0   50.0
-150.0   150.0   50.0
-150.0   120.0   33.333333333333336
-200.0   150.0   33.333333333333336
-150.0   0.0   0.0
-100.0   0.0   0.0
-150.0   30.0   0.0
-150.0   0.0   16.666666666666668
-100.0   0.0   0.0
-100.0   30.0   0.0
-150.0   30.0   0.0
-100.0   30.0   16.666666666666668
-150.0   0.0   16.666666666666668
-150.0   30.0   16.666666666666668
-100.0   30.0   16.666666666666668
-150.0   30.0   0.0
-150.0   0.0   16.666666666666668
-100.0   30.0   16.666666666666668
-100.0   0.0   16.666666666666668
-100.0   0.0   0.0
-150.0   0.0   16.666666666666668
-100.0   30.0   16.666666666666668
-100.0   0.0   0.0
-150.0   30.0   0.0
-150.0   0.0   16.666666666666668
-100.0   0.0   16.666666666666668
-150.0   30.0   16.666666666666668
-150.0   0.0   33.333333333333336
-100.0   0.0   16.666666666666668
-100.0   30.0   16.666666666666668
-150.0   30.0   16.666666666666668
-100.0   30.0   33.333333333333336
-150.0   0.0   33.333333333333336
-150.0   30.0   33.333333333333336
-100.0   30.0   33.333333333333336
-150.0   30.0   16.666666666666668
-150.0   0.0   33.333333333333336
-100.0   30.0   33.333333333333336
-100.0   0.0   33.333333333333336
-100.0   0.0   16.666666666666668
-150.0   0.0   33.333333333333336
-100.0   30.0   33.333333333333336
-100.0   0.0   16.666666666666668
-150.0   30.0   16.666666666666668
-150.0   0.0   33.333333333333336
-100.0   0.0   33.333333333333336
-150.0   30.0   33.333333333333336
-150.0   0.0   50.0
-100.0   0.0   33.333333333333336
-100.0   30.0   33.333333333333336
-150.0   30.0   33.333333333333336
-100.0   30.0   50.0
-150.0   0.0   50.0
-150.0   30.0   50.0
-100.0   30.0   50.0
-150.0   30.0   33.333333333333336
-150.0   0.0   50.0
-100.0   30.0   50.0
-100.0   0.0   50.0
-100.0   0.0   33.333333333333336
-150.0   0.0   50.0
-100.0   30.0   50.0
-100.0   0.0   33.333333333333336
-150.0   30.0   33.333333333333336
-150.0   30.0   0.0
-100.0   30.0   0.0
-150.0   60.0   0.0
-150.0   30.0   16.666666666666668
-100.0   30.0   0.0
-100.0   60.0   0.0
-150.0   60.0   0.0
-100.0   60.0   16.666666666666668
-150.0   30.0   16.666666666666668
-150.0   60.0   16.666666666666668
-100.0   60.0   16.666666666666668
-150.0   60.0   0.0
-150.0   30.0   16.666666666666668
-100.0   60.0   16.666666666666668
-100.0   30.0   16.666666666666668
-100.0   30.0   0.0
-150.0   30.0   16.666666666666668
-100.0   60.0   16.666666666666668
-100.0   30.0   0.0
-150.0   60.0   0.0
-150.0   30.0   16.666666666666668
-100.0   30.0   16.666666666666668
-150.0   60.0   16.666666666666668
-150.0   30.0   33.333333333333336
-100.0   30.0   16.666666666666668
-100.0   60.0   16.666666666666668
-150.0   60.0   16.666666666666668
-100.0   60.0   33.333333333333336
-150.0   30.0   33.333333333333336
-150.0   60.0   33.333333333333336
-100.0   60.0   33.333333333333336
-150.0   60.0   16.666666666666668
-150.0   30.0   33.333333333333336
-100.0   60.0   33.333333333333336
-100.0   30.0   33.333333333333336
-100.0   30.0   16.666666666666668
-150.0   30.0   33.333333333333336
-100.0   60.0   33.333333333333336
-100.0   30.0   16.666666666666668
-150.0   60.0   16.666666666666668
-150.0   30.0   33.333333333333336
-100.0   30.0   33.333333333333336
-150.0   60.0   33.333333333333336
-150.0   30.0   50.0
-100.0   30.0   33.333333333333336
-100.0   60.0   33.333333333333336
-150.0   60.0   33.333333333333336
-100.0   60.0   50.0
-150.0   30.0   50.0
-150.0   60.0   50.0
-100.0   60.0   50.0
-150.0   60.0   33.333333333333336
-150.0   30.0   50.0
-100.0   60.0   50.0
-100.0   30.0   50.0
-100.0   30.0   33.333333333333336
-150.0   30.0   50.0
-100.0   60.0   50.0
-100.0   30.0   33.333333333333336
-150.0   60.0   33.333333333333336
-150.0   60.0   0.0
-100.0   60.0   0.0
-150.0   90.0   0.0
-150.0   60.0   16.666666666666668
-100.0   60.0   0.0
-100.0   90.0   0.0
-150.0   90.0   0.0
-100.0   90.0   16.666666666666668
-150.0   60.0   16.666666666666668
-150.0   90.0   16.666666666666668
-100.0   90.0   16.666666666666668
-150.0   90.0   0.0
-150.0   60.0   16.666666666666668
-100.0   90.0   16.666666666666668
-100.0   60.0   16.666666666666668
-100.0   60.0   0.0
-150.0   60.0   16.666666666666668
-100.0   90.0   16.666666666666668
-100.0   60.0   0.0
-150.0   90.0   0.0
-150.0   60.0   16.666666666666668
-100.0   60.0   16.666666666666668
-150.0   90.0   16.666666666666668
-150.0   60.0   33.333333333333336
-100.0   60.0   16.666666666666668
-100.0   90.0   16.666666666666668
-150.0   90.0   16.666666666666668
-100.0   90.0   33.333333333333336
-150.0   60.0   33.333333333333336
-150.0   90.0   33.333333333333336
-100.0   90.0   33.333333333333336
-150.0   90.0   16.666666666666668
-150.0   60.0   33.333333333333336
-100.0   90.0   33.333333333333336
-100.0   60.0   33.333333333333336
-100.0   60.0   16.666666666666668
-150.0   60.0   33.333333333333336
-100.0   90.0   33.333333333333336
-100.0   60.0   16.666666666666668
-150.0   90.0   16.666666666666668
-150.0   60.0   33.333333333333336
-100.0   60.0   33.333333333333336
-150.0   90.0   33.333333333333336
-150.0   60.0   50.0
-100.0   60.0   33.333333333333336
-100.0   90.0   33.333333333333336
-150.0   90.0   33.333333333333336
-100.0   90.0   50.0
-150.0   60.0   50.0
-150.0   90.0   50.0
-100.0   90.0   50.0
-150.0   90.0   33.333333333333336
-150.0   60.0   50.0
-100.0   90.0   50.0
-100.0   60.0   50.0
-100.0   60.0   33.333333333333336
-150.0   60.0   50.0
-100.0   90.0   50.0
-100.0   60.0   33.333333333333336
-150.0   90.0   33.333333333333336
-150.0   90.0   0.0
-100.0   90.0   0.0
-150.0   120.0   0.0
-150.0   90.0   16.666666666666668
-100.0   90.0   0.0
-100.0   120.0   0.0
-150.0   120.0   0.0
-100.0   120.0   16.666666666666668
-150.0   90.0   16.666666666666668
-150.0   120.0   16.666666666666668
-100.0   120.0   16.666666666666668
-150.0   120.0   0.0
-150.0   90.0   16.666666666666668
-100.0   120.0   16.666666666666668
-100.0   90.0   16.666666666666668
-100.0   90.0   0.0
-150.0   90.0   16.666666666666668
-100.0   120.0   16.666666666666668
-100.0   90.0   0.0
-150.0   120.0   0.0
-150.0   90.0   16.666666666666668
-100.0   90.0   16.666666666666668
-150.0   120.0   16.666666666666668
-150.0   90.0   33.333333333333336
-100.0   90.0   16.666666666666668
-100.0   120.0   16.666666666666668
-150.0   120.0   16.666666666666668
-100.0   120.0   33.333333333333336
-150.0   90.0   33.333333333333336
-150.0   120.0   33.333333333333336
-100.0   120.0   33.333333333333336
-150.0   120.0   16.666666666666668
-150.0   90.0   33.333333333333336
-100.0   120.0   33.333333333333336
-100.0   90.0   33.333333333333336
-100.0   90.0   16.666666666666668
-150.0   90.0   33.333333333333336
-100.0   120.0   33.333333333333336
-100.0   90.0   16.666666666666668
-150.0   120.0   16.666666666666668
-150.0   90.0   33.333333333333336
-100.0   90.0   33.333333333333336
-150.0   120.0   33.333333333333336
-150.0   90.0   50.0
-100.0   90.0   33.333333333333336
-100.0   120.0   33.333333333333336
-150.0   120.0   33.333333333333336
-100.0   120.0   50.0
-150.0   90.0   50.0
-150.0   120.0   50.0
-100.0   120.0   50.0
-150.0   120.0   33.333333333333336
-150.0   90.0   50.0
-100.0   120.0   50.0
-100.0   90.0   50.0
-100.0   90.0   33.333333333333336
-150.0   90.0   50.0
-100.0   120.0   50.0
-100.0   90.0   33.333333333333336
-150.0   120.0   33.333333333333336
-150.0   120.0   0.0
-100.0   120.0   0.0
-150.0   150.0   0.0
-150.0   120.0   16.666666666666668
-100.0   120.0   0.0
-100.0   150.0   0.0
-150.0   150.0   0.0
-100.0   150.0   16.666666666666668
-150.0   120.0   16.666666666666668
-150.0   150.0   16.666666666666668
-100.0   150.0   16.666666666666668
-150.0   150.0   0.0
-150.0   120.0   16.666666666666668
-100.0   150.0   16.666666666666668
-100.0   120.0   16.666666666666668
-100.0   120.0   0.0
-150.0   120.0   16.666666666666668
-100.0   150.0   16.666666666666668
-100.0   120.0   0.0
-150.0   150.0   0.0
-150.0   120.0   16.666666666666668
-100.0   120.0   16.666666666666668
-150.0   150.0   16.666666666666668
-150.0   120.0   33.333333333333336
-100.0   120.0   16.666666666666668
-100.0   150.0   16.666666666666668
-150.0   150.0   16.666666666666668
-100.0   150.0   33.333333333333336
-150.0   120.0   33.333333333333336
-150.0   150.0   33.333333333333336
-100.0   150.0   33.333333333333336
-150.0   150.0   16.666666666666668
-150.0   120.0   33.333333333333336
-100.0   150.0   33.333333333333336
-100.0   120.0   33.333333333333336
-100.0   120.0   16.666666666666668
-150.0   120.0   33.333333333333336
-100.0   150.0   33.333333333333336
-100.0   120.0   16.666666666666668
-150.0   150.0   16.666666666666668
-150.0   120.0   33.333333333333336
-100.0   120.0   33.333333333333336
-150.0   150.0   33.333333333333336
-150.0   120.0   50.0
-100.0   120.0   33.333333333333336
-100.0   150.0   33.333333333333336
-150.0   150.0   33.333333333333336
-100.0   150.0   50.0
-150.0   120.0   50.0
-150.0   150.0   50.0
-100.0   150.0   50.0
-150.0   150.0   33.333333333333336
-150.0   120.0   50.0
-100.0   150.0   50.0
-100.0   120.0   50.0
-100.0   120.0   33.333333333333336
-150.0   120.0   50.0
-100.0   150.0   50.0
-100.0   120.0   33.333333333333336
-150.0   150.0   33.333333333333336
-100.0   0.0   0.0
-50.0   0.0   0.0
-100.0   30.0   0.0
-100.0   0.0   16.666666666666668
-50.0   0.0   0.0
-50.0   30.0   0.0
-100.0   30.0   0.0
-50.0   30.0   16.666666666666668
-100.0   0.0   16.666666666666668
-100.0   30.0   16.666666666666668
-50.0   30.0   16.666666666666668
-100.0   30.0   0.0
-100.0   0.0   16.666666666666668
-50.0   30.0   16.666666666666668
-50.0   0.0   16.666666666666668
-50.0   0.0   0.0
-100.0   0.0   16.666666666666668
-50.0   30.0   16.666666666666668
-50.0   0.0   0.0
-100.0   30.0   0.0
-100.0   0.0   16.666666666666668
-50.0   0.0   16.666666666666668
-100.0   30.0   16.666666666666668
-100.0   0.0   33.333333333333336
-50.0   0.0   16.666666666666668
-50.0   30.0   16.666666666666668
-100.0   30.0   16.666666666666668
-50.0   30.0   33.333333333333336
-100.0   0.0   33.333333333333336
-100.0   30.0   33.333333333333336
-50.0   30.0   33.333333333333336
-100.0   30.0   16.666666666666668
-100.0   0.0   33.333333333333336
-50.0   30.0   33.333333333333336
-50.0   0.0   33.333333333333336
-50.0   0.0   16.666666666666668
-100.0   0.0   33.333333333333336
-50.0   30.0   33.333333333333336
-50.0   0.0   16.666666666666668
-100.0   30.0   16.666666666666668
-100.0   0.0   33.333333333333336
-50.0   0.0   33.333333333333336
-100.0   30.0   33.333333333333336
-100.0   0.0   50.0
-50.0   0.0   33.333333333333336
-50.0   30.0   33.333333333333336
-100.0   30.0   33.333333333333336
-50.0   30.0   50.0
-100.0   0.0   50.0
-100.0   30.0   50.0
-50.0   30.0   50.0
-100.0   30.0   33.333333333333336
-100.0   0.0   50.0
-50.0   30.0   50.0
-50.0   0.0   50.0
-50.0   0.0   33.333333333333336
-100.0   0.0   50.0
-50.0   30.0   50.0
-50.0   0.0   33.333333333333336
-100.0   30.0   33.333333333333336
-100.0   30.0   0.0
-50.0   30.0   0.0
-100.0   60.0   0.0
-100.0   30.0   16.666666666666668
-50.0   30.0   0.0
-50.0   60.0   0.0
-100.0   60.0   0.0
-50.0   60.0   16.666666666666668
-100.0   30.0   16.666666666666668
-100.0   60.0   16.666666666666668
-50.0   60.0   16.666666666666668
-100.0   60.0   0.0
-100.0   30.0   16.666666666666668
-50.0   60.0   16.666666666666668
-50.0   30.0   16.666666666666668
-50.0   30.0   0.0
-100.0   30.0   16.666666666666668
-50.0   60.0   16.666666666666668
-50.0   30.0   0.0
-100.0   60.0   0.0
-100.0   30.0   16.666666666666668
-50.0   30.0   16.666666666666668
-100.0   60.0   16.666666666666668
-100.0   30.0   33.333333333333336
-50.0   30.0   16.666666666666668
-50.0   60.0   16.666666666666668
-100.0   60.0   16.666666666666668
-50.0   60.0   33.333333333333336
-100.0   30.0   33.333333333333336
-100.0   60.0   33.333333333333336
-50.0   60.0   33.333333333333336
-100.0   60.0   16.666666666666668
-100.0   30.0   33.333333333333336
-50.0   60.0   33.333333333333336
-50.0   30.0   33.333333333333336
-50.0   30.0   16.666666666666668
-100.0   30.0   33.333333333333336
-50.0   60.0   33.333333333333336
-50.0   30.0   16.666666666666668
-100.0   60.0   16.666666666666668
-100.0   30.0   33.333333333333336
-50.0   30.0   33.333333333333336
-100.0   60.0   33.333333333333336
-100.0   30.0   50.0
-50.0   30.0   33.333333333333336
-50.0   60.0   33.333333333333336
-100.0   60.0   33.333333333333336
-50.0   60.0   50.0
-100.0   30.0   50.0
-100.0   60.0   50.0
-50.0   60.0   50.0
-100.0   60.0   33.333333333333336
-100.0   30.0   50.0
-50.0   60.0   50.0
-50.0   30.0   50.0
-50.0   30.0   33.333333333333336
-100.0   30.0   50.0
-50.0   60.0   50.0
-50.0   30.0   33.333333333333336
-100.0   60.0   33.333333333333336
-100.0   60.0   0.0
-50.0   60.0   0.0
-100.0   90.0   0.0
-100.0   60.0   16.666666666666668
-50.0   60.0   0.0
-50.0   90.0   0.0
-100.0   90.0   0.0
-50.0   90.0   16.666666666666668
-100.0   60.0   16.666666666666668
-100.0   90.0   16.666666666666668
-50.0   90.0   16.666666666666668
-100.0   90.0   0.0
-100.0   60.0   16.666666666666668
-50.0   90.0   16.666666666666668
-50.0   60.0   16.666666666666668
-50.0   60.0   0.0
-100.0   60.0   16.666666666666668
-50.0   90.0   16.666666666666668
-50.0   60.0   0.0
-100.0   90.0   0.0
-100.0   60.0   16.666666666666668
-50.0   60.0   16.666666666666668
-100.0   90.0   16.666666666666668
-100.0   60.0   33.333333333333336
-50.0   60.0   16.666666666666668
-50.0   90.0   16.666666666666668
-100.0   90.0   16.666666666666668
-50.0   90.0   33.333333333333336
-100.0   60.0   33.333333333333336
-100.0   90.0   33.333333333333336
-50.0   90.0   33.333333333333336
-100.0   90.0   16.666666666666668
-100.0   60.0   33.333333333333336
-50.0   90.0   33.333333333333336
-50.0   60.0   33.333333333333336
-50.0   60.0   16.666666666666668
-100.0   60.0   33.333333333333336
-50.0   90.0   33.333333333333336
-50.0   60.0   16.666666666666668
-100.0   90.0   16.666666666666668
-100.0   60.0   33.333333333333336
-50.0   60.0   33.333333333333336
-100.0   90.0   33.333333333333336
-100.0   60.0   50.0
-50.0   60.0   33.333333333333336
-50.0   90.0   33.333333333333336
-100.0   90.0   33.333333333333336
-50.0   90.0   50.0
-100.0   60.0   50.0
-100.0   90.0   50.0
-50.0   90.0   50.0
-100.0   90.0   33.333333333333336
-100.0   60.0   50.0
-50.0   90.0   50.0
-50.0   60.0   50.0
-50.0   60.0   33.333333333333336
-100.0   60.0   50.0
-50.0   90.0   50.0
-50.0   60.0   33.333333333333336
-100.0   90.0   33.333333333333336
-100.0   90.0   0.0
-50.0   90.0   0.0
-100.0   120.0   0.0
-100.0   90.0   16.666666666666668
-50.0   90.0   0.0
-50.0   120.0   0.0
-100.0   120.0   0.0
-50.0   120.0   16.666666666666668
-100.0   90.0   16.666666666666668
-100.0   120.0   16.666666666666668
-50.0   120.0   16.666666666666668
-100.0   120.0   0.0
-100.0   90.0   16.666666666666668
-50.0   120.0   16.666666666666668
-50.0   90.0   16.666666666666668
-50.0   90.0   0.0
-100.0   90.0   16.666666666666668
-50.0   120.0   16.666666666666668
-50.0   90.0   0.0
-100.0   120.0   0.0
-100.0   90.0   16.666666666666668
-50.0   90.0   16.666666666666668
-100.0   120.0   16.666666666666668
-100.0   90.0   33.333333333333336
-50.0   90.0   16.666666666666668
-50.0   120.0   16.666666666666668
-100.0   120.0   16.666666666666668
-50.0   120.0   33.333333333333336
-100.0   90.0   33.333333333333336
-100.0   120.0   33.333333333333336
-50.0   120.0   33.333333333333336
-100.0   120.0   16.666666666666668
-100.0   90.0   33.333333333333336
-50.0   120.0   33.333333333333336
-50.0   90.0   33.333333333333336
-50.0   90.0   16.666666666666668
-100.0   90.0   33.333333333333336
-50.0   120.0   33.333333333333336
-50.0   90.0   16.666666666666668
-100.0   120.0   16.666666666666668
-100.0   90.0   33.333333333333336
-50.0   90.0   33.333333333333336
-100.0   120.0   33.333333333333336
-100.0   90.0   50.0
-50.0   90.0   33.333333333333336
-50.0   120.0   33.333333333333336
-100.0   120.0   33.333333333333336
-50.0   120.0   50.0
-100.0   90.0   50.0
-100.0   120.0   50.0
-50.0   120.0   50.0
-100.0   120.0   33.333333333333336
-100.0   90.0   50.0
-50.0   120.0   50.0
-50.0   90.0   50.0
-50.0   90.0   33.333333333333336
-100.0   90.0   50.0
-50.0   120.0   50.0
-50.0   90.0   33.333333333333336
-100.0   120.0   33.333333333333336
-100.0   120.0   0.0
-50.0   120.0   0.0
-100.0   150.0   0.0
-100.0   120.0   16.666666666666668
-50.0   120.0   0.0
-50.0   150.0   0.0
-100.0   150.0   0.0
-50.0   150.0   16.666666666666668
-100.0   120.0   16.666666666666668
-100.0   150.0   16.666666666666668
-50.0   150.0   16.666666666666668
-100.0   150.0   0.0
-100.0   120.0   16.666666666666668
-50.0   150.0   16.666666666666668
-50.0   120.0   16.666666666666668
-50.0   120.0   0.0
-100.0   120.0   16.666666666666668
-50.0   150.0   16.666666666666668
-50.0   120.0   0.0
-100.0   150.0   0.0
-100.0   120.0   16.666666666666668
-50.0   120.0   16.666666666666668
-100.0   150.0   16.666666666666668
-100.0   120.0   33.333333333333336
-50.0   120.0   16.666666666666668
-50.0   150.0   16.666666666666668
-100.0   150.0   16.666666666666668
-50.0   150.0   33.333333333333336
-100.0   120.0   33.333333333333336
-100.0   150.0   33.333333333333336
-50.0   150.0   33.333333333333336
-100.0   150.0   16.666666666666668
-100.0   120.0   33.333333333333336
-50.0   150.0   33.333333333333336
-50.0   120.0   33.333333333333336
-50.0   120.0   16.666666666666668
-100.0   120.0   33.333333333333336
-50.0   150.0   33.333333333333336
-50.0   120.0   16.666666666666668
-100.0   150.0   16.666666666666668
-100.0   120.0   33.333333333333336
-50.0   120.0   33.333333333333336
-100.0   150.0   33.333333333333336
-100.0   120.0   50.0
-50.0   120.0   33.333333333333336
-50.0   150.0   33.333333333333336
-100.0   150.0   33.333333333333336
-50.0   150.0   50.0
-100.0   120.0   50.0
-100.0   150.0   50.0
-50.0   150.0   50.0
-100.0   150.0   33.333333333333336
-100.0   120.0   50.0
-50.0   150.0   50.0
-50.0   120.0   50.0
-50.0   120.0   33.333333333333336
-100.0   120.0   50.0
-50.0   150.0   50.0
-50.0   120.0   33.333333333333336
-100.0   150.0   33.333333333333336
-50.0   0.0   0.0
0.0   0.0   0.0
-50.0   30.0   0.0
-50.0   0.0   16.666666666666668
0.0   0.0   0.0
0.0   30.0   0.0
-50.0   30.0   0.0
0.0   30.0   16.666666666666668
-50.0   0.0   16.666666666666668
-50.0   30.0   16.666666666666668
0.0   30.0   16.666666666666668
-50.0   30.0   0.0
-50.0   0.0   16.666666666666668
0.0   30.0   16.666666666666668
0.0   0.0   16.666666666666668
0.0   0.0   0.0
-50.0   0.0   16.666666666666668
0.0   30.0   16.666666666666668
0.0   0.0   0.0
-50.0   30.0   0.0
-50.0   0.0   16.666666666666668
0.0   0.0   16.666666666666668
-50.0   30.0   16.666666666666668
-50.0   0.0   33.333333333333336
0.0   0.0   16.666666666666668
0.0   30.0   16.666666666666668
-50.0   30.0   16.666666666666668
0.0   30.0   33.333333333333336
-50.0   0.0   33.333333333333336
-50.0   30.0   33.333333333333336
0.0   30.0   33.333333333333336
-50.0   30.0   16.666666666666668
-50.0   0.0   33.333333333333336
0.0   30.0   33.333333333333336
0.0   0.0   33.333333333333336
0.0   0.0   16.666666666666668
-50.0   0.0   33.333333333333336
0.0   30.0   33.333333333333336
0.0   0.0   16.666666666666668
-50.0   30.0   16.666666666666668
-50.0   0.0   33.333333333333336
0.0   0.0   33.333333333333336
-50.0   30.0   33.333333333333336
-50.0   0.0   50.0
0.0   0.0   33.333333333333336
0.0   30.0   33.333333333333336
-50.0   30.0   33.333333333333336
0.0   30.0   50.0
-50.0   0.0   50.0
-50.0   30.0   50.0
0.0   30.0   50.0
-50.0   30.0   33.333333333333336
-50.0   0.0   50.0
0.0   30.0   50.0
0.0   0.0   50.0
0.0   0.0   33.333333333333336
-50.0   0.0   50.0
0.0   30.0   50.0
0.0   0.0   33.333333333333336
-50.0   30.0   33.333333333333336
-50.0   30.0   0.0
0.0   30.0   0.0
-50.0   60.0   0.0
-50.0   30.0   16.666666666666668
0.0   30.0   0.0
0.0   60.0   0.0
-50.0   60.0   0.0
0.0   60.0   16.666666666666668
-50.0   30.0   16.666666666666668
-50.0   60.0   16.666666666666668
0.0   60.0   16.666666666666668
-50.0   60.0   0.0
-50.0   30.0   16.666666666666668
0.0   60.0   16.666666666666668
0.0   30.0   16.666666666666668
0.0   30.0   0.0
-50.0   30.0   16.666666666666668
0.0   60.0   16.666666666666668
0.0   30.0   0.0
-50.0   60.0   0.0
-50.0   30.0   16.666666666666668
0.0   30.0   16.666666666666668
-50.0   60.0   16.666666666666668
-50.0   30.0   33.333333333333336
0.0   30.0   16.666666666666668
0.0   60.0   16.666666666666668
-50.0   60.0   16.666666666666668
0.0   60.0   33.333333333333336
-50.0   30.0   33.333333333333336
-50.0   60.0   33.333333333333336
0.0   60.0   33.333333333333336
-50.0   60.0   16.666666666666668
-50.0   30.0   33.333333333333336
0.0   60.0   33.333333333333336
0.0   30.0   33.333333333333336
0.0   30.0   16.666666666666668
-50.0   30.0   33.333333333333336
0.0   60.0   33.333333333333336
0.0   30.0   16.666666666666668
-50.0   60.0   16.666666666666668
-50.0   30.0   33.333333333333336
0.0   30.0   33.333333333333336
-50.0   60.0   33.333333333333336
-50.0   30.0   50.0
0.0   30.0   33.333333333333336
0.0   60.0   33.333333333333336
-50.0   60.0   33.333333333333336
0.0   60.0   50.0
-50.0   30.0   50.0
-50.0   60.0   50.0
0.0   60.0   50.0
-50.0   60.0   33.333333333333336
-50.0   30.0   50.0
0.0   60.0   50.0
0.0   30.0   50.0
0.0   30.0   33.333333333333336
-50.0   30.0   50.0
0.0   60.0   50.0
0.0   30.0   33.333333333333336
-50.0   60.0   33.333333333333336
-50.0   60.0   0.0
0.0   60.0   0.0
-50.0   90.0   0.0
-50.0   60.0   16.666666666666668
0.0   60.0   0.0
0.0   90.0   0.0
-50.0   90.0   0.0
0.0   90.0   16.666666666666668
-50.0   60.0   16.666666666666668
-50.0   90.0   16.666666666666668
0.0   90.0   16.666666666666668
-50.0   90.0   0.0
-50.0   60.0   16.666666666666668
0.0   90.0   16.666666666666668
0.0   60.0   16.666666666666668
0.0   60.0   0.0
-50.0   60.0   16.666666666666668
0.0   90.0   16.666666666666668
0.0   60.0   0.0
-50.0   90.0   0.0
-50.0   60.0   16.666666666666668
0.0   60.0   16.666666666666668
-50.0   90.0   16.666666666666668
-50.0   60.0   33.333333333333336
0.0   60.0   16.666666666666668
0.0   90.0   16.666666666666668
-50.0   90.0   16.666666666666668
0.0   90.0   33.333333333333336
-50.0   60.0   33.333333333333336
-50.0   90.0   33.333333333333336
0.0   90.0   33.333333333333336
-50.0   90.0   16.666666666666668
-50.0   60.0   33.333333333333336
0.0   90.0   33.333333333333336
0.0   60.0   33.333333333333336
0.0   60.0   16.666666666666668
-50.0   60.0   33.333333333333336
0.0   90.0   33.333333333333336
0.0   60.0   16.666666666666668
-50.0   90.0   16.666666666666668
-50.0   60.0   33.333333333333336
0.0   60.0   33.333333333333336
-50.0   90.0   33.333333333333336
-50.0   60.0   50.0
0.0   60.0   33.333333333333336
0.0   90.0   33.333333333333336
-50.0   90.0   33.333333333333336
0.0   90.0   50.0
-50.0   60.0   50.0
-50.0   90.0   50.0
0.0   90.0   50.0
-50.0   90.0   33.333333333333336
-50.0   60.0   50.0
0.0   90.0   50.0
0.0   60.0   50.0
0.0   60.0   33.333333333333336
-50.0   60.0   50.0
0.0   90.0   50.0
0.0   60.0   33.333333333333336
-50.0   90.0   33.333333333333336
-50.0   90.0   0.0
0.0   90.0   0.0
-50.0   120.0   0.0
-50.0   90.0   16.666666666666668
0.0   90.0   0.0
0.0   120.0   0.0
-50.0   120.0   0.0
0.0   120.0   16.666666666666668
-50.0   90.0   16.666666666666668
-50.0   120.0   16.666666666666668
0.0   120.0   16.666666666666668
-50.0   120.0   0.0
-50.0   90.0   16.666666666666668
0.0   120.0   16.666666666666668
0.0   90.0   16.666666666666668
0.0   90.0   0.0
-50.0   90.0   16.666666666666668
0.0   120.0   16.666666666666668
0.0   90.0   0.0
-50.0   120.0   0.0
-50.0   90.0   16.666666666666668
0.0   90.0   16.666666666666668
-50.0   120.0   16.666666666666668
-50.0   90.0   33.333333333333336
0.0   90.0   16.666666666666668
0.0   120.0   16.666666666666668
-50.0   120.0   16.666666666666668
0.0   120.0   33.333333333333336
-50.0   90.0   33.333333333333336
-50.0   120.0   33.333333333333336
0.0   120.0   33.333333333333336
-50.0   120.0   16.666666666666668
-50.0   90.0   33.333333333333336
0.0   120.0   33.333333333333336
0.0   90.0   33.333333333333336
0.0   90.0   16.666666666666668
-50.0   90.0   33.333333333333336
0.0   120.0   33.333333333333336
0.0   90.0   16.666666666666668
-50.0   120.0   16.666666666666668
-50.0   90.0   33.333333333333336
0.0   90.0   33.333333333333336
-50.0   120.0   33.333333333333336
-50.0   90.0   50.0
0.0   90.0   33.333333333333336
0.0   120.0   33.333333333333336
-50.0   120.0   33.333333333333336
0.0   120.0   50.0
-50.0   90.0   50.0
-50.0   120.0   50.0
0.0   120.0   50.0
-50.0   120.0   33.333333333333336
-50.0   90.0   50.0
0.0   120.0   50.0
0.0   90.0   50.0
0.0   90.0   33.333333333333336
-50.0   90.0   50.0
0.0   120.0   50.0
0.0   90.0   33.333333333333336
-50.0   120.0   33.333333333333336
-50.0   120.0   0.0
0.0   120.0   0.0
-50.0   150.0   0.0
-50.0   120.0   16.666666666666668
0.0   120.0   0.0
0.0   150.0   0.0
-50.0   150.0   0.0
0.0   150.0   16.666666666666668
-50.0   120.0   16.666666666666668
-50.0   150.0   16.666666666666668
0.0   150.0   16.666666666666668
-50.0   150.0   0.0
-50.0   120.0   16.666666666666668
0.0   150.0   16.666666666666668
0.0   120.0   16.666666666666668
0.0   120.0   0.0
-50.0   120.0   16.666666666666668
0.0   150.0   16.666666666666668
0.0   120.0   0.0
-50.0   150.0   0.0
-50.0   120.0   16.666666666666668
0.0   120.0   16.666666666666668
-50.0   150.0   16.666666666666668
-50.0   120.0   33.333333333333336
0.0   120.0   16.666666666666668
0.0   150.0   16.666666666666668
-50.0   150.0   16.666666666666668
0.0   150.0   33.333333333333336
-50.0   120.0   33.333333333333336
-50.0   150.0   33.333333333333336
0.0   150.0   33.333333333333336
-50.0   150.0   16.666666666666668
-50.0   120.0   33.333333333333336
0.0   150.0   33.333333333333336
0.0   120.0   33.333333333333336
0.0   120.0   16.666666666666668
-50.0   120.0   33.333333333333336
0.0   150.0   33.333333333333336
0.0   120.0   16.666666666666668
-50.0   150.0   16.666666666666668
-50.0   120.0   33.333333333333336
0.0   120.0   33.333333333333336
-50.0   150.0   33.333333333333336
-50.0   120.0   50.0
0.0   120.0   33.333333333333336
0.0   150.0   33.333333333333336
-50.0   150.0   33.333333333333336
0.0   150.0   50.0
-50.0   120.0   50.0
-50.0   150.0   50.0
0.0   150.0   50.0
-50.0   150.0   33.333333333333336
-50.0   120.0   50.0
0.0   150.0   50.0
0.0   120.0   50.0
0.0   120.0   33.333333333333336
-50.0   120.0   50.0
0.0   150.0   50.0
0.0   120.0   33.333333333333336
-50.0   150.0   33.333333333333336
0.0   0.0   0.0
50.0   0.0   0.0
0.0   30.0   0.0
0.0   0.0   16.666666666666668
50.0   0.0   0.0
50.0   30.0   0.0
0.0   30.0   0.0
50.0   30.0   16.666666666666668
0.0   0.0   16.666666666666668
0.0   30.0   16.666666666666668
50.0   30.0   16.666666666666668
0.0   30.0   0.0
0.0   0.0   16.666666666666668
50.0   30.0   16.666666666666668
50.0   0.0   16.666666666666668
50.0   0.0   0.0
0.0   0.0   16.666666666666668
50.0   30.0   16.666666666666668
50.0   0.0   0.0
0.0   30.0   0.0
0.0   0.0   16.666666666666668
50.0   0.0   16.666666666666668
0.0   30.0   16.666666666666668
0.0   0.0   33.333333333333336
50.0   0.0   16.666666666666668
50.0   30.0   16.666666666666668
0.0   30.0   16.666666666666668
50.0   30.0   33.333333333333336
0.0   0.0   33.333333333333336
0.0   30.0   33.333333333333336
50.0   30.0   33.333333333333336
0.0   30.0   16.666666666666668
0.0   0.0   33.333333333333336
50.0   30.0   33.333333333333336
50.0   0.0   33.333333333333336
50.0   0.0   16.666666666666668
0.0   0.0   33.333333333333336
50.0   30.0   33.333333333333336
50.0   0.0   16.666666666666668
0.0   30.0   16.666666666666668
0.0   0.0   33.333333333333336
50.0   0.0   33.333333333333336
0.0   30.0   33.333333333333336
0.0   0.0   50.0
50.0   0.0   33.333333333333336
50.0   30.0   33.333333333333336
0.0   30.0   33.333333333333336
50.0   30.0   50.0
0.0   0.0   50.0
0.0   30.0   50.0
50.0   30.0   50.0
0.0   30.0   33.333333333333336
0.0   0.0   50.0
50.0   30.0   50.0
50.0   0.0   50.0
50.0   0.0   33.333333333333336
0.0   0.0   50.0
50.0   30.0   50.0
50.0   0.0   33.333333333333336
0.0   30.0   33.333333333333336
0.0   30.0   0.0
50.0   30.0   0.0
0.0   60.0   0.0
0.0   30.0   16.666666666666668
50.0   30.0   0.0
50.0   60.0   0.0
0.0   60.0   0.0
50.0   60.0   16.666666666666668
0.0   30.0   16.666666666666668
0.0   60.0   16.666666666666668
50.0   60.0   16.666666666666668
0.0   60.0   0.0
0.0   30.0   16.666666666666668
50.0   60.0   16.666666666666668
50.0   30.0   16.666666666666668
50.0   30.0   0.0
0.0   30.0   16.666666666666668
50.0   60.0   16.666666666666668
50.0   30.0   0.0
0.0   60.0   0.0
0.0   30.0   16.666666666666668
50.0   30.0   16.666666666666668
0.0   60.0   16.666666666666668
0.0   30.0   33.333333333333336
50.0   30.0   16.666666666666668
50.0   60.0   16.666666666666668
0.0   60.0   16.666666666666668
50.0   60.0   33.333333333333336
0.0   30.0   33.333333333333336
0.0   60.0   33.333333333333336
50.0   60.0   33.333333333333336
0.0   60.0   16.666666666666668
0.0   30.0   33.333333333333336
50.0   60.0   33.333333333333336
50.0   30.0   33.333333333333336
50.0   30.0   16.666666666666668
0.0   30.0   33.333333333333336
50.0   60.0   33.333333333333336
50.0   30.0   16.666666666666668
0.0   60.0   16.666666666666668
0.0   30.0   33.333333333333336
50.0   30.0   33.333333333333336
0.0   60.0   33.333333333333336
0.0   30.0   50.0
50.0   30.0   33.333333333333336
50.0   60.0   33.333333333333336
0.0   60.0   33.333333333333336
50.0   60.0   50.0
0.0   30.0   50.0
0.0   60.0   50.0
50.0   60.0   50.0
0.0   60.0   33.333333333333336
0.0   30.0   50.0
50.0   60.0   50.0
50.0   30.0   50.0
50.0   30.0   33.333333333333336
0.0   30.0   50.0
50.0   60.0   50.0
50.0   30.0   33.333333333333336
0.0   60.0   33.333333333333336
0.0   60.0   0.0
50.0   60.0   0.0
0.0   90.0   0.0
0.0   60.0   16.666666666666668
50.0   60.0   0.0
50.0   90.0   0.0
0.0   90.0   0.0
50.0   90.0   16.666666666666668
0.0   60.0   16.666666666666668
0.0   90.0   16.666666666666668
50.0   90.0   16.666666666666668
0.0   90.0   0.0
0.0   60.0   16.666666666666668
50.0   90.0   16.666666666666668
50.0   60.0   16.666666666666668
50.0   60.0   0.0
0.0   60.0   16.666666666666668
50.0   90.0   16.666666666666668
50.0   60.0   0.0
0.0   90.0   0.0
0.0   60.0   16.666666666666668
50.0   60.0   16.666666666666668
0.0   90.0   16.666666666666668
0.0   60.0   33.333333333333336
50.0   60.0   16.666666666666668
50.0   90.0   16.666666666666668
0.0   90.0   16.666666666666668
50.0   90.0   33.333333333333336
0.0   60.0   33.333333333333336
0.0   90.0   33.333333333333336
50.0   90.0   33.333333333333336
0.0   90.0   16.666666666666668
0.0   60.0   33.333333333333336
50.0   90.0   33.333333333333336
50.0   60.0   33.333333333333336
50.0   60.0   16.666666666666668
0.0   60.0   33.333333333333336
50.0   90.0   33.333333333333336
50.0   60.0   16.666666666666668
0.0   90.0   16.666666666666668
0.0   60.0   33.333333333333336
50.0   60.0   33.333333333333336
0.0   90.0   33.333333333333336
0.0   60.0   50.0
50.0   60.0   33.333333333333336
50.0   90.0   33.333333333333336
0.0   90.0   33.333333333333336
50.0   90.0   50.0
0.0   60.0   50.0
0.0   90.0   50.0
50.0   90.0   50.0
0.0   90.0   33.333333333333336
0.0   60.0   50.0
50.0   90.0   50.0
50.0   60.0   50.0
50.0   60.0   33.333333333333336
0.0   60.0   50.0
50.0   90.0   50.0
50.0   60.0   33.333333333333336
0.0   90.0   33.333333333333336
0.0   90.0   0.0
50.0   90.0   0.0
0.0   120.0   0.0
0.0   90.0   16.666666666666668
50.0   90.0   0.0
50.0   120.0   0.0
0.0   120.0   0.0
50.0   120.0   16.666666666666668
0.0   90.0   16.666666666666668
0.0   120.0   16.666666666666668
50.0   120.0   16.666666666666668
0.0   120.0   0.0
0.0   90.0   16.666666666666668
50.0   120.0   16.666666666666668
50.0   90.0   16.666666666666668
50.0   90.0   0.0
0.0   90.0   16.666666666666668
50.0   120.0   16.666666666666668
50.0   90.0   0.0
0.0   120.0   0.0
0.0   90.0   16.666666666666668
50.0   90.0   16.666666666666668
0.0   120.0   16.666666666666668
0.0   90.0   33.333333333333336
50.0   90.0   16.666666666666668
50.0   120.0   16.666666666666668
0.0   120.0   16.666666666666668
50.0   120.0   33.333333333333336
0.0   90.0   33.333333333333336
0.0   120.0   33.333333333333336
50.0   120.0   33.333333333333336
0.0   120.0   16.666666666666668
0.0   90.0   33.333333333333336
50.0   120.0   33.333333333333336
50.0   90.0   33.333333333333336
50.0   90.0   16.666666666666668
0.0   90.0   33.333333333333336
50.0   120.0   33.333333333333336
50.0   90.0   16.666666666666668
0.0   120.0   16.666666666666668
0.0   90.0   33.333333333333336
50.0   90.0   33.333333333333336
0.0   120.0   33.333333333333336
0.0   90.0   50.0
50.0   90.0   33.333333333333336
50.0   120.0   33.333333333333336
0.0   120.0   33.333333333333336
50.0   120.0   50.0
0.0   90.0   50.0
0.0   120.0   50.0
50.0   120.0   50.0
0.0   120.0   33.333333333333336
0.0   90.0   50.0
50.0   120.0   50.0
50.0   90.0   50.0
50.0   90.0   33.333333333333336
0.0   90.0   50.0
50.0   120.0   50.0
50.0   90.0   33.333333333333336
0.0   120.0   33.333333333333336
0.0   120.0   0.0
50.0   120.0   0.0
0.0   150.0   0.0
0.0   120.0   16.666666666666668
50.0   120.0   0.0
50.0   150.0   0.0
0.0   150.0   0.0
50.0   150.0   16.666666666666668
0.0   120.0   16.666666666666668
0.0   150.0   16.666666666666668
50.0   150.0   16.666666666666668
0.0   150.0   0.0
0.0   120.0   16.666666666666668
50.0   150.0   16.666666666666668
50.0   120.0   16.666666666666668
50.0   120.0   0.0
0.0   120.0   16.666666666666668
50.0   150.0   16.666666666666668
50.0   120.0   0.0
0.0   150.0   0.0
0.0   120.0   16.666666666666668
50.0   120.0   16.666666666666668
0.0   150.0   16.666666666666668
0.0   120.0   33.333333333333336
50.0   120.0   16.666666666666668
50.0   150.0   16.666666666666668
0.0   150.0   16.666666666666668
50.0   150.0   33.333333333333336
0.0   120.0   33.333333333333336
0.0   150.0   33.333333333333336
50.0   150.0   33.333333333333336
0.0   150.0   16.666666666666668
0.0   120.0   33.333333333333336
50.0   150.0   33.333333333333336
50.0   120.0   33.333333333333336
50.0   120.0   16.666666666666668
0.0   120.0   33.333333333333336
50.0   150.0   33.333333333333336
50.0   120.0   16.666666666666668
0.0   150.0   16.666666666666668
0.0   120.0   33.333333333333336
50.0   120.0   33.333333333333336
0.0   150.0   33.333333333333336
0.0   120.0   50.0
50.0   120.0   33.333333333333336
50.0   150.0   33.333333333333336
0.0   150.0   33.333333333333336
50.0   150.0   50.0
0.0   120.0   50.0
0.0   150.0   50.0
50.0   150.0   50.0
0.0   150.0   33.333333333333336
0.0   120.0   50.0
50.0   150.0   50.0
50.0   120.0   50.0
50.0   120.0   33.333333333333336
0.0   120.0   50.0
50.0   150.0   50.0
50.0   120.0   33.333333333333336
0.0   150.0   33.333333333333336
50.0   0.0   0.0
100.0   0.0   0.0
50.0   30.0   0.0
50.0   0.0   16.666666666666668
100.0   0.0   0.0
100.0   30.0   0.0
50.0   30.0   0.0
100.0   30.0   16.666666666666668
50.0   0.0   16.666666666666668
50.0   30.0   16.666666666666668
100.0   30.0   16.666666666666668
50.0   30.0   0.0
50.0   0.0   16.666666666666668
100.0   30.0   16.666666666666668
100.0   0.0   16.666666666666668
100.0   0.0   0.0
50.0   0.0   16.666666666666668
100.0   30.0   16.666666666666668
100.0   0.0   0.0
50.0   30.0   0.0
50.0   0.0   16.666666666666668
100.0   0.0   16.666666666666668
50.0   30.0   16.666666666666668
50.0   0.0   33.333333333333336
100.0   0.0   16.666666666666668
100.0   30.0   16.666666666666668
50.0   30.0   16.666666666666668
100.0   30.0   33.333333333333336
50.0   0.0   33.333333333333336
50.0   30.0   33.333333333333336
100.0   30.0   33.333333333333336
50.0   30.0   16.666666666666668
50.0   0.0   33.333333333333336
100.0   30.0   33.333333333333336
100.0   0.0   33.333333333333336
100.0   0.0   16.666666666666668
50.0   0.0   33.333333333333336
100.0   30.0   33.333333333333336
100.0   0.0   16.666666666666668
50.0   30.0   16.666666666666668
50.0   0.0   33.333333333333336
100.0   0.0   33.333333333333336
50.0   30.0   33.333333333333336
50.0   0.0   50.0
100.0   0.0   33.333333333333336
100.0   30.0   33.333333333333336
50.0   30.0   33.333333333333336
100.0   30.0   50.0
50.0   0.0   50.0
50.0   30.0   50.0
100.0   30.0   50.0
50.0   30.0   33.333333333333336
50.0   0.0   50.0
100.0   30.0   50.0
100.0   0.0   50.0
100.0   0.0   33.333333333333336
50.0   0.0   50.0
100.0   30.0   50.0
100.0   0.0   33.333333333333336
50.0   30.0   33.333333333333336
50.0   30.0   0.0
100.0   30.0   0.0
50.0   60.0   0.0
50.0   30.0   16.666666666666668
100.0   30.0   0.0
100.0   60.0   0.0
50.0   60.0   0.0
100.0   60.0   16.666666666666668
50.0   30.0   16.666666666666668
50.0   60.0   16.666666666666668
100.0   60.0   16.666666666666668
50.0   60.0   0.0
50.0   30.0   16.666666666666668
100.0   60.0   16.666666666666668
100.0   30.0   16.666666666666668
100.0   30.0   0.0
50.0   30.0   16.666666666666668
100.0   60.0   16.666666666666668
100.0   30.0   0.0
50.0   60.0   0.0
50.0   30.0   16.666666666666668
100.0   30.0   16.666666666666668
50.0   60.0   16.666666666666668
50.0   30.0   33.333333333333336
100.0   30.0   16.666666666666668
100.0   60.0   16.666666666666668
50.0   60.0   16.666666666666668
100.0   60.0   33.333333333333336
50.0   30.0   33.333333333333336
50.0   60.0   33.333333333333336
100.0   60.0   33.333333333333336
50.0   60.0   16.666666666666668
50.0   30.0   33.333333333333336
100.0   60.0   33.333333333333336
100.0   30.0   33.333333333333336
100.0   30.0   16.666666666666668
50.0   30.0   33.333333333333336
100.0   60.0   33.333333333333336
100.0   30.0   16.666666666666668
50.0   60.0   16.666666666666668
50.0   30.0   33.333333333333336
100.0   30.0   33.333333333333336
50.0   60.0   33.333333333333336
50.0   30.0   50.0
100.0   30.0   33.333333333333336
100.0   60.0   33.333333333333336
50.0   60.0   33.333333333333336
100.0   60.0   50.0
50.0   30.0   50.0
50.0   60.0   50.0
100.0   60.0   50.0
50.0   60.0   33.333333333333336
50.0   30.0   50.0
100.0   60.0   50.0
100.0   30.0   50.0
100.0   30.0   33.333333333333336
50.0   30.0   50.0
100.0   60.0   50.0
100.0   30.0   33.333333333333336
50.0   60.0   33.333333333333336
50.0   60.0   0.0
100.0   60.0   0.0
50.0   90.0   0.0
50.0   60.0   16.666666666666668
100.0   60.0   0.0
100.0   90.0   0.0
50.0   90.0   0.0
100.0   90.0   16.666666666666668
50.0   60.0   16.666666666666668
50.0   90.0   16.666666666666668
100.0   90.0   16.666666666666668
50.0   90.0   0.0
50.0   60.0   16.666666666666668
100.0   90.0   16.666666666666668
100.0   60.0   16.666666666666668
100.0   60.0   0.0
50.0   60.0   16.666666666666668
100.0   90.0   16.666666666666668
100.0   60.0   0.0
50.0   90.0   0.0
50.0   60.0   16.666666666666668
100.0   60.0   16.666666666666668
50.0   90.0   16.666666666666668
50.0   60.0   33.333333333333336
100.0   60.0   16.666666666666668
100.0   90.0   16.666666666666668
50.0   90.0   16.666666666666668
100.0   90.0   33.333333333333336
50.0   60.0   33.333333333333336
50.0   90.0   33.333333333333336
100.0   90.0   33.333333333333336
50.0   90.0   16.666666666666668
50.0   60.0   33.333333333333336
100.0   90.0   33.333333333333336
100.0   60.0   33.333333333333336
100.0   60.0   16.666666666666668
50.0   60.0   33.333333333333336
100.0   90.0   33.333333333333336
100.0   60.0   16.666666666666668
50.0   90.0   16.666666666666668
50.0   60.0   33.333333333333336
100.0   60.0   33.333333333333336
50.0   90.0   33.333333333333336
50.0   60.0   50.0
100.0   60.0   33.333333333333336
100.0   90.0   33.333333333333336
50.0   90.0   33.333333333333336
100.0   90.0   50.0
50.0   60.0   50.0
50.0   90.0   50.0
100.0   90.0   50.0
50.0   90.0   33.333333333333336
50.0   60.0   50.0
100.0   90.0   50.0
100.0   60.0   50.0
100.0   60.0   33.333333333333336
50.0   60.0   50.0
100.0   90.0   50.0
100.0   60.0   33.333333333333336
50.0   90.0   33.333333333333336
50.0   90.0   0.0
100.0   90.0   0.0
50.0   120.0   0.0
50.0   90.0   16.666666666666668
100.0   90.0   0.0
100.0   120.0   0.0
50.0   120.0   0.0
100.0   120.0   16.666666666666668
50.0   90.0   16.666666666666668
50.0   120.0   16.666666666666668
100.0   120.0   16.666666666666668
50.0   120.0   0.0
50.0   90.0   16.666666666666668
100.0   120.0   16.666666666666668
100.0   90.0   16.666666666666668
100.0   90.0   0.0
50.0   90.0   16.666666666666668
100.0   120.0   16.666666666666668
100.0   90.0   0.0
50.0   120.0   0.0
50.0   90.0   16.666666666666668
100.0   90.0   16.666666666666668
50.0   120.0   16.666666666666668
50.0   90.0   33.333333333333336
100.0   90.0   16.666666666666668
100.0   120.0   16.666666666666668
50.0   120.0   16.666666666666668
100.0   120.0   33.333333333333336
50.0   90.0   33.333333333333336
50.0   120.0   33.333333333333336
100.0   120.0   33.333333333333336
50.0   120.0   16.666666666666668
50.0   90.0   33.333333333333336
100.0   120.0   33.333333333333336
100.0   90.0   33.333333333333336
100.0   90.0   16.666666666666668
50.0   90.0   33.333333333333336
100.0   120.0   33.333333333333336
100.0   90.0   16.666666666666668
50.0   120.0   16.666666666666668
50.0   90.0   33.333333333333336
100.0   90.0   33.333333333333336
50.0   120.0   33.333333333333336
50.0   90.0   50.0
100.0   90.0   33.333333333333336
100.0   120.0   33.333333333333336
50.0   120.0   33.333333333333336
100.0   120.0   50.0
50.0   90.0   50.0
50.0   120.0   50.0
100.0   120.0   50.0
50.0   120.0   33.333333333333336
50.0   90.0   50.0
100.0   120.0   50.0
100.0   90.0   50.0
100.0   90.0   33.333333333333336
50.0   90.0   50.0
100.0   120.0   50.0
100.0   90.0   33.333333333333336
50.0   120.0   33.333333333333336
50.0   120.0   0.0
100.0   120.0   0.0
50.0   150.0   0.0
50.0   120.0   16.666666666666668
100.0   120.0   0.0
100.0   150.0   0.0
50.0   150.0   0.0
100.0   150.0   16.666666666666668
50.0   120.0   16.666666666666668
50.0   150.0   16.666666666666668
100.0   150.0   16.666666666666668
50.0   150.0   0.0
50.0   120.0   16.666666666666668
100.0   150.0   16.666666666666668
100.0   120.0   16.666666666666668
100.0   120.0   0.0
50.0   120.0   16.666666666666668
100.0   150.0   16.666666666666668
100.0   120.0   0.0
50.0   150.0   0.0
50.0   120.0   16.666666666666668
100.0   120.0   16.666666666666668
50.0   150.0   16.666666666666668
50.0   120.0   33.333333333333336
100.0   120.0   16.666666666666668
100.0   150.0   16.666666666666668
50.0   150.0   16.666666666666668
100.0   150.0   33.333333333333336
50.0   120.0   33.333333333333336
50.0   150.0   33.333333333333336
100.0   150.0   33.333333333333336
50.0   150.0   16.666666666666668
50.0   120.0   33.333333333333336
100.0   150.0   33.333333333333336
100.0   120.0   33.333333333333336
100.0   120.0   16.666666666666668
50.0   120.0   33.333333333333336
100.0   150.0   33.333333333333336
100.0   120.0   16.666666666666668
50.0   150.0   16.666666666666668
50.0   120.0   33.333333333333336
100.0   120.0   33.333333333333336
50.0   150.0   33.333333333333336
50.0   120.0   50.0
100.0   120.0   33.333333333333336
100.0   150.0   33.333333333333336
50.0   150.0   33.333333333333336
100.0   150.0   50.0
50.0   120.0   50.0
50.0   150.0   50.0
100.0   150.0   50.0
50.0   150.0   33.333333333333336
50.0   120.0   50.0
100.0   150.0   50.0
100.0   120.0   50.0
100.0   120.0   33.333333333333336
50.0   120.0   50.0
100.0   150.0   50.0
100.0   120.0   33.333333333333336
50.0   150.0   33.333333333333336
100.0   0.0   0.0
150.0   0.0   0.0
100.0   30.0   0.0
100.0   0.0   16.666666666666668
150.0   0.0   0.0
150.0   30.0   0.0
100.0   30.0   0.0
150.0   30.0   16.666666666666668
100.0   0.0   16.666666666666668
100.0   30.0   16.666666666666668
150.0   30.0   16.666666666666668
100.0   30.0   0.0
100.0   0.0   16.666666666666668
150.0   30.0   16.666666666666668
150.0   0.0   16.666666666666668
150.0   0.0   0.0
100.0   0.0   16.666666666666668
150.0   30.0   16.666666666666668
150.0   0.0   0.0
100.0   30.0   0.0
100.0   0.0   16.666666666666668
150.0   0.0   16.666666666666668
100.0   30.0   16.666666666666668
100.0   0.0   33.333333333333336
150.0   0.0   16.666666666666668
150.0   30.0   16.666666666666668
100.0   30.0   16.666666666666668
150.0   30.0   33.333333333333336
100.0   0.0   33.333333333333336
100.0   30.0   33.333333333333336
150.0   30.0   33.333333333333336
100.0   30.0   16.666666666666668
100.0   0.0   33.333333333333336
150.0   30.0   33.333333333333336
150.0   0.0   33.333333333333336
150.0   0.0   16.666666666666668
100.0   0.0   33.333333333333336
150.0   30.0   33.333333333333336
150.0   0.0   16.666666666666668
100.0   30.0   16.666666666666668
100.0   0.0   33.333333333333336
150.0   0.0   33.333333333333336
100.0   30.0   33.333333333333336
100.0   0.0   50.0
150.0   0.0   33.333333333333336
150.0   30.0   33.333333333333336
100.0   30.0   33.333333333333336
150.0   30.0   50.0
100.0   0.0   50.0
100.0   30.0   50.0
150.0   30.0   50.0
100.0   30.0   33.333333333333336
100.0   0.0   50.0
150.0   30.0   50.0
150.0   0.0   50.0
150.0   0.0   33.333333333333336
100.0   0.0   50.0
150.0   30.0   50.0
150.0   0.0   33.333333333333336
100.0   30.0   33.333333333333336
100.0   30.0   0.0
150.0   30.0   0.0
100.0   60.0   0.0
100.0   30.0   16.666666666666668
150.0   30.0   0.0
150.0   60.0   0.0
100.0   60.0   0.0
150.0   60.0   16.666666666666668
100.0   30.0   16.666666666666668
100.0   60.0   16.666666666666668
150.0   60.0   16.666666666666668
100.0   60.0   0.0
100.0   30.0   16.666666666666668
150.0   60.0   16.666666666666668
150.0   30.0   16.666666666666668
150.0   30.0   0.0
100.0   30.0   16.666666666666668
150.0   60.0   16.666666666666668
150.0   30.0   0.0
100.0   60.0   0.0
100.0   30.0   16.666666666666668
150.0   30.0   16.666666666666668
100.0   60.0   16.666666666666668
100.0   30.0   33.333333333333336
150.0   30.0   16.666666666666668
150.0   60.0   16.666666666666668
100.0   60.0   16.666666666666668
150.0   60.0   33.333333333333336
100.0   30.0   33.333333333333336
100.0   60.0   33.333333333333336
150.0   60.0   33.333333333333336
100.0   60.0   16.666666666666668
100.0   30.0   33.333333333333336
150.0   60.0   33.333333333333336
150.0   30.0   33.333333333333336
150.0   30.0   16.666666666666668
100.0   30.0   33.333333333333336
150.0   60.0   33.333333333333336
150.0   30.0   16.666666666666668
100.0   60.0   16.666666666666668
100.0   30.0   33.333333333333336
150.0   30.0   33.333333333333336
100.0   60.0   33.333333333333336
100.0   30.0   50.0
150.0   30.0   33.333333333333336
150.0   60.0   33.333333333333336
100.0   60.0   33.333333333333336
150.0   60.0   50.0
100.0   30.0   50.0
100.0   60.0   50.0
150.0   60.0   50.0
100.0   60.0   33.333333333333336
100.0   30.0   50.0
150.0   60.0   50.0
150.0   30.0   50.0
150.0   30.0   33.333333333333336
100.0   30.0   50.0
150.0   60.0   50.0
150.0   30.0   33.333333333333336
100.0   60.0   33.333333333333336
100.0   60.0   0.0
150.0   60.0   0.0
100.0   90.0   0.0
100.0   60.0   16.666666666666668
150.0   60.0   0.0
150.0   90.0   0.0
100.0   90.0   0.0
150.0   90.0   16.666666666666668
100.0   60.0   16.666666666666668
100.0   90.0   16.666666666666668
150.0   90.0   16.666666666666668
100.0   90.0   0.0
100.0   60.0   16.666666666666668
150.0   90.0   16.666666666666668
150.0   60.0   16.666666666666668
150.0   60.0   0.0
100.0   60.0   16.666666666666668
150.0   90.0   16.666666666666668
150.0   60.0   0.0
100.0   90.0   0.0
100.0   60.0   16.666666666666668
150.0   60.0   16.666666666666668
100.0   90.0   16.666666666666668
100.0   60.0   33.333333333333336
150.0   60.0   16.666666666666668
150.0   90.0   16.666666666666668
100.0   90.0   16.666666666666668
150.0   90.0   33.333333333333336
100.0   60.0   33.333333333333336
100.0   90.0   33.333333333333336
150.0   90.0   33.333333333333336
100.0   90.0   16.666666666666668
100.0   60.0   33.333333333333336
150.0   90.0   33.333333333333336
150.0   60.0   33.333333333333336
150.0   60.0   16.666666666666668
100.0   60.0   33.333333333333336
150.0   90.0   33.333333333333336
150.0   60.0   16.666666666666668
100.0   90.0   16.666666666666668
100.0   60.0   33.333333333333336
150.0   60.0   33.333333333333336
100.0   90.0   33.333333333333336
100.0   60.0   50.0
150.0   60.0   33.333333333333336
150.0   90.0   33.333333333333336
100.0   90.0   33.333333333333336
150.0   90.0   50.0
100.0   60.0   50.0
100.0   90.0   50.0
150.0   90.0   50.0
100.0   90.0   33.333333333333336
100.0   60.0   50.0
150.0   90.0   50.0
150.0   60.0   50.0
150.0   60.0   33.333333333333336
100.0   60.0   50.0
150.0   90.0   50.0
150.0   60.0   33.333333333333336
100.0   90.0   33.333333333333336
100.0   90.0   0.0
150.0   90.0   0.0
100.0   120.0   0.0
100.0   90.0   16.666666666666668
150.0   90.0   0.0
150.0   120.0   0.0
100.0   120.0   0.0
150.0   120.0   16.666666666666668
100.0   90.0   16.666666666666668
100.0   120.0   16.666666666666668
150.0   120.0   16.666666666666668
100.0   120.0   0.0
100.0   90.0   16.666666666666668
150.0   120.0   16.666666666666668
150.0   90.0   16.666666666666668
150.0   90.0   0.0
100.0   90.0   16.666666666666668
150.0   120.0   16.666666666666668
150.0   90.0   0.0
100.0   120.0   0.0
100.0   90.0   16.666666666666668
150.0   90.0   16.666666666666668
100.0   120.0   16.666666666666668
100.0   90.0   33.333333333333336
150.0   90.0   16.666666666666668
150.0   120.0   16.666666666666668
100.0   120.0   16.666666666666668
150.0   120.0   33.333333333333336
100.0   90.0   33.333333333333336
100.0   120.0   33.333333333333336
150.0   120.0   33.333333333333336
100.0   120.0   16.666666666666668
100.0   90.0   33.333333333333336
150.0   120.0   33.333333333333336
150.0   90.0   33.333333333333336
150.0   90.0   16.666666666666668
100.0   90.0   33.333333333333336
150.0   120.0   33.333333333333336
150.0   90.0   16.666666666666668
100.0   120.0   16.666666666666668
100.0   90.0   33.333333333333336
150.0   90.0   33.333333333333336
100.0   120.0   33.333333333333336
100.0   90.0   50.0
150.0   90.0   33.333333333333336
150.0   120.0   33.333333333333336
100.0   120.0   33.333333333333336
150.0   120.0   50.0
100.0   90.0   50.0
100.0   120.0   50.0
150.0   120.0   50.0
100.0   120.0   33.333333333333336
100.0   90.0   50.0
150.0   120.0   50.0
150.0   90.0   50.0
150.0   90.0   33.333333333333336
100.0   90.0   50.0
150.0   120.0   50.0
150.0   90.0   33.333333333333336
100.0   120.0   33.333333333333336
100.0   120.0   0.0
150.0   120.0   0.0
100.0   150.0   0.0
100.0   120.0   16.666666666666668
150.0   120.0   0.0
150.0   150.0   0.0
100.0   150.0   0.0
150.0   150.0   16.666666666666668
100.0   120.0   16.666666666666668
100.0   150.0   16.666666666666668
150.0   150.0   16.666666666666668
100.0   150.0   0.0
100.0   120.0   16.666666666666668
150.0   150.0   16.666666666666668
150.0   120.0   16.666666666666668
150.0   120.0   0.0
100.0   120.0   16.666666666666668
150.0   150.0   16.666666666666668
150.0   120.0   0.0
100.0   150.0   0.0
100.0   120.0   16.666666666666668
150.0   120.0   16.666666666666668
100.0   150.0   16.666666666666668
100.0   120.0   33.333333333333336
150.0   120.0   16.666666666666668
150.0   150.0   16.666666666666668
100.0   150.0   16.666666666666668
150.0   150.0   33.333333333333336
100.0   120.0   33.333333333333336
100.0   150.0   33.333333333333336
150.0   150.0   33.333333333333336
100.0   150.0   16.666666666666668
100.0   120.0   33.333333333333336
150.0   150.0   33.333333333333336
150.0   120.0   33.333333333333336
150.0   120.0   16.666666666666668
100.0   120.0   33.333333333333336
150.0   150.0   33.333333333333336
150.0   120.0   16.666666666666668
100.0   150.0   16.666666666666668
100.0   120.0   33.333333333333336
150.0   120.0   33.333333333333336
100.0   150.0   33.333333333333336
100.0   120.0   50.0
150.0   120.0   33.333333333333336
150.0   150.0   33.333333333333336
100.0   150.0   33.333333333333336
150.0   150.0   50.0
100.0   120.0   50.0
100.0   150.0   50.0
150.0   150.0   50.0
100.0   150.0   33.333333333333336
100.0   120.0   50.0
150.0   150.0   50.0
150.0   120.0   50.0
150.0   120.0   33.333333333333336
100.0   120.0   50.0
150.0   150.0   50.0
150.0   120.0   33.333333333333336
100.0   150.0   33.333333333333336
150.0   0.0   0.0
200.0   0.0   0.0
150.0   30.0   0.0
150.0   0.0   16.666666666666668
200.0   0.0   0.0
200.0   30.0   0.0
150.0   30.0   0.0
200.0   30.0   16.666666666666668
150.0   0.0   16.666666666666668
150.0   30.0   16.666666666666668
200.0   30.0   16.666666666666668
150.0   30.0   0.0
150.0   0.0   16.666666666666668
200.0   30.0   16.666666666666668
200.0   0.0   16.666666666666668
200.0   0.0   0.0
150.0   0.0   16.666666666666668
200.0   30.0   16.666666666666668
200.0   0.0   0.0
150.0   30.0   0.0
150.0   0.0   16.666666666666668
200.0   0.0   16.666666666666668
150.0   30.0   16.666666666666668
150.0   0.0   33.333333333333336
200.0   0.0   16.666666666666668
200.0   30.0   16.666666666666668
150.0   30.0   16.666666666666668
200.0   30.0   33.333333333333336
150.0   0.0   33.333333333333336
150.0   30.0   33.333333333333336
200.0   30.0   33.333333333333336
150.0   30.0   16.666666666666668
150.0   0.0   33.333333333333336
200.0   30.0   33.333333333333336
200.0   0.0   33.333333333333336
200.0   0.0   16.666666666666668
150.0   0.0   33.333333333333336
200.0   30.0   33.333333333333336
200.0   0.0   16.666666666666668
150.0   30.0   16.666666666666668
150.0   0.0   33.333333333333336
200.0   0.0   33.333333333333336
150.0   30.0   33.333333333333336
150.0   0.0   50.0
200.0   0.0   33.333333333333336
200.0   30.0   33.333333333333336
150.0   30.0   33.333333333333336
200.0   30.0   50.0
150.0   0.0   50.0
150.0   30.0   50.0
200.0   30.0   50.0
150.0   30.0   33.333333333333336
150.0   0.0   50.0
200.0   30.0   50.0
200.0   0.0   50.0
200.0   0.0   33.333333333333336
150.0   0.0   50.0
200.0   30.0   50.0
200.0   0.0   33.333333333333336
150.0   30.0   33.333333333333336
150.0   30.0   0.0
200.0   30.0   0.0
150.0   60.0   0.0
150.0   30.0   16.666666666666668
200.0   30.0   0.0
200.0   60.0   0.0
150.0   60.0   0.0
200.0   60.0   16.666666666666668
150.0   30.0   16.666666666666668
150.0   60.0   16.666666666666668
200.0   60.0   16.666666666666668
150.0   60.0   0.0
150.0   30.0   16.666666666666668
200.0   60.0   16.666666666666668
200.0   30.0   16.666666666666668
200.0   30.0   0.0
150.0   30.0   16.666666666666668
200.0   60.0   16.666666666666668
200.0   30.0   0.0
150.0   60.0   0.0
150.0   30.0   16.666666666666668
200.0   30.0   16.666666666666668
150.0   60.0   16.666666666666668
150.0   30.0   33.333333333333336
200.0   30.0   16.666666666666668
200.0   60.0   16.666666666666668
150.0   60.0   16.666666666666668
200.0   60.0   33.333333333333336
150.0   30.0   33.333333333333336
150.0   60.0   33.333333333333336
200.0   60.0   33.333333333333336
150.0   60.0   16.666666666666668
150.0   30.0   33.333333333333336
200.0   60.0   33.333333333333336
200.0   30.0   33.333333333333336
200.0   30.0   16.666666666666668
150.0   30.0   33.333333333333336
200.0   60.0   33.333333333333336
200.0   30.0   16.666666666666668
150.0   60.0   16.666666666666668
150.0   30.0   33.333333333333336
200.0   30.0   33.333333333333336
150.0   60.0   33.333333333333336
150.0   30.0   50.0
200.0   30.0   33.333333333333336
200.0   60.0   33.333333333333336
150.0   60.0   33.333333333333336
200.0   60.0   50.0
150.0   30.0   50.0
150.0   60.0   50.0
200.0   60.0   50.0
150.0   60.0   33.333333333333336
150.0   30.0   50.0
200.0   60.0   50.0
200.0   30.0   50.0
200.0   30.0   33.333333333333336
150.0   30.0   50.0
200.0   60.0   50.0
200.0   30.0   33.333333333333336
150.0   60.0   33.333333333333336
150.0   60.0   0.0
200.0   60.0   0.0
150.0   90.0   0.0
150.0   60.0   16.666666666666668
200.0   60.0   0.0
200.0   90.0   0.0
150.0   90.0   0.0
200.0   90.0   16.666666666666668
150.0   60.0   16.666666666666668
150.0   90.0   16.666666666666668
200.0   90.0   16.666666666666668
150.0   90.0   0.0
150.0   60.0   16.666666666666668
200.0   90.0   16.666666666666668
200.0   60.0   16.666666666666668
200.0   60.0   0.0
150.0   60.0   16.666666666666668
200.0   90.0   16.666666666666668
200.0   60.0   0.0
150.0   90.0   0.0
150.0   60.0   16.666666666666668
200.0   60.0   16.666666666666668
150.0   90.0   16.666666666666668
150.0   60.0   33.333333333333336
200.0   60.0   16.666666666666668
200.0   90.0   16.666666666666668
150.0   90.0   16.666666666666668
200.0   90.0   33.333333333333336
150.0   60.0   33.333333333333336
150.0   90.0   33.333333333333336
200.0   90.0   33.333333333333336
150.0   90.0   16.666666666666668
150.0   60.0   33.333333333333336
200.0   90.0   33.333333333333336
200.0   60.0   33.333333333333336
200.0   60.0   16.666666666666668
150.0   60.0   33.333333333333336
200.0   90.0   33.333333333333336
200.0   60.0   16.666666666666668
150.0   90.0   16.666666666666668
150.0   60.0   33.333333333333336
200.0   60.0   33.333333333333336
150.0   90.0   33.333333333333336
150.0   60.0   50.0
200.0   60.0   33.333333333333336
200.0   90.0   33.333333333333336
150.0   90.0   33.333333333333336
200.0   90.0   50.0
150.0   60.0   50.0
150.0   90.0   50.0
200.0   90.0   50.0
150.0   90.0   33.333333333333336
150.0   60.0   50.0
200.0   90.0   50.0
200.0   60.0   50.0
200.0   60.0   33.333333333333336
150.0   60.0   50.0
200.0   90.0   50.0
200.0   60.0   33.333333333333336
150.0   90.0   33.333333333333336
150.0   90.0   0.0
200.0   90.0   0.0
150.0   120.0   0.0
150.0   90.0   16.666666666666668
200.0   90.0   0.0
200.0   120.0   0.0
150.0   120.0   0.0
200.0   120.0   16.666666666666668
150.0   90.0   16.666666666666668
150.0   120.0   16.666666666666668
200.0   120.0   16.666666666666668
150.0   120.0   0.0
150.0   90.0   16.666666666666668
200.0   120.0   16.666666666666668
200.0   90.0   16.666666666666668
200.0   90.0   0.0
150.0   90.0   16.666666666666668
200.0   120.0   16.666666666666668
200.0   90.0   0.0
150.0   120.0   0.0
150.0   90.0   16.666666666666668
200.0   90.0   16.666666666666668
150.0   120.0   16.666666666666668
150.0   90.0   33.333333333333336
200.0   90.0   16.666666666666668
200.0   120.0   16.666666666666668
150.0   120.0   16.666666666666668
200.0   120.0   33.333333333333336
150.0   90.0   33.333333333333336
150.0   120.0   33.333333333333336
200.0   120.0   33.333333333333336
150.0   120.0   16.666666666666668
150.0   90.0   33.333333333333336
200.0   120.0   33.333333333333336
200.0   90.0   33.333333333333336
200.0   90.0   16.666666666666668
150.0   90.0   33.333333333333336
200.0   120.0   33.333333333333336
200.0   90.0   16.666666666666668
150.0   120.0   16.666666666666668
150.0   90.0   33.333333333333336
200.0   90.0   33.333333333333336
150.0   120.0   33.333333333333336
150.0   90.0   50.0
200.0   90.0   33.333333333333336
200.0   120.0   33.333333333333336
150.0   120.0   33.333333333333336
200.0   120.0   50.0
150.0   90.0   50.0
150.0   120.0   50.0
200.0   120.0   50.0
150.0   120.0   33.333333333333336
150.0   90.0   50.0
200.0   120.0   50.0
200.0   90.0   50.0
200.0   90.0   33.333333333333336
150.0   90.0   50.0
200.0   120.0   50.0
200.0   90.0   33.333333333333336
150.0   120.0   33.333333333333336
150.0   120.0   0.0
200.0   120.0   0.0
150.0   150.0   0.0
150.0   120.0   16.666666666666668
200.0   120.0   0.0
200.0   150.0   0.0
150.0   150.0   0.0
200.0   150.0   16.666666666666668
150.0   120.0   16.666666666666668
150.0   150.0   16.666666666666668
200.0   150.0   16.666666666666668
150.0   150.0   0.0
150.0   120.0   16.666666666666668
200.0   150.0   16.666666666666668
200.0   120.0   16.666666666666668
200.0   120.0   0.0
150.0   120.0   16.666666666666668
200.0   150.0   16.666666666666668
200.0   120.0   0.0
150.0   150.0   0.0
150.0   120.0   16.666666666666668
200.0   120.0   16.666666666666668
150.0   150.0   16.666666666666668
150.0   120.0   33.333333333333336
200.0   120.0   16.666666666666668
200.0   150.0   16.666666666666668
150.0   150.0   16.666666666666668
200.0   150.0   33.333333333333336
150.0   120.0   33.333333333333336
150.0   150.0   33.333333333333336
200.0   150.0   33.333333333333336
150.0   150.0   16.666666666666668
150.0   120.0   33.333333333333336
200.0   150.0   33.333333333333336
200.0   120.0   33.333333333333336
200.0   120.0   16.666666666666668
150.0   120.0   33.333333333333336
200.0   150.0   33.333333333333336
200.0   120.0   16.666666666666668
150.0   150.0   16.666666666666668
150.0   120.0   33.333333333333336
200.0   120.0   33.333333333333336
150.0   150.0   33.333333333333336
150.0   120.0   50.0
200.0   120.0   33.333333333333336
200.0   150.0   33.333333333333336
150.0   150.0   33.333333333333336
200.0   150.0   50.0
150.0   120.0   50.0
150.0   150.0   50.0
200.0   150.0   50.0
150.0   150.0   33.333333333333336
150.0   120.0   50.0
200.0   150.0   50.0
200.0   120.0   50.0
200.0   120.0   33.333333333333336
150.0   120.0   50.0
200.0   150.0   50.0
200.0   120.0   33.333333333333336
150.0   150.0   33.333333333333336
200.0   0.0   0.0
250.0   0.0   0.0
200.0   30.0   0.0
200.0   0.0   16.666666666666668
250.0   0.0   0.0
250.0   30.0   0.0
200.0   30.0   0.0
250.0   30.0   16.666666666666668
200.0   0.0   16.666666666666668
200.0   30.0   16.666666666666668
250.0   30.0   16.666666666666668
200.0   30.0   0.0
200.0   0.0   16.666666666666668
250.0   30.0   16.666666666666668
250.0   0.0   16.666666666666668
250.0   0.0   0.0
200.0   0.0   16.666666666666668
250.0   30.0   16.666666666666668
250.0   0.0   0.0
200.0   30.0   0.0
200.0   0.0   16.666666666666668
250.0   0.0   16.666666666666668
200.0   30.0   16.666666666666668
200.0   0.0   33.333333333333336
250.0   0.0   16.666666666666668
250.0   30.0   16.666666666666668
200.0   30.0   16.666666666666668
250.0   30.0   33.333333333333336
200.0   0.0   33.333333333333336
200.0   30.0   33.333333333333336
250.0   30.0   33.333333333333336
200.0   30.0   16.666666666666668
200.0   0.0   33.333333333333336
250.0   30.0   33.333333333333336
250.0   0.0   33.333333333333336
250.0   0.0   16.666666666666668
200.0   0.0   33.333333333333336
250.0   30.0   33.333333333333336
250.0   0.0   16.666666666666668
200.0   30.0   16.666666666666668
200.0   0.0   33.333333333333336
250.0   0.0   33.333333333333336
200.0   30.0   33.333333333333336
200.0   0.0   50.0
250.0   0.0   33.333333333333336
250.0   30.0   33.333333333333336
200.0   30.0   33.333333333333336
250.0   30.0   50.0
200.0   0.0   50.0
200.0   30.0   50.0
250.0   30.0   50.0
200.0   30.0   33.333333333333336
200.0   0.0   50.0
250.0   30.0   50.0
250.0   0.0   50.0
250.0   0.0   33.333333333333336
200.0   0.0   50.0
250.0   30.0   50.0
250.0   0.0   33.333333333333336
200.0   30.0   33.333333333333336
200.0   30.0   0.0
250.0   30.0   0.0
200.0   60.0   0.0
200.0   30.0   16.666666666666668
250.0   30.0   0.0
250.0   60.0   0.0
200.0   60.0   0.0
250.0   60.0   16.666666666666668
200.0   30.0   16.666666666666668
200.0   60.0   16.666666666666668
250.0   60.0   16.666666666666668
200.0   60.0   0.0
200.0   30.0   16.666666666666668
250.0   60.0   16.666666666666668
250.0   30.0   16.666666666666668
250.0   30.0   0.0
200.0   30.0   16.666666666666668
250.0   60.0   16.666666666666668
250.0   30.0   0.0
200.0   60.0   0.0
200.0   30.0   16.666666666666668
250.0   30.0   16.666666666666668
200.0   60.0   16.666666666666668
200.0   30.0   33.333333333333336
250.0   30.0   16.666666666666668
250.0   60.0   16.666666666666668
200.0   60.0   16.666666666666668
250.0   60.0   33.333333333333336
200.0   30.0   33.333333333333336
200.0   60.0   33.333333333333336
250.0   60.0   33.333333333333336
200.0   60.0   16.666666666666668
200.0   30.0   33.333333333333336
250.0   60.0   33.333333333333336
250.0   30.0   33.333333333333336
250.0   30.0   16.666666666666668
200.0   30.0   33.333333333333336
250.0   60.0   33.333333333333336
250.0   30.0   16.666666666666668
200.0   60.0   16.666666666666668
200.0   30.0   33.333333333333336
250.0   30.0   33.333333333333336
200.0   60.0   33.333333333333336
200.0   30.0   50.0
250.0   30.0   33.333333333333336
250.0   60.0   33.333333333333336
200.0   60.0   33.333333333333336
250.0   60.0   50.0
200.0   30.0   50.0
200.0   60.0   50.0
250.0   60.0   50.0
200.0   60.0   33.333333333333336
200.0   30.0   50.0
250.0   60.0   50.0
250.0   30.0   50.0
250.0   30.0   33.333333333333336
200.0   30.0   50.0
250.0   60.0   50.0
250.0   30.0   33.333333333333336
200.0   60.0   33.333333333333336
200.0   60.0   0.0
250.0   60.0   0.0
200.0   90.0   0.0
200.0   60.0   16.666666666666668
250.0   60.0   0.0
250.0   90.0   0.0
200.0   90.0   0.0
250.0   90.0   16.666666666666668
200.0   60.0   16.666666666666668
200.0   90.0   16.666666666666668
250.0   90.0   16.666666666666668
200.0   90.0   0.0
200.0   60.0   16.666666666666668
250.0   90.0   16.666666666666668
250.0   60.0   16.666666666666668
250.0   60.0   0.0
200.0   60.0   16.666666666666668
250.0   90.0   16.666666666666668
250.0   60.0   0.0
200.0   90.0   0.0
200.0   60.0   16.666666666666668
250.0   60.0   16.666666666666668
200.0   90.0   16.666666666666668
200.0   60.0   33.333333333333336
250.0   60.0   16.666666666666668
250.0   90.0   16.666666666666668
200.0   90.0   16.666666666666668
250.0   90.0   33.333333333333336
200.0   60.0   33.333333333333336
200.0   90.0   33.333333333333336
250.0   90.0   33.333333333333336
200.0   90.0   16.666666666666668
200.0   60.0   33.333333333333336
250.0   90.0   33.333333333333336
250.0   60.0   33.333333333333336
250.0   60.0   16.666666666666668
200.0   60.0   33.333333333333336
250.0   90.0   33.333333333333336
250.0   60.0   16.666666666666668
200.0   90.0   16.666666666666668
200.0   60.0   33.333333333333336
250.0   60.0   33.333333333333336
200.0   90.0   33.333333333333336
200.0   60.0   50.0
250.0   60.0   33.333333333333336
250.0   90.0   33.333333333333336
200.0   90.0   33.333333333333336
250.0   90.0   50.0
200.0   60.0   50.0
200.0   90.0   50.0
250.0   90.0   50.0
200.0   90.0   33.333333333333336
200.0   60.0   50.0
250.0   90.0   50.0
250.0   60.0   50.0
250.0   60.0   33.333333333333336
200.0   60.0   50.0
250.0   90.0   50.0
250.0   60.0   33.333333333333336
200.0   90.0   33.333333333333336
200.0   90.0   0.0
250.0   90.0   0.0
200.0   120.0   0.0
200.0   90.0   16.666666666666668
250.0   90.0   0.0
250.0   120.0   0.0
200.0   120.0   0.0
250.0   120.0   16.666666666666668
200.0   90.0   16.666666666666668
200.0   120.0   16.666666666666668
250.0   120.0   16.666666666666668
200.0   120.0   0.0
200.0   90.0   16.666666666666668
250.0   120.0   16.666666666666668
250.0   90.0   16.666666666666668
250.0   90.0   0.0
200.0   90.0   16.666666666666668
250.0   120.0   16.666666666666668
250.0   90.0   0.0
200.0   120.0   0.0
200.0   90.0   16.666666666666668
250.0   90.0   16.666666666666668
200.0   120.0   16.666666666666668
200.0   90.0   33.333333333333336
250.0   90.0   16.666666666666668
250.0   120.0   16.666666666666668
200.0   120.0   16.666666666666668
250.0   120.0   33.333333333333336
200.0   90.0   33.333333333333336
200.0   120.0   33.333333333333336
250.0   120.0   33.333333333333336
200.0   120.0   16.666666666666668
200.0   90.0   33.333333333333336
250.0   120.0   33.333333333333336
250.0   90.0   33.333333333333336
250.0   90.0   16.666666666666668
200.0   90.0   33.333333333333336
250.0   120.0   33.333333333333336
250.0   90.0   16.666666666666668
200.0   120.0   16.666666666666668
200.0   90.0   33.333333333333336
250.0   90.0   33.333333333333336
200.0   120.0   33.333333333333336
200.0   90.0   50.0
250.0   90.0   33.333333333333336
250.0   120.0   33.333333333333336
200.0   120.0   33.333333333333336
250.0   120.0   50.0
200.0   90.0   50.0
200.0   120.0   50.0
250.0   120.0   50.0
200.0   120.0   33.333333333333336
200.0   90.0   50.0
250.0   120.0   50.0
250.0   90.0   50.0
250.0   90.0   33.333333333333336
200.0   90.0   50.0
250.0   120.0   50.0
250.0   90.0   33.333333333333336
200.0   120.0   33.333333333333336
200.0   120.0   0.0
250.0   120.0   0.0
200.0   150.0   0.0
200.0   120.0   16.666666666666668
250.0   120.0   0.0
250.0   150.0   0.0
200.0   150.0   0.0
250.0   150.0   16.666666666666668
200.0   120.0   16.666666666666668
200.0   150.0   16.666666666666668
250.0   150.0   16.666666666666668
200.0   150.0   0.0
200.0   120.0   16.666666666666668
250.0   150.0   16.666666666666668
250.0   120.0   16.666666666666668
250.0   120.0   0.0
200.0   120.0   16.666666666666668
250.0   150.0   16.666666666666668
250.0   120.0   0.0
200.0   150.0   0.0
200.0   120.0   16.666666666666668
250.0   120.0   16.666666666666668
200.0   150.0   16.666666666666668
200.0   120.0   33.333333333333336
250.0   120.0   16.666666666666668
250.0   150.0   16.666666666666668
200.0   150.0   16.666666666666668
250.0   150.0   33.333333333333336
200.0   120.0   33.333333333333336
200.0   150.0   33.333333333333336
250.0   150.0   33.333333333333336
200.0   150.0   16.666666666666668
200.0   120.0   33.333333333333336
250.0   150.0   33.333333333333336
250.0   120.0   33.333333333333336
250.0   120.0   16.666666666666668
200.0   120.0   33.333333333333336
250.0   150.0   33.333333333333336
250.0   120.0   16.666666666666668
200.0   150.0   16.666666666666668
200.0   120.0   33.333333333333336
250.0   120.0   33.333333333333336
200.0   150.0   33.333333333333336
200.0   120.0   50.0
250.0   120.0   33.333333333333336
250.0   150.0   33.333333333333336
200.0   150.0   33.333333333333336
250.0   150.0   50.0
200.0   120.0   50.0
200.0   150.0   50.0
250.0   150.0   50.0
200.0   150.0   33.333333333333336
200.0   120.0   50.0
250.0   150.0   50.0
250.0   120.0   50.0
250.0   120.0   33.333333333333336
200.0   120.0   50.0
250.0   150.0   50.0
250.0   120.0   33.333333333333336
200.0   150.0   33.333333333333336
250.0   0.0   0.0
300.0   0.0   0.0
250.0   30.0   0.0
250.0   0.0   16.666666666666668
300.0   0.0   0.0
300.0   30.0   0.0
250.0   30.0   0.0
300.0   30.0   16.666666666666668
250.0   0.0   16.666666666666668
250.0   30.0   16.666666666666668
300.0   30.0   16.666666666666668
250.0   30.0   0.0
250.0   0.0   16.666666666666668
300.0   30.0   16.666666666666668
300.0   0.0   16.666666666666668
300.0   0.0   0.0
250.0   0.0   16.666666666666668
300.0   30.0   16.666666666666668
300.0   0.0   0.0
250.0   30.0   0.0
250.0   0.0   16.666666666666668
300.0   0.0   16.666666666666668
250.0   30.0   16.666666666666668
250.0   0.0   33.333333333333336
300.0   0.0   16.666666666666668
300.0   30.0   16.666666666666668
250.0   30.0   16.666666666666668
300.0   30.0   33.333333333333336
250.0   0.0   33.333333333333336
250.0   30.0   33.333333333333336
300.0   30.0   33.333333333333336
250.0   30.0   16.666666666666668
250.0   0.0   33.333333333333336
300.0   30.0   33.333333333333336
300.0   0.0   33.333333333333336
300.0   0.0   16.666666666666668
250.0   0.0   33.333333333333336
300.0   30.0   33.333333333333336
300.0   0.0   16.666666666666668
250.0   30.0   16.666666666666668
250.0   0.0   33.333333333333336
300.0   0.0   33.333333333333336
250.0   30.0   33.333333333333336
250.0   0.0   50.0
300.0   0.0   33.333333333333336
300.0   30.0   33.333333333333336
250.0   30.0   33.333333333333336
300.0   30.0   50.0
250.0   0.0   50.0
250.0   30.0   50.0
300.0   30.0   50.0
250.0   30.0   33.333333333333336
250.0   0.0   50.0
300.0   30.0   50.0
300.0   0.0   50.0
300.0   0.0   33.333333333333336
250.0   0.0   50.0
300.0   30.0   50.0
300.0   0.0   33.333333333333336
250.0   30.0   33.333333333333336
250.0   30.0   0.0
300.0   30.0   0.0
250.0   60.0   0.0
250.0   30.0   16.666666666666668
300.0   30.0   0.0
300.0   60.0   0.0
250.0   60.0   0.0
300.0   60.0   16.666666666666668
250.0   30.0   16.666666666666668
250.0   60.0   16.666666666666668
300.0   60.0   16.666666666666668
250.0   60.0   0.0
250.0   30.0   16.666666666666668
300.0   60.0   16.666666666666668
300.0   30.0   16.666666666666668
300.0   30.0   0.0
250.0   30.0   16.666666666666668
300.0   60.0   16.666666666666668
300.0   30.0   0.0
250.0   60.0   0.0
250.0   30.0   16.666666666666668
300.0   30.0   16.666666666666668
250.0   60.0   16.666666666666668
250.0   30.0   33.333333333333336
300.0   30.0   16.666666666666668
300.0   60.0   16.666666666666668
250.0   60.0   16.666666666666668
300.0   60.0   33.333333333333336
250.0   30.0   33.333333333333336
250.0   60.0   33.333333333333336
300.0   60.0   33.333333333333336
250.0   60.0   16.666666666666668
250.0   30.0   33.333333333333336
300.0   60.0   33.333333333333336
300.0   30.0   33.333333333333336
300.0   30.0   16.666666666666668
250.0   30.0   33.333333333333336
300.0   60.0   33.333333333333336
300.0   30.0   16.666666666666668
250.0   60.0   16.666666666666668
250.0   30.0   33.333333333333336
300.0   30.0   33.333333333333336
250.0   60.0   33.333333333333336
250.0   30.0   50.0
300.0   30.0   33.333333333333336
300.0   60.0   33.333333333333336
250.0   60.0   33.333333333333336
300.0   60.0   50.0
250.0   30.0   50.0
250.0   60.0   50.0
300.0   60.0   50.0
250.0   60.0   33.333333333333336
250.0   30.0   50.0
300.0   60.0   50.0
300.0   30.0   50.0
300.0   30.0   33.333333333333336
250.0   30.0   50.0
300.0   60.0   50.0
300.0   30.0   33.333333333333336
250.0   60.0   33.333333333333336
250.0   60.0   0.0
300.0   60.0   0.0
250.0   90.0   0.0
250.0   60.0   16.666666666666668
300.0   60.0   0.0
300.0   90.0   0.0
250.0   90.0   0.0
300.0   90.0   16.666666666666668
250.0   60.0   16.666666666666668
250.0   90.0   16.666666666666668
300.0   90.0   16.666666666666668
250.0   90.0   0.0
250.0   60.0   16.666666666666668
300.0   90.0   16.666666666666668
300.0   60.0   16.666666666666668
300.0   60.0   0.0
250.0   60.0   16.666666666666668
300.0   90.0   16.666666666666668
300.0   60.0   0.0
250.0   90.0   0.0
250.0   60.0   16.666666666666668
300.0   60.0   16.666666666666668
250.0   90.0   16.666666666666668
250.0   60.0   33.333333333333336
300.0   60.0   16.666666666666668
300.0   90.0   16.666666666666668
250.0   90.0   16.666666666666668
300.0   90.0   33.333333333333336
250.0   60.0   33.333333333333336
250.0   90.0   33.333333333333336
300.0   90.0   33.333333333333336
250.0   90.0   16.666666666666668
250.0   60.0   33.333333333333336
300.0   90.0   33.333333333333336
300.0   60.0   33.333333333333336
300.0   60.0   16.666666666666668
250.0   60.0   33.333333333333336
300.0   90.0   33.333333333333336
300.0   60.0   16.666666666666668
250.0   90.0   16.666666666666668
250.0   60.0   33.333333333333336
300.0   60.0   33.333333333333336
250.0   90.0   33.333333333333336
250.0   60.0   50.0
300.0   60.0   33.333333333333336
300.0   90.0   33.333333333333336
250.0   90.0   33.333333333333336
300.0   90.0   50.0
250.0   60.0   50.0
250.0   90.0   50.0
300.0   90.0   50.0
250.0   90.0   33.333333333333336
250.0   60.0   50.0
300.0   90.0   50.0
300.0   60.0   50.0
300.0   60.0   33.333333333333336
250.0   60.0   50.0
300.0   90.0   50.0
300.0   60.0   33.333333333333336
250.0   90.0   33.333333333333336
250.0   90.0   0.0
300.0   90.0   0.0
250.0   120.0   0.0
250.0   90.0   16.666666666666668
300.0   90.0   0.0
300.0   120.0   0.0
250.0   120.0   0.0
300.0   120.0   16.666666666666668
250.0   90.0   16.666666666666668
250.0   120.0   16.666666666666668
300.0   120.0   16.666666666666668
250.0   120.0   0.0
250.0   90.0   16.666666666666668
300.0   120.0   16.666666666666668
300.0   90.0   16.666666666666668
300.0   90.0   0.0
250.0   90.0   16.666666666666668
300.0   120.0   16.666666666666668
300.0   90.0   0.0
250.0   120.0   0.0
250.0   90.0   16.666666666666668
300.0   90.0   16.666666666666668
250.0   120.0   16.666666666666668
250.0   90.0   33.333333333333336
300.0   90.0   16.666666666666668
300.0   120.0   16.666666666666668
250.0   120.0   16.666666666666668
300.0   120.0   33.333333333333336
250.0   90.0   33.333333333333336
250.0   120.0   33.333333333333336
300.0   120.0   33.333333333333336
250.0   120.0   16.666666666666668
250.0   90.0   33.333333333333336
300.0   120.0   33.333333333333336
300.0   90.0   33.333333333333336
300.0   90.0   16.666666666666668
250.0   90.0   33.333333333333336
300.0   120.0   33.333333333333336
300.0   90.0   16.666666666666668
250.0   120.0   16.666666666666668
250.0   90.0   33.333333333333336
300.0   90.0   33.333333333333336
250.0   120.0   33.333333333333336
250.0   90.0   50.0
300.0   90.0   33.333333333333336
300.0   120.0   33.333333333333336
250.0   120.0   33.333333333333336
300.0   120.0   50.0
250.0   90.0   50.0
250.0   120.0   50.0
300.0   120.0   50.0
250.0   120.0   33.333333333333336
250.0   90.0   50.0
300.0   120.0   50.0
300.0   90.0   50.0
300.0   90.0   33.333333333333336
250.0   90.0   50.0
300.0   120.0   50.0
300.0   90.0   33.333333333333336
250.0   120.0   33.333333333333336
250.0   120.0   0.0
300.0   120.0   0.0
250.0   150.0   0.0
250.0   120.0   16.666666666666668
300.0   120.0   0.0
300.0   150.0   0.0
250.0   150.0   0.0
300.0   150.0   16.666666666666668
250.0   120.0   16.666666666666668
250.0   150.0   16.666666666666668
300.0   150.0   16.666666666666668
250.0   150.0   0.0
250.0   120.0   16.666666666666668
300.0   150.0   16.666666666666668
300.0   120.0   16.666666666666668
300.0   120.0   0.0
250.0   120.0   16.666666666666668
300.0   150.0   16.666666666666668
300.0   120.0   0.0
250.0   150.0   0.0
250.0   120.0   16.666666666666668
300.0   120.0   16.666666666666668
250.0   150.0   16.666666666666668
250.0   120.0   33.333333333333336
300.0   120.0   16.666666666666668
300.0   150.0   16.666666666666668
250.0   150.0   16.666666666666668
300.0   150.0   33.333333333333336
250.0   120.0   33.333333333333336
250.0   150.0   33.333333333333336
300.0   150.0   33.333333333333336
250.0   150.0   16.666666666666668
250.0   120.0   33.333333333333336
300.0   150.0   33.333333333333336
300.0   120.0   33.333333333333336
300.0   120.0   16.666666666666668
250.0   120.0   33.333333333333336
300.0   150.0   33.333333333333336
300.0   120.0   16.666666666666668
250.0   150.0   16.666666666666668
250.0   120.0   33.333333333333336
300.0   120.0   33.333333333333336
250.0   150.0   33.333333333333336
250.0   120.0   50.0
300.0   120.0   33.333333333333336
300.0   150.0   33.333333333333336
250.0   150.0   33.333333333333336
300.0   150.0   50.0
250.0   120.0   50.0
250.0   150.0   50.0
300.0   150.0   50.0
250.0   150.0   33.333333333333336
250.0   120.0   50.0
300.0   150.0   50.0
300.0   120.0   50.0
300.0   120.0   33.333333333333336
250.0   120.0   50.0
300.0   150.0   50.0
300.0   120.0   33.333333333333336
250.0   150.0   33.333333333333336
300.0   0.0   0.0
350.0   0.0   0.0
300.0   30.0   0.0
300.0   0.0   16.666666666666668
350.0   0.0   0.0
350.0   30.0   0.0
300.0   30.0   0.0
350.0   30.0   16.666666666666668
300.0   0.0   16.666666666666668
300.0   30.0   16.666666666666668
350.0   30.0   16.666666666666668
300.0   30.0   0.0
300.0   0.0   16.666666666666668
350.0   30.0   16.666666666666668
350.0   0.0   16.666666666666668
350.0   0.0   0.0
300.0   0.0   16.666666666666668
350.0   30.0   16.666666666666668
350.0   0.0   0.0
300.0   30.0   0.0
300.0   0.0   16.666666666666668
350.0   0.0   16.666666666666668
300.0   30.0   16.666666666666668
300.0   0.0   33.333333333333336
350.0   0.0   16.666666666666668
350.0   30.0   16.666666666666668
300.0   30.0   16.666666666666668
350.0   30.0   33.333333333333336
300.0   0.0   33.333333333333336
300.0   30.0   33.333333333333336
350.0   30.0   33.333333333333336
300.0   30.0   16.666666666666668
300.0   0.0   33.333333333333336
350.0   30.0   33.333333333333336
350.0   0.0   33.333333333333336
350.0   0.0   16.666666666666668
300.0   0.0   33.333333333333336
350.0   30.0   33.333333333333336
350.0   0.0   16.666666666666668
300.0   30.0   16.666666666666668
300.0   0.0   33.333333333333336
350.0   0.0   33.333333333333336
300.0   30.0   33.333333333333336
300.0   0.0   50.0
350.0   0.0   33.333333333333336
350.0   30.0   33.333333333333336
300.0   30.0   33.333333333333336
350.0   30.0   50.0
300.0   0.0   50.0
300.0   30.0   50.0
350.0   30.0   50.0
300.0   30.0   33.333333333333336
300.0   0.0   50.0
350.0   30.0   50.0
350.0   0.0   50.0
350.0   0.0   33.333333333333336
300.0   0.0   50.0
350.0   30.0   50.0
350.0   0.0   33.333333333333336
300.0   30.0   33.333333333333336
300.0   30.0   0.0
350.0   30.0   0.0
300.0   60.0   0.0
300.0   30.0   16.666666666666668
350.0   30.0   0.0
350.0   60.0   0.0
300.0   60.0   0.0
350.0   60.0   16.666666666666668
300.0   30.0   16.666666666666668
300.0   60.0   16.666666666666668
350.0   60.0   16.666666666666668
300.0   60.0   0.0
300.0   30.0   16.666666666666668
350.0   60.0   16.666666666666668
350.0   30.0   16.666666666666668
350.0   30.0   0.0
300.0   30.0   16.666666666666668
350.0   60.0   16.666666666666668
350.0   30.0   0.0
300.0   60.0   0.0
300.0   30.0   16.666666666666668
350.0   30.0   16.666666666666668
300.0   60.0   16.666666666666668
300.0   30.0   33.333333333333336
350.0   30.0   16.666666666666668
350.0   60.0   16.666666666666668
300.0   60.0   16.666666666666668
350.0   60.0   33.333333333333336
300.0   30.0   33.333333333333336
300.0   60.0   33.333333333333336
350.0   60.0   33.333333333333336
300.0   60.0   16.666666666666668
300.0   30.0   33.333333333333336
350.0   60.0   33.333333333333336
350.0   30.0   33.333333333333336
350.0   30.0   16.666666666666668
300.0   30.0   33.333333333333336
350.0   60.0   33.333333333333336
350.0   30.0   16.666666666666668
300.0   60.0   16.666666666666668
300.0   30.0   33.333333333333336
350.0   30.0   33.333333333333336
300.0   60.0   33.333333333333336
300.0   30.0   50.0
350.0   30.0   33.333333333333336
350.0   60.0   33.333333333333336
300.0   60.0   33.333333333333336
350.0   60.0   50.0
300.0   30.0   50.0
300.0   60.0   50.0
350.0   60.0   50.0
300.0   60.0   33.333333333333336
300.0   30.0   50.0
350.0   60.0   50.0
350.0   30.0   50.0
350.0   30.0   33.333333333333336
300.0   30.0   50.0
350.0   60.0   50.0
350.0   30.0   33.333333333333336
300.0   60.0   33.333333333333336
300.0   60.0   0.0
350.0   60.0   0.0
300.0   90.0   0.0
300.0   60.0   16.666666666666668
350.0   60.0   0.0
350.0   90.0   0.0
300.0   90.0   0.0
350.0   90.0   16.666666666666668
300.0   60.0   16.666666666666668
300.0   90.0   16.666666666666668
350.0   90.0   16.666666666666668
300.0   90.0   0.0
300.0   60.0   16.666666666666668
350.0   90.0   16.666666666666668
350.0   60.0   16.666666666666668
350.0   60.0   0.0
300.0   60.0   16.666666666666668
350.0   90.0   16.666666666666668
350.0   60.0   0.0
300.0   90.0   0.0
300.0   60.0   16.666666666666668
350.0   60.0   16.666666666666668
300.0   90.0   16.666666666666668
300.0   60.0   33.333333333333336
350.0   60.0   16.666666666666668
350.0   90.0   16.666666666666668
300.0   90.0   16.666666666666668
350.0   90.0   33.333333333333336
300.0   60.0   33.333333333333336
300.0   90.0   33.333333333333336
350.0   90.0   33.333333333333336
300.0   90.0   16.666666666666668
300.0   60.0   33.333333333333336
350.0   90.0   33.333333333333336
350.0   60.0   33.333333333333336
350.0   60.0   16.666666666666668
300.0   60.0   33.333333333333336
350.0   90.0   33.333333333333336
350.0   60.0   16.666666666666668
300.0   90.0   16.666666666666668
300.0   60.0   33.333333333333336
350.0   60.0   33.333333333333336
300.0   90.0   33.333333333333336
300.0   60.0   50.0
350.0   60.0   33.333333333333336
350.0   90.0   33.333333333333336
300.0   90.0   33.333333333333336
350.0   90.0   50.0
300.0   60.0   50.0
300.0   90.0   50.0
350.0   90.0   50.0
300.0   90.0   33.333333333333336
300.0   60.0   50.0
350.0   90.0   50.0
350.0   60.0   50.0
350.0   60.0   33.333333333333336
300.0   60.0   50.0
350.0   90.0   50.0
350.0   60.0   33.333333333333336
300.0   90.0   33.333333333333336
300.0   90.0   0.0
350.0   90.0   0.0
300.0   120.0   0.0
300.0   90.0   16.666666666666668
350.0   90.0   0.0
350.0   120.0   0.0
300.0   120.0   0.0
350.0   120.0   16.666666666666668
300.0   90.0   16.666666666666668
300.0   120.0   16.666666666666668
350.0   120.0   16.666666666666668
300.0   120.0   0.0
300.0   90.0   16.666666666666668
350.0   120.0   16.666666666666668
350.0   90.0   16.666666666666668
350.0   90.0   0.0
300.0   90.0   16.666666666666668
350.0   120.0   16.666666666666668
350.0   90.0   0.0
300.0   120.0   0.0
300.0   90.0   16.666666666666668
350.0   90.0   16.666666666666668
300.0   120.0   16.666666666666668
300.0   90.0   33.333333333333336
350.0   90.0   16.666666666666668
350.0   120.0   16.666666666666668
300.0   120.0   16.666666666666668
350.0   120.0   33.333333333333336
300.0   90.0   33.333333333333336
300.0   120.0   33.333333333333336
350.0   120.0   33.333333333333336
300.0   120.0   16.666666666666668
300.0   90.0   33.333333333333336
350.0   120.0   33.333333333333336
350.0   90.0   33.333333333333336
350.0   90.0   16.666666666666668
300.0   90.0   33.333333333333336
350.0   120.0   33.333333333333336
350.0   90.0   16.666666666666668
300.0   120.0   16.666666666666668
300.0   90.0   33.333333333333336
350.0   90.0   33.333333333333336
300.0   120.0   33.333333333333336
300.0   90.0   50.0
350.0   90.0   33.333333333333336
350.0   120.0   33.333333333333336
300.0   120.0   33.333333333333336
350.0   120.0   50.0
300.0   90.0   50.0
300.0   120.0   50.0
350.0   120.0   50.0
300.0   120.0   33.333333333333336
300.0   90.0   50.0
350.0   120.0   50.0
350.0   90.0   50.0
350.0   90.0   33.333333333333336
300.0   90.0   50.0
350.0   120.0   50.0
350.0   90.0   33.333333333333336
300.0   120.0   33.333333333333336
300.0   120.0   0.0
350.0   120.0   0.0
300.0   150.0   0.0
300.0   120.0   16.666666666666668
350.0   120.0   0.0
350.0   150.0   0.0
300.0   150.0   0.0
350.0   150.0   16.666666666666668
300.0   120.0   16.666666666666668
300.0   150.0   16.666666666666668
350.0   150.0   16.666666666666668
300.0   150.0   0.0
300.0   120.0   16.666666666666668
350.0   150.0   16.666666666666668
350.0   120.0   16.666666666666668
350.0   120.0   0.0
300.0   120.0   16.666666666666668
350.0   150.0   16.666666666666668
350.0   120.0   0.0
300.0   150.0   0.0
300.0   120.0   16.666666666666668
350.0   120.0   16.666666666666668
300.0   150.0   16.666666666666668
300.0   120.0   33.333333333333336
350.0   120.0   16.666666666666668
350.0   150.0   16.666666666666668
300.0   150.0   16.666666666666668
350.0   150.0   33.333333333333336
300.0   120.0   33.333333333333336
300.0   150.0   33.333333333333336
350.0   150.0   33.333333333333336
300.0   150.0   16.666666666666668
300.0   120.0   33.333333333333336
350.0   150.0   33.333333333333336
350.0   120.0   33.333333333333336
350.0   120.0   16.666666666666668
300.0   120.0   33.333333333333336
350.0   150.0   33.333333333333336
350.0   120.0   16.666666666666668
300.0   150.0   16.666666666666668
300.0   120.0   33.333333333333336
350.0   120.0   33.333333333333336
300.0   150.0   33.333333333333336
300.0   120.0   50.0
350.0   120.0   33.333333333333336
350.0   150.0   33.333333333333336
300.0   150.0   33.333333333333336
350.0   150.0   50.0
300.0   120.0   50.0
300.0   150.0   50.0
350.0   150.0   50.0
300.0   150.0   33.333333333333336
300.0   120.0   50.0
350.0   150.0   50.0
350.0   120.0   50.0
350.0   120.0   33.333333333333336
300.0   120.0   50.0
350.0   150.0   50.0
350.0   120.0   33.333333333333336
300.0   150.0   33.333333333333336
350.0   0.0   0.0
400.0   0.0   0.0
350.0   30.0   0.0
350.0   0.0   16.666666666666668
400.0   0.0   0.0
400.0   30.0   0.0
350.0   30.0   0.0
400.0   30.0   16.666666666666668
350.0   0.0   16.666666666666668
350.0   30.0   16.666666666666668
400.0   30.0   16.666666666666668
350.0   30.0   0.0
350.0   0.0   16.666666666666668
400.0   30.0   16.666666666666668
400.0   0.0   16.666666666666668
400.0   0.0   0.0
350.0   0.0   16.666666666666668
400.0   30.0   16.666666666666668
400.0   0.0   0.0
350.0   30.0   0.0
350.0   0.0   16.666666666666668
400.0   0.0   16.666666666666668
350.0   30.0   16.666666666666668
350.0   0.0   33.333333333333336
400.0   0.0   16.666666666666668
400.0   30.0   16.666666666666668
350.0   30.0   16.666666666666668
400.0   30.0   33.333333333333336
350.0   0.0   33.333333333333336
350.0   30.0   33.333333333333336
400.0   30.0   33.333333333333336
350.0   30.0   16.666666666666668
350.0   0.0   33.333333333333336
400.0   30.0   33.333333333333336
400.0   0.0   33.333333333333336
400.0   0.0   16.666666666666668
350.0   0.0   33.333333333333336
400.0   30.0   33.333333333333336
400.0   0.0   16.666666666666668
350.0   30.0   16.666666666666668
350.0   0.0   33.333333333333336
400.0   0.0   33.333333333333336
350.0   30.0   33.333333333333336
350.0   0.0   50.0
400.0   0.0   33.333333333333336
400.0   30.0   33.333333333333336
350.0   30.0   33.333333333333336
400.0   30.0   50.0
350.0   0.0   50.0
350.0   30.0   50.0
400.0   30.0   50.0
350.0   30.0   33.333333333333336
350.0   0.0   50.0
400.0   30.0   50.0
400.0   0.0   50.0
400.0   0.0   33.333333333333336
350.0   0.0   50.0
400.0   30.0   50.0
400.0   0.0   33.333333333333336
350.0   30.0   33.333333333333336
350.0   30.0   0.0
400.0   30.0   0.0
350.0   60.0   0.0
350.0   30.0   16.666666666666668
400.0   30.0   0.0
400.0   60.0   0.0
350.0   60.0   0.0
400.0   60.0   16.666666666666668
350.0   30.0   16.666666666666668
350.0   60.0   16.666666666666668
400.0   60.0   16.666666666666668
350.0   60.0   0.0
350.0   30.0   16.666666666666668
400.0   60.0   16.666666666666668
400.0   30.0   16.666666666666668
400.0   30.0   0.0
350.0   30.0   16.666666666666668
400.0   60.0   16.666666666666668
400.0   30.0   0.0
350.0   60.0   0.0
350.0   30.0   16.666666666666668
400.0   30.0   16.666666666666668
350.0   60.0   16.666666666666668
350.0   30.0   33.333333333333336
400.0   30.0   16.666666666666668
400.0   60.0   16.666666666666668
350.0   60.0   16.666666666666668
400.0   60.0   33.333333333333336
350.0   30.0   33.333333333333336
350.0   60.0   33.333333333333336
400.0   60.0   33.333333333333336
350.0   60.0   16.666666666666668
350.0   30.0   33.333333333333336
400.0   60.0   33.333333333333336
400.0   30.0   33.333333333333336
400.0   30.0   16.666666666666668
350.0   30.0   33.333333333333336
400.0   60.0   33.333333333333336
400.0   30.0   16.666666666666668
350.0   60.0   16.666666666666668
350.0   30.0   33.333333333333336
400.0   30.0   33.333333333333336
350.0   60.0   33.333333333333336
350.0   30.0   50.0
400.0   30.0   33.333333333333336
400.0   60.0   33.333333333333336
350.0   60.0   33.333333333333336
400.0   60.0   50.0
350.0   30.0   50.0
350.0   60.0   50.0
400.0   60.0   50.0
350.0   60.0   33.333333333333336
350.0   30.0   50.0
400.0   60.0   50.0
400.0   30.0   50.0
400.0   30.0   33.333333333333336
350.0   30.0   50.0
400.0   60.0   50.0
400.0   30.0   33.333333333333336
350.0   60.0   33.333333333333336
350.0   60.0   0.0
400.0   60.0   0.0
350.0   90.0   0.0
350.0   60.0   16.666666666666668
400.0   60.0   0.0
400.0   90.0   0.0
350.0   90.0   0.0
400.0   90.0   16.666666666666668
350.0   60.0   16.666666666666668
350.0   90.0   16.666666666666668
400.0   90.0   16.666666666666668
350.0   90.0   0.0
350.0   60.0   16.666666666666668
400.0   90.0   16.666666666666668
400.0   60.0   16.666666666666668
400.0   60.0   0.0
350.0   60.0   16.666666666666668
400.0   90.0   16.666666666666668
400.0   60.0   0.0
350.0   90.0   0.0
350.0   60.0   16.666666666666668
400.0   60.0   16.666666666666668
350.0   90.0   16.666666666666668
350.0   60.0   33.333333333333336
400.0   60.0   16.666666666666668
400.0   90.0   16.666666666666668
350.0   90.0   16.666666666666668
400.0   90.0   33.333333333333336
350.0   60.0   33.333333333333336
350.0   90.0   33.333333333333336
400.0   90.0   33.333333333333336
350.0   90.0   16.666666666666668
350.0   60.0   33.333333333333336
400.0   90.0   33.333333333333336
400.0   60.0   33.333333333333336
400.0   60.0   16.666666666666668
350.0   60.0   33.333333333333336
400.0   90.0   33.333333333333336
400.0   60.0   16.666666666666668
350.0   90.0   16.666666666666668
350.0   60.0   33.333333333333336
400.0   60.0   33.333333333333336
350.0   90.0   33.333333333333336
350.0   60.0   50.0
400.0   60.0   33.333333333333336
400.0   90.0   33.333333333333336
350.0   90.0   33.333333333333336
400.0   90.0   50.0
350.0   60.0   50.0
350.0   90.0   50.0
400.0   90.0   50.0
350.0   90.0   33.333333333333336
350.0   60.0   50.0
400.0   90.0   50.0
400.0   60.0   50.0
400.0   60.0   33.333333333333336
350.0   60.0   50.0
400.0   90.0   50.0
400.0   60.0   33.333333333333336
350.0   90.0   33.333333333333336
350.0   90.0   0.0
400.0   90.0   0.0
350.0   120.0   0.0
350.0   90.0   16.666666666666668
400.0   90.0   0.0
400.0   120.0   0.0
350.0   120.0   0.0
400.0   120.0   16.666666666666668
350.0   90.0   16.666666666666668
350.0   120.0   16.666666666666668
400.0   120.0   16.666666666666668
350.0   120.0   0.0
350.0   90.0   16.666666666666668
400.0   120.0   16.666666666666668
400.0   90.0   16.666666666666668
400.0   90.0   0.0
350.0   90.0   16.666666666666668
400.0   120.0   16.666666666666668
400.0   90.0   0.0
350.0   120.0   0.0
350.0   90.0   16.666666666666668
400.0   90.0   16.666666666666668
350.0   120.0   16.666666666666668
350.0   90.0   33.333333333333336
400.0   90.0   16.666666666666668
400.0   120.0   16.666666666666668
350.0   120.0   16.666666666666668
400.0   120.0   33.333333333333336
350.0   90.0   33.333333333333336
350.0   120.0   33.333333333333336
400.0   120.0   33.333333333333336
350.0   120.0   16.666666666666668
350.0   90.0   33.333333333333336
400.0   120.0   33.333333333333336
400.0   90.0   33.333333333333336
400.0   90.0   16.666666666666668
350.0   90.0   33.333333333333336
400.0   120.0   33.333333333333336
400.0   90.0   16.666666666666668
350.0   120.0   16.666666666666668
350.0   90.0   33.333333333333336
400.0   90.0   33.333333333333336
350.0   120.0   33.333333333333336
350.0   90.0   50.0
400.0   90.0   33.333333333333336
400.0   120.0   33.333333333333336
350.0   120.0   33.333333333333336
400.0   120.0   50.0
350.0   90.0   50.0
350.0   120.0   50.0
400.0   120.0   50.0
350.0   120.0   33.333333333333336
350.0   90.0   50.0
400.0   120.0   50.0
400.0   90.0   50.0
400.0   90.0   33.333333333333336
350.0   90.0   50.0
400.0   120.0   50.0
400.0   90.0   33.333333333333336
350.0   120.0   33.333333333333336
350.0   120.0   0.0
400.0   120.0   0.0
350.0   150.0   0.0
350.0   120.0   16.666666666666668
400.0   120.0   0.0
400.0   150.0   0.0
350.0   150.0   0.0
400.0   150.0   16.666666666666668
350.0   120.0   16.666666666666668
350.0   150.0   16.666666666666668
400.0   150.0   16.666666666666668
350.0   150.0   0.0
350.0   120.0   16.666666666666668
400.0   150.0   16.666666666666668
400.0   120.0   16.666666666666668
400.0   120.0   0.0
350.0   120.0   16.666666666666668
400.0   150.0   16.666666666666668
400.0   120.0   0.0
350.0   150.0   0.0
350.0   120.0   16.666666666666668
400.0   120.0   16.666666666666668
350.0   150.0   16.666666666666668
350.0   120.0   33.333333333333336
400.0   120.0   16.666666666666668
400.0   150.0   16.666666666666668
350.0   150.0   16.666666666666668
400.0   150.0   33.333333333333336
350.0   120.0   33.333333333333336
350.0   150.0   33.333333333333336
400.0   150.0   33.333333333333336
350.0   150.0   16.666666666666668
350.0   120.0   33.333333333333336
400.0   150.0   33.333333333333336
400.0   120.0   33.333333333333336
400.0   120.0   16.666666666666668
350.0   120.0   33.333333333333336
400.0   150.0   33.333333333333336
400.0   120.0   16.666666666666668
350.0   150.0   16.666666666666668
350.0   120.0   33.333333333333336
400.0   120.0   33.333333333333336
350.0   150.0   33.333333333333336
350.0   120.0   50.0
400.0   120.0   33.333333333333336
400.0   150.0   33.333333333333336
350.0   150.0   33.333333333333336
400.0   150.0   50.0
350.0   120.0   50.0
350.0   150.0   50.0
400.0   150.0   50.0
350.0   150.0   33.333333333333336
350.0   120.0   50.0
400.0   150.0   50.0
400.0   120.0   50.0
400.0   120.0   33.333333333333336
350.0   120.0   50.0
400.0   150.0   50.0
400.0   120.0   33.333333333333336
350.0   150.0   33.333333333333336
400.0   0.0   0.0
450.0   0.0   0.0
400.0   30.0   0.0
400.0   0.0   16.666666666666668
450.0   0.0   0.0
450.0   30.0   0.0
400.0   30.0   0.0
450.0   30.0   16.666666666666668
400.0   0.0   16.666666666666668
400.0   30.0   16.666666666666668
450.0   30.0   16.666666666666668
400.0   30.0   0.0
400.0   0.0   16.666666666666668
450.0   30.0   16.666666666666668
450.0   0.0   16.666666666666668
450.0   0.0   0.0
400.0   0.0   16.666666666666668
450.0   30.0   16.666666666666668
450.0   0.0   0.0
400.0   30.0   0.0
400.0   0.0   16.666666666666668
450.0   0.0   16.666666666666668
400.0   30.0   16.666666666666668
400.0   0.0   33.333333333333336
450.0   0.0   16.666666666666668
450.0   30.0   16.666666666666668
400.0   30.0   16.666666666666668
450.0   30.0   33.333333333333336
400.0   0.0   33.333333333333336
400.0   30.0   33.333333333333336
450.0   30.0   33.333333333333336
400.0   30.0   16.666666666666668
400.0   0.0   33.333333333333336
450.0   30.0   33.333333333333336
450.0   0.0   33.333333333333336
450.0   0.0   16.666666666666668
400.0   0.0   33.333333333333336
450.0   30.0   33.333333333333336
450.0   0.0   16.666666666666668
400.0   30.0   16.666666666666668
400.0   0.0   33.333333333333336
450.0   0.0   33.333333333333336
400.0   30.0   33.333333333333336
400.0   0.0   50.0
450.0   0.0   33.333333333333336
450.0   30.0   33.333333333333336
400.0   30.0   33.333333333333336
450.0   30.0   50.0
400.0   0.0   50.0
400.0   30.0   50.0
450.0   30.0   50.0
400.0   30.0   33.333333333333336
400.0   0.0   50.0
450.0   30.0   50.0
450.0   0.0   50.0
450.0   0.0   33.333333333333336
400.0   0.0   50.0
450.0   30.0   50.0
450.0   0.0   33.333333333333336
400.0   30.0   33.333333333333336
400.0   30.0   0.0
450.0   30.0   0.0
400.0   60.0   0.0
400.0   30.0   16.666666666666668
450.0   30.0   0.0
450.0   60.0   0.0
400.0   60.0   0.0
450.0   60.0   16.666666666666668
400.0   30.0   16.666666666666668
400.0   60.0   16.666666666666668
450.0   60.0   16.666666666666668
400.0   60.0   0.0
400.0   30.0   16.666666666666668
450.0   60.0   16.666666666666668
450.0   30.0   16.666666666666668
450.0   30.0   0.0
400.0   30.0   16.666666666666668
450.0   60.0   16.666666666666668
450.0   30.0   0.0
400.0   60.0   0.0
400.0   30.0   16.666666666666668
450.0   30.0   16.666666666666668
400.0   60.0   16.666666666666668
400.0   30.0   33.333333333333336
450.0   30.0   16.666666666666668
450.0   60.0   16.666666666666668
400.0   60.0   16.666666666666668
450.0   60.0   33.333333333333336
400.0   30.0   33.333333333333336
400.0   60.0   33.333333333333336
450.0   60.0   33.333333333333336
400.0   60.0   16.666666666666668
400.0   30.0   33.333333333333336
450.0   60.0   33.333333333333336
450.0   30.0   33.333333333333336
450.0   30.0   16.666666666666668
400.0   30.0   33.333333333333336
450.0   60.0   33.333333333333336
450.0   30.0   16.666666666666668
400.0   60.0   16.666666666666668
400.0   30.0   33.333333333333336
450.0   30.0   33.333333333333336
400.0   60.0   33.333333333333336
400.0   30.0   50.0
450.0   30.0   33.333333333333336
450.0   60.0   33.333333333333336
400.0   60.0   33.333333333333336
450.0   60.0   50.0
400.0   30.0   50.0
400.0   60.0   50.0
450.0   60.0   50.0
400.0   60.0   33.333333333333336
400.0   30.0   50.0
450.0   60.0   50.0
450.0   30.0   50.0
450.0   30.0   33.333333333333336
400.0   30.0   50.0
450.0   60.0   50.0
450.0   30.0   33.333333333333336
400.0   60.0   33.333333333333336
400.0   60.0   0.0
450.0   60.0   0.0
400.0   90.0   0.0
400.0   60.0   16.666666666666668
450.0   60.0   0.0
450.0   90.0   0.0
400.0   90.0   0.0
450.0   90.0   16.666666666666668
400.0   60.0   16.666666666666668
400.0   90.0   16.666666666666668
450.0   90.0   16.666666666666668
400.0   90.0   0.0
400.0   60.0   16.666666666666668
450.0   90.0   16.666666666666668
450.0   60.0   16.666666666666668
450.0   60.0   0.0
400.0   60.0   16.666666666666668
450.0   90.0   16.666666666666668
450.0   60.0   0.0
400.0   90.0   0.0
400.0   60.0   16.666666666666668
450.0   60.0   16.666666666666668
400.0   90.0   16.666666666666668
400.0   60.0   33.333333333333336
450.0   60.0   16.666666666666668
450.0   90.0   16.666666666666668
400.0   90.0   16.666666666666668
450.0   90.0   33.333333333333336
400.0   60.0   33.333333333333336
400.0   90.0   33.333333333333336
450.0   90.0   33.333333333333336
400.0   90.0   16.666666666666668
400.0   60.0   33.333333333333336
450.0   90.0   33.333333333333336
450.0   60.0   33.333333333333336
450.0   60.0   16.666666666666668
400.0   60.0   33.333333333333336
450.0   90.0   33.333333333333336
450.0   60.0   16.666666666666668
400.0   90.0   16.666666666666668
400.0   60.0   33.333333333333336
450.0   60.0   33.333333333333336
400.0   90.0   33.333333333333336
400.0   60.0   50.0
450.0   60.0   33.333333333333336
450.0   90.0   33.333333333333336
400.0   90.0   33.333333333333336
450.0   90.0   50.0
400.0   60.0   50.0
400.0   90.0   50.0
450.0   90.0   50.0
400.0   90.0   33.333333333333336
400.0   60.0   50.0
450.0   90.0   50.0
450.0   60.0   50.0
450.0   60.0   33.333333333333336
400.0   60.0   50.0
450.0   90.0   50.0
450.0   60.0   33.333333333333336
400.0   90.0   33.333333333333336
400.0   90.0   0.0
450.0   90.0   0.0
400.0   120.0   0.0
400.0   90.0   16.666666666666668
450.0   90.0   0.0
450.0   120.0   0.0
400.0   120.0   0.0
450.0   120.0   16.666666666666668
400.0   90.0   16.666666666666668
400.0   120.0   16.666666666666668
450.0   120.0   16.666666666666668
400.0   120.0   0.0
400.0   90.0   16.666666666666668
450.0   120.0   16.666666666666668
450.0   90.0   16.666666666666668
450.0   90.0   0.0
400.0   90.0   16.666666666666668
450.0   120.0   16.666666666666668
450.0   90.0   0.0
400.0   120.0   0.0
400.0   90.0   16.666666666666668
450.0   90.0   16.666666666666668
400.0   120.0   16.666666666666668
400.0   90.0   33.333333333333336
450.0   90.0   16.666666666666668
450.0   120.0   16.666666666666668
400.0   120.0   16.666666666666668
450.0   120.0   33.333333333333336
400.0   90.0   33.333333333333336
400.0   120.0   33.333333333333336
450.0   120.0   33.333333333333336
400.0   120.0   16.666666666666668
400.0   90.0   33.333333333333336
450.0   120.0   33.333333333333336
450.0   90.0   33.333333333333336
450.0   90.0   16.666666666666668
400.0   90.0   33.333333333333336
450.0   120.0   33.333333333333336
450.0   90.0   16.666666666666668
400.0   120.0   16.666666666666668
400.0   90.0   33.333333333333336
450.0   90.0   33.333333333333336
400.0   120.0   33.333333333333336
400.0   90.0   50.0
450.0   90.0   33.333333333333336
450.0   120.0   33.333333333333336
400.0   120.0   33.333333333333336
450.0   120.0   50.0
400.0   90.0   50.0
400.0   120.0   50.0
450.0   120.0   50.0
400.0   120.0   33.333333333333336
400.0   90.0   50.0
450.0   120.0   50.0
450.0   90.0   50.0
450.0   90.0   33.333333333333336
400.0   90.0   50.0
450.0   120.0   50.0
450.0   90.0   33.333333333333336
400.0   120.0   33.333333333333336
400.0   120.0   0.0
450.0   120.0   0.0
400.0   150.0   0.0
400.0   120.0   16.666666666666668
450.0   120.0   0.0
450.0   150.0   0.0
400.0   150.0   0.0
450.0   150.0   16.666666666666668
400.0   120.0   16.666666666666668
400.0   150.0   16.666666666666668
450.0   150.0   16.666666666666668
400.0   150.0   0.0
400.0   120.0   16.666666666666668
450.0   150.0   16.666666666666668
450.0   120.0   16.666666666666668
450.0   120.0   0.0
400.0   120.0   16.666666666666668
450.0   150.0   16.666666666666668
450.0   120.0   0.0
400.0   150.0   0.0
400.0   120.0   16.666666666666668
450.0   120.0   16.666666666666668
400.0   150.0   16.666666666666668
400.0   120.0   33.333333333333336
450.0   120.0   16.666666666666668
450.0   150.0   16.666666666666668
400.0   150.0   16.666666666666668
450.0   150.0   33.333333333333336
400.0   120.0   33.333333333333336
400.0   150.0   33.333333333333336
450.0   150.0   33.333333333333336
400.0   150.0   16.666666666666668
400.0   120.0   33.333333333333336
450.0   150.0   33.333333333333336
450.0   120.0   33.333333333333336
450.0   120.0   16.666666666666668
400.0   120.0   33.333333333333336
450.0   150.0   33.333333333333336
450.0   120.0   16.666666666666668
400.0   150.0   16.666666666666668
400.0   120.0   33.333333333333336
450.0   120.0   33.333333333333336
400.0   150.0   33.333333333333336
400.0   120.0   50.0
450.0   120.0   33.333333333333336
450.0   150.0   33.333333333333336
400.0   150.0   33.333333333333336
450.0   150.0   50.0
400.0   120.0   50.0
400.0   150.0   50.0
450.0   150.0   50.0
400.0   150.0   33.333333333333336
400.0   120.0   50.0
450.0   150.0   50.0
450.0   120.0   50.0
450.0   120.0   33.333333333333336
400.0   120.0   50.0
450.0   150.0   50.0
450.0   120.0   33.333333333333336
400.0   150.0   33.333333333333336
450.0   0.0   0.0
500.0   0.0   0.0
450.0   30.0   0.0
450.0   0.0   16.666666666666668
500.0   0.0   0.0
500.0   30.0   0.0
450.0   30.0   0.0
500.0   30.0   16.666666666666668
450.0   0.0   16.666666666666668
450.0   30.0   16.666666666666668
500.0   30.0   16.666666666666668
450.0   30.0   0.0
450.0   0.0   16.666666666666668
500.0   30.0   16.666666666666668
500.0   0.0   16.666666666666668
500.0   0.0   0.0
450.0   0.0   16.666666666666668
500.0   30.0   16.666666666666668
500.0   0.0   0.0
450.0   30.0   0.0
450.0   0.0   16.666666666666668
500.0   0.0   16.666666666666668
450.0   30.0   16.666666666666668
450.0   0.0   33.333333333333336
500.0   0.0   16.666666666666668
500.0   30.0   16.666666666666668
450.0   30.0   16.666666666666668
500.0   30.0   33.333333333333336
450.0   0.0   33.333333333333336
450.0   30.0   33.333333333333336
500.0   30.0   33.333333333333336
450.0   30.0   16.666666666666668
450.0   0.0   33.333333333333336
500.0   30.0   33.333333333333336
500.0   0.0   33.333333333333336
500.0   0.0   16.666666666666668
450.0   0.0   33.333333333333336
500.0   30.0   33.333333333333336
500.0   0.0   16.666666666666668
450.0   30.0   16.666666666666668
450.0   0.0   33.333333333333336
500.0   0.0   33.333333333333336
450.0   30.0   33.333333333333336
450.0   0.0   50.0
500.0   0.0   33.333333333333336
500.0   30.0   33.333333333333336
450.0   30.0   33.333333333333336
500.0   30.0   50.0
450.0   0.0   50.0
450.0   30.0   50.0
500.0   30.0   50.0
450.0   30.0   33.333333333333336
450.0   0.0   50.0
500.0   30.0   50.0
500.0   0.0   50.0
500.0   0.0   33.333333333333336
450.0   0.0   50.0
500.0   30.0   50.0
500.0   0.0   33.333333333333336
450.0   30.0   33.333333333333336
450.0   30.0   0.0
500.0   30.0   0.0
450.0   60.0   0.0
450.0   30.0   16.666666666666668
500.0   30.0   0.0
500.0   60.0   0.0
450.0   60.0   0.0
500.0   60.0   16.666666666666668
450.0   30.0   16.666666666666668
450.0   60.0   16.666666666666668
500.0   60.0   16.666666666666668
450.0   60.0   0.0
450.0   30.0   16.666666666666668
500.0   60.0   16.666666666666668
500.0   30.0   16.666666666666668
500.0   30.0   0.0
450.0   30.0   16.666666666666668
500.0   60.0   16.666666666666668
500.0   30.0   0.0
450.0   60.0   0.0
450.0   30.0   16.666666666666668
500.0   30.0   16.666666666666668
450.0   60.0   16.666666666666668
450.0   30.0   33.333333333333336
500.0   30.0   16.666666666666668
500.0   60.0   16.666666666666668
450.0   60.0   16.666666666666668
500.0   60.0   33.333333333333336
450.0   30.0   33.333333333333336
450.0   60.0   33.333333333333336
500.0   60.0   33.333333333333336
450.0   60.0   16.666666666666668
450.0   30.0   33.333333333333336
500.0   60.0   33.333333333333336
500.0   30.0   33.333333333333336
500.0   30.0   16.666666666666668
450.0   30.0   33.333333333333336
500.0   60.0   33.333333333333336
500.0   30.0   16.666666666666668
450.0   60.0   16.666666666666668
450.0   30.0   33.333333333333336
500.0   30.0   33.333333333333336
450.0   60.0   33.333333333333336
450.0   30.0   50.0
500.0   30.0   33.333333333333336
500.0   60.0   33.333333333333336
450.0   60.0   33.333333333333336
500.0   60.0   50.0
450.0   30.0   50.0
450.0   60.0   50.0
500.0   60.0   50.0
450.0   60.0   33.333333333333336
450.0   30.0   50.0
500.0   60.0   50.0
500.0   30.0   50.0
500.0   30.0   33.333333333333336
450.0   30.0   50.0
500.0   60.0   50.0
500.0   30.0   33.333333333333336
450.0   60.0   33.333333333333336
450.0   60.0   0.0
500.0   60.0   0.0
450.0   90.0   0.0
450.0   60.0   16.666666666666668
500.0   60.0   0.0
500.0   90.0   0.0
450.0   90.0   0.0
500.0   90.0   16.666666666666668
450.0   60.0   16.666666666666668
450.0   90.0   16.666666666666668
500.0   90.0   16.666666666666668
450.0   90.0   0.0
450.0   60.0   16.666666666666668
500.0   90.0   16.666666666666668
500.0   60.0   16.666666666666668
500.0   60.0   0.0
450.0   60.0   16.666666666666668
500.0   90.0   16.666666666666668
500.0   60.0   0.0
450.0   90.0   0.0
450.0   60.0   16.666666666666668
500.0   60.0   16.666666666666668
450.0   90.0   16.666666666666668
450.0   60.0   33.333333333333336
500.0   60.0   16.666666666666668
500.0   90.0   16.666666666666668
450.0   90.0   16.666666666666668
500.0   90.0   33.333333333333336
450.0   60.0   33.333333333333336
450.0   90.0   33.333333333333336
500.0   90.0   33.333333333333336
450.0   90.0   16.666666666666668
450.0   60.0   33.333333333333336
500.0   90.0   33.333333333333336
500.0   60.0   33.333333333333336
500.0   60.0   16.666666666666668
450.0   60.0   33.333333333333336
500.0   90.0   33.333333333333336
500.0   60.0   16.666666666666668
450.0   90.0   16.666666666666668
450.0   60.0   33.333333333333336
500.0   60.0   33.333333333333336
450.0   90.0   33.333333333333336
450.0   60.0   50.0
500.0   60.0   33.333333333333336
500.0   90.0   33.333333333333336
450.0   90.0   33.333333333333336
500.0   90.0   50.0
450.0   60.0   50.0
450.0   90.0   50.0
500.0   90.0   50.0
450.0   90.0   33.333333333333336
450.0   60.0   50.0
500.0   90.0   50.0
500.0   60.0   50.0
500.0   60.0   33.333333333333336
450.0   60.0   50.0
500.0   90.0   50.0
500.0   60.0   33.333333333333336
450.0   90.0   33.333333333333336
450.0   90.0   0.0
500.0   90.0   0.0
450.0   120.0   0.0
450.0   90.0   16.666666666666668
500.0   90.0   0.0
500.0   120.0   0.0
450.0   120.0   0.0
500.0   120.0   16.666666666666668
450.0   90.0   16.666666666666668
450.0   120.0   16.666666666666668
500.0   120.0   16.666666666666668
450.0   120.0   0.0
450.0   90.0   16.666666666666668
500.0   120.0   16.666666666666668
500.0   90.0   16.666666666666668
500.0   90.0   0.0
450.0   90.0   16.666666666666668
500.0   120.0   16.666666666666668
500.0   90.0   0.0
450.0   120.0   0.0
450.0   90.0   16.666666666666668
500.0   90.0   16.666666666666668
450.0   120.0   16.666666666666668
450.0   90.0   33.333333333333336
500.0   90.0   16.666666666666668
500.0   120.0   16.666666666666668
450.0   120.0   16.666666666666668
500.0   120.0   33.333333333333336
450.0   90.0   33.333333333333336
450.0   120.0   33.333333333333336
500.0   120.0   33.333333333333336
450.0   120.0   16.666666666666668
450.0   90.0   33.333333333333336
500.0   120.0   33.333333333333336
500.0   90.0   33.333333333333336
500.0   90.0   16.666666666666668
450.0   90.0   33.333333333333336
500.0   120.0   33.333333333333336
500.0   90.0   16.666666666666668
450.0   120.0   16.666666666666668
450.0   90.0   33.333333333333336
500.0   90.0   33.333333333333336
450.0   120.0   33.333333333333336
450.0   90.0   50.0
500.0   90.0   33.333333333333336
500.0   120.0   33.333333333333336
450.0   120.0   33.333333333333336
500.0   120.0   50.0
450.0   90.0   50.0
450.0   120.0   50.0
500.0   120.0   50.0
450.0   120.0   33.333333333333336
450.0   90.0   50.0
500.0   120.0   50.0
500.0   90.0   50.0
500.0   90.0   33.333333333333336
450.0   90.0   50.0
500.0   120.0   50.0
500.0   90.0   33.333333333333336
450.0   120.0   33.333333333333336
450.0   120.0   0.0
500.0   120.0   0.0
450.0   150.0   0.0
450.0   120.0   16.666666666666668
500.0   120.0   0.0
500.0   150.0   0.0
450.0   150.0   0.0
500.0   150.0   16.666666666666668
450.0   120.0   16.666666666666668
450.0   150.0   16.666666666666668
500.0   150.0   16.666666666666668
450.0   150.0   0.0
450.0   120.0   16.666666666666668
500.0   150.0   16.666666666666668
500.0   120.0   16.666666666666668
500.0   120.0   0.0
450.0   120.0   16.666666666666668
500.0   150.0   16.666666666666668
500.0   120.0   0.0
450.0   150.0   0.0
450.0   120.0   16.666666666666668
500.0   120.0   16.666666666666668
450.0   150.0   16.666666666666668
450.0   120.0   33.333333333333336
500.0   120.0   16.666666666666668
500.0   150.0   16.666666666666668
450.0   150.0   16.666666666666668
500.0   150.0   33.333333333333336
450.0   120.0   33.333333333333336
450.0   150.0   33.333333333333336
500.0   150.0   33.333333333333336
450.0   150.0   16.666666666666668
450.0   120.0   33.333333333333336
500.0   150.0   33.333333333333336
500.0   120.0   33.333333333333336
500.0   120.0   16.666666666666668
450.0   120.0   33.333333333333336
500.0   150.0   33.333333333333336
500.0   120.0   16.666666666666668
450.0   150.0   16.666666666666668
450.0   120.0   33.333333333333336
500.0   120.0   33.333333333333336
450.0   150.0   33.333333333333336
450.0   120.0   50.0
500.0   120.0   33.333333333333336
500.0   150.0   33.333333333333336
450.0   150.0   33.333333333333336
500.0   150.0   50.0
450.0   120.0   50.0
450.0   150.0   50.0
500.0   150.0   50.0
450.0   150.0   33.333333333333336
450.0   120.0   50.0
500.0   150.0   50.0
500.0   120.0   50.0
500.0   120.0   33.333333333333336
450.0   120.0   50.0
500.0   150.0   50.0
500.0   120.0   33.333333333333336
450.0   150.0   33.333333333333336
             </DataArray>   
          </Points>  
          <Cells>  
             <DataArray type="Int32" Name="connectivity" format="ascii">   
0   1   2   3
4   5   6   7
8   9   10   11
12   13   14   15
16   17   18   19
20   21   22   23
24   25   26   27
28   29   30   31
32   33   34   35
36   37   38   39
40   41   42   43
44   45   46   47
48   49   50   51
52   53   54   55
56   57   58   59
60   61   62   63
64   65   66   67
68   69   70   71
72   73   74   75
76   77   78   79
80   81   82   83
84   85   86   87
88   89   90   91
92   93   94   95
96   97   98   99
100   101   102   103
104   105   106   107
108   109   110   111
112   113   114   115
116   117   118   119
120   121   122   123
124   125   126   127
128   129   130   131
132   133   134   135
136   137   138   139
140   141   142   143
144   145   146   147
148   149   150   151
152   153   154   155
156   157   158   159
160   161   162   163
164   165   166   167
168   169   170   171
172   173   174   175
176   177   178   179
180   181   182   183
184   185   186   187
188   189   190   191
192   193   194   195
196   197   198   199
200   201   202   203
204   205   206   207
208   209   210   211
212   213   214   215
216   217   218   219
220   221   222   223
224   225   226   227
228   229   230   231
232   233   234   235
236   237   238   239
240   241   242   243
244   245   246   247
248   249   250   251
252   253   254   255
256   257   258   259
260   261   262   263
264   265   266   267
268   269   270   271
272   273   274   275
276   277   278   279
280   281   282   283
284   285   286   287
288   289   290   291
292   293   294   295
296   297   298   299
300   301   302   303
304   305   306   307
308   309   310   311
312   313   314   315
316   317   318   319
320   321   322   323
324   325   326   327
328   329   330   331
332   333   334   335
336   337   338   339
340   341   342   343
344   345   346   347
348   349   350   351
352   353   354   355
356   357   358   359
360   361   362   363
364   365   366   367
368   369   370   371
372   373   374   375
376   377   378   379
380   381   382   383
384   385   386   387
388   389   390   391
392   393   394   395
396   397   398   399
400   401   402   403
404   405   406   407
408   409   410   411
412   413   414   415
416   417   418   419
420   421   422   423
424   425   426   427
428   429   430   431
432   433   434   435
436   437   438   439
440   441   442   443
444   445   446   447
448   449   450   451
452   453   454   455
456   457   458   459
460   461   462   463
464   465   466   467
468   469   470   471
472   473   474   475
476   477   478   479
480   481   482   483
484   485   486   487
488   489   490   491
492   493   494   495
496   497   498   499
500   501   502   503
504   505   506   507
508   509   510   511
512   513   514   515
516   517   518   519
520   521   522   523
524   525   526   527
528   529   530   531
532   533   534   535
536   537   538   539
540   541   542   543
544   545   546   547
548   549   550   551
552   553   554   555
556   557   558   559
560   561   562   563
564   565   566   567
568   569   570   571
572   573   574   575
576   577   578   579
580   581   582   583
584   585   586   587
588   589   590   591
592   593   594   595
596   597   598   599
600   601   602   603
604   605   606   607
608   609   610   611
612   613   614   615
616   617   618   619
620   621   622   623
624   625   626   627
628   629   630   631
632   633   634   635
636   637   638   639
640   641   642   643
644   645   646   647
648   649   650   651
652   653   654   655
656   657   658   659
660   661   662   663
664   665   666   667
668   669   670   671
672   673   674   675
676   677   678   679
680   681   682   683
684   685   686   687
688   689   690   691
692   693   694   695
696   697   698   699
700   701   702   703
704   705   706   707
708   709   710   711
712   713   714   715
716   717   718   719
720   721   722   723
724   725   726   727
728   729   730   731
732   733   734   735
736   737   738   739
740   741   742   743
744   745   746   747
748   749   750   751
752   753   754   755
756   757   758   759
760   761   762   763
764   765   766   767
768   769   770   771
772   773   774   775
776   777   778   779
780   781   782   783
784   785   786   787
788   789   790   791
792   793   794   795
796   797   798   799
800   801   802   803
804   805   806   807
808   809   810   811
812   813   814   815
816   817   818   819
820   821   822   823
824   825   826   827
828   829   830   831
832   833   834   835
836   837   838   839
840   841   842   843
844   845   846   847
848   849   850   851
852   853   854   855
856   857   858   859
860   861   862   863
864   865   866   867
868   869   870   871
872   873   874   875
876   877   878   879
880   881   882   883
884   885   886   887
888   889   890   891
892   893   894   895
896   897   898   899
900   901   902   903
904   905   906   907
908   909   910   911
912   913   914   915
916   917   918   919
920   921   922   923
924   925   926   927
928   929   930   931
932   933   934   935
936   937   938   939
940   941   942   943
944   945   946   947
948   949   950   951
952   953   954   955
956   957   958   959
960   961   962   963
964   965   966   967
968   969   970   971
972   973   974   975
976   977   978   979
980   981   982   983
984   985   986   987
988   989   990   991
992   993   994   995
996   997   998   999
1000   1001   1002   1003
1004   1005   1006   1007
1008   1009   1010   1011
1012   1013   1014   1015
1016   1017   1018   1019
1020   1021   1022   1023
1024   1025   1026   1027
1028   1029   1030   1031
1032   1033   1034   1035
1036   1037   1038   1039
1040   1041   1042   1043
1044   1045   1046   1047
1048   1049   1050   1051
1052   1053   1054   1055
1056   1057   1058   1059
1060   1061   1062   1063
1064   1065   1066   1067
1068   1069   1070   1071
1072   1073   1074   1075
1076   1077   1078   1079
1080   1081   1082   1083
1084   1085   1086   1087
1088   1089   1090   1091
1092   1093   1094   1095
1096   1097   1098   1099
1100   1101   1102   1103
1104   1105   1106   1107
1108   1109   1110   1111
1112   1113   1114   1115
1116   1117   1118   1119
1120   1121   1122   1123
1124   1125   1126   1127
1128   1129   1130   1131
1132   1133   1134   1135
1136   1137   1138   1139
1140   1141   1142   1143
1144   1145   1146   1147
1148   1149   1150   1151
1152   1153   1154   1155
1156   1157   1158   1159
1160   1161   1162   1163
1164   1165   1166   1167
1168   1169   1170   1171
1172   1173   1174   1175
1176   1177   1178   1179
1180   1181   1182   1183
1184   1185   1186   1187
1188   1189   1190   1191
1192   1193   1194   1195
1196   1197   1198   1199
1200   1201   1202   1203
1204   1205   1206   1207
1208   1209   1210   1211
1212   1213   1214   1215
1216   1217   1218   1219
1220   1221   1222   1223
1224   1225   1226   1227
1228   1229   1230   1231
1232   1233   1234   1235
1236   1237   1238   1239
1240   1241   1242   1243
1244   1245   1246   1247
1248   1249   1250   1251
1252   1253   1254   1255
1256   1257   1258   1259
1260   1261   1262   1263
1264   1265   1266   1267
1268   1269   1270   1271
1272   1273   1274   1275
1276   1277   1278   1279
1280   1281   1282   1283
1284   1285   1286   1287
1288   1289   1290   1291
1292   1293   1294   1295
1296   1297   1298   1299
1300   1301   1302   1303
1304   1305   1306   1307
1308   1309   1310   1311
1312   1313   1314   1315
1316   1317   1318   1319
1320   1321   1322   1323
1324   1325   1326   1327
1328   1329   1330   1331
1332   1333   1334   1335
1336   1337   1338   1339
1340   1341   1342   1343
1344   1345   1346   1347
1348   1349   1350   1351
1352   1353   1354   1355
1356   1357   1358   1359
1360   1361   1362   1363
1364   1365   1366   1367
1368   1369   1370   1371
1372   1373   1374   1375
1376   1377   1378   1379
1380   1381   1382   1383
1384   1385   1386   1387
1388   1389   1390   1391
1392   1393   1394   1395
1396   1397   1398   1399
1400   1401   1402   1403
1404   1405   1406   1407
1408   1409   1410   1411
1412   1413   1414   1415
1416   1417   1418   1419
1420   1421   1422   1423
1424   1425   1426   1427
1428   1429   1430   1431
1432   1433   1434   1435
1436   1437   1438   1439
1440   1441   1442   1443
1444   1445   1446   1447
1448   1449   1450   1451
1452   1453   1454   1455
1456   1457   1458   1459
1460   1461   1462   1463
1464   1465   1466   1467
1468   1469   1470   1471
1472   1473   1474   1475
1476   1477   1478   1479
1480   1481   1482   1483
1484   1485   1486   1487
1488   1489   1490   1491
1492   1493   1494   1495
1496   1497   1498   1499
1500   1501   1502   1503
1504   1505   1506   1507
1508   1509   1510   1511
1512   1513   1514   1515
1516   1517   1518   1519
1520   1521   1522   1523
1524   1525   1526   1527
1528   1529   1530   1531
1532   1533   1534   1535
1536   1537   1538   1539
1540   1541   1542   1543
1544   1545   1546   1547
1548   1549   1550   1551
1552   1553   1554   1555
1556   1557   1558   1559
1560   1561   1562   1563
1564   1565   1566   1567
1568   1569   1570   1571
1572   1573   1574   1575
1576   1577   1578   1579
1580   1581   1582   1583
1584   1585   1586   1587
1588   1589   1590   1591
1592   1593   1594   1595
1596   1597   1598   1599
1600   1601   1602   1603
1604   1605   1606   1607
1608   1609   1610   1611
1612   1613   1614   1615
1616   1617   1618   1619
1620   1621   1622   1623
1624   1625   1626   1627
1628   1629   1630   1631
1632   1633   1634   1635
1636   1637   1638   1639
1640   1641   1642   1643
1644   1645   1646   1647
1648   1649   1650   1651
1652   1653   1654   1655
1656   1657   1658   1659
1660   1661   1662   1663
1664   1665   1666   1667
1668   1669   1670   1671
1672   1673   1674   1675
1676   1677   1678   1679
1680   1681   1682   1683
1684   1685   1686   1687
1688   1689   1690   1691
1692   1693   1694   1695
1696   1697   1698   1699
1700   1701   1702   1703
1704   1705   1706   1707
1708   1709   1710   1711
1712   1713   1714   1715
1716   1717   1718   1719
1720   1721   1722   1723
1724   1725   1726   1727
1728   1729   1730   1731
1732   1733   1734   1735
1736   1737   1738   1739
1740   1741   1742   1743
1744   1745   1746   1747
1748   1749   1750   1751
1752   1753   1754   1755
1756   1757   1758   1759
1760   1761   1762   1763
1764   1765   1766   1767
1768   1769   1770   1771
1772   1773   1774   1775
1776   1777   1778   1779
1780   1781   1782   1783
1784   1785   1786   1787
1788   1789   1790   1791
1792   1793   1794   1795
1796   1797   1798   1799
1800   1801   1802   1803
1804   1805   1806   1807
1808   1809   1810   1811
1812   1813   1814   1815
1816   1817   1818   1819
1820   1821   1822   1823
1824   1825   1826   1827
1828   1829   1830   1831
1832   1833   1834   1835
1836   1837   1838   1839
1840   1841   1842   1843
1844   1845   1846   1847
1848   1849   1850   1851
1852   1853   1854   1855
1856   1857   1858   1859
1860   1861   1862   1863
1864   1865   1866   1867
1868   1869   1870   1871
1872   1873   1874   1875
1876   1877   1878   1879
1880   1881   1882   1883
1884   1885   1886   1887
1888   1889   1890   1891
1892   1893   1894   1895
1896   1897   1898   1899
1900   1901   1902   1903
1904   1905   1906   1907
1908   1909   1910   1911
1912   1913   1914   1915
1916   1917   1918   1919
1920   1921   1922   1923
1924   1925   1926   1927
1928   1929   1930   1931
1932   1933   1934   1935
1936   1937   1938   1939
1940   1941   1942   1943
1944   1945   1946   1947
1948   1949   1950   1951
1952   1953   1954   1955
1956   1957   1958   1959
1960   1961   1962   1963
1964   1965   1966   1967
1968   1969   1970   1971
1972   1973   1974   1975
1976   1977   1978   1979
1980   1981   1982   1983
1984   1985   1986   1987
1988   1989   1990   1991
1992   1993   1994   1995
1996   1997   1998   1999
2000   2001   2002   2003
2004   2005   2006   2007
2008   2009   2010   2011
2012   2013   2014   2015
2016   2017   2018   2019
2020   2021   2022   2023
2024   2025   2026   2027
2028   2029   2030   2031
2032   2033   2034   2035
2036   2037   2038   2039
2040   2041   2042   2043
2044   2045   2046   2047
2048   2049   2050   2051
2052   2053   2054   2055
2056   2057   2058   2059
2060   2061   2062   2063
2064   2065   2066   2067
2068   2069   2070   2071
2072   2073   2074   2075
2076   2077   2078   2079
2080   2081   2082   2083
2084   2085   2086   2087
2088   2089   2090   2091
2092   2093   2094   2095
2096   2097   2098   2099
2100   2101   2102   2103
2104   2105   2106   2107
2108   2109   2110   2111
2112   2113   2114   2115
2116   2117   2118   2119
2120   2121   2122   2123
2124   2125   2126   2127
2128   2129   2130   2131
2132   2133   2134   2135
2136   2137   2138   2139
2140   2141   2142   2143
2144   2145   2146   2147
2148   2149   2150   2151
2152   2153   2154   2155
2156   2157   2158   2159
2160   2161   2162   2163
2164   2165   2166   2167
2168   2169   2170   2171
2172   2173   2174   2175
2176   2177   2178   2179
2180   2181   2182   2183
2184   2185   2186   2187
2188   2189   2190   2191
2192   2193   2194   2195
2196   2197   2198   2199
2200   2201   2202   2203
2204   2205   2206   2207
2208   2209   2210   2211
2212   2213   2214   2215
2216   2217   2218   2219
2220   2221   2222   2223
2224   2225   2226   2227
2228   2229   2230   2231
2232   2233   2234   2235
2236   2237   2238   2239
2240   2241   2242   2243
2244   2245   2246   2247
2248   2249   2250   2251
2252   2253   2254   2255
2256   2257   2258   2259
2260   2261   2262   2263
2264   2265   2266   2267
2268   2269   2270   2271
2272   2273   2274   2275
2276   2277   2278   2279
2280   2281   2282   2283
2284   2285   2286   2287
2288   2289   2290   2291
2292   2293   2294   2295
2296   2297   2298   2299
2300   2301   2302   2303
2304   2305   2306   2307
2308   2309   2310   2311
2312   2313   2314   2315
2316   2317   2318   2319
2320   2321   2322   2323
2324   2325   2326   2327
2328   2329   2330   2331
2332   2333   2334   2335
2336   2337   2338   2339
2340   2341   2342   2343
2344   2345   2346   2347
2348   2349   2350   2351
2352   2353   2354   2355
2356   2357   2358   2359
2360   2361   2362   2363
2364   2365   2366   2367
2368   2369   2370   2371
2372   2373   2374   2375
2376   2377   2378   2379
2380   2381   2382   2383
2384   2385   2386   2387
2388   2389   2390   2391
2392   2393   2394   2395
2396   2397   2398   2399
2400   2401   2402   2403
2404   2405   2406   2407
2408   2409   2410   2411
2412   2413   2414   2415
2416   2417   2418   2419
2420   2421   2422   2423
2424   2425   2426   2427
2428   2429   2430   2431
2432   2433   2434   2435
2436   2437   2438   2439
2440   2441   2442   2443
2444   2445   2446   2447
2448   2449   2450   2451
2452   2453   2454   2455
2456   2457   2458   2459
2460   2461   2462   2463
2464   2465   2466   2467
2468   2469   2470   2471
2472   2473   2474   2475
2476   2477   2478   2479
2480   2481   2482   2483
2484   2485   2486   2487
2488   2489   2490   2491
2492   2493   2494   2495
2496   2497   2498   2499
2500   2501   2502   2503
2504   2505   2506   2507
2508   2509   2510   2511
2512   2513   2514   2515
2516   2517   2518   2519
2520   2521   2522   2523
2524   2525   2526   2527
2528   2529   2530   2531
2532   2533   2534   2535
2536   2537   2538   2539
2540   2541   2542   2543
2544   2545   2546   2547
2548   2549   2550   2551
2552   2553   2554   2555
2556   2557   2558   2559
2560   2561   2562   2563
2564   2565   2566   2567
2568   2569   2570   2571
2572   2573   2574   2575
2576   2577   2578   2579
2580   2581   2582   2583
2584   2585   2586   2587
2588   2589   2590   2591
2592   2593   2594   2595
2596   2597   2598   2599
2600   2601   2602   2603
2604   2605   2606   2607
2608   2609   2610   2611
2612   2613   2614   2615
2616   2617   2618   2619
2620   2621   2622   2623
2624   2625   2626   2627
2628   2629   2630   2631
2632   2633   2634   2635
2636   2637   2638   2639
2640   2641   2642   2643
2644   2645   2646   2647
2648   2649   2650   2651
2652   2653   2654   2655
2656   2657   2658   2659
2660   2661   2662   2663
2664   2665   2666   2667
2668   2669   2670   2671
2672   2673   2674   2675
2676   2677   2678   2679
2680   2681   2682   2683
2684   2685   2686   2687
2688   2689   2690   2691
2692   2693   2694   2695
2696   2697   2698   2699
2700   2701   2702   2703
2704   2705   2706   2707
2708   2709   2710   2711
2712   2713   2714   2715
2716   2717   2718   2719
2720   2721   2722   2723
2724   2725   2726   2727
2728   2729   2730   2731
2732   2733   2734   2735
2736   2737   2738   2739
2740   2741   2742   2743
2744   2745   2746   2747
2748   2749   2750   2751
2752   2753   2754   2755
2756   2757   2758   2759
2760   2761   2762   2763
2764   2765   2766   2767
2768   2769   2770   2771
2772   2773   2774   2775
2776   2777   2778   2779
2780   2781   2782   2783
2784   2785   2786   2787
2788   2789   2790   2791
2792   2793   2794   2795
2796   2797   2798   2799
2800   2801   2802   2803
2804   2805   2806   2807
2808   2809   2810   2811
2812   2813   2814   2815
2816   2817   2818   2819
2820   2821   2822   2823
2824   2825   2826   2827
2828   2829   2830   2831
2832   2833   2834   2835
2836   2837   2838   2839
2840   2841   2842   2843
2844   2845   2846   2847
2848   2849   2850   2851
2852   2853   2854   2855
2856   2857   2858   2859
2860   2861   2862   2863
2864   2865   2866   2867
2868   2869   2870   2871
2872   2873   2874   2875
2876   2877   2878   2879
2880   2881   2882   2883
2884   2885   2886   2887
2888   2889   2890   2891
2892   2893   2894   2895
2896   2897   2898   2899
2900   2901   2902   2903
2904   2905   2906   2907
2908   2909   2910   2911
2912   2913   2914   2915
2916   2917   2918   2919
2920   2921   2922   2923
2924   2925   2926   2927
2928   2929   2930   2931
2932   2933   2934   2935
2936   2937   2938   2939
2940   2941   2942   2943
2944   2945   2946   2947
2948   2949   2950   2951
2952   2953   2954   2955
2956   2957   2958   2959
2960   2961   2962   2963
2964   2965   2966   2967
2968   2969   2970   2971
2972   2973   2974   2975
2976   2977   2978   2979
2980   2981   2982   2983
2984   2985   2986   2987
2988   2989   2990   2991
2992   2993   2994   2995
2996   2997   2998   2999
3000   3001   3002   3003
3004   3005   3006   3007
3008   3009   3010   3011
3012   3013   3014   3015
3016   3017   3018   3019
3020   3021   3022   3023
3024   3025   3026   3027
3028   3029   3030   3031
3032   3033   3034   3035
3036   3037   3038   3039
3040   3041   3042   3043
3044   3045   3046   3047
3048   3049   3050   3051
3052   3053   3054   3055
3056   3057   3058   3059
3060   3061   3062   3063
3064   3065   3066   3067
3068   3069   3070   3071
3072   3073   3074   3075
3076   3077   3078   3079
3080   3081   3082   3083
3084   3085   3086   3087
3088   3089   3090   3091
3092   3093   3094   3095
3096   3097   3098   3099
3100   3101   3102   3103
3104   3105   3106   3107
3108   3109   3110   3111
3112   3113   3114   3115
3116   3117   3118   3119
3120   3121   3122   3123
3124   3125   3126   3127
3128   3129   3130   3131
3132   3133   3134   3135
3136   3137   3138   3139
3140   3141   3142   3143
3144   3145   3146   3147
3148   3149   3150   3151
3152   3153   3154   3155
3156   3157   3158   3159
3160   3161   3162   3163
3164   3165   3166   3167
3168   3169   3170   3171
3172   3173   3174   3175
3176   3177   3178   3179
3180   3181   3182   3183
3184   3185   3186   3187
3188   3189   3190   3191
3192   3193   3194   3195
3196   3197   3198   3199
3200   3201   3202   3203
3204   3205   3206   3207
3208   3209   3210   3211
3212   3213   3214   3215
3216   3217   3218   3219
3220   3221   3222   3223
3224   3225   3226   3227
3228   3229   3230   3231
3232   3233   3234   3235
3236   3237   3238   3239
3240   3241   3242   3243
3244   3245   3246   3247
3248   3249   3250   3251
3252   3253   3254   3255
3256   3257   3258   3259
3260   3261   3262   3263
3264   3265   3266   3267
3268   3269   3270   3271
3272   3273   3274   3275
3276   3277   3278   3279
3280   3281   3282   3283
3284   3285   3286   3287
3288   3289   3290   3291
3292   3293   3294   3295
3296   3297   3298   3299
3300   3301   3302   3303
3304   3305   3306   3307
3308   3309   3310   3311
3312   3313   3314   3315
3316   3317   3318   3319
3320   3321   3322   3323
3324   3325   3326   3327
3328   3329   3330   3331
3332   3333   3334   3335
3336   3337   3338   3339
3340   3341   3342   3343
3344   3345   3346   3347
3348   3349   3350   3351
3352   3353   3354   3355
3356   3357   3358   3359
3360   3361   3362   3363
3364   3365   3366   3367
3368   3369   3370   3371
3372   3373   3374   3375
3376   3377   3378   3379
3380   3381   3382   3383
3384   3385   3386   3387
3388   3389   3390   3391
3392   3393   3394   3395
3396   3397   3398   3399
3400   3401   3402   3403
3404   3405   3406   3407
3408   3409   3410   3411
3412   3413   3414   3415
3416   3417   3418   3419
3420   3421   3422   3423
3424   3425   3426   3427
3428   3429   3430   3431
3432   3433   3434   3435
3436   3437   3438   3439
3440   3441   3442   3443
3444   3445   3446   3447
3448   3449   3450   3451
3452   3453   3454   3455
3456   3457   3458   3459
3460   3461   3462   3463
3464   3465   3466   3467
3468   3469   3470   3471
3472   3473   3474   3475
3476   3477   3478   3479
3480   3481   3482   3483
3484   3485   3486   3487
3488   3489   3490   3491
3492   3493   3494   3495
3496   3497   3498   3499
3500   3501   3502   3503
3504   3505   3506   3507
3508   3509   3510   3511
3512   3513   3514   3515
3516   3517   3518   3519
3520   3521   3522   3523
3524   3525   3526   3527
3528   3529   3530   3531
3532   3533   3534   3535
3536   3537   3538   3539
3540   3541   3542   3543
3544   3545   3546   3547
3548   3549   3550   3551
3552   3553   3554   3555
3556   3557   3558   3559
3560   3561   3562   3563
3564   3565   3566   3567
3568   3569   3570   3571
3572   3573   3574   3575
3576   3577   3578   3579
3580   3581   3582   3583
3584   3585   3586   3587
3588   3589   3590   3591
3592   3593   3594   3595
3596   3597   3598   3599
3600   3601   3602   3603
3604   3605   3606   3607
3608   3609   3610   3611
3612   3613   3614   3615
3616   3617   3618   3619
3620   3621   3622   3623
3624   3625   3626   3627
3628   3629   3630   3631
3632   3633   3634   3635
3636   3637   3638   3639
3640   3641   3642   3643
3644   3645   3646   3647
3648   3649   3650   3651
3652   3653   3654   3655
3656   3657   3658   3659
3660   3661   3662   3663
3664   3665   3666   3667
3668   3669   3670   3671
3672   3673   3674   3675
3676   3677   3678   3679
3680   3681   3682   3683
3684   3685   3686   3687
3688   3689   3690   3691
3692   3693   3694   3695
3696   3697   3698   3699
3700   3701   3702   3703
3704   3705   3706   3707
3708   3709   3710   3711
3712   3713   3714   3715
3716   3717   3718   3719
3720   3721   3722   3723
3724   3725   3726   3727
3728   3729   3730   3731
3732   3733   3734   3735
3736   3737   3738   3739
3740   3741   3742   3743
3744   3745   3746   3747
3748   3749   3750   3751
3752   3753   3754   3755
3756   3757   3758   3759
3760   3761   3762   3763
3764   3765   3766   3767
3768   3769   3770   3771
3772   3773   3774   3775
3776   3777   3778   3779
3780   3781   3782   3783
3784   3785   3786   3787
3788   3789   3790   3791
3792   3793   3794   3795
3796   3797   3798   3799
3800   3801   3802   3803
3804   3805   3806   3807
3808   3809   3810   3811
3812   3813   3814   3815
3816   3817   3818   3819
3820   3821   3822   3823
3824   3825   3826   3827
3828   3829   3830   3831
3832   3833   3834   3835
3836   3837   3838   3839
3840   3841   3842   3843
3844   3845   3846   3847
3848   3849   3850   3851
3852   3853   3854   3855
3856   3857   3858   3859
3860   3861   3862   3863
3864   3865   3866   3867
3868   3869   3870   3871
3872   3873   3874   3875
3876   3877   3878   3879
3880   3881   3882   3883
3884   3885   3886   3887
3888   3889   3890   3891
3892   3893   3894   3895
3896   3897   3898   3899
3900   3901   3902   3903
3904   3905   3906   3907
3908   3909   3910   3911
3912   3913   3914   3915
3916   3917   3918   3919
3920   3921   3922   3923
3924   3925   3926   3927
3928   3929   3930   3931
3932   3933   3934   3935
3936   3937   3938   3939
3940   3941   3942   3943
3944   3945   3946   3947
3948   3949   3950   3951
3952   3953   3954   3955
3956   3957   3958   3959
3960   3961   3962   3963
3964   3965   3966   3967
3968   3969   3970   3971
3972   3973   3974   3975
3976   3977   3978   3979
3980   3981   3982   3983
3984   3985   3986   3987
3988   3989   3990   3991
3992   3993   3994   3995
3996   3997   3998   3999
4000   4001   4002   4003
4004   4005   4006   4007
4008   4009   4010   4011
4012   4013   4014   4015
4016   4017   4018   4019
4020   4021   4022   4023
4024   4025   4026   4027
4028   4029   4030   4031
4032   4033   4034   4035
4036   4037   4038   4039
4040   4041   4042   4043
4044   4045   4046   4047
4048   4049   4050   4051
4052   4053   4054   4055
4056   4057   4058   4059
4060   4061   4062   4063
4064   4065   4066   4067
4068   4069   4070   4071
4072   4073   4074   4075
4076   4077   4078   4079
4080   4081   4082   4083
4084   4085   4086   4087
4088   4089   4090   4091
4092   4093   4094   4095
4096   4097   4098   4099
4100   4101   4102   4103
4104   4105   4106   4107
4108   4109   4110   4111
4112   4113   4114   4115
4116   4117   4118   4119
4120   4121   4122   4123
4124   4125   4126   4127
4128   4129   4130   4131
4132   4133   4134   4135
4136   4137   4138   4139
4140   4141   4142   4143
4144   4145   4146   4147
4148   4149   4150   4151
4152   4153   4154   4155
4156   4157   4158   4159
4160   4161   4162   4163
4164   4165   4166   4167
4168   4169   4170   4171
4172   4173   4174   4175
4176   4177   4178   4179
4180   4181   4182   4183
4184   4185   4186   4187
4188   4189   4190   4191
4192   4193   4194   4195
4196   4197   4198   4199
4200   4201   4202   4203
4204   4205   4206   4207
4208   4209   4210   4211
4212   4213   4214   4215
4216   4217   4218   4219
4220   4221   4222   4223
4224   4225   4226   4227
4228   4229   4230   4231
4232   4233   4234   4235
4236   4237   4238   4239
4240   4241   4242   4243
4244   4245   4246   4247
4248   4249   4250   4251
4252   4253   4254   4255
4256   4257   4258   4259
4260   4261   4262   4263
4264   4265   4266   4267
4268   4269   4270   4271
4272   4273   4274   4275
4276   4277   4278   4279
4280   4281   4282   4283
4284   4285   4286   4287
4288   4289   4290   4291
4292   4293   4294   4295
4296   4297   4298   4299
4300   4301   4302   4303
4304   4305   4306   4307
4308   4309   4310   4311
4312   4313   4314   4315
4316   4317   4318   4319
4320   4321   4322   4323
4324   4325   4326   4327
4328   4329   4330   4331
4332   4333   4334   4335
4336   4337   4338   4339
4340   4341   4342   4343
4344   4345   4346   4347
4348   4349   4350   4351
4352   4353   4354   4355
4356   4357   4358   4359
4360   4361   4362   4363
4364   4365   4366   4367
4368   4369   4370   4371
4372   4373   4374   4375
4376   4377   4378   4379
4380   4381   4382   4383
4384   4385   4386   4387
4388   4389   4390   4391
4392   4393   4394   4395
4396   4397   4398   4399
4400   4401   4402   4403
4404   4405   4406   4407
4408   4409   4410   4411
4412   4413   4414   4415
4416   4417   4418   4419
4420   4421   4422   4423
4424   4425   4426   4427
4428   4429   4430   4431
4432   4433   4434   4435
4436   4437   4438   4439
4440   4441   4442   4443
4444   4445   4446   4447
4448   4449   4450   4451
4452   4453   4454   4455
4456   4457   4458   4459
4460   4461   4462   4463
4464   4465   4466   4467
4468   4469   4470   4471
4472   4473   4474   4475
4476   4477   4478   4479
4480   4481   4482   4483
4484   4485   4486   4487
4488   4489   4490   4491
4492   4493   4494   4495
4496   4497   4498   4499
4500   4501   4502   4503
4504   4505   4506   4507
4508   4509   4510   4511
4512   4513   4514   4515
4516   4517   4518   4519
4520   4521   4522   4523
4524   4525   4526   4527
4528   4529   4530   4531
4532   4533   4534   4535
4536   4537   4538   4539
4540   4541   4542   4543
4544   4545   4546   4547
4548   4549   4550   4551
4552   4553   4554   4555
4556   4557   4558   4559
4560   4561   4562   4563
4564   4565   4566   4567
4568   4569   4570   4571
4572   4573   4574   4575
4576   4577   4578   4579
4580   4581   4582   4583
4584   4585   4586   4587
4588   4589   4590   4591
4592   4593   4594   4595
4596   4597   4598   4599
4600   4601   4602   4603
4604   4605   4606   4607
4608   4609   4610   4611
4612   4613   4614   4615
4616   4617   4618   4619
4620   4621   4622   4623
4624   4625   4626   4627
4628   4629   4630   4631
4632   4633   4634   4635
4636   4637   4638   4639
4640   4641   4642   4643
4644   4645   4646   4647
4648   4649   4650   4651
4652   4653   4654   4655
4656   4657   4658   4659
4660   4661   4662   4663
4664   4665   4666   4667
4668   4669   4670   4671
4672   4673   4674   4675
4676   4677   4678   4679
4680   4681   4682   4683
4684   4685   4686   4687
4688   4689   4690   4691
4692   4693   4694   4695
4696   4697   4698   4699
4700   4701   4702   4703
4704   4705   4706   4707
4708   4709   4710   4711
4712   4713   4714   4715
4716   4717   4718   4719
4720   4721   4722   4723
4724   4725   4726   4727
4728   4729   4730   4731
4732   4733   4734   4735
4736   4737   4738   4739
4740   4741   4742   4743
4744   4745   4746   4747
4748   4749   4750   4751
4752   4753   4754   4755
4756   4757   4758   4759
4760   4761   4762   4763
4764   4765   4766   4767
4768   4769   4770   4771
4772   4773   4774   4775
4776   4777   4778   4779
4780   4781   4782   4783
4784   4785   4786   4787
4788   4789   4790   4791
4792   4793   4794   4795
4796   4797   4798   4799
4800   4801   4802   4803
4804   4805   4806   4807
4808   4809   4810   4811
4812   4813   4814   4815
4816   4817   4818   4819
4820   4821   4822   4823
4824   4825   4826   4827
4828   4829   4830   4831
4832   4833   4834   4835
4836   4837   4838   4839
4840   4841   4842   4843
4844   4845   4846   4847
4848   4849   4850   4851
4852   4853   4854   4855
4856   4857   4858   4859
4860   4861   4862   4863
4864   4865   4866   4867
4868   4869   4870   4871
4872   4873   4874   4875
4876   4877   4878   4879
4880   4881   4882   4883
4884   4885   4886   4887
4888   4889   4890   4891
4892   4893   4894   4895
4896   4897   4898   4899
4900   4901   4902   4903
4904   4905   4906   4907
4908   4909   4910   4911
4912   4913   4914   4915
4916   4917   4918   4919
4920   4921   4922   4923
4924   4925   4926   4927
4928   4929   4930   4931
4932   4933   4934   4935
4936   4937   4938   4939
4940   4941   4942   4943
4944   4945   4946   4947
4948   4949   4950   4951
4952   4953   4954   4955
4956   4957   4958   4959
4960   4961   4962   4963
4964   4965   4966   4967
4968   4969   4970   4971
4972   4973   4974   4975
4976   4977   4978   4979
4980   4981   4982   4983
4984   4985   4986   4987
4988   4989   4990   4991
4992   4993   4994   4995
4996   4997   4998   4999
5000   5001   5002   5003
5004   5005   5006   5007
5008   5009   5010   5011
5012   5013   5014   5015
5016   5017   5018   5019
5020   5021   5022   5023
5024   5025   5026   5027
5028   5029   5030   5031
5032   5033   5034   5035
5036   5037   5038   5039
5040   5041   5042   5043
5044   5045   5046   5047
5048   5049   5050   5051
5052   5053   5054   5055
5056   5057   5058   5059
5060   5061   5062   5063
5064   5065   5066   5067
5068   5069   5070   5071
5072   5073   5074   5075
5076   5077   5078   5079
5080   5081   5082   5083
5084   5085   5086   5087
5088   5089   5090   5091
5092   5093   5094   5095
5096   5097   5098   5099
5100   5101   5102   5103
5104   5105   5106   5107
5108   5109   5110   5111
5112   5113   5114   5115
5116   5117   5118   5119
5120   5121   5122   5123
5124   5125   5126   5127
5128   5129   5130   5131
5132   5133   5134   5135
5136   5137   5138   5139
5140   5141   5142   5143
5144   5145   5146   5147
5148   5149   5150   5151
5152   5153   5154   5155
5156   5157   5158   5159
5160   5161   5162   5163
5164   5165   5166   5167
5168   5169   5170   5171
5172   5173   5174   5175
5176   5177   5178   5179
5180   5181   5182   5183
5184   5185   5186   5187
5188   5189   5190   5191
5192   5193   5194   5195
5196   5197   5198   5199
5200   5201   5202   5203
5204   5205   5206   5207
5208   5209   5210   5211
5212   5213   5214   5215
5216   5217   5218   5219
5220   5221   5222   5223
5224   5225   5226   5227
5228   5229   5230   5231
5232   5233   5234   5235
5236   5237   5238   5239
5240   5241   5242   5243
5244   5245   5246   5247
5248   5249   5250   5251
5252   5253   5254   5255
5256   5257   5258   5259
5260   5261   5262   5263
5264   5265   5266   5267
5268   5269   5270   5271
5272   5273   5274   5275
5276   5277   5278   5279
5280   5281   5282   5283
5284   5285   5286   5287
5288   5289   5290   5291
5292   5293   5294   5295
5296   5297   5298   5299
5300   5301   5302   5303
5304   5305   5306   5307
5308   5309   5310   5311
5312   5313   5314   5315
5316   5317   5318   5319
5320   5321   5322   5323
5324   5325   5326   5327
5328   5329   5330   5331
5332   5333   5334   5335
5336   5337   5338   5339
5340   5341   5342   5343
5344   5345   5346   5347
5348   5349   5350   5351
5352   5353   5354   5355
5356   5357   5358   5359
5360   5361   5362   5363
5364   5365   5366   5367
5368   5369   5370   5371
5372   5373   5374   5375
5376   5377   5378   5379
5380   5381   5382   5383
5384   5385   5386   5387
5388   5389   5390   5391
5392   5393   5394   5395
5396   5397   5398   5399
5400   5401   5402   5403
5404   5405   5406   5407
5408   5409   5410   5411
5412   5413   5414   5415
5416   5417   5418   5419
5420   5421   5422   5423
5424   5425   5426   5427
5428   5429   5430   5431
5432   5433   5434   5435
5436   5437   5438   5439
5440   5441   5442   5443
5444   5445   5446   5447
5448   5449   5450   5451
5452   5453   5454   5455
5456   5457   5458   5459
5460   5461   5462   5463
5464   5465   5466   5467
5468   5469   5470   5471
5472   5473   5474   5475
5476   5477   5478   5479
5480   5481   5482   5483
5484   5485   5486   5487
5488   5489   5490   5491
5492   5493   5494   5495
5496   5497   5498   5499
5500   5501   5502   5503
5504   5505   5506   5507
5508   5509   5510   5511
5512   5513   5514   5515
5516   5517   5518   5519
5520   5521   5522   5523
5524   5525   5526   5527
5528   5529   5530   5531
5532   5533   5534   5535
5536   5537   5538   5539
5540   5541   5542   5543
5544   5545   5546   5547
5548   5549   5550   5551
5552   5553   5554   5555
5556   5557   5558   5559
5560   5561   5562   5563
5564   5565   5566   5567
5568   5569   5570   5571
5572   5573   5574   5575
5576   5577   5578   5579
5580   5581   5582   5583
5584   5585   5586   5587
5588   5589   5590   5591
5592   5593   5594   5595
5596   5597   5598   5599
5600   5601   5602   5603
5604   5605   5606   5607
5608   5609   5610   5611
5612   5613   5614   5615
5616   5617   5618   5619
5620   5621   5622   5623
5624   5625   5626   5627
5628   5629   5630   5631
5632   5633   5634   5635
5636   5637   5638   5639
5640   5641   5642   5643
5644   5645   5646   5647
5648   5649   5650   5651
5652   5653   5654   5655
5656   5657   5658   5659
5660   5661   5662   5663
5664   5665   5666   5667
5668   5669   5670   5671
5672   5673   5674   5675
5676   5677   5678   5679
5680   5681   5682   5683
5684   5685   5686   5687
5688   5689   5690   5691
5692   5693   5694   5695
5696   5697   5698   5699
5700   5701   5702   5703
5704   5705   5706   5707
5708   5709   5710   5711
5712   5713   5714   5715
5716   5717   5718   5719
5720   5721   5722   5723
5724   5725   5726   5727
5728   5729   5730   5731
5732   5733   5734   5735
5736   5737   5738   5739
5740   5741   5742   5743
5744   5745   5746   5747
5748   5749   5750   5751
5752   5753   5754   5755
5756   5757   5758   5759
5760   5761   5762   5763
5764   5765   5766   5767
5768   5769   5770   5771
5772   5773   5774   5775
5776   5777   5778   5779
5780   5781   5782   5783
5784   5785   5786   5787
5788   5789   5790   5791
5792   5793   5794   5795
5796   5797   5798   5799
5800   5801   5802   5803
5804   5805   5806   5807
5808   5809   5810   5811
5812   5813   5814   5815
5816   5817   5818   5819
5820   5821   5822   5823
5824   5825   5826   5827
5828   5829   5830   5831
5832   5833   5834   5835
5836   5837   5838   5839
5840   5841   5842   5843
5844   5845   5846   5847
5848   5849   5850   5851
5852   5853   5854   5855
5856   5857   5858   5859
5860   5861   5862   5863
5864   5865   5866   5867
5868   5869   5870   5871
5872   5873   5874   5875
5876   5877   5878   5879
5880   5881   5882   5883
5884   5885   5886   5887
5888   5889   5890   5891
5892   5893   5894   5895
5896   5897   5898   5899
5900   5901   5902   5903
5904   5905   5906   5907
5908   5909   5910   5911
5912   5913   5914   5915
5916   5917   5918   5919
5920   5921   5922   5923
5924   5925   5926   5927
5928   5929   5930   5931
5932   5933   5934   5935
5936   5937   5938   5939
5940   5941   5942   5943
5944   5945   5946   5947
5948   5949   5950   5951
5952   5953   5954   5955
5956   5957   5958   5959
5960   5961   5962   5963
5964   5965   5966   5967
5968   5969   5970   5971
5972   5973   5974   5975
5976   5977   5978   5979
5980   5981   5982   5983
5984   5985   5986   5987
5988   5989   5990   5991
5992   5993   5994   5995
5996   5997   5998   5999
              </DataArray>   
              <DataArray type="Int32" Name="offsets" format="ascii">   
4
8
12
16
20
24
28
32
36
40
44
48
52
56
60
64
68
72
76
80
84
88
92
96
100
104
108
112
116
120
124
128
132
136
140
144
148
152
156
160
164
168
172
176
180
184
188
192
196
200
204
208
212
216
220
224
228
232
236
240
244
248
252
256
260
264
268
272
276
280
284
288
292
296
300
304
308
312
316
320
324
328
332
336
340
344
348
352
356
360
364
368
372
376
380
384
388
392
396
400
404
408
412
416
420
424
428
432
436
440
444
448
452
456
460
464
468
472
476
480
484
488
492
496
500
504
508
512
516
520
524
528
532
536
540
544
548
552
556
560
564
568
572
576
580
584
588
592
596
600
604
608
612
616
620
624
628
632
636
640
644
648
652
656
660
664
668
672
676
680
684
688
692
696
700
704
708
712
716
720
724
728
732
736
740
744
748
752
756
760
764
768
772
776
780
784
788
792
796
800
804
808
812
816
820
824
828
832
836
840
844
848
852
856
860
864
868
872
876
880
884
888
892
896
900
904
908
912
916
920
924
928
932
936
940
944
948
952
956
960
964
968
972
976
980
984
988
992
996
1000
1004
1008
1012
1016
1020
1024
1028
1032
1036
1040
1044
1048
1052
1056
1060
1064
1068
1072
1076
1080
1084
1088
1092
1096
1100
1104
1108
1112
1116
1120
1124
1128
1132
1136
1140
1144
1148
1152
1156
1160
1164
1168
1172
1176
1180
1184
1188
1192
1196
1200
1204
1208
1212
1216
1220
1224
1228
1232
1236
1240
1244
1248
1252
1256
1260
1264
1268
1272
1276
1280
1284
1288
1292
1296
1300
1304
1308
1312
1316
1320
1324
1328
1332
1336
1340
1344
1348
1352
1356
1360
1364
1368
1372
1376
1380
1384
1388
1392
1396
1400
1404
1408
1412
1416
1420
1424
1428
1432
1436
1440
1444
1448
1452
1456
1460
1464
1468
1472
1476
1480
1484
1488
1492
1496
1500
1504
1508
1512
1516
1520
1524
1528
1532
1536
1540
1544
1548
1552
1556
1560
1564
1568
1572
1576
1580
1584
1588
1592
1596
1600
1604
1608
1612
1616
1620
1624
1628
1632
1636
1640
1644
1648
1652
1656
1660
1664
1668
1672
1676
1680
1684
1688
1692
1696
1700
1704
1708
1712
1716
1720
1724
1728
1732
1736
1740
1744
1748
1752
1756
1760
1764
1768
1772
1776
1780
1784
1788
1792
1796
1800
1804
1808
1812
1816
1820
1824
1828
1832
1836
1840
1844
1848
1852
1856
1860
1864
1868
1872
1876
1880
1884
1888
1892
1896
1900
1904
1908
1912
1916
1920
1924
1928
1932
1936
1940
1944
1948
1952
1956
1960
1964
1968
1972
1976
1980
1984
1988
1992
1996
2000
2004
2008
2012
2016
2020
2024
2028
2032
2036
2040
2044
2048
2052
2056
2060
2064
2068
2072
2076
2080
2084
2088
2092
2096
2100
2104
2108
2112
2116
2120
2124
2128
2132
2136
2140
2144
2148
2152
2156
2160
2164
2168
2172
2176
2180
2184
2188
2192
2196
2200
2204
2208
2212
2216
2220
2224
2228
2232
2236
2240
2244
2248
2252
2256
2260
2264
2268
2272
2276
2280
2284
2288
2292
2296
2300
2304
2308
2312
2316
2320
2324
2328
2332
2336
2340
2344
2348
2352
2356
2360
2364
2368
2372
2376
2380
2384
2388
2392
2396
2400
2404
2408
2412
2416
2420
2424
2428
2432
2436
2440
2444
2448
2452
2456
2460
2464
2468
2472
2476
2480
2484
2488
2492
2496
2500
2504
2508
2512
2516
2520
2524
2528
2532
2536
2540
2544
2548
2552
2556
2560
2564
2568
2572
2576
2580
2584
2588
2592
2596
2600
2604
2608
2612
2616
2620
2624
2628
2632
2636
2640
2644
2648
2652
2656
2660
2664
2668
2672
2676
2680
2684
2688
2692
2696
2700
2704
2708
2712
2716
2720
2724
2728
2732
2736
2740
2744
2748
2752
2756
2760
2764
2768
2772
2776
2780
2784
2788
2792
2796
2800
2804
2808
2812
2816
2820
2824
2828
2832
2836
2840
2844
2848
2852
2856
2860
2864
2868
2872
2876
2880
2884
2888
2892
2896
2900
2904
2908
2912
2916
2920
2924
2928
2932
2936
2940
2944
2948
2952
2956
2960
2964
2968
2972
2976
2980
2984
2988
2992
2996
3000
3004
3008
3012
3016
3020
3024
3028
3032
3036
3040
3044
3048
3052
3056
3060
3064
3068
3072
3076
3080
3084
3088
3092
3096
3100
3104
3108
3112
3116
3120
3124
3128
3132
3136
3140
3144
3148
3152
3156
3160
3164
3168
3172
3176
3180
3184
3188
3192
3196
3200
3204
3208
3212
3216
3220
3224
3228
3232
3236
3240
3244
3248
3252
3256
3260
3264
3268
3272
3276
3280
3284
3288
3292
3296
3300
3304
3308
3312
3316
3320
3324
3328
3332
3336
3340
3344
3348
3352
3356
3360
3364
3368
3372
3376
3380
3384
3388
3392
3396
3400
3404
3408
3412
3416
3420
3424
3428
3432
3436
3440
3444
3448
3452
3456
3460
3464
3468
3472
3476
3480
3484
3488
3492
3496
3500
3504
3508
3512
3516
3520
3524
3528
3532
3536
3540
3544
3548
3552
3556
3560
3564
3568
3572
3576
3580
3584
3588
3592
3596
3600
3604
3608
3612
3616
3620
3624
3628
3632
3636
3640
3644
3648
3652
3656
3660
3664
3668
3672
3676
3680
3684
3688
3692
3696
3700
3704
3708
3712
3716
3720
3724
3728
3732
3736
3740
3744
3748
3752
3756
3760
3764
3768
3772
3776
3780
3784
3788
3792
3796
3800
3804
3808
3812
3816
3820
3824
3828
3832
3836
3840
3844
3848
3852
3856
3860
3864
3868
3872
3876
3880
3884
3888
3892
3896
3900
3904
3908
3912
3916
3920
3924
3928
3932
3936
3940
3944
3948
3952
3956
3960
3964
3968
3972
3976
3980
3984
3988
3992
3996
4000
4004
4008
4012
4016
4020
4024
4028
4032
4036
4040
4044
4048
4052
4056
4060
4064
4068
4072
4076
4080
4084
4088
4092
4096
4100
4104
4108
4112
4116
4120
4124
4128
4132
4136
4140
4144
4148
4152
4156
4160
4164
4168
4172
4176
4180
4184
4188
4192
4196
4200
4204
4208
4212
4216
4220
4224
4228
4232
4236
4240
4244
4248
4252
4256
4260
4264
4268
4272
4276
4280
4284
4288
4292
4296
4300
4304
4308
4312
4316
4320
4324
4328
4332
4336
4340
4344
4348
4352
4356
4360
4364
4368
4372
4376
4380
4384
4388
4392
4396
4400
4404
4408
4412
4416
4420
4424
4428
4432
4436
4440
4444
4448
4452
4456
4460
4464
4468
4472
4476
4480
4484
4488
4492
4496
4500
4504
4508
4512
4516
4520
4524
4528
4532
4536
4540
4544
4548
4552
4556
4560
4564
4568
4572
4576
4580
4584
4588
4592
4596
4600
4604
4608
4612
4616
4620
4624
4628
4632
4636
4640
4644
4648
4652
4656
4660
4664
4668
4672
4676
4680
4684
4688
4692
4696
4700
4704
4708
4712
4716
4720
4724
4728
4732
4736
4740
4744
4748
4752
4756
4760
4764
4768
4772
4776
4780
4784
4788
4792
4796
4800
4804
4808
4812
4816
4820
4824
4828
4832
4836
4840
4844
4848
4852
4856
4860
4864
4868
4872
4876
4880
4884
4888
4892
4896
4900
4904
4908
4912
4916
4920
4924
4928
4932
4936
4940
4944
4948
4952
4956
4960
4964
4968
4972
4976
4980
4984
4988
4992
4996
5000
5004
5008
5012
5016
5020
5024
5028
5032
5036
5040
5044
5048
5052
5056
5060
5064
5068
5072
5076
5080
5084
5088
5092
5096
5100
5104
5108
5112
5116
5120
5124
5128
5132
5136
5140
5144
5148
5152
5156
5160
5164
5168
5172
5176
5180
5184
5188
5192
5196
5200
5204
5208
5212
5216
5220
5224
5228
5232
5236
5240
5244
5248
5252
5256
5260
5264
5268
5272
5276
5280
5284
5288
5292
5296
5300
5304
5308
5312
5316
5320
5324
5328
5332
5336
5340
5344
5348
5352
5356
5360
5364
5368
5372
5376
5380
5384
5388
5392
5396
5400
5404
5408
5412
5416
5420
5424
5428
5432
5436
5440
5444
5448
5452
5456
5460
5464
5468
5472
5476
5480
5484
5488
5492
5496
5500
5504
5508
5512
5516
5520
5524
5528
5532
5536
5540
5544
5548
5552
5556
5560
5564
5568
5572
5576
5580
5584
5588
5592
5596
5600
5604
5608
5612
5616
5620
5624
5628
5632
5636
5640
5644
5648
5652
5656
5660
5664
5668
5672
5676
5680
5684
5688
5692
5696
5700
5704
5708
5712
5716
5720
5724
5728
5732
5736
5740
5744
5748
5752
5756
5760
5764
5768
5772
5776
5780
5784
5788
5792
5796
5800
5804
5808
5812
5816
5820
5824
5828
5832
5836
5840
5844
5848
5852
5856
5860
5864
5868
5872
5876
5880
5884
5888
5892
5896
5900
5904
5908
5912
5916
5920
5924
5928
5932
5936
5940
5944
5948
5952
5956
5960
5964
5968
5972
5976
5980
5984
5988
5992
5996
6000
              </DataArray>   
              <DataArray type="UInt8" Name="types" format="ascii">   
10
10
10
10
10
10
10
10
10
10
10
10
10
10
10
10
10
10
10
10
10
10
10
10
10
10
10
10
10
10
10
10
10
10
10
10
10
10
10
10
10
10
10
10
10
10
10
10
10
10
10
10
10
10
10
10
10
10
10
10
10
10
10
10
10
10
10
10
10
10
10
10
10
10
10
10
10
10
10
10
10
10
10
10
10
10
10
10
10
10
10
10
10
10
10
10
10
10
10
10
10
10
10
10
10
10
10
10
10
10
10
10
10
10
10
10
10
10
10
10
10
10
10
10
10
10
10
10
10
10
10
10
10
10
10
10
10
10
10
10
10
10
10
10
10
10
10
10
10
10
10
10
10
10
10
10
10
10
10
10
10
10
10
10
10
10
10
10
10
10
10
10
10
10
10
10
10
10
10
10
10
10
10
10
10
10
10
10
10
10
10
10
10
10
10
10
10
10
10
10
10
10
10
10
10
10
10
10
10
10
10
10
10
10
10
10
10
10
10
10
10
10
10
10
10
10
10
10
10
10
10
10
10
10
10
10
10
10
10
10
10
10
10
10
10
10
10
10
10
10
10
10
10
10
10
10
10
10
10
10
10
10
10
10
10
10
10
10
10
10
10
10
10
10
10
10
10
10
10
10
10
10
10
10
10
10
10
10
10
10
10
10
10
10
10
10
10
10
10
10
10
10
10
10
10
10
10
10
10
10
10
10
10
10
10
10
10
10
10
10
10
10
10
10
10
10
10
10
10
10
10
10
10
10
10
10
10
10
10
10
10
10
10
10
10
10
10
10
10
10
10
10
10
10
10
10
10
10
10
10
10
10
10
10
10
10
10
10
10
10
10
10
10
10
10
10
10
10
10
10
10
10
10
10
10
10
10
10
10
10
10
10
10
10
10
10
10
10
10
10
10
10
10
10
10
10
10
10
10
10
10
10
10
10
10
10
10
10
10
10
10
10
10
10
10
10
10
10
10
10
10
10
10
10
10
10
10
10
10
10
10
10
10
10
10
10
10
10
10
10
10
10
10
10
10
10
10
10
10
10
10
10
10
10
10
10
10
10
10
10
10
10
10
10
10
10
10
10
10
10
10
10
10
10
10
10
10
10
10
10
10
10
10
10
10
10
10
10
10
10
10
10
10
10
10
10
10
10
10
10
10
10
10
10
10
10
10
10
10
10
10
10
10
10
10
10
10
10
10
10
10
10
10
10
10
10
10
10
10
10
10
10
10
10
10
10
10
10
10
10
10
10
10
10
10
10
10
10
10
10
10
10
10
10
10
10
10
10
10
10
10
10
10
10
10
10
10
10
10
10
10
10
10
10
10
10
10
10
10
10
10
10
10
10
10
10
10
10
10
10
10
10
10
10
10
10
10
10
10
10
10
10
10
10
10
10
10
10
10
10
10
10
10
10
10
10
10
10
10
10
10
10
10
10
10
10
10
10
10
10
10
10
10
10
10
10
10
10
10
10
10
10
10
10
10
10
10
10
10
10
10
10
10
10
10
10
10
10
10
10
10
10
10
10
10
10
10
10
10
10
10
10
10
10
10
10
10
10
10
10
10
10
10
10
10
10
10
10
10
10
10
10
10
10
10
10
10
10
10
10
10
10
10
10
10
10
10
10
10
10
10
10
10
10
10
10
10
10
10
10
10
10
10
10
10
10
10
10
10
10
10
10
10
10
10
10
10
10
10
10
10
10
10
10
10
10
10
10
10
10
10
10
10
10
10
10
10
10
10
10
10
10
10
10
10
10
10
10
10
10
10
10
10
10
10
10
10
10
10
10
10
10
10
10
10
10
10
10
10
10
10
10
10
10
10
10
10
10
10
10
10
10
10
10
10
10
10
10
10
10
10
10
10
10
10
10
10
10
10
10
10
10
10
10
10
10
10
10
10
10
10
10
10
10
10
10
10
10
10
10
10
10
10
10
10
10
10
10
10
10
10
10
10
10
10
10
10
10
10
10
10
10
10
10
10
10
10
10
10
10
10
10
10
10
10
10
10
10
10
10
10
10
10
10
10
10
10
10
10
10
10
10
10
10
10
10
10
10
10
10
10
10
10
10
10
10
10
10
10
10
10
10
10
10
10
10
10
10
10
10
10
10
10
10
10
10
10
10
10
10
10
10
10
10
10
10
10
10
10
10
10
10
10
10
10
10
10
10
10
10
10
10
10
10
10
10
10
10
10
10
10
10
10
10
10
10
10
10
10
10
10
10
10
10
10
10
10
10
10
10
10
10
10
10
10
10
10
10
10
10
10
10
10
10
10
10
10
10
10
10
10
10
10
10
10
10
10
10
10
10
10
10
10
10
10
10
10
10
10
10
10
10
10
10
10
10
10
10
10
10
10
10
10
10
10
10
10
10
10
10
10
10
10
10
10
10
10
10
10
10
10
10
10
10
10
10
10
10
10
10
10
10
10
10
10
10
10
10
10
10
10
10
10
10
10
10
10
10
10
10
10
10
10
10
10
10
10
10
10
10
10
10
10
10
10
10
10
10
10
10
10
10
10
10
10
10
10
10
10
10
10
10
10
10
10
10
10
10
10
10
10
10
10
10
10
10
10
10
10
10
10
10
10
10
10
10
10
10
10
10
10
10
10
10
10
10
10
10
10
10
10
10
10
10
10
10
10
10
10
10
10
10
10
10
10
10
10
10
10
10
10
10
10
10
10
10
10
10
10
10
10
10
10
10
10
10
10
10
10
10
10
10
10
10
10
10
10
10
10
10
10
10
10
10
10
10
10
10
10
10
10
10
10
10
10
10
10
10
10
10
10
10
10
10
10
10
10
10
10
10
10
10
10
10
10
10
10
10
10
10
10
10
10
10
10
10
10
10
10
10
10
10
10
10
10
10
10
10
10
10
10
10
10
10
10
10
10
10
10
10
10
10
10
10
10
10
10
10
10
10
10
10
10
10
10
10
10
10
10
10
10
10
10
10
10
10
10
10
10
10
10
10
10
10
10
10
10
10
10
10
10
10
10
10
10
10
10
10
10
10
10
10
10
10
10
10
10
10
10
10
10
10
10
10
10
10
10
10
10
10
10
10
10
10
10
10
10
10
10
10
10
10
10
10
10
10
10
10
10
10
10
10
10
10
10
10
10
10
10
10
10
10
10
10
10
10
10
10
10
10
10
10
10
10
10
10
10
10
10
10
10
10
10
10
10
10
10
10
10
10
10
10
10
10
10
10
10
10
10
10
10
10
10
10
10
10
10
10
10
10
10
10
10
10
10
10
10
10
10
10
10
10
10
10
10
10
10
10
10
10
10
10
10
10
10
10
10
10
10
10
10
10
10
10
10
10
10
10
10
10
10
10
10
10
10
10
10
10
10
10
10
10
10
10
10
10
10
10
10
10
10
10
10
10
10
10
10
10
10
10
              </DataArray>   
          </Cells>  
          <PointData>  
             <DataArray type="Float64" NumberOfComponents="3" Name="Strains" format="ascii">   
-5.056313829227257e-05   0.0   -3.330651037324775e-05
-5.056313829227257e-05   0.0   -3.330651037324775e-05
-5.056313829227257e-05   0.0   -3.330651037324775e-05
-5.056313829227257e-05   0.0   -3.330651037324775e-05
-3.2162252911419476e-05   5.585260096377495e-06   7.127879860005019e-07
-3.2162252911419476e-05   5.585260096377495e-06   7.127879860005019e-07
-3.2162252911419476e-05   5.585260096377495e-06   7.127879860005019e-07
-3.2162252911419476e-05   5.585260096377495e-06   7.127879860005019e-07
-3.151794217797706e-05   0.0   -3.145082094114642e-05
-3.151794217797706e-05   0.0   -3.145082094114642e-05
-3.151794217797706e-05   0.0   -3.145082094114642e-05
-3.151794217797706e-05   0.0   -3.145082094114642e-05
-5.2906520832374385e-05   6.710309663165127e-06   1.706243516168412e-07
-5.2906520832374385e-05   6.710309663165127e-06   1.706243516168412e-07
-5.2906520832374385e-05   6.710309663165127e-06   1.706243516168412e-07
-5.2906520832374385e-05   6.710309663165127e-06   1.706243516168412e-07
-4.104054023512474e-05   1.5464078600844427e-06   -1.6507668895284122e-05
-4.104054023512474e-05   1.5464078600844427e-06   -1.6507668895284122e-05
-4.104054023512474e-05   1.5464078600844427e-06   -1.6507668895284122e-05
-4.104054023512474e-05   1.5464078600844427e-06   -1.6507668895284122e-05
-5.290652083237448e-05   0.0   -3.5477006739045505e-05
-5.290652083237448e-05   0.0   -3.5477006739045505e-05
-5.290652083237448e-05   0.0   -3.5477006739045505e-05
-5.290652083237448e-05   0.0   -3.5477006739045505e-05
-3.151794217797706e-05   6.710309663165141e-06   4.1968101495159325e-06
-3.151794217797706e-05   6.710309663165141e-06   4.1968101495159325e-06
-3.151794217797706e-05   6.710309663165141e-06   4.1968101495159325e-06
-3.151794217797706e-05   6.710309663165141e-06   4.1968101495159325e-06
-3.1597912311779395e-05   0.0   -3.22182266753383e-05
-3.1597912311779395e-05   0.0   -3.22182266753383e-05
-3.1597912311779395e-05   0.0   -3.22182266753383e-05
-3.1597912311779395e-05   0.0   -3.22182266753383e-05
-5.454816225218961e-05   7.191186078055626e-06   1.7174782451788212e-06
-5.454816225218961e-05   7.191186078055626e-06   1.7174782451788212e-06
-5.454816225218961e-05   7.191186078055626e-06   1.7174782451788212e-06
-5.454816225218961e-05   7.191186078055626e-06   1.7174782451788212e-06
-4.225221657207686e-05   2.7156500530893333e-06   -1.609044294002929e-05
-4.225221657207686e-05   2.7156500530893333e-06   -1.609044294002929e-05
-4.225221657207686e-05   2.7156500530893333e-06   -1.609044294002929e-05
-4.225221657207686e-05   2.7156500530893333e-06   -1.609044294002929e-05
-5.4548162252189705e-05   0.0   -3.6532938322171686e-05
-5.4548162252189705e-05   0.0   -3.6532938322171686e-05
-5.4548162252189705e-05   0.0   -3.6532938322171686e-05
-5.4548162252189705e-05   0.0   -3.6532938322171686e-05
-3.1597912311779395e-05   7.1911860780556394e-06   6.032189892012209e-06
-3.1597912311779395e-05   7.1911860780556394e-06   6.032189892012209e-06
-3.1597912311779395e-05   7.1911860780556394e-06   6.032189892012209e-06
-3.1597912311779395e-05   7.1911860780556394e-06   6.032189892012209e-06
-3.157125288341892e-05   0.0   -3.241682530889663e-05
-3.157125288341892e-05   0.0   -3.241682530889663e-05
-3.157125288341892e-05   0.0   -3.241682530889663e-05
-3.157125288341892e-05   0.0   -3.241682530889663e-05
-5.8093558326682584e-05   8.198794460607224e-06   6.86774042017862e-06
-5.8093558326682584e-05   8.198794460607224e-06   6.86774042017862e-06
-5.8093558326682584e-05   8.198794460607224e-06   6.86774042017862e-06
-5.8093558326682584e-05   8.198794460607224e-06   6.86774042017862e-06
-4.3059707567804236e-05   3.4300941777292064e-06   -1.532745734155846e-05
-4.3059707567804236e-05   3.4300941777292064e-06   -1.532745734155846e-05
-4.3059707567804236e-05   3.4300941777292064e-06   -1.532745734155846e-05
-4.3059707567804236e-05   3.4300941777292064e-06   -1.532745734155846e-05
-3.216225291141953e-05   0.0   -2.9955354315421248e-05
-3.216225291141953e-05   0.0   -2.9955354315421248e-05
-3.216225291141953e-05   0.0   -2.9955354315421248e-05
-3.216225291141953e-05   0.0   -2.9955354315421248e-05
-1.4657174646691617e-05   2.045334662580212e-06   4.4697692334004683e-07
-1.4657174646691617e-05   2.045334662580212e-06   4.4697692334004683e-07
-1.4657174646691617e-05   2.045334662580212e-06   4.4697692334004683e-07
-1.4657174646691617e-05   2.045334662580212e-06   4.4697692334004683e-07
-1.4088373301639347e-05   0.0   -2.9700471844034673e-05
-1.4088373301639347e-05   0.0   -2.9700471844034673e-05
-1.4088373301639347e-05   0.0   -2.9700471844034673e-05
-1.4088373301639347e-05   0.0   -2.9700471844034673e-05
-3.151794217797706e-05   2.9172484951862465e-06   -2.401539480583571e-06
-3.151794217797706e-05   2.9172484951862465e-06   -2.401539480583571e-06
-3.151794217797706e-05   2.9172484951862465e-06   -2.401539480583571e-06
-3.151794217797706e-05   2.9172484951862465e-06   -2.401539480583571e-06
-2.31253131065294e-05   2.124020594888149e-07   -1.4766346738244434e-05
-2.31253131065294e-05   2.124020594888149e-07   -1.4766346738244434e-05
-2.31253131065294e-05   2.124020594888149e-07   -1.4766346738244434e-05
-2.31253131065294e-05   2.124020594888149e-07   -1.4766346738244434e-05
-3.151794217797703e-05   0.0   -3.1450820941146394e-05
-3.151794217797703e-05   0.0   -3.1450820941146394e-05
-3.151794217797703e-05   0.0   -3.1450820941146394e-05
-3.151794217797703e-05   0.0   -3.1450820941146394e-05
-1.4088373301639347e-05   2.9172484951862465e-06   -6.511903834718229e-07
-1.4088373301639347e-05   2.9172484951862465e-06   -6.511903834718229e-07
-1.4088373301639347e-05   2.9172484951862465e-06   -6.511903834718229e-07
-1.4088373301639347e-05   2.9172484951862465e-06   -6.511903834718229e-07
-1.3765272299990134e-05   0.0   -3.0071449042219045e-05
-1.3765272299990134e-05   0.0   -3.0071449042219045e-05
-1.3765272299990134e-05   0.0   -3.0071449042219045e-05
-1.3765272299990134e-05   0.0   -3.0071449042219045e-05
-3.1597912311779395e-05   3.5779627218654263e-06   -2.497159989022864e-06
-3.1597912311779395e-05   3.5779627218654263e-06   -2.497159989022864e-06
-3.1597912311779395e-05   3.5779627218654263e-06   -2.497159989022864e-06
-3.1597912311779395e-05   3.5779627218654263e-06   -2.497159989022864e-06
-2.2641607238983552e-05   1.149476582439476e-06   -1.5967243426693575e-05
-2.2641607238983552e-05   1.149476582439476e-06   -1.5967243426693575e-05
-2.2641607238983552e-05   1.149476582439476e-06   -1.5967243426693575e-05
-2.2641607238983552e-05   1.149476582439476e-06   -1.5967243426693575e-05
-3.1597912311779395e-05   0.0   -3.22182266753383e-05
-3.1597912311779395e-05   0.0   -3.22182266753383e-05
-3.1597912311779395e-05   0.0   -3.22182266753383e-05
-3.1597912311779395e-05   0.0   -3.22182266753383e-05
-1.3765272299990134e-05   3.5779627218654263e-06   -3.503823559036102e-07
-1.3765272299990134e-05   3.5779627218654263e-06   -3.503823559036102e-07
-1.3765272299990134e-05   3.5779627218654263e-06   -3.503823559036102e-07
-1.3765272299990134e-05   3.5779627218654263e-06   -3.503823559036102e-07
-1.3469590650333933e-05   0.0   -2.99175300570657e-05
-1.3469590650333933e-05   0.0   -2.99175300570657e-05
-1.3469590650333933e-05   0.0   -2.99175300570657e-05
-1.3469590650333933e-05   0.0   -2.99175300570657e-05
-3.1571252883418836e-05   4.165492086384842e-06   -2.2473882537549862e-06
-3.1571252883418836e-05   4.165492086384842e-06   -2.2473882537549862e-06
-3.1571252883418836e-05   4.165492086384842e-06   -2.2473882537549862e-06
-3.1571252883418836e-05   4.165492086384842e-06   -2.2473882537549862e-06
-2.2533751481056655e-05   1.917247181893818e-06   -1.5960943648330777e-05
-2.2533751481056655e-05   1.917247181893818e-06   -1.5960943648330777e-05
-2.2533751481056655e-05   1.917247181893818e-06   -1.5960943648330777e-05
-2.2533751481056655e-05   1.917247181893818e-06   -1.5960943648330777e-05
-1.4657174646691642e-05   0.0   -2.8728153517873124e-05
-1.4657174646691642e-05   0.0   -2.8728153517873124e-05
-1.4657174646691642e-05   0.0   -2.8728153517873124e-05
-1.4657174646691642e-05   0.0   -2.8728153517873124e-05
1.8742159409556848e-06   -2.643850289697018e-07   -1.334466889176033e-06
1.8742159409556848e-06   -2.643850289697018e-07   -1.334466889176033e-06
1.8742159409556848e-06   -2.643850289697018e-07   -1.334466889176033e-06
1.8742159409556848e-06   -2.643850289697018e-07   -1.334466889176033e-06
2.24141398485899e-06   0.0   -2.93895416285085e-05
2.24141398485899e-06   0.0   -2.93895416285085e-05
2.24141398485899e-06   0.0   -2.93895416285085e-05
2.24141398485899e-06   0.0   -2.93895416285085e-05
-1.4088373301639347e-05   5.182170258767865e-07   -2.4841596998707714e-06
-1.4088373301639347e-05   5.182170258767865e-07   -2.4841596998707714e-06
-1.4088373301639347e-05   5.182170258767865e-07   -2.4841596998707714e-06
-1.4088373301639347e-05   5.182170258767865e-07   -2.4841596998707714e-06
-6.207880330916312e-06   -5.511567588628978e-07   -1.497669038023196e-05
-6.207880330916312e-06   -5.511567588628978e-07   -1.497669038023196e-05
-6.207880330916312e-06   -5.511567588628978e-07   -1.497669038023196e-05
-6.207880330916312e-06   -5.511567588628978e-07   -1.497669038023196e-05
-1.4088373301639347e-05   0.0   -2.9700471844034673e-05
-1.4088373301639347e-05   0.0   -2.9700471844034673e-05
-1.4088373301639347e-05   0.0   -2.9700471844034673e-05
-1.4088373301639347e-05   0.0   -2.9700471844034673e-05
2.2414139848589936e-06   5.182170258767865e-07   -2.1732294843446925e-06
2.2414139848589936e-06   5.182170258767865e-07   -2.1732294843446925e-06
2.2414139848589936e-06   5.182170258767865e-07   -2.1732294843446925e-06
2.2414139848589936e-06   5.182170258767865e-07   -2.1732294843446925e-06
2.532408428955234e-06   0.0   -2.93468107641017e-05
2.532408428955234e-06   0.0   -2.93468107641017e-05
2.532408428955234e-06   0.0   -2.93468107641017e-05
2.532408428955234e-06   0.0   -2.93468107641017e-05
-1.376527229999011e-05   1.2077304635288268e-06   -2.90864782731009e-06
-1.376527229999011e-05   1.2077304635288268e-06   -2.90864782731009e-06
-1.376527229999011e-05   1.2077304635288268e-06   -2.90864782731009e-06
-1.376527229999011e-05   1.2077304635288268e-06   -2.90864782731009e-06
-5.777982436342055e-06   2.947175666107695e-07   -1.5672989861906047e-05
-5.777982436342055e-06   2.947175666107695e-07   -1.5672989861906047e-05
-5.777982436342055e-06   2.947175666107695e-07   -1.5672989861906047e-05
-5.777982436342055e-06   2.947175666107695e-07   -1.5672989861906047e-05
-1.3765272299990134e-05   0.0   -3.0071449042219045e-05
-1.3765272299990134e-05   0.0   -3.0071449042219045e-05
-1.3765272299990134e-05   0.0   -3.0071449042219045e-05
-1.3765272299990134e-05   0.0   -3.0071449042219045e-05
2.532408428955238e-06   1.2077304635288268e-06   -2.184009549192801e-06
2.532408428955238e-06   1.2077304635288268e-06   -2.184009549192801e-06
2.532408428955238e-06   1.2077304635288268e-06   -2.184009549192801e-06
2.532408428955238e-06   1.2077304635288268e-06   -2.184009549192801e-06
2.9209831097360345e-06   0.0   -2.871403047404377e-05
2.9209831097360345e-06   0.0   -2.871403047404377e-05
2.9209831097360345e-06   0.0   -2.871403047404377e-05
2.9209831097360345e-06   0.0   -2.871403047404377e-05
-1.3469590650333921e-05   2.005832638369838e-06   -2.599907123615749e-06
-1.3469590650333921e-05   2.005832638369838e-06   -2.599907123615749e-06
-1.3469590650333921e-05   2.005832638369838e-06   -2.599907123615749e-06
-1.3469590650333921e-05   2.005832638369838e-06   -2.599907123615749e-06
-5.422144595127038e-06   1.1311821401460203e-06   -1.5487526916692918e-05
-5.422144595127038e-06   1.1311821401460203e-06   -1.5487526916692918e-05
-5.422144595127038e-06   1.1311821401460203e-06   -1.5487526916692918e-05
-5.422144595127038e-06   1.1311821401460203e-06   -1.5487526916692918e-05
1.874215940955688e-06   0.0   -2.888678453525494e-05
1.874215940955688e-06   0.0   -2.888678453525494e-05
1.874215940955688e-06   0.0   -2.888678453525494e-05
1.874215940955688e-06   0.0   -2.888678453525494e-05
1.9826375837327046e-05   -2.3254783560619984e-06   -3.6180505493985885e-07
1.9826375837327046e-05   -2.3254783560619984e-06   -3.6180505493985885e-07
1.9826375837327046e-05   -2.3254783560619984e-06   -3.6180505493985885e-07
1.9826375837327046e-05   -2.3254783560619984e-06   -3.6180505493985885e-07
1.9872527721588215e-05   0.0   -3.0439895491495804e-05
1.9872527721588215e-05   0.0   -3.0439895491495804e-05
1.9872527721588215e-05   0.0   -3.0439895491495804e-05
1.9872527721588215e-05   0.0   -3.0439895491495804e-05
2.2414139848589975e-06   -1.750589771645341e-06   -4.352067293244702e-09
2.2414139848589975e-06   -1.750589771645341e-06   -4.352067293244702e-09
2.2414139848589975e-06   -1.750589771645341e-06   -4.352067293244702e-09
2.2414139848589975e-06   -1.750589771645341e-06   -4.352067293244702e-09
1.0873371831271952e-05   -1.2942591302007208e-06   -1.4664746862848255e-05
1.0873371831271952e-05   -1.2942591302007208e-06   -1.4664746862848255e-05
1.0873371831271952e-05   -1.2942591302007208e-06   -1.4664746862848255e-05
1.0873371831271952e-05   -1.2942591302007208e-06   -1.4664746862848255e-05
2.2414139848589975e-06   0.0   -2.93895416285086e-05
2.2414139848589975e-06   0.0   -2.93895416285086e-05
2.2414139848589975e-06   0.0   -2.93895416285086e-05
2.2414139848589975e-06   0.0   -2.93895416285086e-05
1.9872527721588215e-05   -1.750589771645341e-06   -1.0547059302804454e-06
1.9872527721588215e-05   -1.750589771645341e-06   -1.0547059302804454e-06
1.9872527721588215e-05   -1.750589771645341e-06   -1.0547059302804454e-06
1.9872527721588215e-05   -1.750589771645341e-06   -1.0547059302804454e-06
1.979680761247026e-05   0.0   -3.000530334638342e-05
1.979680761247026e-05   0.0   -3.000530334638342e-05
1.979680761247026e-05   0.0   -3.000530334638342e-05
1.979680761247026e-05   0.0   -3.000530334638342e-05
2.532408428955238e-06   -1.0974876371361216e-06   -5.728121249100465e-07
2.532408428955238e-06   -1.0974876371361216e-06   -5.728121249100465e-07
2.532408428955238e-06   -1.0974876371361216e-06   -5.728121249100465e-07
2.532408428955238e-06   -1.0974876371361216e-06   -5.728121249100465e-07
1.101911079866463e-05   -5.131347648956845e-07   -1.5067927797769945e-05
1.101911079866463e-05   -5.131347648956845e-07   -1.5067927797769945e-05
1.101911079866463e-05   -5.131347648956845e-07   -1.5067927797769945e-05
1.101911079866463e-05   -5.131347648956845e-07   -1.5067927797769945e-05
2.532408428955236e-06   0.0   -2.9346810764101726e-05
2.532408428955236e-06   0.0   -2.9346810764101726e-05
2.532408428955236e-06   0.0   -2.9346810764101726e-05
2.532408428955236e-06   0.0   -2.9346810764101726e-05
1.979680761247026e-05   -1.0974876371361216e-06   -1.231304707191718e-06
1.979680761247026e-05   -1.0974876371361216e-06   -1.231304707191718e-06
1.979680761247026e-05   -1.0974876371361216e-06   -1.231304707191718e-06
1.979680761247026e-05   -1.0974876371361216e-06   -1.231304707191718e-06
2.0189235753830858e-05   0.0   -2.8846292355595236e-05
2.0189235753830858e-05   0.0   -2.8846292355595236e-05
2.0189235753830858e-05   0.0   -2.8846292355595236e-05
2.0189235753830858e-05   0.0   -2.8846292355595236e-05
2.9209831097360395e-06   -2.2043646925235704e-07   6.63905994475377e-08
2.9209831097360395e-06   -2.2043646925235704e-07   6.63905994475377e-08
2.9209831097360395e-06   -2.2043646925235704e-07   6.63905994475377e-08
2.9209831097360395e-06   -2.2043646925235704e-07   6.63905994475377e-08
1.136082209139304e-05   4.170986737554284e-07   -1.4382528789118787e-05
1.136082209139304e-05   4.170986737554284e-07   -1.4382528789118787e-05
1.136082209139304e-05   4.170986737554284e-07   -1.4382528789118787e-05
1.136082209139304e-05   4.170986737554284e-07   -1.4382528789118787e-05
1.9826375837327046e-05   0.0   -3.028207154889214e-05
1.9826375837327046e-05   0.0   -3.028207154889214e-05
1.9826375837327046e-05   0.0   -3.028207154889214e-05
1.9826375837327046e-05   0.0   -3.028207154889214e-05
4.481849261607031e-05   -5.902407897992142e-06   7.830011676884934e-06
4.481849261607031e-05   -5.902407897992142e-06   7.830011676884934e-06
4.481849261607031e-05   -5.902407897992142e-06   7.830011676884934e-06
4.481849261607031e-05   -5.902407897992142e-06   7.830011676884934e-06
4.210595204936156e-05   0.0   -3.3449648038125255e-05
4.210595204936156e-05   0.0   -3.3449648038125255e-05
4.210595204936156e-05   0.0   -3.3449648038125255e-05
4.210595204936156e-05   0.0   -3.3449648038125255e-05
1.9872527721588215e-05   -5.016254244382411e-06   6.615811721459759e-06
1.9872527721588215e-05   -5.016254244382411e-06   6.615811721459759e-06
1.9872527721588215e-05   -5.016254244382411e-06   6.615811721459759e-06
1.9872527721588215e-05   -5.016254244382411e-06   6.615811721459759e-06
3.09661639433443e-05   -2.6396470743609305e-06   -1.3299546283479921e-05
3.09661639433443e-05   -2.6396470743609305e-06   -1.3299546283479921e-05
3.09661639433443e-05   -2.6396470743609305e-06   -1.3299546283479921e-05
3.09661639433443e-05   -2.6396470743609305e-06   -1.3299546283479921e-05
1.9872527721588198e-05   0.0   -3.0439895491495776e-05
1.9872527721588198e-05   0.0   -3.0439895491495776e-05
1.9872527721588198e-05   0.0   -3.0439895491495776e-05
1.9872527721588198e-05   0.0   -3.0439895491495776e-05
4.210595204936141e-05   -5.0162542443823974e-06   3.6060591748302977e-06
4.210595204936141e-05   -5.0162542443823974e-06   3.6060591748302977e-06
4.210595204936141e-05   -5.0162542443823974e-06   3.6060591748302977e-06
4.210595204936141e-05   -5.0162542443823974e-06   3.6060591748302977e-06
4.0859332974513104e-05   0.0   -3.275431449443164e-05
4.0859332974513104e-05   0.0   -3.275431449443164e-05
4.0859332974513104e-05   0.0   -3.275431449443164e-05
4.0859332974513104e-05   0.0   -3.275431449443164e-05
1.979680761247026e-05   -4.5816852467470294e-06   5.098905590354642e-06
1.979680761247026e-05   -4.5816852467470294e-06   5.098905590354642e-06
1.979680761247026e-05   -4.5816852467470294e-06   5.098905590354642e-06
1.979680761247026e-05   -4.5816852467470294e-06   5.098905590354642e-06
3.0365930348050645e-05   -1.928682502446532e-06   -1.4108100615526294e-05
3.0365930348050645e-05   -1.928682502446532e-06   -1.4108100615526294e-05
3.0365930348050645e-05   -1.928682502446532e-06   -1.4108100615526294e-05
3.0365930348050645e-05   -1.928682502446532e-06   -1.4108100615526294e-05
1.979680761247026e-05   0.0   -3.000530334638342e-05
1.979680761247026e-05   0.0   -3.000530334638342e-05
1.979680761247026e-05   0.0   -3.000530334638342e-05
1.979680761247026e-05   0.0   -3.000530334638342e-05
4.085933297451296e-05   -4.581685246747023e-06   2.3498944423064083e-06
4.085933297451296e-05   -4.581685246747023e-06   2.3498944423064083e-06
4.085933297451296e-05   -4.581685246747023e-06   2.3498944423064083e-06
4.085933297451296e-05   -4.581685246747023e-06   2.3498944423064083e-06
3.89969040112629e-05   0.0   -3.097883096027856e-05
3.89969040112629e-05   0.0   -3.097883096027856e-05
3.89969040112629e-05   0.0   -3.097883096027856e-05
3.89969040112629e-05   0.0   -3.097883096027856e-05
2.0189235753830858e-05   -3.554231007805624e-06   2.499821406791615e-06
2.0189235753830858e-05   -3.554231007805624e-06   2.499821406791615e-06
2.0189235753830858e-05   -3.554231007805624e-06   2.499821406791615e-06
2.0189235753830858e-05   -3.554231007805624e-06   2.499821406791615e-06
2.9396855811866613e-05   -8.112730115793263e-07   -1.4491986821003751e-05
2.9396855811866613e-05   -8.112730115793263e-07   -1.4491986821003751e-05
2.9396855811866613e-05   -8.112730115793263e-07   -1.4491986821003751e-05
2.9396855811866613e-05   -8.112730115793263e-07   -1.4491986821003751e-05
-4.378051475921534e-05   5.5852600963774885e-06   -2.880669767061836e-05
-4.378051475921534e-05   5.5852600963774885e-06   -2.880669767061836e-05
-4.378051475921534e-05   5.5852600963774885e-06   -2.880669767061836e-05
-4.378051475921534e-05   5.5852600963774885e-06   -2.880669767061836e-05
-2.8049172551467813e-05   5.017267864357495e-06   -2.9285893302511133e-06
-2.8049172551467813e-05   5.017267864357495e-06   -2.9285893302511133e-06
-2.8049172551467813e-05   5.017267864357495e-06   -2.9285893302511133e-06
-2.8049172551467813e-05   5.017267864357495e-06   -2.9285893302511133e-06
-2.8750186363191407e-05   6.7103096631651206e-06   -2.4200689078027554e-05
-2.8750186363191407e-05   6.7103096631651206e-06   -2.4200689078027554e-05
-2.8750186363191407e-05   6.7103096631651206e-06   -2.4200689078027554e-05
-2.8750186363191407e-05   6.7103096631651206e-06   -2.4200689078027554e-05
-4.424456834400117e-05   6.026830878822002e-06   2.0333681605946743e-06
-4.424456834400117e-05   6.026830878822002e-06   2.0333681605946743e-06
-4.424456834400117e-05   6.026830878822002e-06   2.0333681605946743e-06
-4.424456834400117e-05   6.026830878822002e-06   2.0333681605946743e-06
-3.4771503924431246e-05   5.836551382563105e-06   -1.3640904840933393e-05
-3.4771503924431246e-05   5.836551382563105e-06   -1.3640904840933393e-05
-3.4771503924431246e-05   5.836551382563105e-06   -1.3640904840933393e-05
-3.4771503924431246e-05   5.836551382563105e-06   -1.3640904840933393e-05
-4.424456834400117e-05   6.7103096631651206e-06   -2.3790601807421673e-05
-4.424456834400117e-05   6.7103096631651206e-06   -2.3790601807421673e-05
-4.424456834400117e-05   6.7103096631651206e-06   -2.3790601807421673e-05
-4.424456834400117e-05   6.7103096631651206e-06   -2.3790601807421673e-05
-2.87501863631915e-05   6.026830878822029e-06   1.623280889988821e-06
-2.87501863631915e-05   6.026830878822029e-06   1.623280889988821e-06
-2.87501863631915e-05   6.026830878822029e-06   1.623280889988821e-06
-2.87501863631915e-05   6.026830878822029e-06   1.623280889988821e-06
-2.889206627012246e-05   7.191186078055626e-06   -2.1763399572806186e-05
-2.889206627012246e-05   7.191186078055626e-06   -2.1763399572806186e-05
-2.889206627012246e-05   7.191186078055626e-06   -2.1763399572806186e-05
-2.889206627012246e-05   7.191186078055626e-06   -2.1763399572806186e-05
-4.4547421840091116e-05   6.48266658981195e-06   4.753971403420999e-06
-4.4547421840091116e-05   6.48266658981195e-06   4.753971403420999e-06
-4.4547421840091116e-05   6.48266658981195e-06   4.753971403420999e-06
-4.4547421840091116e-05   6.48266658981195e-06   4.753971403420999e-06
-3.578748166405544e-05   6.471095168883217e-06   -9.838986037414448e-06
-3.578748166405544e-05   6.471095168883217e-06   -9.838986037414448e-06
-3.578748166405544e-05   6.471095168883217e-06   -9.838986037414448e-06
-3.578748166405544e-05   6.471095168883217e-06   -9.838986037414448e-06
-4.4547421840091035e-05   7.191186078055626e-06   -2.133828787985997e-05
-4.4547421840091035e-05   7.191186078055626e-06   -2.133828787985997e-05
-4.4547421840091035e-05   7.191186078055626e-06   -2.133828787985997e-05
-4.4547421840091035e-05   7.191186078055626e-06   -2.133828787985997e-05
-2.8892066270122508e-05   6.48266658981195e-06   4.3288597104747695e-06
-2.8892066270122508e-05   6.48266658981195e-06   4.3288597104747695e-06
-2.8892066270122508e-05   6.48266658981195e-06   4.3288597104747695e-06
-2.8892066270122508e-05   6.48266658981195e-06   4.3288597104747695e-06
-2.8722420280943416e-05   8.19879446060723e-06   -1.60976959743648e-05
-2.8722420280943416e-05   8.19879446060723e-06   -1.60976959743648e-05
-2.8722420280943416e-05   8.19879446060723e-06   -1.60976959743648e-05
-2.8722420280943416e-05   8.19879446060723e-06   -1.60976959743648e-05
-4.329968005781967e-05   6.847800556026239e-06   9.008333329844052e-06
-4.329968005781967e-05   6.847800556026239e-06   9.008333329844052e-06
-4.329968005781967e-05   6.847800556026239e-06   9.008333329844052e-06
-4.329968005781967e-05   6.847800556026239e-06   9.008333329844052e-06
-3.484889330909056e-05   7.1009619921698255e-06   -5.228208113057222e-06
-3.484889330909056e-05   7.1009619921698255e-06   -5.228208113057222e-06
-3.484889330909056e-05   7.1009619921698255e-06   -5.228208113057222e-06
-3.484889330909056e-05   7.1009619921698255e-06   -5.228208113057222e-06
-2.8049172551467813e-05   2.045334662580205e-06   -3.064050487003892e-05
-2.8049172551467813e-05   2.045334662580205e-06   -3.064050487003892e-05
-2.8049172551467813e-05   2.045334662580205e-06   -3.064050487003892e-05
-2.8049172551467813e-05   2.045334662580205e-06   -3.064050487003892e-05
-1.3305761351388246e-05   2.3347833841642278e-06   -5.894483636955843e-06
-1.3305761351388246e-05   2.3347833841642278e-06   -5.894483636955843e-06
-1.3305761351388246e-05   2.3347833841642278e-06   -5.894483636955843e-06
-1.3305761351388246e-05   2.3347833841642278e-06   -5.894483636955843e-06
-1.3618638642536172e-05   2.9172484951862397e-06   -3.059157265454178e-05
-1.3618638642536172e-05   2.9172484951862397e-06   -3.059157265454178e-05
-1.3618638642536172e-05   2.9172484951862397e-06   -3.059157265454178e-05
-1.3618638642536172e-05   2.9172484951862397e-06   -3.059157265454178e-05
-2.8750186363191407e-05   3.2630252511616886e-06   -5.579792507034913e-06
-2.8750186363191407e-05   3.2630252511616886e-06   -5.579792507034913e-06
-2.8750186363191407e-05   3.2630252511616886e-06   -5.579792507034913e-06
-2.8750186363191407e-05   3.2630252511616886e-06   -5.579792507034913e-06
-2.0871660291197116e-05   2.6269425756727307e-06   -1.8329019688398867e-05
-2.0871660291197116e-05   2.6269425756727307e-06   -1.8329019688398867e-05
-2.0871660291197116e-05   2.6269425756727307e-06   -1.8329019688398867e-05
-2.0871660291197116e-05   2.6269425756727307e-06   -1.8329019688398867e-05
-2.875018636319138e-05   2.9172484951862397e-06   -3.0799038708126996e-05
-2.875018636319138e-05   2.9172484951862397e-06   -3.0799038708126996e-05
-2.875018636319138e-05   2.9172484951862397e-06   -3.0799038708126996e-05
-2.875018636319138e-05   2.9172484951862397e-06   -3.0799038708126996e-05
-1.3618638642536196e-05   3.2630252511616886e-06   -5.372326453449677e-06
-1.3618638642536196e-05   3.2630252511616886e-06   -5.372326453449677e-06
-1.3618638642536196e-05   3.2630252511616886e-06   -5.372326453449677e-06
-1.3618638642536196e-05   3.2630252511616886e-06   -5.372326453449677e-06
-1.3713296241016619e-05   3.5779627218654128e-06   -3.0020348689568444e-05
-1.3713296241016619e-05   3.5779627218654128e-06   -3.0020348689568444e-05
-1.3713296241016619e-05   3.5779627218654128e-06   -3.0020348689568444e-05
-1.3713296241016619e-05   3.5779627218654128e-06   -3.0020348689568444e-05
-2.889206627012246e-05   4.031963995653365e-06   -4.994799405331536e-06
-2.889206627012246e-05   4.031963995653365e-06   -4.994799405331536e-06
-2.889206627012246e-05   4.031963995653365e-06   -4.994799405331536e-06
-2.889206627012246e-05   4.031963995653365e-06   -4.994799405331536e-06
-2.103020573437826e-05   3.336692935864216e-06   -1.7680737662364955e-05
-2.103020573437826e-05   3.336692935864216e-06   -1.7680737662364955e-05
-2.103020573437826e-05   3.336692935864216e-06   -1.7680737662364955e-05
-2.103020573437826e-05   3.336692935864216e-06   -1.7680737662364955e-05
-2.889206627012246e-05   3.5779627218654128e-06   -3.0292749453841218e-05
-2.889206627012246e-05   3.5779627218654128e-06   -3.0292749453841218e-05
-2.889206627012246e-05   3.5779627218654128e-06   -3.0292749453841218e-05
-2.889206627012246e-05   3.5779627218654128e-06   -3.0292749453841218e-05
-1.3713296241016664e-05   4.031963995653392e-06   -4.722398641058751e-06
-1.3713296241016664e-05   4.031963995653392e-06   -4.722398641058751e-06
-1.3713296241016664e-05   4.031963995653392e-06   -4.722398641058751e-06
-1.3713296241016664e-05   4.031963995653392e-06   -4.722398641058751e-06
-1.3674919755518165e-05   4.1654920863848355e-06   -2.9715504991211685e-05
-1.3674919755518165e-05   4.1654920863848355e-06   -2.9715504991211685e-05
-1.3674919755518165e-05   4.1654920863848355e-06   -2.9715504991211685e-05
-1.3674919755518165e-05   4.1654920863848355e-06   -2.9715504991211685e-05
-2.8722420280943396e-05   4.859819308803217e-06   -5.0529337822873384e-06
-2.8722420280943396e-05   4.859819308803217e-06   -5.0529337822873384e-06
-2.8722420280943396e-05   4.859819308803217e-06   -5.0529337822873384e-06
-2.8722420280943396e-05   4.859819308803217e-06   -5.0529337822873384e-06
-2.1148981902172476e-05   3.979122482294554e-06   -1.7146912984333752e-05
-2.1148981902172476e-05   3.979122482294554e-06   -1.7146912984333752e-05
-2.1148981902172476e-05   3.979122482294554e-06   -1.7146912984333752e-05
-2.1148981902172476e-05   3.979122482294554e-06   -1.7146912984333752e-05
-1.3305761351388224e-05   -2.6438502896969503e-07   -3.208964843222276e-05
-1.3305761351388224e-05   -2.6438502896969503e-07   -3.208964843222276e-05
-1.3305761351388224e-05   -2.6438502896969503e-07   -3.208964843222276e-05
-1.3305761351388224e-05   -2.6438502896969503e-07   -3.208964843222276e-05
1.2508115736563462e-06   -7.098301060029207e-08   -7.712652346126828e-06
1.2508115736563462e-06   -7.098301060029207e-08   -7.712652346126828e-06
1.2508115736563462e-06   -7.098301060029207e-08   -7.712652346126828e-06
1.2508115736563462e-06   -7.098301060029207e-08   -7.712652346126828e-06
1.1956273738827067e-06   5.182170258767865e-07   -3.2264751314777185e-05
1.1956273738827067e-06   5.182170258767865e-07   -3.2264751314777185e-05
1.1956273738827067e-06   5.182170258767865e-07   -3.2264751314777185e-05
1.1956273738827067e-06   5.182170258767865e-07   -3.2264751314777185e-05
-1.3618638642536172e-05   7.845347861494306e-07   -7.73409861024252e-06
-1.3618638642536172e-05   7.845347861494306e-07   -7.73409861024252e-06
-1.3618638642536172e-05   7.845347861494306e-07   -7.73409861024252e-06
-1.3618638642536172e-05   7.845347861494306e-07   -7.73409861024252e-06
-6.155868639327252e-06   2.610015145873681e-07   -1.985792865265355e-05
-6.155868639327252e-06   2.610015145873681e-07   -1.985792865265355e-05
-6.155868639327252e-06   2.610015145873681e-07   -1.985792865265355e-05
-6.155868639327252e-06   2.610015145873681e-07   -1.985792865265355e-05
-1.3618638642536172e-05   5.182170258767865e-07   -3.2424541970940715e-05
-1.3618638642536172e-05   5.182170258767865e-07   -3.2424541970940715e-05
-1.3618638642536172e-05   5.182170258767865e-07   -3.2424541970940715e-05
-1.3618638642536172e-05   5.182170258767865e-07   -3.2424541970940715e-05
1.1956273738827067e-06   7.845347861494577e-07   -7.574307954078944e-06
1.1956273738827067e-06   7.845347861494577e-07   -7.574307954078944e-06
1.1956273738827067e-06   7.845347861494577e-07   -7.574307954078944e-06
1.1956273738827067e-06   7.845347861494577e-07   -7.574307954078944e-06
1.119233143033414e-06   1.20773046352882e-06   -3.233088295462611e-05
1.119233143033414e-06   1.20773046352882e-06   -3.233088295462611e-05
1.119233143033414e-06   1.20773046352882e-06   -3.233088295462611e-05
1.119233143033414e-06   1.20773046352882e-06   -3.233088295462611e-05
-1.3713296241016619e-05   1.6206158074435323e-06   -7.857731854224903e-06
-1.3713296241016619e-05   1.6206158074435323e-06   -7.857731854224903e-06
-1.3713296241016619e-05   1.6206158074435323e-06   -7.857731854224903e-06
-1.3713296241016619e-05   1.6206158074435323e-06   -7.857731854224903e-06
-6.265756028527866e-06   9.856153660108382e-07   -1.9889298610179795e-05
-6.265756028527866e-06   9.856153660108382e-07   -1.9889298610179795e-05
-6.265756028527866e-06   9.856153660108382e-07   -1.9889298610179795e-05
-6.265756028527866e-06   9.856153660108382e-07   -1.9889298610179795e-05
-1.3713296241016619e-05   1.20773046352882e-06   -3.257861416097494e-05
-1.3713296241016619e-05   1.20773046352882e-06   -3.257861416097494e-05
-1.3713296241016619e-05   1.20773046352882e-06   -3.257861416097494e-05
-1.3713296241016619e-05   1.20773046352882e-06   -3.257861416097494e-05
1.1192331430334157e-06   1.6206158074435323e-06   -7.610000647876091e-06
1.1192331430334157e-06   1.6206158074435323e-06   -7.610000647876091e-06
1.1192331430334157e-06   1.6206158074435323e-06   -7.610000647876091e-06
1.1192331430334157e-06   1.6206158074435323e-06   -7.610000647876091e-06
9.597986972529286e-07   2.005832638369831e-06   -3.22759055095148e-05
9.597986972529286e-07   2.005832638369831e-06   -3.22759055095148e-05
9.597986972529286e-07   2.005832638369831e-06   -3.22759055095148e-05
9.597986972529286e-07   2.005832638369831e-06   -3.22759055095148e-05
-1.3674919755518173e-05   2.4915219773508014e-06   -8.176121691618233e-06
-1.3674919755518173e-05   2.4915219773508014e-06   -8.176121691618233e-06
-1.3674919755518173e-05   2.4915219773508014e-06   -8.176121691618233e-06
-1.3674919755518173e-05   2.4915219773508014e-06   -8.176121691618233e-06
-6.330302256319539e-06   1.7300206617152438e-06   -1.9960250067567943e-05
-6.330302256319539e-06   1.7300206617152438e-06   -1.9960250067567943e-05
-6.330302256319539e-06   1.7300206617152438e-06   -1.9960250067567943e-05
-6.330302256319539e-06   1.7300206617152438e-06   -1.9960250067567943e-05
1.2508115736563462e-06   -2.3254783560619916e-06   -2.9605658373327744e-05
1.2508115736563462e-06   -2.3254783560619916e-06   -2.9605658373327744e-05
1.2508115736563462e-06   -2.3254783560619916e-06   -2.9605658373327744e-05
1.2508115736563462e-06   -2.3254783560619916e-06   -2.9605658373327744e-05
1.625134259538116e-05   -2.390389163382681e-06   -4.643719821512132e-06
1.625134259538116e-05   -2.390389163382681e-06   -4.643719821512132e-06
1.625134259538116e-05   -2.390389163382681e-06   -4.643719821512132e-06
1.625134259538116e-05   -2.390389163382681e-06   -4.643719821512132e-06
1.6390243094638055e-05   -1.7505897716453342e-06   -3.0012751545778477e-05
1.6390243094638055e-05   -1.7505897716453342e-06   -3.0012751545778477e-05
1.6390243094638055e-05   -1.7505897716453342e-06   -3.0012751545778477e-05
1.6390243094638055e-05   -1.7505897716453342e-06   -3.0012751545778477e-05
1.1956273738827067e-06   -1.6120525184000944e-06   -4.771514363133315e-06
1.1956273738827067e-06   -1.6120525184000944e-06   -4.771514363133315e-06
1.1956273738827067e-06   -1.6120525184000944e-06   -4.771514363133315e-06
1.1956273738827067e-06   -1.6120525184000944e-06   -4.771514363133315e-06
8.660004254326146e-06   -1.9313809302819255e-06   -1.7020545450076676e-05
8.660004254326146e-06   -1.9313809302819255e-06   -1.7020545450076676e-05
8.660004254326146e-06   -1.9313809302819255e-06   -1.7020545450076676e-05
8.660004254326146e-06   -1.9313809302819255e-06   -1.7020545450076676e-05
1.1956273738827046e-06   -1.7505897716453342e-06   -3.0095873897725674e-05
1.1956273738827046e-06   -1.7505897716453342e-06   -3.0095873897725674e-05
1.1956273738827046e-06   -1.7505897716453342e-06   -3.0095873897725674e-05
1.1956273738827046e-06   -1.7505897716453342e-06   -3.0095873897725674e-05
1.6390243094638082e-05   -1.6120525184000944e-06   -4.688392011186173e-06
1.6390243094638082e-05   -1.6120525184000944e-06   -4.688392011186173e-06
1.6390243094638082e-05   -1.6120525184000944e-06   -4.688392011186173e-06
1.6390243094638082e-05   -1.6120525184000944e-06   -4.688392011186173e-06
1.6315193260218842e-05   -1.097487637136108e-06   -3.057135335790955e-05
1.6315193260218842e-05   -1.097487637136108e-06   -3.057135335790955e-05
1.6315193260218842e-05   -1.097487637136108e-06   -3.057135335790955e-05
1.6315193260218842e-05   -1.097487637136108e-06   -3.057135335790955e-05
1.119233143033414e-06   -8.502673497465555e-07   -5.3930853350343005e-06
1.119233143033414e-06   -8.502673497465555e-07   -5.3930853350343005e-06
1.119233143033414e-06   -8.502673497465555e-07   -5.3930853350343005e-06
1.119233143033414e-06   -8.502673497465555e-07   -5.3930853350343005e-06
8.57205304044369e-06   -1.310945819524249e-06   -1.7538044748851418e-05
8.57205304044369e-06   -1.310945819524249e-06   -1.7538044748851418e-05
8.57205304044369e-06   -1.310945819524249e-06   -1.7538044748851418e-05
8.57205304044369e-06   -1.310945819524249e-06   -1.7538044748851418e-05
1.1192331430334132e-06   -1.0974876371361148e-06   -3.0719685530343295e-05
1.1192331430334132e-06   -1.0974876371361148e-06   -3.0719685530343295e-05
1.1192331430334132e-06   -1.0974876371361148e-06   -3.0719685530343295e-05
1.1192331430334132e-06   -1.0974876371361148e-06   -3.0719685530343295e-05
1.6315193260218896e-05   -8.502673497465555e-07   -5.244753162600557e-06
1.6315193260218896e-05   -8.502673497465555e-07   -5.244753162600557e-06
1.6315193260218896e-05   -8.502673497465555e-07   -5.244753162600557e-06
1.6315193260218896e-05   -8.502673497465555e-07   -5.244753162600557e-06
1.584245811455121e-05   -2.2043646925235704e-07   -3.06261402348856e-05
1.584245811455121e-05   -2.2043646925235704e-07   -3.06261402348856e-05
1.584245811455121e-05   -2.2043646925235704e-07   -3.06261402348856e-05
1.584245811455121e-05   -2.2043646925235704e-07   -3.06261402348856e-05
9.597986972529286e-07   9.11754217272436e-08   -6.008675007309596e-06
9.597986972529286e-07   9.11754217272436e-08   -6.008675007309596e-06
9.597986972529286e-07   9.11754217272436e-08   -6.008675007309596e-06
9.597986972529286e-07   9.11754217272436e-08   -6.008675007309596e-06
8.482772359082223e-06   -5.8635966889586e-07   -1.8140443389317855e-05
8.482772359082223e-06   -5.8635966889586e-07   -1.8140443389317855e-05
8.482772359082223e-06   -5.8635966889586e-07   -1.8140443389317855e-05
8.482772359082223e-06   -5.8635966889586e-07   -1.8140443389317855e-05
1.625134259538116e-05   -5.902407897992142e-06   -1.7911343387100098e-05
1.625134259538116e-05   -5.902407897992142e-06   -1.7911343387100098e-05
1.625134259538116e-05   -5.902407897992142e-06   -1.7911343387100098e-05
1.625134259538116e-05   -5.902407897992142e-06   -1.7911343387100098e-05
3.1045530670046614e-05   -4.4381842121503086e-06   7.6241709488473835e-06
3.1045530670046614e-05   -4.4381842121503086e-06   7.6241709488473835e-06
3.1045530670046614e-05   -4.4381842121503086e-06   7.6241709488473835e-06
3.1045530670046614e-05   -4.4381842121503086e-06   7.6241709488473835e-06
3.22395879305918e-05   -5.016254244382411e-06   -2.1745445279132078e-05
3.22395879305918e-05   -5.016254244382411e-06   -2.1745445279132078e-05
3.22395879305918e-05   -5.016254244382411e-06   -2.1745445279132078e-05
3.22395879305918e-05   -5.016254244382411e-06   -2.1745445279132078e-05
1.639024309463811e-05   -4.021606552871915e-06   4.073340832551181e-06
1.639024309463811e-05   -4.021606552871915e-06   4.073340832551181e-06
1.639024309463811e-05   -4.021606552871915e-06   4.073340832551181e-06
1.639024309463811e-05   -4.021606552871915e-06   4.073340832551181e-06
2.2866119037501455e-05   -4.82289868819995e-06   -6.239010457690953e-06
2.2866119037501455e-05   -4.82289868819995e-06   -6.239010457690953e-06
2.2866119037501455e-05   -4.82289868819995e-06   -6.239010457690953e-06
2.2866119037501455e-05   -4.82289868819995e-06   -6.239010457690953e-06
1.6390243094638065e-05   -5.016254244382404e-06   -2.234223389403831e-05
1.6390243094638065e-05   -5.016254244382404e-06   -2.234223389403831e-05
1.6390243094638065e-05   -5.016254244382404e-06   -2.234223389403831e-05
1.6390243094638065e-05   -5.016254244382404e-06   -2.234223389403831e-05
3.22395879305918e-05   -4.021606552871915e-06   4.6701294474574945e-06
3.22395879305918e-05   -4.021606552871915e-06   4.6701294474574945e-06
3.22395879305918e-05   -4.021606552871915e-06   4.6701294474574945e-06
3.22395879305918e-05   -4.021606552871915e-06   4.6701294474574945e-06
3.2127036481321225e-05   -4.5816852467470294e-06   -2.364214056566769e-05
3.2127036481321225e-05   -4.5816852467470294e-06   -2.364214056566769e-05
3.2127036481321225e-05   -4.5816852467470294e-06   -2.364214056566769e-05
3.2127036481321225e-05   -4.5816852467470294e-06   -2.364214056566769e-05
1.6315193260218896e-05   -3.583347755587655e-06   2.111928974807209e-06
1.6315193260218896e-05   -3.583347755587655e-06   2.111928974807209e-06
1.6315193260218896e-05   -3.583347755587655e-06   2.111928974807209e-06
1.6315193260218896e-05   -3.583347755587655e-06   2.111928974807209e-06
2.3673190305114388e-05   -4.255976741741191e-06   -9.747822041659827e-06
2.3673190305114388e-05   -4.255976741741191e-06   -9.747822041659827e-06
2.3673190305114388e-05   -4.255976741741191e-06   -9.747822041659827e-06
2.3673190305114388e-05   -4.255976741741191e-06   -9.747822041659827e-06
1.631519326021887e-05   -4.581685246747016e-06   -2.4241143060363276e-05
1.631519326021887e-05   -4.581685246747016e-06   -2.4241143060363276e-05
1.631519326021887e-05   -4.581685246747016e-06   -2.4241143060363276e-05
1.631519326021887e-05   -4.581685246747016e-06   -2.4241143060363276e-05
3.2127036481321225e-05   -3.583347755587655e-06   2.710931469502827e-06
3.2127036481321225e-05   -3.583347755587655e-06   2.710931469502827e-06
3.2127036481321225e-05   -3.583347755587655e-06   2.710931469502827e-06
3.2127036481321225e-05   -3.583347755587655e-06   2.710931469502827e-06
3.194218570091186e-05   -3.554231007805624e-06   -2.751230502133499e-05
3.194218570091186e-05   -3.554231007805624e-06   -2.751230502133499e-05
3.194218570091186e-05   -3.554231007805624e-06   -2.751230502133499e-05
3.194218570091186e-05   -3.554231007805624e-06   -2.751230502133499e-05
1.584245811455127e-05   -2.640660133380239e-06   -1.2275682353892777e-06
1.584245811455127e-05   -2.640660133380239e-06   -1.2275682353892777e-06
1.584245811455127e-05   -2.640660133380239e-06   -1.2275682353892777e-06
1.584245811455127e-05   -2.640660133380239e-06   -1.2275682353892777e-06
2.3001260928260015e-05   -3.6621804494600414e-06   -1.2545994068589254e-05
2.3001260928260015e-05   -3.6621804494600414e-06   -1.2545994068589254e-05
2.3001260928260015e-05   -3.6621804494600414e-06   -1.2545994068589254e-05
2.3001260928260015e-05   -3.6621804494600414e-06   -1.2545994068589254e-05
-3.4800954371513924e-05   5.017267864357522e-06   -2.4076412251253443e-05
-3.4800954371513924e-05   5.017267864357522e-06   -2.4076412251253443e-05
-3.4800954371513924e-05   5.017267864357522e-06   -2.4076412251253443e-05
-3.4800954371513924e-05   5.017267864357522e-06   -2.4076412251253443e-05
-2.2833122931551518e-05   3.827257788187961e-06   -4.844032563684479e-06
-2.2833122931551518e-05   3.827257788187961e-06   -4.844032563684479e-06
-2.2833122931551518e-05   3.827257788187961e-06   -4.844032563684479e-06
-2.2833122931551518e-05   3.827257788187961e-06   -4.844032563684479e-06
-2.2940771576230906e-05   6.026830878822002e-06   -1.999403374486851e-05
-2.2940771576230906e-05   6.026830878822002e-06   -1.999403374486851e-05
-2.2940771576230906e-05   6.026830878822002e-06   -1.999403374486851e-05
-2.2940771576230906e-05   6.026830878822002e-06   -1.999403374486851e-05
-3.426562185716132e-05   4.633373538694206e-06   -2.832088725744392e-07
-3.426562185716132e-05   4.633373538694206e-06   -2.832088725744392e-07
-3.426562185716132e-05   4.633373538694206e-06   -2.832088725744392e-07
-3.426562185716132e-05   4.633373538694206e-06   -2.832088725744392e-07
-2.7495496450569168e-05   5.103568895512494e-06   -1.18488684309858e-05
-2.7495496450569168e-05   5.103568895512494e-06   -1.18488684309858e-05
-2.7495496450569168e-05   5.103568895512494e-06   -1.18488684309858e-05
-2.7495496450569168e-05   5.103568895512494e-06   -1.18488684309858e-05
-3.426562185716132e-05   6.026830878822002e-06   -1.915795934079179e-05
-3.426562185716132e-05   6.026830878822002e-06   -1.915795934079179e-05
-3.426562185716132e-05   6.026830878822002e-06   -1.915795934079179e-05
-3.426562185716132e-05   6.026830878822002e-06   -1.915795934079179e-05
-2.2940771576230906e-05   4.633373538694206e-06   -1.1192832766510519e-06
-2.2940771576230906e-05   4.633373538694206e-06   -1.1192832766510519e-06
-2.2940771576230906e-05   4.633373538694206e-06   -1.1192832766510519e-06
-2.2940771576230906e-05   4.633373538694206e-06   -1.1192832766510519e-06
-2.2914620877572023e-05   6.48266658981195e-06   -1.7107591396460433e-05
-2.2914620877572023e-05   6.48266658981195e-06   -1.7107591396460433e-05
-2.2914620877572023e-05   6.48266658981195e-06   -1.7107591396460433e-05
-2.2914620877572023e-05   6.48266658981195e-06   -1.7107591396460433e-05
-3.3745354295573385e-05   4.9881566308220145e-06   1.8403369422690578e-06
-3.3745354295573385e-05   4.9881566308220145e-06   1.8403369422690578e-06
-3.3745354295573385e-05   4.9881566308220145e-06   1.8403369422690578e-06
-3.3745354295573385e-05   4.9881566308220145e-06   1.8403369422690578e-06
-2.772879892978082e-05   5.570826361299229e-06   -8.536857172337925e-06
-2.772879892978082e-05   5.570826361299229e-06   -8.536857172337925e-06
-2.772879892978082e-05   5.570826361299229e-06   -8.536857172337925e-06
-2.772879892978082e-05   5.570826361299229e-06   -8.536857172337925e-06
-3.3745354295573385e-05   6.48266658981195e-06   -1.6210885421066485e-05
-3.3745354295573385e-05   6.48266658981195e-06   -1.6210885421066485e-05
-3.3745354295573385e-05   6.48266658981195e-06   -1.6210885421066485e-05
-3.3745354295573385e-05   6.48266658981195e-06   -1.6210885421066485e-05
-2.2914620877572063e-05   4.9881566308220145e-06   9.436309668752455e-07
-2.2914620877572063e-05   4.9881566308220145e-06   9.436309668752455e-07
-2.2914620877572063e-05   4.9881566308220145e-06   9.436309668752455e-07
-2.2914620877572063e-05   4.9881566308220145e-06   9.436309668752455e-07
-2.293582694515713e-05   6.847800556026239e-06   -1.3070607303321193e-05
-2.293582694515713e-05   6.847800556026239e-06   -1.3070607303321193e-05
-2.293582694515713e-05   6.847800556026239e-06   -1.3070607303321193e-05
-2.293582694515713e-05   6.847800556026239e-06   -1.3070607303321193e-05
-3.306816795727469e-05   5.339375266721219e-06   4.7216828904574906e-06
-3.306816795727469e-05   5.339375266721219e-06   4.7216828904574906e-06
-3.306816795727469e-05   5.339375266721219e-06   4.7216828904574906e-06
-3.306816795727469e-05   5.339375266721219e-06   4.7216828904574906e-06
-2.7093610765484733e-05   5.8182990741499575e-06   -5.523266713649221e-06
-2.7093610765484733e-05   5.8182990741499575e-06   -5.523266713649221e-06
-2.7093610765484733e-05   5.8182990741499575e-06   -5.523266713649221e-06
-2.7093610765484733e-05   5.8182990741499575e-06   -5.523266713649221e-06
-2.2833122931551518e-05   2.3347833841642278e-06   -2.7929981836610315e-05
-2.2833122931551518e-05   2.3347833841642278e-06   -2.7929981836610315e-05
-2.2833122931551518e-05   2.3347833841642278e-06   -2.7929981836610315e-05
-2.2833122931551518e-05   2.3347833841642278e-06   -2.7929981836610315e-05
-1.1640714803728903e-05   1.9108248107008456e-06   -9.530343434317292e-06
-1.1640714803728903e-05   1.9108248107008456e-06   -9.530343434317292e-06
-1.1640714803728903e-05   1.9108248107008456e-06   -9.530343434317292e-06
-1.1640714803728903e-05   1.9108248107008456e-06   -9.530343434317292e-06
-1.177987118328687e-05   3.2630252511616886e-06   -2.7532430876685006e-05
-1.177987118328687e-05   3.2630252511616886e-06   -2.7532430876685006e-05
-1.177987118328687e-05   3.2630252511616886e-06   -2.7532430876685006e-05
-1.177987118328687e-05   3.2630252511616886e-06   -2.7532430876685006e-05
-2.2940771576230872e-05   2.7041523598403676e-06   -8.595606486985465e-06
-2.2940771576230872e-05   2.7041523598403676e-06   -8.595606486985465e-06
-2.2940771576230872e-05   2.7041523598403676e-06   -8.595606486985465e-06
-2.2940771576230872e-05   2.7041523598403676e-06   -8.595606486985465e-06
-1.715018349132646e-05   2.6959924340097963e-06   -1.8241690672994536e-05
-1.715018349132646e-05   2.6959924340097963e-06   -1.8241690672994536e-05
-1.715018349132646e-05   2.6959924340097963e-06   -1.8241690672994536e-05
-1.715018349132646e-05   2.6959924340097963e-06   -1.8241690672994536e-05
-2.2940771576230893e-05   3.2630252511616886e-06   -2.7197107141892137e-05
-2.2940771576230893e-05   3.2630252511616886e-06   -2.7197107141892137e-05
-2.2940771576230893e-05   3.2630252511616886e-06   -2.7197107141892137e-05
-2.2940771576230893e-05   3.2630252511616886e-06   -2.7197107141892137e-05
-1.177987118328689e-05   2.7041523598403676e-06   -8.930930221778198e-06
-1.177987118328689e-05   2.7041523598403676e-06   -8.930930221778198e-06
-1.177987118328689e-05   2.7041523598403676e-06   -8.930930221778198e-06
-1.177987118328689e-05   2.7041523598403676e-06   -8.930930221778198e-06
-1.1869342677092835e-05   4.031963995653365e-06   -2.680459001816861e-05
-1.1869342677092835e-05   4.031963995653365e-06   -2.680459001816861e-05
-1.1869342677092835e-05   4.031963995653365e-06   -2.680459001816861e-05
-1.1869342677092835e-05   4.031963995653365e-06   -2.680459001816861e-05
-2.2914620877572023e-05   3.4097314858169128e-06   -8.022453511468232e-06
-2.2914620877572023e-05   3.4097314858169128e-06   -8.022453511468232e-06
-2.2914620877572023e-05   3.4097314858169128e-06   -8.022453511468232e-06
-2.2914620877572023e-05   3.4097314858169128e-06   -8.022453511468232e-06
-1.7179910404710786e-05   3.3491846655354517e-06   -1.7543976207401067e-05
-1.7179910404710786e-05   3.3491846655354517e-06   -1.7543976207401067e-05
-1.7179910404710786e-05   3.3491846655354517e-06   -1.7543976207401067e-05
-1.7179910404710786e-05   3.3491846655354517e-06   -1.7543976207401067e-05
-2.2914620877572023e-05   4.031963995653392e-06   -2.643125051226675e-05
-2.2914620877572023e-05   4.031963995653392e-06   -2.643125051226675e-05
-2.2914620877572023e-05   4.031963995653392e-06   -2.643125051226675e-05
-2.2914620877572023e-05   4.031963995653392e-06   -2.643125051226675e-05
-1.1869342677092883e-05   3.409731485816967e-06   -8.395793017369982e-06
-1.1869342677092883e-05   3.409731485816967e-06   -8.395793017369982e-06
-1.1869342677092883e-05   3.409731485816967e-06   -8.395793017369982e-06
-1.1869342677092883e-05   3.409731485816967e-06   -8.395793017369982e-06
-1.1985944594454882e-05   4.8598193088032445e-06   -2.6740503406794716e-05
-1.1985944594454882e-05   4.8598193088032445e-06   -2.6740503406794716e-05
-1.1985944594454882e-05   4.8598193088032445e-06   -2.6740503406794716e-05
-1.1985944594454882e-05   4.8598193088032445e-06   -2.6740503406794716e-05
-2.2935826945157116e-05   4.161110418652171e-06   -8.071474154866992e-06
-2.2935826945157116e-05   4.161110418652171e-06   -8.071474154866992e-06
-2.2935826945157116e-05   4.161110418652171e-06   -8.071474154866992e-06
-2.2935826945157116e-05   4.161110418652171e-06   -8.071474154866992e-06
-1.738140637720586e-05   3.996857687878599e-06   -1.7230290129654726e-05
-1.738140637720586e-05   3.996857687878599e-06   -1.7230290129654726e-05
-1.738140637720586e-05   3.996857687878599e-06   -1.7230290129654726e-05
-1.738140637720586e-05   3.996857687878599e-06   -1.7230290129654726e-05
-1.1640714803728876e-05   -7.098301060029207e-08   -3.0118566900880973e-05
-1.1640714803728876e-05   -7.098301060029207e-08   -3.0118566900880973e-05
-1.1640714803728876e-05   -7.098301060029207e-08   -3.0118566900880973e-05
-1.1640714803728876e-05   -7.098301060029207e-08   -3.0118566900880973e-05
-5.711249291467934e-07   1.0221038329279782e-07   -1.1565334406908294e-05
-5.711249291467934e-07   1.0221038329279782e-07   -1.1565334406908294e-05
-5.711249291467934e-07   1.0221038329279782e-07   -1.1565334406908294e-05
-5.711249291467934e-07   1.0221038329279782e-07   -1.1565334406908294e-05
-6.824977387532133e-07   7.845347861494306e-07   -2.9834622323094057e-05
-6.824977387532133e-07   7.845347861494306e-07   -2.9834622323094057e-05
-6.824977387532133e-07   7.845347861494306e-07   -2.9834622323094057e-05
-6.824977387532133e-07   7.845347861494306e-07   -2.9834622323094057e-05
-1.177987118328687e-05   8.838359701223613e-07   -1.1398580625921788e-05
-1.177987118328687e-05   8.838359701223613e-07   -1.1398580625921788e-05
-1.177987118328687e-05   8.838359701223613e-07   -1.1398580625921788e-05
-1.177987118328687e-05   8.838359701223613e-07   -1.1398580625921788e-05
-6.133561376128384e-06   5.154938828395503e-07   -2.0588091718816237e-05
-6.133561376128384e-06   5.154938828395503e-07   -2.0588091718816237e-05
-6.133561376128384e-06   5.154938828395503e-07   -2.0588091718816237e-05
-6.133561376128384e-06   5.154938828395503e-07   -2.0588091718816237e-05
-1.177987118328687e-05   7.845347861494306e-07   -2.989420303347787e-05
-1.177987118328687e-05   7.845347861494306e-07   -2.989420303347787e-05
-1.177987118328687e-05   7.845347861494306e-07   -2.989420303347787e-05
-1.177987118328687e-05   7.845347861494306e-07   -2.989420303347787e-05
-6.824977387532146e-07   8.838359701223613e-07   -1.1338999915537948e-05
-6.824977387532146e-07   8.838359701223613e-07   -1.1338999915537948e-05
-6.824977387532146e-07   8.838359701223613e-07   -1.1338999915537948e-05
-6.824977387532146e-07   8.838359701223613e-07   -1.1338999915537948e-05
-7.621985467207684e-07   1.6206158074435323e-06   -2.9914369752690432e-05
-7.621985467207684e-07   1.6206158074435323e-06   -2.9914369752690432e-05
-7.621985467207684e-07   1.6206158074435323e-06   -2.9914369752690432e-05
-7.621985467207684e-07   1.6206158074435323e-06   -2.9914369752690432e-05
-1.1869342677092862e-05   1.6632049385173291e-06   -1.1428016347381361e-05
-1.1869342677092862e-05   1.6632049385173291e-06   -1.1428016347381361e-05
-1.1869342677092862e-05   1.6632049385173291e-06   -1.1428016347381361e-05
-1.1869342677092862e-05   1.6632049385173291e-06   -1.1428016347381361e-05
-6.2779564599647294e-06   1.2049963501219651e-06   -2.047206822289086e-05
-6.2779564599647294e-06   1.2049963501219651e-06   -2.047206822289086e-05
-6.2779564599647294e-06   1.2049963501219651e-06   -2.047206822289086e-05
-6.2779564599647294e-06   1.2049963501219651e-06   -2.047206822289086e-05
-1.1869342677092862e-05   1.6206158074435323e-06   -2.9939923231334778e-05
-1.1869342677092862e-05   1.6206158074435323e-06   -2.9939923231334778e-05
-1.1869342677092862e-05   1.6206158074435323e-06   -2.9939923231334778e-05
-1.1869342677092862e-05   1.6206158074435323e-06   -2.9939923231334778e-05
-7.621985467207697e-07   1.6632049385173291e-06   -1.1402462868736961e-05
-7.621985467207697e-07   1.6632049385173291e-06   -1.1402462868736961e-05
-7.621985467207697e-07   1.6632049385173291e-06   -1.1402462868736961e-05
-7.621985467207697e-07   1.6632049385173291e-06   -1.1402462868736961e-05
-8.886947553264145e-07   2.4915219773508014e-06   -3.0298833003549928e-05
-8.886947553264145e-07   2.4915219773508014e-06   -3.0298833003549928e-05
-8.886947553264145e-07   2.4915219773508014e-06   -3.0298833003549928e-05
-8.886947553264145e-07   2.4915219773508014e-06   -3.0298833003549928e-05
-1.1985944594454872e-05   2.460613054061807e-06   -1.1784871251029256e-05
-1.1985944594454872e-05   2.460613054061807e-06   -1.1784871251029256e-05
-1.1985944594454872e-05   2.460613054061807e-06   -1.1784871251029256e-05
-1.1985944594454872e-05   2.460613054061807e-06   -1.1784871251029256e-05
-6.431477666286798e-06   1.9026967213211761e-06   -2.0707566331664822e-05
-6.431477666286798e-06   1.9026967213211761e-06   -2.0707566331664822e-05
-6.431477666286798e-06   1.9026967213211761e-06   -2.0707566331664822e-05
-6.431477666286798e-06   1.9026967213211761e-06   -2.0707566331664822e-05
-5.711249291467942e-07   -2.390389163382681e-06   -2.690677185553801e-05
-5.711249291467942e-07   -2.390389163382681e-06   -2.690677185553801e-05
-5.711249291467942e-07   -2.390389163382681e-06   -2.690677185553801e-05
-5.711249291467942e-07   -2.390389163382681e-06   -2.690677185553801e-05
1.0438042956542739e-05   -1.5986308730350806e-06   -8.083103738513585e-06
1.0438042956542739e-05   -1.5986308730350806e-06   -8.083103738513585e-06
1.0438042956542739e-05   -1.5986308730350806e-06   -8.083103738513585e-06
1.0438042956542739e-05   -1.5986308730350806e-06   -8.083103738513585e-06
1.0432250230238275e-05   -1.6120525184000944e-06   -2.6593292515433406e-05
1.0432250230238275e-05   -1.6120525184000944e-06   -2.6593292515433406e-05
1.0432250230238275e-05   -1.6120525184000944e-06   -2.6593292515433406e-05
1.0432250230238275e-05   -1.6120525184000944e-06   -2.6593292515433406e-05
-6.824977387532146e-07   -8.811588238748355e-07   -8.507248783829361e-06
-6.824977387532146e-07   -8.811588238748355e-07   -8.507248783829361e-06
-6.824977387532146e-07   -8.811588238748355e-07   -8.507248783829361e-06
-6.824977387532146e-07   -8.811588238748355e-07   -8.507248783829361e-06
4.867081920239944e-06   -1.563652695510322e-06   -1.7347051892503358e-05
4.867081920239944e-06   -1.563652695510322e-06   -1.7347051892503358e-05
4.867081920239944e-06   -1.563652695510322e-06   -1.7347051892503358e-05
4.867081920239944e-06   -1.563652695510322e-06   -1.7347051892503358e-05
-6.824977387532146e-07   -1.6120525184000944e-06   -2.703182873214849e-05
-6.824977387532146e-07   -1.6120525184000944e-06   -2.703182873214849e-05
-6.824977387532146e-07   -1.6120525184000944e-06   -2.703182873214849e-05
-6.824977387532146e-07   -1.6120525184000944e-06   -2.703182873214849e-05
1.0432250230238275e-05   -8.811588238748355e-07   -8.068712567114192e-06
1.0432250230238275e-05   -8.811588238748355e-07   -8.068712567114192e-06
1.0432250230238275e-05   -8.811588238748355e-07   -8.068712567114192e-06
1.0432250230238275e-05   -8.811588238748355e-07   -8.068712567114192e-06
1.0484913296087015e-05   -8.502673497465555e-07   -2.729350445385332e-05
1.0484913296087015e-05   -8.502673497465555e-07   -2.729350445385332e-05
1.0484913296087015e-05   -8.502673497465555e-07   -2.729350445385332e-05
1.0484913296087015e-05   -8.502673497465555e-07   -2.729350445385332e-05
-7.621985467207709e-07   -1.7701737308747434e-07   -8.952268035169196e-06
-7.621985467207709e-07   -1.7701737308747434e-07   -8.952268035169196e-06
-7.621985467207709e-07   -1.7701737308747434e-07   -8.952268035169196e-06
-7.621985467207709e-07   -1.7701737308747434e-07   -8.952268035169196e-06
4.718522700274832e-06   -9.417644844047525e-07   -1.7627955180038e-05
4.718522700274832e-06   -9.417644844047525e-07   -1.7627955180038e-05
4.718522700274832e-06   -9.417644844047525e-07   -1.7627955180038e-05
4.718522700274832e-06   -9.417644844047525e-07   -1.7627955180038e-05
-7.621985467207692e-07   -8.502673497465555e-07   -2.7697454439848642e-05
-7.621985467207692e-07   -8.502673497465555e-07   -2.7697454439848642e-05
-7.621985467207692e-07   -8.502673497465555e-07   -2.7697454439848642e-05
-7.621985467207692e-07   -8.502673497465555e-07   -2.7697454439848642e-05
1.0484913296087015e-05   -1.7701737308747434e-07   -8.548318049173627e-06
1.0484913296087015e-05   -1.7701737308747434e-07   -8.548318049173627e-06
1.0484913296087015e-05   -1.7701737308747434e-07   -8.548318049173627e-06
1.0484913296087015e-05   -1.7701737308747434e-07   -8.548318049173627e-06
1.0406954015263748e-05   9.11754217272436e-08   -2.8090279938330326e-05
1.0406954015263748e-05   9.11754217272436e-08   -2.8090279938330326e-05
1.0406954015263748e-05   9.11754217272436e-08   -2.8090279938330326e-05
1.0406954015263748e-05   9.11754217272436e-08   -2.8090279938330326e-05
-8.886947553264162e-07   6.45375395559979e-07   -9.596718638313084e-06
-8.886947553264162e-07   6.45375395559979e-07   -9.596718638313084e-06
-8.886947553264162e-07   6.45375395559979e-07   -9.596718638313084e-06
-8.886947553264162e-07   6.45375395559979e-07   -9.596718638313084e-06
4.6676541146177975e-06   -2.771127137061774e-07   -1.8303807222660267e-05
4.6676541146177975e-06   -2.771127137061774e-07   -1.8303807222660267e-05
4.6676541146177975e-06   -2.771127137061774e-07   -1.8303807222660267e-05
4.6676541146177975e-06   -2.771127137061774e-07   -1.8303807222660267e-05
1.0438042956542719e-05   -4.4381842121502815e-06   -1.5042360322475019e-05
1.0438042956542719e-05   -4.4381842121502815e-06   -1.5042360322475019e-05
1.0438042956542719e-05   -4.4381842121502815e-06   -1.5042360322475019e-05
1.0438042956542719e-05   -4.4381842121502815e-06   -1.5042360322475019e-05
2.0728172167248173e-05   -2.8929067895475287e-06   3.0350214822624485e-06
2.0728172167248173e-05   -2.8929067895475287e-06   3.0350214822624485e-06
2.0728172167248173e-05   -2.8929067895475287e-06   3.0350214822624485e-06
2.0728172167248173e-05   -2.8929067895475287e-06   3.0350214822624485e-06
2.1436092758815266e-05   -4.021606552871888e-06   -1.690530963451663e-05
2.1436092758815266e-05   -4.021606552871888e-06   -1.690530963451663e-05
2.1436092758815266e-05   -4.021606552871888e-06   -1.690530963451663e-05
2.1436092758815266e-05   -4.021606552871888e-06   -1.690530963451663e-05
1.0432250230238254e-05   -2.477856490906325e-06   5.081778759323562e-07
1.0432250230238254e-05   -2.477856490906325e-06   5.081778759323562e-07
1.0432250230238254e-05   -2.477856490906325e-06   5.081778759323562e-07
1.0432250230238254e-05   -2.477856490906325e-06   5.081778759323562e-07
1.5085300012838075e-05   -3.416331351321011e-06   -6.683820178818501e-06
1.5085300012838075e-05   -3.416331351321011e-06   -6.683820178818501e-06
1.5085300012838075e-05   -3.416331351321011e-06   -6.683820178818501e-06
1.5085300012838075e-05   -3.416331351321011e-06   -6.683820178818501e-06
1.0432250230238241e-05   -4.021606552871915e-06   -1.7831559671695963e-05
1.0432250230238241e-05   -4.021606552871915e-06   -1.7831559671695963e-05
1.0432250230238241e-05   -4.021606552871915e-06   -1.7831559671695963e-05
1.0432250230238241e-05   -4.021606552871915e-06   -1.7831559671695963e-05
2.1436092758815266e-05   -2.477856490906271e-06   1.4344279131117644e-06
2.1436092758815266e-05   -2.477856490906271e-06   1.4344279131117644e-06
2.1436092758815266e-05   -2.477856490906271e-06   1.4344279131117644e-06
2.1436092758815266e-05   -2.477856490906271e-06   1.4344279131117644e-06
2.1981974253774015e-05   -3.583347755587655e-06   -1.9061055309608367e-05
2.1981974253774015e-05   -3.583347755587655e-06   -1.9061055309608367e-05
2.1981974253774015e-05   -3.583347755587655e-06   -1.9061055309608367e-05
2.1981974253774015e-05   -3.583347755587655e-06   -1.9061055309608367e-05
1.0484913296086981e-05   -2.123736077525788e-06   -7.750540536338344e-07
1.0484913296086981e-05   -2.123736077525788e-06   -7.750540536338344e-07
1.0484913296086981e-05   -2.123736077525788e-06   -7.750540536338344e-07
1.0484913296086981e-05   -2.123736077525788e-06   -7.750540536338344e-07
1.5602911951715167e-05   -3.148722712792895e-06   -8.690059831853813e-06
1.5602911951715167e-05   -3.148722712792895e-06   -8.690059831853813e-06
1.5602911951715167e-05   -3.148722712792895e-06   -8.690059831853813e-06
1.5602911951715167e-05   -3.148722712792895e-06   -8.690059831853813e-06
1.0484913296086995e-05   -3.583347755587655e-06   -1.9936822316445507e-05
1.0484913296086995e-05   -3.583347755587655e-06   -1.9936822316445507e-05
1.0484913296086995e-05   -3.583347755587655e-06   -1.9936822316445507e-05
1.0484913296086995e-05   -3.583347755587655e-06   -1.9936822316445507e-05
2.1981974253773988e-05   -2.123736077525788e-06   1.0071295320336713e-07
2.1981974253773988e-05   -2.123736077525788e-06   1.0071295320336713e-07
2.1981974253773988e-05   -2.123736077525788e-06   1.0071295320336713e-07
2.1981974253773988e-05   -2.123736077525788e-06   1.0071295320336713e-07
2.256518872685409e-05   -2.640660133380239e-06   -2.273300763656346e-05
2.256518872685409e-05   -2.640660133380239e-06   -2.273300763656346e-05
2.256518872685409e-05   -2.640660133380239e-06   -2.273300763656346e-05
2.256518872685409e-05   -2.640660133380239e-06   -2.273300763656346e-05
1.0406954015263715e-05   -1.3687723593231631e-06   -3.2324157816805005e-06
1.0406954015263715e-05   -1.3687723593231631e-06   -3.2324157816805005e-06
1.0406954015263715e-05   -1.3687723593231631e-06   -3.2324157816805005e-06
1.0406954015263715e-05   -1.3687723593231631e-06   -3.2324157816805005e-06
1.5541564641794308e-05   -2.710251795481471e-06   -1.098521249753643e-05
1.5541564641794308e-05   -2.710251795481471e-06   -1.098521249753643e-05
1.5541564641794308e-05   -2.710251795481471e-06   -1.098521249753643e-05
1.5541564641794308e-05   -2.710251795481471e-06   -1.098521249753643e-05
-2.494457310208388e-05   3.827257788187961e-06   -1.9019231880086423e-05
-2.494457310208388e-05   3.827257788187961e-06   -1.9019231880086423e-05
-2.494457310208388e-05   3.827257788187961e-06   -1.9019231880086423e-05
-2.494457310208388e-05   3.827257788187961e-06   -1.9019231880086423e-05
-1.7009678862163003e-05   2.428544768258835e-06   -6.633635958842448e-06
-1.7009678862163003e-05   2.428544768258835e-06   -6.633635958842448e-06
-1.7009678862163003e-05   2.428544768258835e-06   -6.633635958842448e-06
-1.7009678862163003e-05   2.428544768258835e-06   -6.633635958842448e-06
-1.69472706952672e-05   4.633373538694206e-06   -1.615882683187939e-05
-1.69472706952672e-05   4.633373538694206e-06   -1.615882683187939e-05
-1.69472706952672e-05   4.633373538694206e-06   -1.615882683187939e-05
-1.69472706952672e-05   4.633373538694206e-06   -1.615882683187939e-05
-2.419251963683218e-05   3.0944074854441853e-06   -3.1600322973210576e-06
-2.419251963683218e-05   3.0944074854441853e-06   -3.1600322973210576e-06
-2.419251963683218e-05   3.0944074854441853e-06   -3.1600322973210576e-06
-2.419251963683218e-05   3.0944074854441853e-06   -3.1600322973210576e-06
-1.989204595488823e-05   3.6865533597599557e-06   -1.0682775958483832e-05
-1.989204595488823e-05   3.6865533597599557e-06   -1.0682775958483832e-05
-1.989204595488823e-05   3.6865533597599557e-06   -1.0682775958483832e-05
-1.989204595488823e-05   3.6865533597599557e-06   -1.0682775958483832e-05
-2.419251963683218e-05   4.633373538694206e-06   -1.5235447199929403e-05
-2.419251963683218e-05   4.633373538694206e-06   -1.5235447199929403e-05
-2.419251963683218e-05   4.633373538694206e-06   -1.5235447199929403e-05
-2.419251963683218e-05   4.633373538694206e-06   -1.5235447199929403e-05
-1.6947270695267226e-05   3.0944074854441853e-06   -4.083411929271043e-06
-1.6947270695267226e-05   3.0944074854441853e-06   -4.083411929271043e-06
-1.6947270695267226e-05   3.0944074854441853e-06   -4.083411929271043e-06
-1.6947270695267226e-05   3.0944074854441853e-06   -4.083411929271043e-06
-1.6818414167773198e-05   4.9881566308220145e-06   -1.4090879739554448e-05
-1.6818414167773198e-05   4.9881566308220145e-06   -1.4090879739554448e-05
-1.6818414167773198e-05   4.9881566308220145e-06   -1.4090879739554448e-05
-1.6818414167773198e-05   4.9881566308220145e-06   -1.4090879739554448e-05
-2.363139455966896e-05   3.405523549714106e-06   -1.7863325710634477e-06
-2.363139455966896e-05   3.405523549714106e-06   -1.7863325710634477e-06
-2.363139455966896e-05   3.405523549714106e-06   -1.7863325710634477e-06
-2.363139455966896e-05   3.405523549714106e-06   -1.7863325710634477e-06
-1.9891202896181393e-05   4.058282395844699e-06   -8.411640651221117e-06
-1.9891202896181393e-05   4.058282395844699e-06   -8.411640651221117e-06
-1.9891202896181393e-05   4.058282395844699e-06   -8.411640651221117e-06
-1.9891202896181393e-05   4.058282395844699e-06   -8.411640651221117e-06
-2.363139455966896e-05   4.9881566308220145e-06   -1.314129989088967e-05
-2.363139455966896e-05   4.9881566308220145e-06   -1.314129989088967e-05
-2.363139455966896e-05   4.9881566308220145e-06   -1.314129989088967e-05
-2.363139455966896e-05   4.9881566308220145e-06   -1.314129989088967e-05
-1.6818414167773225e-05   3.405523549714106e-06   -2.735912419728144e-06
-1.6818414167773225e-05   3.405523549714106e-06   -2.735912419728144e-06
-1.6818414167773225e-05   3.405523549714106e-06   -2.735912419728144e-06
-1.6818414167773225e-05   3.405523549714106e-06   -2.735912419728144e-06
-1.676752151995977e-05   5.339375266721273e-06   -1.1231562683927448e-05
-1.676752151995977e-05   5.339375266721273e-06   -1.1231562683927448e-05
-1.676752151995977e-05   5.339375266721273e-06   -1.1231562683927448e-05
-1.676752151995977e-05   5.339375266721273e-06   -1.1231562683927448e-05
-2.2898435412416933e-05   3.798088947701316e-06   -8.860107175348965e-08
-2.2898435412416933e-05   3.798088947701316e-06   -8.860107175348965e-08
-2.2898435412416933e-05   3.798088947701316e-06   -8.860107175348965e-08
-2.2898435412416933e-05   3.798088947701316e-06   -8.860107175348965e-08
-1.9301674387875774e-05   4.261370143632953e-06   -6.36117149688107e-06
-1.9301674387875774e-05   4.261370143632953e-06   -6.36117149688107e-06
-1.9301674387875774e-05   4.261370143632953e-06   -6.36117149688107e-06
-1.9301674387875774e-05   4.261370143632953e-06   -6.36117149688107e-06
-1.7009678862162976e-05   1.9108248107008456e-06   -2.429039541859866e-05
-1.7009678862162976e-05   1.9108248107008456e-06   -2.429039541859866e-05
-1.7009678862162976e-05   1.9108248107008456e-06   -2.429039541859866e-05
-1.7009678862162976e-05   1.9108248107008456e-06   -2.429039541859866e-05
-9.8096535625414e-06   1.2596780463651849e-06   -1.2681041311164134e-05
-9.8096535625414e-06   1.2596780463651849e-06   -1.2681041311164134e-05
-9.8096535625414e-06   1.2596780463651849e-06   -1.2681041311164134e-05
-9.8096535625414e-06   1.2596780463651849e-06   -1.2681041311164134e-05
-9.814660019733377e-06   2.704152359840422e-06   -2.407969263142659e-05
-9.814660019733377e-06   2.704152359840422e-06   -2.407969263142659e-05
-9.814660019733377e-06   2.704152359840422e-06   -2.407969263142659e-05
-9.814660019733377e-06   2.704152359840422e-06   -2.407969263142659e-05
-1.69472706952672e-05   1.9632480444857297e-06   -1.174746558299072e-05
-1.69472706952672e-05   1.9632480444857297e-06   -1.174746558299072e-05
-1.69472706952672e-05   1.9632480444857297e-06   -1.174746558299072e-05
-1.69472706952672e-05   1.9632480444857297e-06   -1.174746558299072e-05
-1.3271609742294757e-05   2.092630633876804e-06   -1.7951196724912786e-05
-1.3271609742294757e-05   2.092630633876804e-06   -1.7951196724912786e-05
-1.3271609742294757e-05   2.092630633876804e-06   -1.7951196724912786e-05
-1.3271609742294757e-05   2.092630633876804e-06   -1.7951196724912786e-05
-1.694727069526717e-05   2.7041523598403676e-06   -2.3635150042213693e-05
-1.694727069526717e-05   2.7041523598403676e-06   -2.3635150042213693e-05
-1.694727069526717e-05   2.7041523598403676e-06   -2.3635150042213693e-05
-1.694727069526717e-05   2.7041523598403676e-06   -2.3635150042213693e-05
-9.814660019733377e-06   1.9632480444857297e-06   -1.219200817220355e-05
-9.814660019733377e-06   1.9632480444857297e-06   -1.219200817220355e-05
-9.814660019733377e-06   1.9632480444857297e-06   -1.219200817220355e-05
-9.814660019733377e-06   1.9632480444857297e-06   -1.219200817220355e-05
-9.80775151895458e-06   3.4097314858169128e-06   -2.354020967188094e-05
-9.80775151895458e-06   3.4097314858169128e-06   -2.354020967188094e-05
-9.80775151895458e-06   3.4097314858169128e-06   -2.354020967188094e-05
-9.80775151895458e-06   3.4097314858169128e-06   -2.354020967188094e-05
-1.6818414167773198e-05   2.6043223958449016e-06   -1.1372526469866697e-05
-1.6818414167773198e-05   2.6043223958449016e-06   -1.1372526469866697e-05
-1.6818414167773198e-05   2.6043223958449016e-06   -1.1372526469866697e-05
-1.6818414167773198e-05   2.6043223958449016e-06   -1.1372526469866697e-05
-1.3210175481392228e-05   2.6712377155542607e-06   -1.7426406805660425e-05
-1.3210175481392228e-05   2.6712377155542607e-06   -1.7426406805660425e-05
-1.3210175481392228e-05   2.6712377155542607e-06   -1.7426406805660425e-05
-1.3210175481392228e-05   2.6712377155542607e-06   -1.7426406805660425e-05
-1.6818414167773198e-05   3.4097314858169128e-06   -2.305696421789775e-05
-1.6818414167773198e-05   3.4097314858169128e-06   -2.305696421789775e-05
-1.6818414167773198e-05   3.4097314858169128e-06   -2.305696421789775e-05
-1.6818414167773198e-05   3.4097314858169128e-06   -2.305696421789775e-05
-9.807751518954593e-06   2.604322395844956e-06   -1.1855771923849806e-05
-9.807751518954593e-06   2.604322395844956e-06   -1.1855771923849806e-05
-9.807751518954593e-06   2.604322395844956e-06   -1.1855771923849806e-05
-9.807751518954593e-06   2.604322395844956e-06   -1.1855771923849806e-05
-9.816113327875752e-06   4.161110418652171e-06   -2.3635396242228848e-05
-9.816113327875752e-06   4.161110418652171e-06   -2.3635396242228848e-05
-9.816113327875752e-06   4.161110418652171e-06   -2.3635396242228848e-05
-9.816113327875752e-06   4.161110418652171e-06   -2.3635396242228848e-05
-1.6767521519959783e-05   3.3015576077191546e-06   -1.1533984235528947e-05
-1.6767521519959783e-05   3.3015576077191546e-06   -1.1533984235528947e-05
-1.6767521519959783e-05   3.3015576077191546e-06   -1.1533984235528947e-05
-1.6767521519959783e-05   3.3015576077191546e-06   -1.1533984235528947e-05
-1.3296085313905347e-05   3.2445652821833245e-06   -1.7285515850298127e-05
-1.3296085313905347e-05   3.2445652821833245e-06   -1.7285515850298127e-05
-1.3296085313905347e-05   3.2445652821833245e-06   -1.7285515850298127e-05
-1.3296085313905347e-05   3.2445652821833245e-06   -1.7285515850298127e-05
-9.809653562541394e-06   1.0221038329285203e-07   -2.6819990486126957e-05
-9.809653562541394e-06   1.0221038329285203e-07   -2.6819990486126957e-05
-9.809653562541394e-06   1.0221038329285203e-07   -2.6819990486126957e-05
-9.809653562541394e-06   1.0221038329285203e-07   -2.6819990486126957e-05
-2.7058896966887984e-06   2.1943543591533077e-07   -1.491004901146587e-05
-2.7058896966887984e-06   2.1943543591533077e-07   -1.491004901146587e-05
-2.7058896966887984e-06   2.1943543591533077e-07   -1.491004901146587e-05
-2.7058896966887984e-06   2.1943543591533077e-07   -1.491004901146587e-05
-2.7114342899065067e-06   8.838359701223613e-07   -2.6521003232703058e-05
-2.7114342899065067e-06   8.838359701223613e-07   -2.6521003232703058e-05
-2.7114342899065067e-06   8.838359701223613e-07   -2.6521003232703058e-05
-2.7114342899065067e-06   8.838359701223613e-07   -2.6521003232703058e-05
-9.814660019733364e-06   9.277356415674778e-07   -1.4708633485858668e-05
-9.814660019733364e-06   9.277356415674778e-07   -1.4708633485858668e-05
-9.814660019733364e-06   9.277356415674778e-07   -1.4708633485858668e-05
-9.814660019733364e-06   9.277356415674778e-07   -1.4708633485858668e-05
-6.218607246135502e-06   6.256884432041115e-07   -2.0520826456170393e-05
-6.218607246135502e-06   6.256884432041115e-07   -2.0520826456170393e-05
-6.218607246135502e-06   6.256884432041115e-07   -2.0520826456170393e-05
-6.218607246135502e-06   6.256884432041115e-07   -2.0520826456170393e-05
-9.814660019733364e-06   8.838359701223613e-07   -2.6547343035570085e-05
-9.814660019733364e-06   8.838359701223613e-07   -2.6547343035570085e-05
-9.814660019733364e-06   8.838359701223613e-07   -2.6547343035570085e-05
-9.814660019733364e-06   8.838359701223613e-07   -2.6547343035570085e-05
-2.7114342899065067e-06   9.277356415674778e-07   -1.4682293682991628e-05
-2.7114342899065067e-06   9.277356415674778e-07   -1.4682293682991628e-05
-2.7114342899065067e-06   9.277356415674778e-07   -1.4682293682991628e-05
-2.7114342899065067e-06   9.277356415674778e-07   -1.4682293682991628e-05
-2.702336382482634e-06   1.6632049385173291e-06   -2.65873672331257e-05
-2.702336382482634e-06   1.6632049385173291e-06   -2.65873672331257e-05
-2.702336382482634e-06   1.6632049385173291e-06   -2.65873672331257e-05
-2.702336382482634e-06   1.6632049385173291e-06   -2.65873672331257e-05
-9.80775151895458e-06   1.6383145531280517e-06   -1.473007444110564e-05
-9.80775151895458e-06   1.6383145531280517e-06   -1.473007444110564e-05
-9.80775151895458e-06   1.6383145531280517e-06   -1.473007444110564e-05
-9.80775151895458e-06   1.6383145531280517e-06   -1.473007444110564e-05
-6.260534453149692e-06   1.2458232120280918e-06   -2.0406608079453856e-05
-6.260534453149692e-06   1.2458232120280918e-06   -2.0406608079453856e-05
-6.260534453149692e-06   1.2458232120280918e-06   -2.0406608079453856e-05
-6.260534453149692e-06   1.2458232120280918e-06   -2.0406608079453856e-05
-9.80775151895458e-06   1.6632049385173291e-06   -2.6572433001892197e-05
-9.80775151895458e-06   1.6632049385173291e-06   -2.6572433001892197e-05
-9.80775151895458e-06   1.6632049385173291e-06   -2.6572433001892197e-05
-9.80775151895458e-06   1.6632049385173291e-06   -2.6572433001892197e-05
-2.7023363824826385e-06   1.6383145531279975e-06   -1.4745008672339141e-05
-2.7023363824826385e-06   1.6383145531279975e-06   -1.4745008672339141e-05
-2.7023363824826385e-06   1.6383145531279975e-06   -1.4745008672339141e-05
-2.7023363824826385e-06   1.6383145531279975e-06   -1.4745008672339141e-05
-2.7067160140822627e-06   2.460613054061807e-06   -2.698914580995254e-05
-2.7067160140822627e-06   2.460613054061807e-06   -2.698914580995254e-05
-2.7067160140822627e-06   2.460613054061807e-06   -2.698914580995254e-05
-2.7067160140822627e-06   2.460613054061807e-06   -2.698914580995254e-05
-9.816113327875745e-06   2.361316711308424e-06   -1.5080572481311201e-05
-9.816113327875745e-06   2.361316711308424e-06   -1.5080572481311201e-05
-9.816113327875745e-06   2.361316711308424e-06   -1.5080572481311201e-05
-9.816113327875745e-06   2.361316711308424e-06   -1.5080572481311201e-05
-6.3146398622173966e-06   1.8741096998476378e-06   -2.0624037383865363e-05
-6.3146398622173966e-06   1.8741096998476378e-06   -2.0624037383865363e-05
-6.3146398622173966e-06   1.8741096998476378e-06   -2.0624037383865363e-05
-6.3146398622173966e-06   1.8741096998476378e-06   -2.0624037383865363e-05
-2.705889696688794e-06   -1.5986308730350806e-06   -2.3742479760367356e-05
-2.705889696688794e-06   -1.5986308730350806e-06   -2.3742479760367356e-05
-2.705889696688794e-06   -1.5986308730350806e-06   -2.3742479760367356e-05
-2.705889696688794e-06   -1.5986308730350806e-06   -2.3742479760367356e-05
4.288617211182042e-06   -7.311940912329033e-07   -1.1564506178167997e-05
4.288617211182042e-06   -7.311940912329033e-07   -1.1564506178167997e-05
4.288617211182042e-06   -7.311940912329033e-07   -1.1564506178167997e-05
4.288617211182042e-06   -7.311940912329033e-07   -1.1564506178167997e-05
4.345516052366041e-06   -8.811588238748355e-07   -2.319843160398979e-05
4.345516052366041e-06   -8.811588238748355e-07   -2.319843160398979e-05
4.345516052366041e-06   -8.811588238748355e-07   -2.319843160398979e-05
4.345516052366041e-06   -8.811588238748355e-07   -2.319843160398979e-05
-2.7114342899065067e-06   -6.312466220060892e-08   -1.1927668197206789e-05
-2.7114342899065067e-06   -6.312466220060892e-08   -1.1927668197206789e-05
-2.7114342899065067e-06   -6.312466220060892e-08   -1.1927668197206789e-05
-2.7114342899065067e-06   -6.312466220060892e-08   -1.1927668197206789e-05
8.09122489183819e-07   -7.56825027432525e-07   -1.7379042609884795e-05
8.09122489183819e-07   -7.56825027432525e-07   -1.7379042609884795e-05
8.09122489183819e-07   -7.56825027432525e-07   -1.7379042609884795e-05
8.09122489183819e-07   -7.56825027432525e-07   -1.7379042609884795e-05
-2.7114342899065067e-06   -8.811588238748355e-07   -2.36892521009944e-05
-2.7114342899065067e-06   -8.811588238748355e-07   -2.36892521009944e-05
-2.7114342899065067e-06   -8.811588238748355e-07   -2.36892521009944e-05
-2.7114342899065067e-06   -8.811588238748355e-07   -2.36892521009944e-05
4.345516052366055e-06   -6.312466220060892e-08   -1.1436847700202273e-05
4.345516052366055e-06   -6.312466220060892e-08   -1.1436847700202273e-05
4.345516052366055e-06   -6.312466220060892e-08   -1.1436847700202273e-05
4.345516052366055e-06   -6.312466220060892e-08   -1.1436847700202273e-05
4.481098447097445e-06   -1.7701737308747434e-07   -2.368372459730117e-05
4.481098447097445e-06   -1.7701737308747434e-07   -2.368372459730117e-05
4.481098447097445e-06   -1.7701737308747434e-07   -2.368372459730117e-05
4.481098447097445e-06   -1.7701737308747434e-07   -2.368372459730117e-05
-2.7023363824826385e-06   5.787289640069352e-07   -1.2164781016924396e-05
-2.7023363824826385e-06   5.787289640069352e-07   -1.2164781016924396e-05
-2.7023363824826385e-06   5.787289640069352e-07   -1.2164781016924396e-05
-2.7023363824826385e-06   5.787289640069352e-07   -1.2164781016924396e-05
7.683289371115692e-07   -2.0086200794826184e-07   -1.7481468633074977e-05
7.683289371115692e-07   -2.0086200794826184e-07   -1.7481468633074977e-05
7.683289371115692e-07   -2.0086200794826184e-07   -1.7481468633074977e-05
7.683289371115692e-07   -2.0086200794826184e-07   -1.7481468633074977e-05
-2.7023363824826364e-06   -1.7701737308747434e-07   -2.4137172399557794e-05
-2.7023363824826364e-06   -1.7701737308747434e-07   -2.4137172399557794e-05
-2.7023363824826364e-06   -1.7701737308747434e-07   -2.4137172399557794e-05
-2.7023363824826364e-06   -1.7701737308747434e-07   -2.4137172399557794e-05
4.4810984470974725e-06   5.78728964006881e-07   -1.1711333214667688e-05
4.4810984470974725e-06   5.78728964006881e-07   -1.1711333214667688e-05
4.4810984470974725e-06   5.78728964006881e-07   -1.1711333214667688e-05
4.4810984470974725e-06   5.78728964006881e-07   -1.1711333214667688e-05
4.547831718527758e-06   6.453753955600332e-07   -2.4381615610797333e-05
4.547831718527758e-06   6.453753955600332e-07   -2.4381615610797333e-05
4.547831718527758e-06   6.453753955600332e-07   -2.4381615610797333e-05
4.547831718527758e-06   6.453753955600332e-07   -2.4381615610797333e-05
-2.7067160140822585e-06   1.313429116335963e-06   -1.2691534955579474e-05
-2.7067160140822585e-06   1.313429116335963e-06   -1.2691534955579474e-05
-2.7067160140822585e-06   1.313429116335963e-06   -1.2691534955579474e-05
-2.7067160140822585e-06   1.313429116335963e-06   -1.2691534955579474e-05
7.922925122600624e-07   3.928517678769257e-07   -1.797086942374121e-05
7.922925122600624e-07   3.928517678769257e-07   -1.797086942374121e-05
7.922925122600624e-07   3.928517678769257e-07   -1.797086942374121e-05
7.922925122600624e-07   3.928517678769257e-07   -1.797086942374121e-05
4.288617211182036e-06   -2.8929067895475287e-06   -1.303105892407164e-05
4.288617211182036e-06   -2.8929067895475287e-06   -1.303105892407164e-05
4.288617211182036e-06   -2.8929067895475287e-06   -1.303105892407164e-05
4.288617211182036e-06   -2.8929067895475287e-06   -1.303105892407164e-05
1.0478645031124505e-05   -1.338346893727698e-06   -1.7816099533422987e-06
1.0478645031124505e-05   -1.338346893727698e-06   -1.7816099533422987e-06
1.0478645031124505e-05   -1.338346893727698e-06   -1.7816099533422987e-06
1.0478645031124505e-05   -1.338346893727698e-06   -1.7816099533422987e-06
1.1221739477317955e-05   -2.477856490906271e-06   -1.3665621781267762e-05
1.1221739477317955e-05   -2.477856490906271e-06   -1.3665621781267762e-05
1.1221739477317955e-05   -2.477856490906271e-06   -1.3665621781267762e-05
1.1221739477317955e-05   -2.477856490906271e-06   -1.3665621781267762e-05
4.345516052366048e-06   -8.846575247804865e-07   -3.1611687860233853e-06
4.345516052366048e-06   -8.846575247804865e-07   -3.1611687860233853e-06
4.345516052366048e-06   -8.846575247804865e-07   -3.1611687860233853e-06
4.345516052366048e-06   -8.846575247804865e-07   -3.1611687860233853e-06
7.260267158344853e-06   -1.8394307270426903e-06   -7.446223374630705e-06
7.260267158344853e-06   -1.8394307270426903e-06   -7.446223374630705e-06
7.260267158344853e-06   -1.8394307270426903e-06   -7.446223374630705e-06
7.260267158344853e-06   -1.8394307270426903e-06   -7.446223374630705e-06
4.345516052366048e-06   -2.477856490906325e-06   -1.462154116094316e-05
4.345516052366048e-06   -2.477856490906325e-06   -1.462154116094316e-05
4.345516052366048e-06   -2.477856490906325e-06   -1.462154116094316e-05
4.345516052366048e-06   -2.477856490906325e-06   -1.462154116094316e-05
1.1221739477317927e-05   -8.846575247804865e-07   -2.20524940634792e-06
1.1221739477317927e-05   -8.846575247804865e-07   -2.20524940634792e-06
1.1221739477317927e-05   -8.846575247804865e-07   -2.20524940634792e-06
1.1221739477317927e-05   -8.846575247804865e-07   -2.20524940634792e-06
1.1794678300483871e-05   -2.123736077525788e-06   -1.4979722988157454e-05
1.1794678300483871e-05   -2.123736077525788e-06   -1.4979722988157454e-05
1.1794678300483871e-05   -2.123736077525788e-06   -1.4979722988157454e-05
1.1794678300483871e-05   -2.123736077525788e-06   -1.4979722988157454e-05
4.4810984470974725e-06   -5.725067215191899e-07   -3.7211608461173637e-06
4.4810984470974725e-06   -5.725067215191899e-07   -3.7211608461173637e-06
4.4810984470974725e-06   -5.725067215191899e-07   -3.7211608461173637e-06
4.4810984470974725e-06   -5.725067215191899e-07   -3.7211608461173637e-06
7.712506100688969e-06   -1.6059725965169506e-06   -8.486760743771186e-06
7.712506100688969e-06   -1.6059725965169506e-06   -8.486760743771186e-06
7.712506100688969e-06   -1.6059725965169506e-06   -8.486760743771186e-06
7.712506100688969e-06   -1.6059725965169506e-06   -8.486760743771186e-06
4.481098447097466e-06   -2.123736077525734e-06   -1.5910460601761432e-05
4.481098447097466e-06   -2.123736077525734e-06   -1.5910460601761432e-05
4.481098447097466e-06   -2.123736077525734e-06   -1.5910460601761432e-05
4.481098447097466e-06   -2.123736077525734e-06   -1.5910460601761432e-05
1.179467830048383e-05   -5.725067215191356e-07   -2.790423232513345e-06
1.179467830048383e-05   -5.725067215191356e-07   -2.790423232513345e-06
1.179467830048383e-05   -5.725067215191356e-07   -2.790423232513345e-06
1.179467830048383e-05   -5.725067215191356e-07   -2.790423232513345e-06
1.2557453727522915e-05   -1.3687723593231631e-06   -1.7505095494960493e-05
1.2557453727522915e-05   -1.3687723593231631e-06   -1.7505095494960493e-05
1.2557453727522915e-05   -1.3687723593231631e-06   -1.7505095494960493e-05
1.2557453727522915e-05   -1.3687723593231631e-06   -1.7505095494960493e-05
4.547831718527765e-06   3.91230465167868e-08   -5.000462723472467e-06
4.547831718527765e-06   3.91230465167868e-08   -5.000462723472467e-06
4.547831718527765e-06   3.91230465167868e-08   -5.000462723472467e-06
4.547831718527765e-06   3.91230465167868e-08   -5.000462723472467e-06
7.86637659458563e-06   -1.2615069274109778e-06   -9.750992865878888e-06
7.86637659458563e-06   -1.2615069274109778e-06   -9.750992865878888e-06
7.86637659458563e-06   -1.2615069274109778e-06   -9.750992865878888e-06
7.86637659458563e-06   -1.2615069274109778e-06   -9.750992865878888e-06
-1.504240137092892e-05   2.428544768258835e-06   -1.413543519725505e-05
-1.504240137092892e-05   2.428544768258835e-06   -1.413543519725505e-05
-1.504240137092892e-05   2.428544768258835e-06   -1.413543519725505e-05
-1.504240137092892e-05   2.428544768258835e-06   -1.413543519725505e-05
-1.1141216578597376e-05   9.837512200387309e-07   -8.500336672301193e-06
-1.1141216578597376e-05   9.837512200387309e-07   -8.500336672301193e-06
-1.1141216578597376e-05   9.837512200387309e-07   -8.500336672301193e-06
-1.1141216578597376e-05   9.837512200387309e-07   -8.500336672301193e-06
-1.0979251181864443e-05   3.0944074854441853e-06   -1.247022951199404e-05
-1.0979251181864443e-05   3.0944074854441853e-06   -1.247022951199404e-05
-1.0979251181864443e-05   3.0944074854441853e-06   -1.247022951199404e-05
-1.0979251181864443e-05   3.0944074854441853e-06   -1.247022951199404e-05
-1.4220818495056843e-05   1.5365935915868066e-06   -6.132928987025437e-06
-1.4220818495056843e-05   1.5365935915868066e-06   -6.132928987025437e-06
-1.4220818495056843e-05   1.5365935915868066e-06   -6.132928987025437e-06
-1.4220818495056843e-05   1.5365935915868066e-06   -6.132928987025437e-06
-1.2301772981787353e-05   2.179555046209346e-06   -9.717115048582086e-06
-1.2301772981787353e-05   2.179555046209346e-06   -9.717115048582086e-06
-1.2301772981787353e-05   2.179555046209346e-06   -9.717115048582086e-06
-1.2301772981787353e-05   2.179555046209346e-06   -9.717115048582086e-06
-1.4220818495056843e-05   3.0944074854441853e-06   -1.153554117567959e-05
-1.4220818495056843e-05   3.0944074854441853e-06   -1.153554117567959e-05
-1.4220818495056843e-05   3.0944074854441853e-06   -1.153554117567959e-05
-1.4220818495056843e-05   3.0944074854441853e-06   -1.153554117567959e-05
-1.0979251181864456e-05   1.5365935915868066e-06   -7.067617323339967e-06
-1.0979251181864456e-05   1.5365935915868066e-06   -7.067617323339967e-06
-1.0979251181864456e-05   1.5365935915868066e-06   -7.067617323339967e-06
-1.0979251181864456e-05   1.5365935915868066e-06   -7.067617323339967e-06
-1.074750504146325e-05   3.4055235497140518e-06   -1.1134437760654974e-05
-1.074750504146325e-05   3.4055235497140518e-06   -1.1134437760654974e-05
-1.074750504146325e-05   3.4055235497140518e-06   -1.1134437760654974e-05
-1.074750504146325e-05   3.4055235497140518e-06   -1.1134437760654974e-05
-1.3567174954782189e-05   1.8169906792011876e-06   -5.481868182815512e-06
-1.3567174954782189e-05   1.8169906792011876e-06   -5.481868182815512e-06
-1.3567174954782189e-05   1.8169906792011876e-06   -5.481868182815512e-06
-1.3567174954782189e-05   1.8169906792011876e-06   -5.481868182815512e-06
-1.2086032036973354e-05   2.4783024431921123e-06   -8.347226770891609e-06
-1.2086032036973354e-05   2.4783024431921123e-06   -8.347226770891609e-06
-1.2086032036973354e-05   2.4783024431921123e-06   -8.347226770891609e-06
-1.2086032036973354e-05   2.4783024431921123e-06   -8.347226770891609e-06
-1.3567174954782162e-05   3.4055235497140518e-06   -1.0181318038347234e-05
-1.3567174954782162e-05   3.4055235497140518e-06   -1.0181318038347234e-05
-1.3567174954782162e-05   3.4055235497140518e-06   -1.0181318038347234e-05
-1.3567174954782162e-05   3.4055235497140518e-06   -1.0181318038347234e-05
-1.0747505041463264e-05   1.8169906792011876e-06   -6.434987905123334e-06
-1.0747505041463264e-05   1.8169906792011876e-06   -6.434987905123334e-06
-1.0747505041463264e-05   1.8169906792011876e-06   -6.434987905123334e-06
-1.0747505041463264e-05   1.8169906792011876e-06   -6.434987905123334e-06
-1.0591150277099962e-05   3.798088947701262e-06   -9.42311503268655e-06
-1.0591150277099962e-05   3.798088947701262e-06   -9.42311503268655e-06
-1.0591150277099962e-05   3.798088947701262e-06   -9.42311503268655e-06
-1.0591150277099962e-05   3.798088947701262e-06   -9.42311503268655e-06
-1.2735269465482038e-05   2.2616803005782787e-06   -4.9277378637758865e-06
-1.2735269465482038e-05   2.2616803005782787e-06   -4.9277378637758865e-06
-1.2735269465482038e-05   2.2616803005782787e-06   -4.9277378637758865e-06
-1.2735269465482038e-05   2.2616803005782787e-06   -4.9277378637758865e-06
-1.152241221372179e-05   2.6871131917044055e-06   -7.204426351385641e-06
-1.152241221372179e-05   2.6871131917044055e-06   -7.204426351385641e-06
-1.152241221372179e-05   2.6871131917044055e-06   -7.204426351385641e-06
-1.152241221372179e-05   2.6871131917044055e-06   -7.204426351385641e-06
-1.1141216578597376e-05   1.2596780463651849e-06   -2.0659028619907408e-05
-1.1141216578597376e-05   1.2596780463651849e-06   -2.0659028619907408e-05
-1.1141216578597376e-05   1.2596780463651849e-06   -2.0659028619907408e-05
-1.1141216578597376e-05   1.2596780463651849e-06   -2.0659028619907408e-05
-7.967245058155829e-06   5.705794981101728e-07   -1.578253521479118e-05
-7.967245058155829e-06   5.705794981101728e-07   -1.578253521479118e-05
-7.967245058155829e-06   5.705794981101728e-07   -1.578253521479118e-05
-7.967245058155829e-06   5.705794981101728e-07   -1.578253521479118e-05
-7.86250656535346e-06   1.9632480444857297e-06   -2.0589180576703874e-05
-7.86250656535346e-06   1.9632480444857297e-06   -2.0589180576703874e-05
-7.86250656535346e-06   1.9632480444857297e-06   -2.0589180576703874e-05
-7.86250656535346e-06   1.9632480444857297e-06   -2.0589180576703874e-05
-1.097925118186447e-05   1.2050856928353141e-06   -1.4939708804861891e-05
-1.097925118186447e-05   1.2050856928353141e-06   -1.4939708804861891e-05
-1.097925118186447e-05   1.2050856928353141e-06   -1.4939708804861891e-05
-1.097925118186447e-05   1.2050856928353141e-06   -1.4939708804861891e-05
-9.395009185365868e-06   1.3728575630681103e-06   -1.7680775254499655e-05
-9.395009185365868e-06   1.3728575630681103e-06   -1.7680775254499655e-05
-9.395009185365868e-06   1.3728575630681103e-06   -1.7680775254499655e-05
-9.395009185365868e-06   1.3728575630681103e-06   -1.7680775254499655e-05
-1.097925118186443e-05   1.9632480444857297e-06   -2.0134283165713527e-05
-1.097925118186443e-05   1.9632480444857297e-06   -2.0134283165713527e-05
-1.097925118186443e-05   1.9632480444857297e-06   -2.0134283165713527e-05
-1.097925118186443e-05   1.9632480444857297e-06   -2.0134283165713527e-05
-7.86250656535346e-06   1.2050856928353141e-06   -1.539460621585213e-05
-7.86250656535346e-06   1.2050856928353141e-06   -1.539460621585213e-05
-7.86250656535346e-06   1.2050856928353141e-06   -1.539460621585213e-05
-7.86250656535346e-06   1.2050856928353141e-06   -1.539460621585213e-05
-7.746653290464338e-06   2.604322395844956e-06   -2.0256058334442383e-05
-7.746653290464338e-06   2.604322395844956e-06   -2.0256058334442383e-05
-7.746653290464338e-06   2.604322395844956e-06   -2.0256058334442383e-05
-7.746653290464338e-06   2.604322395844956e-06   -2.0256058334442383e-05
-1.0747505041463278e-05   1.7959781897635297e-06   -1.4769632225795188e-05
-1.0747505041463278e-05   1.7959781897635297e-06   -1.4769632225795188e-05
-1.0747505041463278e-05   1.7959781897635297e-06   -1.4769632225795188e-05
-1.0747505041463278e-05   1.7959781897635297e-06   -1.4769632225795188e-05
-9.256590623803348e-06   1.8868569896662857e-06   -1.7309016868503305e-05
-9.256590623803348e-06   1.8868569896662857e-06   -1.7309016868503305e-05
-9.256590623803348e-06   1.8868569896662857e-06   -1.7309016868503305e-05
-9.256590623803348e-06   1.8868569896662857e-06   -1.7309016868503305e-05
-1.074750504146325e-05   2.604322395844956e-06   -1.9771051810793473e-05
-1.074750504146325e-05   2.604322395844956e-06   -1.9771051810793473e-05
-1.074750504146325e-05   2.604322395844956e-06   -1.9771051810793473e-05
-1.074750504146325e-05   2.604322395844956e-06   -1.9771051810793473e-05
-7.746653290464318e-06   1.7959781897634213e-06   -1.5254638749444044e-05
-7.746653290464318e-06   1.7959781897634213e-06   -1.5254638749444044e-05
-7.746653290464318e-06   1.7959781897634213e-06   -1.5254638749444044e-05
-7.746653290464318e-06   1.7959781897634213e-06   -1.5254638749444044e-05
-7.644133630218914e-06   3.3015576077191546e-06   -2.045259478165802e-05
-7.644133630218914e-06   3.3015576077191546e-06   -2.045259478165802e-05
-7.644133630218914e-06   3.3015576077191546e-06   -2.045259478165802e-05
-7.644133630218914e-06   3.3015576077191546e-06   -2.045259478165802e-05
-1.0591150277099989e-05   2.4534436467058777e-06   -1.5032031993581396e-05
-1.0591150277099989e-05   2.4534436467058777e-06   -1.5032031993581396e-05
-1.0591150277099989e-05   2.4534436467058777e-06   -1.5032031993581396e-05
-1.0591150277099989e-05   2.4534436467058777e-06   -1.5032031993581396e-05
-9.204268130289251e-06   2.408456399528489e-06   -1.7316509889959866e-05
-9.204268130289251e-06   2.408456399528489e-06   -1.7316509889959866e-05
-9.204268130289251e-06   2.408456399528489e-06   -1.7316509889959866e-05
-9.204268130289251e-06   2.408456399528489e-06   -1.7316509889959866e-05
-7.967245058155802e-06   2.1943543591533077e-07   -2.3371830480735617e-05
-7.967245058155802e-06   2.1943543591533077e-07   -2.3371830480735617e-05
-7.967245058155802e-06   2.1943543591533077e-07   -2.3371830480735617e-05
-7.967245058155802e-06   2.1943543591533077e-07   -2.3371830480735617e-05
-4.870780688726844e-06   3.3085058034421425e-07   -1.8144207445030115e-05
-4.870780688726844e-06   3.3085058034421425e-07   -1.8144207445030115e-05
-4.870780688726844e-06   3.3085058034421425e-07   -1.8144207445030115e-05
-4.870780688726844e-06   3.3085058034421425e-07   -1.8144207445030115e-05
-4.769019275118434e-06   9.277356415674778e-07   -2.3075576184995988e-05
-4.769019275118434e-06   9.277356415674778e-07   -2.3075576184995988e-05
-4.769019275118434e-06   9.277356415674778e-07   -2.3075576184995988e-05
-4.769019275118434e-06   9.277356415674778e-07   -2.3075576184995988e-05
-7.86250656535346e-06   9.781184838392794e-07   -1.7949993739967132e-05
-7.86250656535346e-06   9.781184838392794e-07   -1.7949993739967132e-05
-7.86250656535346e-06   9.781184838392794e-07   -1.7949993739967132e-05
-7.86250656535346e-06   9.781184838392794e-07   -1.7949993739967132e-05
-6.326464554561554e-06   7.047207516475184e-07   -2.0346025118639033e-05
-6.326464554561554e-06   7.047207516475184e-07   -2.0346025118639033e-05
-6.326464554561554e-06   7.047207516475184e-07   -2.0346025118639033e-05
-6.326464554561554e-06   7.047207516475184e-07   -2.0346025118639033e-05
-7.862506565353453e-06   9.277356415674236e-07   -2.3105805890358993e-05
-7.862506565353453e-06   9.277356415674236e-07   -2.3105805890358993e-05
-7.862506565353453e-06   9.277356415674236e-07   -2.3105805890358993e-05
-7.862506565353453e-06   9.277356415674236e-07   -2.3105805890358993e-05
-4.769019275118434e-06   9.781184838392794e-07   -1.7919764034604168e-05
-4.769019275118434e-06   9.781184838392794e-07   -1.7919764034604168e-05
-4.769019275118434e-06   9.781184838392794e-07   -1.7919764034604168e-05
-4.769019275118434e-06   9.781184838392794e-07   -1.7919764034604168e-05
-4.653957864969917e-06   1.6383145531280517e-06   -2.3134743315418832e-05
-4.653957864969917e-06   1.6383145531280517e-06   -2.3134743315418832e-05
-4.653957864969917e-06   1.6383145531280517e-06   -2.3134743315418832e-05
-4.653957864969917e-06   1.6383145531280517e-06   -2.3134743315418832e-05
-7.746653290464318e-06   1.6310104469267287e-06   -1.7975868475874024e-05
-7.746653290464318e-06   1.6310104469267287e-06   -1.7975868475874024e-05
-7.746653290464318e-06   1.6310104469267287e-06   -1.7975868475874024e-05
-7.746653290464318e-06   1.6310104469267287e-06   -1.7975868475874024e-05
-6.259173763880836e-06   1.2615259895733082e-06   -2.0233310345767803e-05
-6.259173763880836e-06   1.2615259895733082e-06   -2.0233310345767803e-05
-6.259173763880836e-06   1.2615259895733082e-06   -2.0233310345767803e-05
-6.259173763880836e-06   1.2615259895733082e-06   -2.0233310345767803e-05
-7.746653290464311e-06   1.6383145531279975e-06   -2.3130360851698027e-05
-7.746653290464311e-06   1.6383145531279975e-06   -2.3130360851698027e-05
-7.746653290464311e-06   1.6383145531279975e-06   -2.3130360851698027e-05
-7.746653290464311e-06   1.6383145531279975e-06   -2.3130360851698027e-05
-4.653957864969925e-06   1.6310104469267287e-06   -1.7980250939594856e-05
-4.653957864969925e-06   1.6310104469267287e-06   -1.7980250939594856e-05
-4.653957864969925e-06   1.6310104469267287e-06   -1.7980250939594856e-05
-4.653957864969925e-06   1.6310104469267287e-06   -1.7980250939594856e-05
-4.550748883962205e-06   2.361316711308424e-06   -2.3523955789931045e-05
-4.550748883962205e-06   2.361316711308424e-06   -2.3523955789931045e-05
-4.550748883962205e-06   2.361316711308424e-06   -2.3523955789931045e-05
-4.550748883962205e-06   2.361316711308424e-06   -2.3523955789931045e-05
-7.644133630218914e-06   2.2938092962242196e-06   -1.8327810097119217e-05
-7.644133630218914e-06   2.2938092962242196e-06   -1.8327810097119217e-05
-7.644133630218914e-06   2.2938092962242196e-06   -1.8327810097119217e-05
-7.644133630218914e-06   2.2938092962242196e-06   -1.8327810097119217e-05
-6.204116094251462e-06   1.825750425463418e-06   -2.044700400127528e-05
-6.204116094251462e-06   1.825750425463418e-06   -2.044700400127528e-05
-6.204116094251462e-06   1.825750425463418e-06   -2.044700400127528e-05
-6.204116094251462e-06   1.825750425463418e-06   -2.044700400127528e-05
-4.870780688726828e-06   -7.311940912329033e-07   -2.0479900629861764e-05
-4.870780688726828e-06   -7.311940912329033e-07   -2.0479900629861764e-05
-4.870780688726828e-06   -7.311940912329033e-07   -2.0479900629861764e-05
-4.870780688726828e-06   -7.311940912329033e-07   -2.0479900629861764e-05
-1.8748153277371987e-06   1.4832758809071346e-07   -1.4958912020618235e-05
-1.8748153277371987e-06   1.4832758809071346e-07   -1.4958912020618235e-05
-1.8748153277371987e-06   1.4832758809071346e-07   -1.4958912020618235e-05
-1.8748153277371987e-06   1.4832758809071346e-07   -1.4958912020618235e-05
-1.7213968106195862e-06   -6.312466220060892e-08   -1.981741911079928e-05
-1.7213968106195862e-06   -6.312466220060892e-08   -1.981741911079928e-05
-1.7213968106195862e-06   -6.312466220060892e-08   -1.981741911079928e-05
-1.7213968106195862e-06   -6.312466220060892e-08   -1.981741911079928e-05
-4.7690192751184255e-06   7.760946518191184e-07   -1.5241579925046231e-05
-4.7690192751184255e-06   7.760946518191184e-07   -1.5241579925046231e-05
-4.7690192751184255e-06   7.760946518191184e-07   -1.5241579925046231e-05
-4.7690192751184255e-06   7.760946518191184e-07   -1.5241579925046231e-05
-3.2755577211271565e-06   9.787792098483409e-08   -1.73237524765314e-05
-3.2755577211271565e-06   9.787792098483409e-08   -1.73237524765314e-05
-3.2755577211271565e-06   9.787792098483409e-08   -1.73237524765314e-05
-3.2755577211271565e-06   9.787792098483409e-08   -1.73237524765314e-05
-4.769019275118417e-06   -6.312466220060892e-08   -2.0320950699211082e-05
-4.769019275118417e-06   -6.312466220060892e-08   -2.0320950699211082e-05
-4.769019275118417e-06   -6.312466220060892e-08   -2.0320950699211082e-05
-4.769019275118417e-06   -6.312466220060892e-08   -2.0320950699211082e-05
-1.7213968106195862e-06   7.760946518191184e-07   -1.4738048336634425e-05
-1.7213968106195862e-06   7.760946518191184e-07   -1.4738048336634425e-05
-1.7213968106195862e-06   7.760946518191184e-07   -1.4738048336634425e-05
-1.7213968106195862e-06   7.760946518191184e-07   -1.4738048336634425e-05
-1.4913845691340007e-06   5.787289640069352e-07   -2.0081615203584554e-05
-1.4913845691340007e-06   5.787289640069352e-07   -2.0081615203584554e-05
-1.4913845691340007e-06   5.787289640069352e-07   -2.0081615203584554e-05
-1.4913845691340007e-06   5.787289640069352e-07   -2.0081615203584554e-05
-4.653957864969917e-06   1.3668963913727366e-06   -1.5283560166944093e-05
-4.653957864969917e-06   1.3668963913727366e-06   -1.5283560166944093e-05
-4.653957864969917e-06   1.3668963913727366e-06   -1.5283560166944093e-05
-4.653957864969917e-06   1.3668963913727366e-06   -1.5283560166944093e-05
-3.1834628199563523e-06   6.051953356757877e-07   -1.727736460854853e-05
-3.1834628199563523e-06   6.051953356757877e-07   -1.727736460854853e-05
-3.1834628199563523e-06   6.051953356757877e-07   -1.727736460854853e-05
-3.1834628199563523e-06   6.051953356757877e-07   -1.727736460854853e-05
-4.653957864969905e-06   5.787289640069352e-07   -2.0554515660003894e-05
-4.653957864969905e-06   5.787289640069352e-07   -2.0554515660003894e-05
-4.653957864969905e-06   5.787289640069352e-07   -2.0554515660003894e-05
-4.653957864969905e-06   5.787289640069352e-07   -2.0554515660003894e-05
-1.4913845691340074e-06   1.3668963913726281e-06   -1.4810659710524682e-05
-1.4913845691340074e-06   1.3668963913726281e-06   -1.4810659710524682e-05
-1.4913845691340074e-06   1.3668963913726281e-06   -1.4810659710524682e-05
-1.4913845691340074e-06   1.3668963913726281e-06   -1.4810659710524682e-05
-1.3311688104642962e-06   1.313429116335963e-06   -2.0643028355902572e-05
-1.3311688104642962e-06   1.313429116335963e-06   -2.0643028355902572e-05
-1.3311688104642962e-06   1.313429116335963e-06   -2.0643028355902572e-05
-1.3311688104642962e-06   1.313429116335963e-06   -2.0643028355902572e-05
-4.550748883962205e-06   2.0339492874103153e-06   -1.57093736693839e-05
-4.550748883962205e-06   2.0339492874103153e-06   -1.57093736693839e-05
-4.550748883962205e-06   2.0339492874103153e-06   -1.57093736693839e-05
-4.550748883962205e-06   2.0339492874103153e-06   -1.57093736693839e-05
-3.0874620419646514e-06   1.1359259720544398e-06   -1.760937108349967e-05
-3.0874620419646514e-06   1.1359259720544398e-06   -1.760937108349967e-05
-3.0874620419646514e-06   1.1359259720544398e-06   -1.760937108349967e-05
-3.0874620419646514e-06   1.1359259720544398e-06   -1.760937108349967e-05
-1.8748153277371919e-06   -1.338346893727698e-06   -1.1102027334933826e-05
-1.8748153277371919e-06   -1.338346893727698e-06   -1.1102027334933826e-05
-1.8748153277371919e-06   -1.338346893727698e-06   -1.1102027334933826e-05
-1.8748153277371919e-06   -1.338346893727698e-06   -1.1102027334933826e-05
3.126781788557987e-07   2.1340152071890137e-07   -6.525155775277561e-06
3.126781788557987e-07   2.1340152071890137e-07   -6.525155775277561e-06
3.126781788557987e-07   2.1340152071890137e-07   -6.525155775277561e-06
3.126781788557987e-07   2.1340152071890137e-07   -6.525155775277561e-06
1.1366515325678708e-06   -8.846575247804865e-07   -1.0584612416331493e-05
1.1366515325678708e-06   -8.846575247804865e-07   -1.0584612416331493e-05
1.1366515325678708e-06   -8.846575247804865e-07   -1.0584612416331493e-05
1.1366515325678708e-06   -8.846575247804865e-07   -1.0584612416331493e-05
-1.7213968106195862e-06   7.105554423677846e-07   -6.778326291307838e-06
-1.7213968106195862e-06   7.105554423677846e-07   -6.778326291307838e-06
-1.7213968106195862e-06   7.105554423677846e-07   -6.778326291307838e-06
-1.7213968106195862e-06   7.105554423677846e-07   -6.778326291307838e-06
-5.208952809850775e-07   -2.5861926764014775e-07   -8.197657348027454e-06
-5.208952809850775e-07   -2.5861926764014775e-07   -8.197657348027454e-06
-5.208952809850775e-07   -2.5861926764014775e-07   -8.197657348027454e-06
-5.208952809850775e-07   -2.5861926764014775e-07   -8.197657348027454e-06
-1.7213968106195862e-06   -8.846575247804865e-07   -1.1541740196620309e-05
-1.7213968106195862e-06   -8.846575247804865e-07   -1.1541740196620309e-05
-1.7213968106195862e-06   -8.846575247804865e-07   -1.1541740196620309e-05
-1.7213968106195862e-06   -8.846575247804865e-07   -1.1541740196620309e-05
1.1366515325678708e-06   7.105554423676762e-07   -5.821198511018967e-06
1.1366515325678708e-06   7.105554423676762e-07   -5.821198511018967e-06
1.1366515325678708e-06   7.105554423676762e-07   -5.821198511018967e-06
1.1366515325678708e-06   7.105554423676762e-07   -5.821198511018967e-06
1.78759263953257e-06   -5.725067215191899e-07   -1.1154147586770125e-05
1.78759263953257e-06   -5.725067215191899e-07   -1.1154147586770125e-05
1.78759263953257e-06   -5.725067215191899e-07   -1.1154147586770125e-05
1.78759263953257e-06   -5.725067215191899e-07   -1.1154147586770125e-05
-1.4913845691340074e-06   9.896520255876697e-07   -6.6264808205898325e-06
-1.4913845691340074e-06   9.896520255876697e-07   -6.6264808205898325e-06
-1.4913845691340074e-06   9.896520255876697e-07   -6.6264808205898325e-06
-1.4913845691340074e-06   9.896520255876697e-07   -6.6264808205898325e-06
-1.0581494706224254e-07   -1.9719221833755865e-08   -8.330140775589885e-06
-1.0581494706224254e-07   -1.9719221833755865e-08   -8.330140775589885e-06
-1.0581494706224254e-07   -1.9719221833755865e-08   -8.330140775589885e-06
-1.0581494706224254e-07   -1.9719221833755865e-08   -8.330140775589885e-06
-1.4913845691340007e-06   -5.725067215191899e-07   -1.2091442835034257e-05
-1.4913845691340007e-06   -5.725067215191899e-07   -1.2091442835034257e-05
-1.4913845691340007e-06   -5.725067215191899e-07   -1.2091442835034257e-05
-1.4913845691340007e-06   -5.725067215191899e-07   -1.2091442835034257e-05
1.78759263953257e-06   9.896520255876697e-07   -5.689185572325755e-06
1.78759263953257e-06   9.896520255876697e-07   -5.689185572325755e-06
1.78759263953257e-06   9.896520255876697e-07   -5.689185572325755e-06
1.78759263953257e-06   9.896520255876697e-07   -5.689185572325755e-06
2.6109906727982075e-06   3.91230465167868e-08   -1.2486911186642633e-05
2.6109906727982075e-06   3.91230465167868e-08   -1.2486911186642633e-05
2.6109906727982075e-06   3.91230465167868e-08   -1.2486911186642633e-05
2.6109906727982075e-06   3.91230465167868e-08   -1.2486911186642633e-05
-1.331168810464303e-06   1.4822516625477046e-06   -6.782522550823471e-06
-1.331168810464303e-06   1.4822516625477046e-06   -6.782522550823471e-06
-1.331168810464303e-06   1.4822516625477046e-06   -6.782522550823471e-06
-1.331168810464303e-06   1.4822516625477046e-06   -6.782522550823471e-06
2.549246369119054e-07   2.506356887143745e-07   -8.687042045484045e-06
2.549246369119054e-07   2.506356887143745e-07   -8.687042045484045e-06
2.549246369119054e-07   2.506356887143745e-07   -8.687042045484045e-06
2.549246369119054e-07   2.506356887143745e-07   -8.687042045484045e-06
-5.1787326532094465e-06   9.837512200387309e-07   -9.374821321511489e-06
-5.1787326532094465e-06   9.837512200387309e-07   -9.374821321511489e-06
-5.1787326532094465e-06   9.837512200387309e-07   -9.374821321511489e-06
-5.1787326532094465e-06   9.837512200387309e-07   -9.374821321511489e-06
-5.307813503599006e-06   -4.665875617225479e-07   -1.0460159341217634e-05
-5.307813503599006e-06   -4.665875617225479e-07   -1.0460159341217634e-05
-5.307813503599006e-06   -4.665875617225479e-07   -1.0460159341217634e-05
-5.307813503599006e-06   -4.665875617225479e-07   -1.0460159341217634e-05
-5.045415763806578e-06   1.5365935915866982e-06   -8.809789419176651e-06
-5.045415763806578e-06   1.5365935915866982e-06   -8.809789419176651e-06
-5.045415763806578e-06   1.5365935915866982e-06   -8.809789419176651e-06
-5.045415763806578e-06   1.5365935915866982e-06   -8.809789419176651e-06
-4.263556609127397e-06   -2.052909367500355e-08   -9.178614399151604e-06
-4.263556609127397e-06   -2.052909367500355e-08   -9.178614399151604e-06
-4.263556609127397e-06   -2.052909367500355e-08   -9.178614399151604e-06
-4.263556609127397e-06   -2.052909367500355e-08   -9.178614399151604e-06
-4.732829653468242e-06   6.775752270920133e-07   -8.815355251044147e-06
-4.732829653468242e-06   6.775752270920133e-07   -8.815355251044147e-06
-4.732829653468242e-06   6.775752270920133e-07   -8.815355251044147e-06
-4.732829653468242e-06   6.775752270920133e-07   -8.815355251044147e-06
-4.263556609127397e-06   1.5365935915866982e-06   -7.875515808019684e-06
-4.263556609127397e-06   1.5365935915866982e-06   -7.875515808019684e-06
-4.263556609127397e-06   1.5365935915866982e-06   -7.875515808019684e-06
-4.263556609127397e-06   1.5365935915866982e-06   -7.875515808019684e-06
-5.045415763806592e-06   -2.052909367500355e-08   -1.0112888010308733e-05
-5.045415763806592e-06   -2.052909367500355e-08   -1.0112888010308733e-05
-5.045415763806592e-06   -2.052909367500355e-08   -1.0112888010308733e-05
-5.045415763806592e-06   -2.052909367500355e-08   -1.0112888010308733e-05
-4.7136975644069065e-06   1.8169906792010792e-06   -8.175004582310682e-06
-4.7136975644069065e-06   1.8169906792010792e-06   -8.175004582310682e-06
-4.7136975644069065e-06   1.8169906792010792e-06   -8.175004582310682e-06
-4.7136975644069065e-06   1.8169906792010792e-06   -8.175004582310682e-06
-3.5087673187292746e-06   2.330373790706327e-07   -9.232849678361763e-06
-3.5087673187292746e-06   2.330373790706327e-07   -9.232849678361763e-06
-3.5087673187292746e-06   2.330373790706327e-07   -9.232849678361763e-06
-3.5087673187292746e-06   2.330373790706327e-07   -9.232849678361763e-06
-4.30144605541719e-06   9.072708475123563e-07   -8.316258531613889e-06
-4.30144605541719e-06   9.072708475123563e-07   -8.316258531613889e-06
-4.30144605541719e-06   9.072708475123563e-07   -8.316258531613889e-06
-4.30144605541719e-06   9.072708475123563e-07   -8.316258531613889e-06
-3.5087673187292475e-06   1.8169906792010792e-06   -7.2246326022323815e-06
-3.5087673187292475e-06   1.8169906792010792e-06   -7.2246326022323815e-06
-3.5087673187292475e-06   1.8169906792010792e-06   -7.2246326022323815e-06
-3.5087673187292475e-06   1.8169906792010792e-06   -7.2246326022323815e-06
-4.71369756440692e-06   2.3303737907074112e-07   -1.0183221658439955e-05
-4.71369756440692e-06   2.3303737907074112e-07   -1.0183221658439955e-05
-4.71369756440692e-06   2.3303737907074112e-07   -1.0183221658439955e-05
-4.71369756440692e-06   2.3303737907074112e-07   -1.0183221658439955e-05
-4.456637870969463e-06   2.2616803005782787e-06   -7.587171971295149e-06
-4.456637870969463e-06   2.2616803005782787e-06   -7.587171971295149e-06
-4.456637870969463e-06   2.2616803005782787e-06   -7.587171971295149e-06
-4.456637870969463e-06   2.2616803005782787e-06   -7.587171971295149e-06
-2.5768422528621914e-06   7.383300410458357e-07   -9.806154512421257e-06
-2.5768422528621914e-06   7.383300410458357e-07   -9.806154512421257e-06
-2.5768422528621914e-06   7.383300410458357e-07   -9.806154512421257e-06
-2.5768422528621914e-06   7.383300410458357e-07   -9.806154512421257e-06
-3.7637275550985016e-06   1.1289553496960335e-06   -8.06238752721746e-06
-3.7637275550985016e-06   1.1289553496960335e-06   -8.06238752721746e-06
-3.7637275550985016e-06   1.1289553496960335e-06   -8.06238752721746e-06
-3.7637275550985016e-06   1.1289553496960335e-06   -8.06238752721746e-06
-5.307813503598993e-06   5.705794981102812e-07   -1.7113764004105176e-05
-5.307813503598993e-06   5.705794981102812e-07   -1.7113764004105176e-05
-5.307813503598993e-06   5.705794981102812e-07   -1.7113764004105176e-05
-5.307813503598993e-06   5.705794981102812e-07   -1.7113764004105176e-05
-6.1617465638756655e-06   -9.703444595206799e-08   -1.8937554137670386e-05
-6.1617465638756655e-06   -9.703444595206799e-08   -1.8937554137670386e-05
-6.1617465638756655e-06   -9.703444595206799e-08   -1.8937554137670386e-05
-6.1617465638756655e-06   -9.703444595206799e-08   -1.8937554137670386e-05
-5.951067144314222e-06   1.2050856928353141e-06   -1.7124982190270177e-05
-5.951067144314222e-06   1.2050856928353141e-06   -1.7124982190270177e-05
-5.951067144314222e-06   1.2050856928353141e-06   -1.7124982190270177e-05
-5.951067144314222e-06   1.2050856928353141e-06   -1.7124982190270177e-05
-5.0454157638066055e-06   4.665835435494923e-07   -1.819129986821132e-05
-5.0454157638066055e-06   4.665835435494923e-07   -1.819129986821132e-05
-5.0454157638066055e-06   4.665835435494923e-07   -1.819129986821132e-05
-5.0454157638066055e-06   4.665835435494923e-07   -1.819129986821132e-05
-5.551201389312356e-06   6.611537329898791e-07   -1.7465065939366255e-05
-5.551201389312356e-06   6.611537329898791e-07   -1.7465065939366255e-05
-5.551201389312356e-06   6.611537329898791e-07   -1.7465065939366255e-05
-5.551201389312356e-06   6.611537329898791e-07   -1.7465065939366255e-05
-5.045415763806578e-06   1.2050856928353141e-06   -1.6681880900698575e-05
-5.045415763806578e-06   1.2050856928353141e-06   -1.6681880900698575e-05
-5.045415763806578e-06   1.2050856928353141e-06   -1.6681880900698575e-05
-5.045415763806578e-06   1.2050856928353141e-06   -1.6681880900698575e-05
-5.951067144314215e-06   4.665835435494923e-07   -1.8634401157782894e-05
-5.951067144314215e-06   4.665835435494923e-07   -1.8634401157782894e-05
-5.951067144314215e-06   4.665835435494923e-07   -1.8634401157782894e-05
-5.951067144314215e-06   4.665835435494923e-07   -1.8634401157782894e-05
-5.731833413840954e-06   1.7959781897635297e-06   -1.6981213199908688e-05
-5.731833413840954e-06   1.7959781897635297e-06   -1.6981213199908688e-05
-5.731833413840954e-06   1.7959781897635297e-06   -1.6981213199908688e-05
-5.731833413840954e-06   1.7959781897635297e-06   -1.6981213199908688e-05
-4.713697564406934e-06   1.010037694886565e-06   -1.8206541985372484e-05
-4.713697564406934e-06   1.010037694886565e-06   -1.8206541985372484e-05
-4.713697564406934e-06   1.010037694886565e-06   -1.8206541985372484e-05
-4.713697564406934e-06   1.010037694886565e-06   -1.8206541985372484e-05
-5.340209409218745e-06   1.1166017486101496e-06   -1.722629400958709e-05
-5.340209409218745e-06   1.1166017486101496e-06   -1.722629400958709e-05
-5.340209409218745e-06   1.1166017486101496e-06   -1.722629400958709e-05
-5.340209409218745e-06   1.1166017486101496e-06   -1.722629400958709e-05
-4.7136975644069065e-06   1.7959781897635297e-06   -1.6509648902982455e-05
-4.7136975644069065e-06   1.7959781897635297e-06   -1.6509648902982455e-05
-4.7136975644069065e-06   1.7959781897635297e-06   -1.6509648902982455e-05
-4.7136975644069065e-06   1.7959781897635297e-06   -1.6509648902982455e-05
-5.731833413840933e-06   1.0100376948864566e-06   -1.8678106282298663e-05
-5.731833413840933e-06   1.0100376948864566e-06   -1.8678106282298663e-05
-5.731833413840933e-06   1.0100376948864566e-06   -1.8678106282298663e-05
-5.731833413840933e-06   1.0100376948864566e-06   -1.8678106282298663e-05
-5.525820586365478e-06   2.4534436467058777e-06   -1.7262821787495677e-05
-5.525820586365478e-06   2.4534436467058777e-06   -1.7262821787495677e-05
-5.525820586365478e-06   2.4534436467058777e-06   -1.7262821787495677e-05
-5.525820586365478e-06   2.4534436467058777e-06   -1.7262821787495677e-05
-4.456637870969477e-06   1.6314421889245673e-06   -1.855159210515357e-05
-4.456637870969477e-06   1.6314421889245673e-06   -1.855159210515357e-05
-4.456637870969477e-06   1.6314421889245673e-06   -1.855159210515357e-05
-4.456637870969477e-06   1.6314421889245673e-06   -1.855159210515357e-05
-5.155125421893307e-06   1.595306699215572e-06   -1.736576489312183e-05
-5.155125421893307e-06   1.595306699215572e-06   -1.736576489312183e-05
-5.155125421893307e-06   1.595306699215572e-06   -1.736576489312183e-05
-5.155125421893307e-06   1.595306699215572e-06   -1.736576489312183e-05
-6.161746563875645e-06   3.308505803441058e-07   -1.994285368743878e-05
-6.161746563875645e-06   3.308505803441058e-07   -1.994285368743878e-05
-6.161746563875645e-06   3.308505803441058e-07   -1.994285368743878e-05
-6.161746563875645e-06   3.308505803441058e-07   -1.994285368743878e-05
-7.0546651877585515e-06   4.730099413712604e-07   -2.134575577729408e-05
-7.0546651877585515e-06   4.730099413712604e-07   -2.134575577729408e-05
-7.0546651877585515e-06   4.730099413712604e-07   -2.134575577729408e-05
-7.0546651877585515e-06   4.730099413712604e-07   -2.134575577729408e-05
-6.84793248153637e-06   9.78118483839171e-07   -1.963327568907516e-05
-6.84793248153637e-06   9.78118483839171e-07   -1.963327568907516e-05
-6.84793248153637e-06   9.78118483839171e-07   -1.963327568907516e-05
-6.84793248153637e-06   9.78118483839171e-07   -1.963327568907516e-05
-5.951067144314222e-06   1.0566085260227962e-06   -2.1175145276422117e-05
-5.951067144314222e-06   1.0566085260227962e-06   -2.1175145276422117e-05
-5.951067144314222e-06   1.0566085260227962e-06   -2.1175145276422117e-05
-5.951067144314222e-06   1.0566085260227962e-06   -2.1175145276422117e-05
-6.464660450227407e-06   8.008576627316528e-07   -2.0165705915259035e-05
-6.464660450227407e-06   8.008576627316528e-07   -2.0165705915259035e-05
-6.464660450227407e-06   8.008576627316528e-07   -2.0165705915259035e-05
-6.464660450227407e-06   8.008576627316528e-07   -2.0165705915259035e-05
-5.951067144314202e-06   9.781184838392794e-07   -1.968036971438514e-05
-5.951067144314202e-06   9.781184838392794e-07   -1.968036971438514e-05
-5.951067144314202e-06   9.781184838392794e-07   -1.968036971438514e-05
-5.951067144314202e-06   9.781184838392794e-07   -1.968036971438514e-05
-6.847932481536382e-06   1.0566085260229046e-06   -2.1128051251112165e-05
-6.847932481536382e-06   1.0566085260229046e-06   -2.1128051251112165e-05
-6.847932481536382e-06   1.0566085260229046e-06   -2.1128051251112165e-05
-6.847932481536382e-06   1.0566085260229046e-06   -2.1128051251112165e-05
-6.63002001041841e-06   1.6310104469267287e-06   -1.968932747702085e-05
-6.63002001041841e-06   1.6310104469267287e-06   -1.968932747702085e-05
-6.63002001041841e-06   1.6310104469267287e-06   -1.968932747702085e-05
-6.63002001041841e-06   1.6310104469267287e-06   -1.968932747702085e-05
-5.731833413840954e-06   1.6528695291231736e-06   -2.1199420587301028e-05
-5.731833413840954e-06   1.6528695291231736e-06   -2.1199420587301028e-05
-5.731833413840954e-06   1.6528695291231736e-06   -2.1199420587301028e-05
-5.731833413840954e-06   1.6528695291231736e-06   -2.1199420587301028e-05
-6.291881058455781e-06   1.3008148884350278e-06   -2.0054775061863656e-05
-6.291881058455781e-06   1.3008148884350278e-06   -2.0054775061863656e-05
-6.291881058455781e-06   1.3008148884350278e-06   -2.0054775061863656e-05
-6.291881058455781e-06   1.3008148884350278e-06   -2.0054775061863656e-05
-5.731833413840933e-06   1.6310104469267287e-06   -1.9702442926338587e-05
-5.731833413840933e-06   1.6310104469267287e-06   -1.9702442926338587e-05
-5.731833413840933e-06   1.6310104469267287e-06   -1.9702442926338587e-05
-5.731833413840933e-06   1.6310104469267287e-06   -1.9702442926338587e-05
-6.63002001041841e-06   1.6528695291231736e-06   -2.11863051379831e-05
-6.63002001041841e-06   1.6528695291231736e-06   -2.11863051379831e-05
-6.63002001041841e-06   1.6528695291231736e-06   -2.11863051379831e-05
-6.63002001041841e-06   1.6528695291231736e-06   -2.11863051379831e-05
-6.424623322358085e-06   2.2938092962242196e-06   -2.0071539010496804e-05
-6.424623322358085e-06   2.2938092962242196e-06   -2.0071539010496804e-05
-6.424623322358085e-06   2.2938092962242196e-06   -2.0071539010496804e-05
-6.424623322358085e-06   2.2938092962242196e-06   -2.0071539010496804e-05
-5.525820586365485e-06   2.257463469438909e-06   -2.154773607441319e-05
-5.525820586365485e-06   2.257463469438909e-06   -2.154773607441319e-05
-5.525820586365485e-06   2.257463469438909e-06   -2.154773607441319e-05
-5.525820586365485e-06   2.257463469438909e-06   -2.154773607441319e-05
-6.133298714756573e-06   1.807802986602278e-06   -2.026547623739278e-05
-6.133298714756573e-06   1.807802986602278e-06   -2.026547623739278e-05
-6.133298714756573e-06   1.807802986602278e-06   -2.026547623739278e-05
-6.133298714756573e-06   1.807802986602278e-06   -2.026547623739278e-05
-7.054665187758528e-06   1.4832758809071346e-07   -1.7199975654004875e-05
-7.054665187758528e-06   1.4832758809071346e-07   -1.7199975654004875e-05
-7.054665187758528e-06   1.4832758809071346e-07   -1.7199975654004875e-05
-7.054665187758528e-06   1.4832758809071346e-07   -1.7199975654004875e-05
-8.001972474544685e-06   1.0490717100000626e-06   -1.8238374658836247e-05
-8.001972474544685e-06   1.0490717100000626e-06   -1.8238374658836247e-05
-8.001972474544685e-06   1.0490717100000626e-06   -1.8238374658836247e-05
-8.001972474544685e-06   1.0490717100000626e-06   -1.8238374658836247e-05
-7.750896339444852e-06   7.760946518191184e-07   -1.643963000149475e-05
-7.750896339444852e-06   7.760946518191184e-07   -1.643963000149475e-05
-7.750896339444852e-06   7.760946518191184e-07   -1.643963000149475e-05
-7.750896339444852e-06   7.760946518191184e-07   -1.643963000149475e-05
-6.84793248153637e-06   1.6351972818569142e-06   -1.846003134269798e-05
-6.84793248153637e-06   1.6351972818569142e-06   -1.846003134269798e-05
-6.84793248153637e-06   1.6351972818569142e-06   -1.846003134269798e-05
-6.84793248153637e-06   1.6351972818569142e-06   -1.846003134269798e-05
-7.3564211833010455e-06   9.670558851001968e-07   -1.7211665335036497e-05
-7.3564211833010455e-06   9.670558851001968e-07   -1.7211665335036497e-05
-7.3564211833010455e-06   9.670558851001968e-07   -1.7211665335036497e-05
-7.3564211833010455e-06   9.670558851001968e-07   -1.7211665335036497e-05
-6.847932481536358e-06   7.760946518191184e-07   -1.695509157951733e-05
-6.847932481536358e-06   7.760946518191184e-07   -1.695509157951733e-05
-6.847932481536358e-06   7.760946518191184e-07   -1.695509157951733e-05
-6.847932481536358e-06   7.760946518191184e-07   -1.695509157951733e-05
-7.750896339444852e-06   1.6351972818568058e-06   -1.794456976467548e-05
-7.750896339444852e-06   1.6351972818568058e-06   -1.794456976467548e-05
-7.750896339444852e-06   1.6351972818568058e-06   -1.794456976467548e-05
-7.750896339444852e-06   1.6351972818568058e-06   -1.794456976467548e-05
-7.424282991711555e-06   1.3668963913727366e-06   -1.6507634545361266e-05
-7.424282991711555e-06   1.3668963913727366e-06   -1.6507634545361266e-05
-7.424282991711555e-06   1.3668963913727366e-06   -1.6507634545361266e-05
-7.424282991711555e-06   1.3668963913727366e-06   -1.6507634545361266e-05
-6.630020010418399e-06   2.1752333230538965e-06   -1.831640833985858e-05
-6.630020010418399e-06   2.1752333230538965e-06   -1.831640833985858e-05
-6.630020010418399e-06   2.1752333230538965e-06   -1.831640833985858e-05
-6.630020010418399e-06   2.1752333230538965e-06   -1.831640833985858e-05
-7.131893218785563e-06   1.4326693893967728e-06   -1.7034414632385846e-05
-7.131893218785563e-06   1.4326693893967728e-06   -1.7034414632385846e-05
-7.131893218785563e-06   1.4326693893967728e-06   -1.7034414632385846e-05
-7.131893218785563e-06   1.4326693893967728e-06   -1.7034414632385846e-05
-6.630020010418382e-06   1.3668963913726281e-06   -1.6992636704369962e-05
-6.630020010418382e-06   1.3668963913726281e-06   -1.6992636704369962e-05
-6.630020010418382e-06   1.3668963913726281e-06   -1.6992636704369962e-05
-6.630020010418382e-06   1.3668963913726281e-06   -1.6992636704369962e-05
-7.424282991711569e-06   2.175233323054005e-06   -1.783140618084986e-05
-7.424282991711569e-06   2.175233323054005e-06   -1.783140618084986e-05
-7.424282991711569e-06   2.175233323054005e-06   -1.783140618084986e-05
-7.424282991711569e-06   2.175233323054005e-06   -1.783140618084986e-05
-7.168241591962408e-06   2.033949287410207e-06   -1.6965334915696384e-05
-7.168241591962408e-06   2.033949287410207e-06   -1.6965334915696384e-05
-7.168241591962408e-06   2.033949287410207e-06   -1.6965334915696384e-05
-7.168241591962408e-06   2.033949287410207e-06   -1.6965334915696384e-05
-6.424623322358085e-06   2.779387984101398e-06   -1.8651961916384848e-05
-6.424623322358085e-06   2.779387984101398e-06   -1.8651961916384848e-05
-6.424623322358085e-06   2.779387984101398e-06   -1.8651961916384848e-05
-6.424623322358085e-06   2.779387984101398e-06   -1.8651961916384848e-05
-6.965526116606943e-06   1.907605761665432e-06   -1.7227387925841694e-05
-6.965526116606943e-06   1.907605761665432e-06   -1.7227387925841694e-05
-6.965526116606943e-06   1.907605761665432e-06   -1.7227387925841694e-05
-6.965526116606943e-06   1.907605761665432e-06   -1.7227387925841694e-05
-8.001972474544658e-06   2.1340152071890137e-07   -9.156821984186573e-06
-8.001972474544658e-06   2.1340152071890137e-07   -9.156821984186573e-06
-8.001972474544658e-06   2.1340152071890137e-07   -9.156821984186573e-06
-8.001972474544658e-06   2.1340152071890137e-07   -9.156821984186573e-06
-9.731243095451313e-06   1.7670511426636296e-06   -1.110674991253082e-05
-9.731243095451313e-06   1.7670511426636296e-06   -1.110674991253082e-05
-9.731243095451313e-06   1.7670511426636296e-06   -1.110674991253082e-05
-9.731243095451313e-06   1.7670511426636296e-06   -1.110674991253082e-05
-8.825696920253167e-06   7.105554423676762e-07   -7.526623610775969e-06
-8.825696920253167e-06   7.105554423676762e-07   -7.526623610775969e-06
-8.825696920253167e-06   7.105554423676762e-07   -7.526623610775969e-06
-8.825696920253167e-06   7.105554423676762e-07   -7.526623610775969e-06
-7.750896339444838e-06   2.2993626846880407e-06   -1.0271242257515152e-05
-7.750896339444838e-06   2.2993626846880407e-06   -1.0271242257515152e-05
-7.750896339444838e-06   2.2993626846880407e-06   -1.0271242257515152e-05
-7.750896339444838e-06   2.2993626846880407e-06   -1.0271242257515152e-05
-8.23037066250211e-06   1.3108548068940231e-06   -8.879013659076983e-06
-8.23037066250211e-06   1.3108548068940231e-06   -8.879013659076983e-06
-8.23037066250211e-06   1.3108548068940231e-06   -8.879013659076983e-06
-8.23037066250211e-06   1.3108548068940231e-06   -8.879013659076983e-06
-7.750896339444818e-06   7.105554423677846e-07   -8.479907956167917e-06
-7.750896339444818e-06   7.105554423677846e-07   -8.479907956167917e-06
-7.750896339444818e-06   7.105554423677846e-07   -8.479907956167917e-06
-7.750896339444818e-06   7.105554423677846e-07   -8.479907956167917e-06
-8.825696920253153e-06   2.2993626846880407e-06   -9.317957912123218e-06
-8.825696920253153e-06   2.2993626846880407e-06   -9.317957912123218e-06
-8.825696920253153e-06   2.2993626846880407e-06   -9.317957912123218e-06
-8.825696920253153e-06   2.2993626846880407e-06   -9.317957912123218e-06
-8.08916329273488e-06   9.896520255876697e-07   -7.391442297254415e-06
-8.08916329273488e-06   9.896520255876697e-07   -7.391442297254415e-06
-8.08916329273488e-06   9.896520255876697e-07   -7.391442297254415e-06
-8.08916329273488e-06   9.896520255876697e-07   -7.391442297254415e-06
-7.424282991711555e-06   2.5430076225410863e-06   -9.431589490465324e-06
-7.424282991711555e-06   2.5430076225410863e-06   -9.431589490465324e-06
-7.424282991711555e-06   2.5430076225410863e-06   -9.431589490465324e-06
-7.424282991711555e-06   2.5430076225410863e-06   -9.431589490465324e-06
-7.848478244869047e-06   1.5584040852363286e-06   -8.133835279486662e-06
-7.848478244869047e-06   1.5584040852363286e-06   -8.133835279486662e-06
-7.848478244869047e-06   1.5584040852363286e-06   -8.133835279486662e-06
-7.848478244869047e-06   1.5584040852363286e-06   -8.133835279486662e-06
-7.424282991711535e-06   9.896520255876697e-07   -8.323455655426498e-06
-7.424282991711535e-06   9.896520255876697e-07   -8.323455655426498e-06
-7.424282991711535e-06   9.896520255876697e-07   -8.323455655426498e-06
-7.424282991711535e-06   9.896520255876697e-07   -8.323455655426498e-06
-8.08916329273488e-06   2.5430076225410863e-06   -8.499576132293268e-06
-8.08916329273488e-06   2.5430076225410863e-06   -8.499576132293268e-06
-8.08916329273488e-06   2.5430076225410863e-06   -8.499576132293268e-06
-8.08916329273488e-06   2.5430076225410863e-06   -8.499576132293268e-06
-7.1860158962958444e-06   1.482251662547813e-06   -7.609376054550727e-06
-7.1860158962958444e-06   1.482251662547813e-06   -7.609376054550727e-06
-7.1860158962958444e-06   1.482251662547813e-06   -7.609376054550727e-06
-7.1860158962958444e-06   1.482251662547813e-06   -7.609376054550727e-06
-7.168241591962395e-06   2.9179514045974244e-06   -8.50041974033612e-06
-7.168241591962395e-06   2.9179514045974244e-06   -8.50041974033612e-06
-7.168241591962395e-06   2.9179514045974244e-06   -8.50041974033612e-06
-7.168241591962395e-06   2.9179514045974244e-06   -8.50041974033612e-06
-7.278436721625921e-06   1.7568161715259814e-06   -7.620080051054095e-06
-7.278436721625921e-06   1.7568161715259814e-06   -7.620080051054095e-06
-7.278436721625921e-06   1.7568161715259814e-06   -7.620080051054095e-06
-7.278436721625921e-06   1.7568161715259814e-06   -7.620080051054095e-06
4.728962021136702e-06   -4.665875617225479e-07   -4.691305541298127e-06
4.728962021136702e-06   -4.665875617225479e-07   -4.691305541298127e-06
4.728962021136702e-06   -4.665875617225479e-07   -4.691305541298127e-06
4.728962021136702e-06   -4.665875617225479e-07   -4.691305541298127e-06
4.961752147276857e-07   -1.937282343911521e-06   -1.2628367087959898e-05
4.961752147276857e-07   -1.937282343911521e-06   -1.2628367087959898e-05
4.961752147276857e-07   -1.937282343911521e-06   -1.2628367087959898e-05
4.961752147276857e-07   -1.937282343911521e-06   -1.2628367087959898e-05
8.550907711576169e-07   -2.052909367500355e-08   -5.195943068424724e-06
8.550907711576169e-07   -2.052909367500355e-08   -5.195943068424724e-06
8.550907711576169e-07   -2.052909367500355e-08   -5.195943068424724e-06
8.550907711576169e-07   -2.052909367500355e-08   -5.195943068424724e-06
5.742949528862994e-06   -1.5934947778931726e-06   -1.2398594920735992e-05
5.742949528862994e-06   -1.5934947778931726e-06   -1.2398594920735992e-05
5.742949528862994e-06   -1.5934947778931726e-06   -1.2398594920735992e-05
5.742949528862994e-06   -1.5934947778931726e-06   -1.2398594920735992e-05
2.844881799042119e-06   -8.109101639012378e-07   -8.03803280609636e-06
2.844881799042119e-06   -8.109101639012378e-07   -8.03803280609636e-06
2.844881799042119e-06   -8.109101639012378e-07   -8.03803280609636e-06
2.844881799042119e-06   -8.109101639012378e-07   -8.03803280609636e-06
5.742949528863021e-06   -2.052909367500355e-08   -4.252163657893877e-06
5.742949528863021e-06   -2.052909367500355e-08   -4.252163657893877e-06
5.742949528863021e-06   -2.052909367500355e-08   -4.252163657893877e-06
5.742949528863021e-06   -2.052909367500355e-08   -4.252163657893877e-06
8.550907711576169e-07   -1.5934947778930642e-06   -1.334237433126711e-05
8.550907711576169e-07   -1.5934947778930642e-06   -1.334237433126711e-05
8.550907711576169e-07   -1.5934947778930642e-06   -1.334237433126711e-05
8.550907711576169e-07   -1.5934947778930642e-06   -1.334237433126711e-05
1.2788300038245646e-06   2.330373790706327e-07   -5.240104716306695e-06
1.2788300038245646e-06   2.330373790706327e-07   -5.240104716306695e-06
1.2788300038245646e-06   2.330373790706327e-07   -5.240104716306695e-06
1.2788300038245646e-06   2.330373790706327e-07   -5.240104716306695e-06
6.597906310319902e-06   -1.3628650067248633e-06   -1.3147690462321569e-05
6.597906310319902e-06   -1.3628650067248633e-06   -1.3147690462321569e-05
6.597906310319902e-06   -1.3628650067248633e-06   -1.3147690462321569e-05
6.597906310319902e-06   -1.3628650067248633e-06   -1.3147690462321569e-05
3.4865352521945092e-06   -6.493786444543596e-07   -8.390163849475348e-06
3.4865352521945092e-06   -6.493786444543596e-07   -8.390163849475348e-06
3.4865352521945092e-06   -6.493786444543596e-07   -8.390163849475348e-06
3.4865352521945092e-06   -6.493786444543596e-07   -8.390163849475348e-06
6.597906310319929e-06   2.330373790706327e-07   -4.282563284829408e-06
6.597906310319929e-06   2.330373790706327e-07   -4.282563284829408e-06
6.597906310319929e-06   2.330373790706327e-07   -4.282563284829408e-06
6.597906310319929e-06   2.330373790706327e-07   -4.282563284829408e-06
1.2788300038245646e-06   -1.3628650067249717e-06   -1.4105231893799073e-05
1.2788300038245646e-06   -1.3628650067249717e-06   -1.4105231893799073e-05
1.2788300038245646e-06   -1.3628650067249717e-06   -1.4105231893799073e-05
1.2788300038245646e-06   -1.3628650067249717e-06   -1.4105231893799073e-05
1.6260113759115934e-06   7.383300410458357e-07   -5.753343834880974e-06
1.6260113759115934e-06   7.383300410458357e-07   -5.753343834880974e-06
1.6260113759115934e-06   7.383300410458357e-07   -5.753343834880974e-06
1.6260113759115934e-06   7.383300410458357e-07   -5.753343834880974e-06
7.6251081189663715e-06   -7.831339617933412e-07   -1.483896000493523e-05
7.6251081189663715e-06   -7.831339617933412e-07   -1.483896000493523e-05
7.6251081189663715e-06   -7.831339617933412e-07   -1.483896000493523e-05
7.6251081189663715e-06   -7.831339617933412e-07   -1.483896000493523e-05
3.993501196651788e-06   -4.109177303628997e-07   -9.00961153993632e-06
3.993501196651788e-06   -4.109177303628997e-07   -9.00961153993632e-06
3.993501196651788e-06   -4.109177303628997e-07   -9.00961153993632e-06
3.993501196651788e-06   -4.109177303628997e-07   -9.00961153993632e-06
4.961752147276857e-07   -9.703444595206799e-08   -1.3650548840627005e-05
4.961752147276857e-07   -9.703444595206799e-08   -1.3650548840627005e-05
4.961752147276857e-07   -9.703444595206799e-08   -1.3650548840627005e-05
4.961752147276857e-07   -9.703444595206799e-08   -1.3650548840627005e-05
-4.416953554211387e-06   -7.604001794917978e-07   -2.2237116228982585e-05
-4.416953554211387e-06   -7.604001794917978e-07   -2.2237116228982585e-05
-4.416953554211387e-06   -7.604001794917978e-07   -2.2237116228982585e-05
-4.416953554211387e-06   -7.604001794917978e-07   -2.2237116228982585e-05
-4.103355264806178e-06   4.665835435494923e-07   -1.3726802457529066e-05
-4.103355264806178e-06   4.665835435494923e-07   -1.3726802457529066e-05
-4.103355264806178e-06   4.665835435494923e-07   -1.3726802457529066e-05
-4.103355264806178e-06   4.665835435494923e-07   -1.3726802457529066e-05
8.550907711576169e-07   -2.8749567512005494e-07   -2.153843165293373e-05
8.550907711576169e-07   -2.8749567512005494e-07   -2.153843165293373e-05
8.550907711576169e-07   -2.8749567512005494e-07   -2.153843165293373e-05
8.550907711576169e-07   -2.8749567512005494e-07   -2.153843165293373e-05
-1.751210250510467e-06   -2.4269505644091208e-08   -1.7352532318505755e-05
-1.751210250510467e-06   -2.4269505644091208e-08   -1.7352532318505755e-05
-1.751210250510467e-06   -2.4269505644091208e-08   -1.7352532318505755e-05
-1.751210250510467e-06   -2.4269505644091208e-08   -1.7352532318505755e-05
8.550907711576034e-07   4.665835435494923e-07   -1.3274354926327175e-05
8.550907711576034e-07   4.665835435494923e-07   -1.3274354926327175e-05
8.550907711576034e-07   4.665835435494923e-07   -1.3274354926327175e-05
8.550907711576034e-07   4.665835435494923e-07   -1.3274354926327175e-05
-4.103355264806178e-06   -2.8749567512016336e-07   -2.199087918413543e-05
-4.103355264806178e-06   -2.8749567512016336e-07   -2.199087918413543e-05
-4.103355264806178e-06   -2.8749567512016336e-07   -2.199087918413543e-05
-4.103355264806178e-06   -2.8749567512016336e-07   -2.199087918413543e-05
-3.7879165137395723e-06   1.0100376948864566e-06   -1.3748246725884573e-05
-3.7879165137395723e-06   1.0100376948864566e-06   -1.3748246725884573e-05
-3.7879165137395723e-06   1.0100376948864566e-06   -1.3748246725884573e-05
-3.7879165137395723e-06   1.0100376948864566e-06   -1.3748246725884573e-05
1.2788300038245646e-06   2.0200155714431532e-07   -2.1708002572512735e-05
1.2788300038245646e-06   2.0200155714431532e-07   -2.1708002572512735e-05
1.2788300038245646e-06   2.0200155714431532e-07   -2.1708002572512735e-05
1.2788300038245646e-06   2.0200155714431532e-07   -2.1708002572512735e-05
-1.4742399261491451e-06   3.651426053038684e-07   -1.721743731811901e-05
-1.4742399261491451e-06   3.651426053038684e-07   -1.721743731811901e-05
-1.4742399261491451e-06   3.651426053038684e-07   -1.721743731811901e-05
-1.4742399261491451e-06   3.651426053038684e-07   -1.721743731811901e-05
1.2788300038245646e-06   1.010037694886565e-06   -1.326342504323917e-05
1.2788300038245646e-06   1.010037694886565e-06   -1.326342504323917e-05
1.2788300038245646e-06   1.010037694886565e-06   -1.326342504323917e-05
1.2788300038245646e-06   1.010037694886565e-06   -1.326342504323917e-05
-3.7879165137395723e-06   2.0200155714431532e-07   -2.2192824255158248e-05
-3.7879165137395723e-06   2.0200155714431532e-07   -2.2192824255158248e-05
-3.7879165137395723e-06   2.0200155714431532e-07   -2.2192824255158248e-05
-3.7879165137395723e-06   2.0200155714431532e-07   -2.2192824255158248e-05
-3.4869564889068093e-06   1.6314421889245673e-06   -1.4094157698460604e-05
-3.4869564889068093e-06   1.6314421889245673e-06   -1.4094157698460604e-05
-3.4869564889068093e-06   1.6314421889245673e-06   -1.4094157698460604e-05
-3.4869564889068093e-06   1.6314421889245673e-06   -1.4094157698460604e-05
1.6260113759115934e-06   7.824648113130897e-07   -2.210638437992441e-05
1.6260113759115934e-06   7.824648113130897e-07   -2.210638437992441e-05
1.6260113759115934e-06   7.824648113130897e-07   -2.210638437992441e-05
1.6260113759115934e-06   7.824648113130897e-07   -2.210638437992441e-05
-1.1649530220292175e-06   7.97601005576333e-07   -1.746385876658137e-05
-1.1649530220292175e-06   7.97601005576333e-07   -1.746385876658137e-05
-1.1649530220292175e-06   7.97601005576333e-07   -1.746385876658137e-05
-1.1649530220292175e-06   7.97601005576333e-07   -1.746385876658137e-05
-4.416953554211401e-06   4.730099413712604e-07   -1.654206553699069e-05
-4.416953554211401e-06   4.730099413712604e-07   -1.654206553699069e-05
-4.416953554211401e-06   4.730099413712604e-07   -1.654206553699069e-05
-4.416953554211401e-06   4.730099413712604e-07   -1.654206553699069e-05
-9.285145492455315e-06   5.959031224447115e-07   -2.4581982858753234e-05
-9.285145492455315e-06   5.959031224447115e-07   -2.4581982858753234e-05
-9.285145492455315e-06   5.959031224447115e-07   -2.4581982858753234e-05
-9.285145492455315e-06   5.959031224447115e-07   -2.4581982858753234e-05
-8.969596458884738e-06   1.0566085260227962e-06   -1.6243159867037347e-05
-8.969596458884738e-06   1.0566085260227962e-06   -1.6243159867037347e-05
-8.969596458884738e-06   1.0566085260227962e-06   -1.6243159867037347e-05
-8.969596458884738e-06   1.0566085260227962e-06   -1.6243159867037347e-05
-4.1033552648061915e-06   1.097253041241206e-06   -2.4377948566299415e-05
-4.1033552648061915e-06   1.097253041241206e-06   -2.4377948566299415e-05
-4.1033552648061915e-06   1.097253041241206e-06   -2.4377948566299415e-05
-4.1033552648061915e-06   1.097253041241206e-06   -2.4377948566299415e-05
-6.655069290739107e-06   9.077703036332405e-07   -2.00114022138464e-05
-6.655069290739107e-06   9.077703036332405e-07   -2.00114022138464e-05
-6.655069290739107e-06   9.077703036332405e-07   -2.00114022138464e-05
-6.655069290739107e-06   9.077703036332405e-07   -2.00114022138464e-05
-4.1033552648061915e-06   1.0566085260227962e-06   -1.6267546576168533e-05
-4.1033552648061915e-06   1.0566085260227962e-06   -1.6267546576168533e-05
-4.1033552648061915e-06   1.0566085260227962e-06   -1.6267546576168533e-05
-4.1033552648061915e-06   1.0566085260227962e-06   -1.6267546576168533e-05
-8.969596458884738e-06   1.097253041241206e-06   -2.4353561857168445e-05
-8.969596458884738e-06   1.097253041241206e-06   -2.4353561857168445e-05
-8.969596458884738e-06   1.097253041241206e-06   -2.4353561857168445e-05
-8.969596458884738e-06   1.097253041241206e-06   -2.4353561857168445e-05
-8.648582582022757e-06   1.6528695291231736e-06   -1.6284731578808582e-05
-8.648582582022757e-06   1.6528695291231736e-06   -1.6284731578808582e-05
-8.648582582022757e-06   1.6528695291231736e-06   -1.6284731578808582e-05
-8.648582582022757e-06   1.6528695291231736e-06   -1.6284731578808582e-05
-3.787916513739586e-06   1.6275852825870744e-06   -2.4370671144692134e-05
-3.787916513739586e-06   1.6275852825870744e-06   -2.4370671144692134e-05
-3.787916513739586e-06   1.6275852825870744e-06   -2.4370671144692134e-05
-3.787916513739586e-06   1.6275852825870744e-06   -2.4370671144692134e-05
-6.377967034181587e-06   1.345968499725657e-06   -1.9884950207572227e-05
-6.377967034181587e-06   1.345968499725657e-06   -1.9884950207572227e-05
-6.377967034181587e-06   1.345968499725657e-06   -1.9884950207572227e-05
-6.377967034181587e-06   1.345968499725657e-06   -1.9884950207572227e-05
-3.787916513739586e-06   1.6528695291231736e-06   -1.626956103088691e-05
-3.787916513739586e-06   1.6528695291231736e-06   -1.626956103088691e-05
-3.787916513739586e-06   1.6528695291231736e-06   -1.626956103088691e-05
-3.787916513739586e-06   1.6528695291231736e-06   -1.626956103088691e-05
-8.648582582022741e-06   1.6275852825870744e-06   -2.4385841692613967e-05
-8.648582582022741e-06   1.6275852825870744e-06   -2.4385841692613967e-05
-8.648582582022741e-06   1.6275852825870744e-06   -2.4385841692613967e-05
-8.648582582022741e-06   1.6275852825870744e-06   -2.4385841692613967e-05
-8.342551970270901e-06   2.257463469438909e-06   -1.665129754635931e-05
-8.342551970270901e-06   2.257463469438909e-06   -1.665129754635931e-05
-8.342551970270901e-06   2.257463469438909e-06   -1.665129754635931e-05
-8.342551970270901e-06   2.257463469438909e-06   -1.665129754635931e-05
-3.4869564889068093e-06   2.16713554725904e-06   -2.4689759928658283e-05
-3.4869564889068093e-06   2.16713554725904e-06   -2.4689759928658283e-05
-3.4869564889068093e-06   2.16713554725904e-06   -2.4689759928658283e-05
-3.4869564889068093e-06   2.16713554725904e-06   -2.4689759928658283e-05
-6.120612658369868e-06   1.7908816707329443e-06   -2.0074580653637908e-05
-6.120612658369868e-06   1.7908816707329443e-06   -2.0074580653637908e-05
-6.120612658369868e-06   1.7908816707329443e-06   -2.0074580653637908e-05
-6.120612658369868e-06   1.7908816707329443e-06   -2.0074580653637908e-05
-9.285145492455332e-06   1.0490717100000626e-06   -1.390139498303448e-05
-9.285145492455332e-06   1.0490717100000626e-06   -1.390139498303448e-05
-9.285145492455332e-06   1.0490717100000626e-06   -1.390139498303448e-05
-9.285145492455332e-06   1.0490717100000626e-06   -1.390139498303448e-05
-1.4104226955037221e-05   1.914874635849527e-06   -2.1413715665161213e-05
-1.4104226955037221e-05   1.914874635849527e-06   -2.1413715665161213e-05
-1.4104226955037221e-05   1.914874635849527e-06   -2.1413715665161213e-05
-1.4104226955037221e-05   1.914874635849527e-06   -2.1413715665161213e-05
-1.3742986500271193e-05   1.6351972818569142e-06   -1.3086199869409045e-05
-1.3742986500271193e-05   1.6351972818569142e-06   -1.3086199869409045e-05
-1.3742986500271193e-05   1.6351972818569142e-06   -1.3086199869409045e-05
-1.3742986500271193e-05   1.6351972818569142e-06   -1.3086199869409045e-05
-8.969596458884738e-06   2.4500974305476575e-06   -2.153079002760084e-05
-8.969596458884738e-06   2.4500974305476575e-06   -2.153079002760084e-05
-8.969596458884738e-06   2.4500974305476575e-06   -2.153079002760084e-05
-8.969596458884738e-06   2.4500974305476575e-06   -2.153079002760084e-05
-1.144553470162377e-05   1.8310990496735093e-06   -1.703282726117789e-05
-1.144553470162377e-05   1.8310990496735093e-06   -1.703282726117789e-05
-1.144553470162377e-05   1.8310990496735093e-06   -1.703282726117789e-05
-1.144553470162377e-05   1.8310990496735093e-06   -1.703282726117789e-05
-8.969596458884755e-06   1.6351972818569142e-06   -1.3575139958623404e-05
-8.969596458884755e-06   1.6351972818569142e-06   -1.3575139958623404e-05
-8.969596458884755e-06   1.6351972818569142e-06   -1.3575139958623404e-05
-8.969596458884755e-06   1.6351972818569142e-06   -1.3575139958623404e-05
-1.3742986500271217e-05   2.4500974305476575e-06   -2.1041849938386453e-05
-1.3742986500271217e-05   2.4500974305476575e-06   -2.1041849938386453e-05
-1.3742986500271217e-05   2.4500974305476575e-06   -2.1041849938386453e-05
-1.3742986500271217e-05   2.4500974305476575e-06   -2.1041849938386453e-05
-1.3308525378767287e-05   2.175233323054005e-06   -1.2960978618624624e-05
-1.3308525378767287e-05   2.175233323054005e-06   -1.2960978618624624e-05
-1.3308525378767287e-05   2.175233323054005e-06   -1.2960978618624624e-05
-1.3308525378767287e-05   2.175233323054005e-06   -1.2960978618624624e-05
-8.648582582022757e-06   2.931660259819437e-06   -2.118140610859158e-05
-8.648582582022757e-06   2.931660259819437e-06   -2.118140610859158e-05
-8.648582582022757e-06   2.931660259819437e-06   -2.118140610859158e-05
-8.648582582022757e-06   2.931660259819437e-06   -2.118140610859158e-05
-1.1080495962679966e-05   2.2543359853815885e-06   -1.6721822576167078e-05
-1.1080495962679966e-05   2.2543359853815885e-06   -1.6721822576167078e-05
-1.1080495962679966e-05   2.2543359853815885e-06   -1.6721822576167078e-05
-1.1080495962679966e-05   2.2543359853815885e-06   -1.6721822576167078e-05
-8.64858258202275e-06   2.175233323054005e-06   -1.3414834780683873e-05
-8.64858258202275e-06   2.175233323054005e-06   -1.3414834780683873e-05
-8.64858258202275e-06   2.175233323054005e-06   -1.3414834780683873e-05
-8.64858258202275e-06   2.175233323054005e-06   -1.3414834780683873e-05
-1.3308525378767287e-05   2.9316602598195452e-06   -2.072754994653233e-05
-1.3308525378767287e-05   2.9316602598195452e-06   -2.072754994653233e-05
-1.3308525378767287e-05   2.9316602598195452e-06   -2.072754994653233e-05
-1.3308525378767287e-05   2.9316602598195452e-06   -2.072754994653233e-05
-1.294706500415278e-05   2.779387984101398e-06   -1.3319784345511526e-05
-1.294706500415278e-05   2.779387984101398e-06   -1.3319784345511526e-05
-1.294706500415278e-05   2.779387984101398e-06   -1.3319784345511526e-05
-1.294706500415278e-05   2.779387984101398e-06   -1.3319784345511526e-05
-8.342551970270901e-06   3.4692738953485437e-06   -2.1407904282062893e-05
-8.342551970270901e-06   3.4692738953485437e-06   -2.1407904282062893e-05
-8.342551970270901e-06   3.4692738953485437e-06   -2.1407904282062893e-05
-8.342551970270901e-06   3.4692738953485437e-06   -2.1407904282062893e-05
-1.0838896752659875e-05   2.6706109039213895e-06   -1.6768131849891573e-05
-1.0838896752659875e-05   2.6706109039213895e-06   -1.6768131849891573e-05
-1.0838896752659875e-05   2.6706109039213895e-06   -1.6768131849891573e-05
-1.0838896752659875e-05   2.6706109039213895e-06   -1.6768131849891573e-05
-1.4104226955037221e-05   1.7670511426636296e-06   -7.182478254386235e-06
-1.4104226955037221e-05   1.7670511426636296e-06   -7.182478254386235e-06
-1.4104226955037221e-05   1.7670511426636296e-06   -7.182478254386235e-06
-1.4104226955037221e-05   1.7670511426636296e-06   -7.182478254386235e-06
-1.9606147691777782e-05   3.2938211325810084e-06   -1.5436284155003746e-05
-1.9606147691777782e-05   3.2938211325810084e-06   -1.5436284155003746e-05
-1.9606147691777782e-05   3.2938211325810084e-06   -1.5436284155003746e-05
-1.9606147691777782e-05   3.2938211325810084e-06   -1.5436284155003746e-05
-1.8601254267444522e-05   2.2993626846879323e-06   -4.482214078355942e-06
-1.8601254267444522e-05   2.2993626846879323e-06   -4.482214078355942e-06
-1.8601254267444522e-05   2.2993626846879323e-06   -4.482214078355942e-06
-1.8601254267444522e-05   2.2993626846879323e-06   -4.482214078355942e-06
-1.3742986500271193e-05   3.850459824509427e-06   -1.3509985307537656e-05
-1.3742986500271193e-05   3.850459824509427e-06   -1.3509985307537656e-05
-1.3742986500271193e-05   3.850459824509427e-06   -1.3509985307537656e-05
-1.3742986500271193e-05   3.850459824509427e-06   -1.3509985307537656e-05
-1.5842041556294896e-05   2.8648185744066003e-06   -9.420175464103182e-06
-1.5842041556294896e-05   2.8648185744066003e-06   -9.420175464103182e-06
-1.5842041556294896e-05   2.8648185744066003e-06   -9.420175464103182e-06
-1.5842041556294896e-05   2.8648185744066003e-06   -9.420175464103182e-06
-1.3742986500271203e-05   2.2993626846879323e-06   -5.412872362248623e-06
-1.3742986500271203e-05   2.2993626846879323e-06   -5.412872362248623e-06
-1.3742986500271203e-05   2.2993626846879323e-06   -5.412872362248623e-06
-1.3742986500271203e-05   2.2993626846879323e-06   -5.412872362248623e-06
-1.8601254267444455e-05   3.850459824509427e-06   -1.2579327023644793e-05
-1.8601254267444455e-05   3.850459824509427e-06   -1.2579327023644793e-05
-1.8601254267444455e-05   3.850459824509427e-06   -1.2579327023644793e-05
-1.8601254267444455e-05   3.850459824509427e-06   -1.2579327023644793e-05
-1.7770781600418177e-05   2.5430076225410863e-06   -3.6568305399674143e-06
-1.7770781600418177e-05   2.5430076225410863e-06   -3.6568305399674143e-06
-1.7770781600418177e-05   2.5430076225410863e-06   -3.6568305399674143e-06
-1.7770781600418177e-05   2.5430076225410863e-06   -3.6568305399674143e-06
-1.3308525378767264e-05   4.050226602995716e-06   -1.1998255630991746e-05
-1.3308525378767264e-05   4.050226602995716e-06   -1.1998255630991746e-05
-1.3308525378767264e-05   4.050226602995716e-06   -1.1998255630991746e-05
-1.3308525378767264e-05   4.050226602995716e-06   -1.1998255630991746e-05
-1.5480372339231357e-05   3.11646525242269e-06   -7.818253886541102e-06
-1.5480372339231357e-05   3.11646525242269e-06   -7.818253886541102e-06
-1.5480372339231357e-05   3.11646525242269e-06   -7.818253886541102e-06
-1.5480372339231357e-05   3.11646525242269e-06   -7.818253886541102e-06
-1.3308525378767287e-05   2.5430076225410863e-06   -4.561161928240171e-06
-1.3308525378767287e-05   2.5430076225410863e-06   -4.561161928240171e-06
-1.3308525378767287e-05   2.5430076225410863e-06   -4.561161928240171e-06
-1.3308525378767287e-05   2.5430076225410863e-06   -4.561161928240171e-06
-1.777078160041815e-05   4.050226602995825e-06   -1.1093924242718922e-05
-1.777078160041815e-05   4.050226602995825e-06   -1.1093924242718922e-05
-1.777078160041815e-05   4.050226602995825e-06   -1.1093924242718922e-05
-1.777078160041815e-05   4.050226602995825e-06   -1.1093924242718922e-05
-1.678613939498908e-05   2.9179514045974244e-06   -2.7858155013903694e-06
-1.678613939498908e-05   2.9179514045974244e-06   -2.7858155013903694e-06
-1.678613939498908e-05   2.9179514045974244e-06   -2.7858155013903694e-06
-1.678613939498908e-05   2.9179514045974244e-06   -2.7858155013903694e-06
-1.294706500415278e-05   4.3007678814094416e-06   -1.0013962705537976e-05
-1.294706500415278e-05   4.3007678814094416e-06   -1.0013962705537976e-05
-1.294706500415278e-05   4.3007678814094416e-06   -1.0013962705537976e-05
-1.294706500415278e-05   4.3007678814094416e-06   -1.0013962705537976e-05
-1.4697066666155435e-05   3.236974533936182e-06   -6.459017260383173e-06
-1.4697066666155435e-05   3.236974533936182e-06   -6.459017260383173e-06
-1.4697066666155435e-05   3.236974533936182e-06   -6.459017260383173e-06
-1.4697066666155435e-05   3.236974533936182e-06   -6.459017260383173e-06
1.479861640287086e-05   -1.937282343911521e-06   -1.7178563908610417e-08
1.479861640287086e-05   -1.937282343911521e-06   -1.7178563908610417e-08
1.479861640287086e-05   -1.937282343911521e-06   -1.7178563908610417e-08
1.479861640287086e-05   -1.937282343911521e-06   -1.7178563908610417e-08
6.290422581992249e-06   -3.482054980756674e-06   -1.5124365180813363e-05
6.290422581992249e-06   -3.482054980756674e-06   -1.5124365180813363e-05
6.290422581992249e-06   -3.482054980756674e-06   -1.5124365180813363e-05
6.290422581992249e-06   -3.482054980756674e-06   -1.5124365180813363e-05
6.727581343401307e-06   -1.5934947778931726e-06   -1.5729580379865394e-06
6.727581343401307e-06   -1.5934947778931726e-06   -1.5729580379865394e-06
6.727581343401307e-06   -1.5934947778931726e-06   -1.5729580379865394e-06
6.727581343401307e-06   -1.5934947778931726e-06   -1.5729580379865394e-06
1.5903361703822113e-05   -3.2397671591490734e-06   -1.5878161876600977e-05
1.5903361703822113e-05   -3.2397671591490734e-06   -1.5878161876600977e-05
1.5903361703822113e-05   -3.2397671591490734e-06   -1.5878161876600977e-05
1.5903361703822113e-05   -3.2397671591490734e-06   -1.5878161876600977e-05
1.0488418300382842e-05   -2.2988698649860015e-06   -7.41779458069997e-06
1.0488418300382842e-05   -2.2988698649860015e-06   -7.41779458069997e-06
1.0488418300382842e-05   -2.2988698649860015e-06   -7.41779458069997e-06
1.0488418300382842e-05   -2.2988698649860015e-06   -7.41779458069997e-06
1.5903361703822113e-05   -1.5934947778931726e-06   -5.851946092329122e-07
1.5903361703822113e-05   -1.5934947778931726e-06   -5.851946092329122e-07
1.5903361703822113e-05   -1.5934947778931726e-06   -5.851946092329122e-07
1.5903361703822113e-05   -1.5934947778931726e-06   -5.851946092329122e-07
6.727581343401293e-06   -3.2397671591492903e-06   -1.686592530535455e-05
6.727581343401293e-06   -3.2397671591492903e-06   -1.686592530535455e-05
6.727581343401293e-06   -3.2397671591492903e-06   -1.686592530535455e-05
6.727581343401293e-06   -3.2397671591492903e-06   -1.686592530535455e-05
7.212321517463367e-06   -1.3628650067248633e-06   -2.257582508328115e-06
7.212321517463367e-06   -1.3628650067248633e-06   -2.257582508328115e-06
7.212321517463367e-06   -1.3628650067248633e-06   -2.257582508328115e-06
7.212321517463367e-06   -1.3628650067248633e-06   -2.257582508328115e-06
1.6829541532684307e-05   -3.02975471691818e-06   -1.7286148707580304e-05
1.6829541532684307e-05   -3.02975471691818e-06   -1.7286148707580304e-05
1.6829541532684307e-05   -3.02975471691818e-06   -1.7286148707580304e-05
1.6829541532684307e-05   -3.02975471691818e-06   -1.7286148707580304e-05
1.1317878322098476e-05   -2.205271784487409e-06   -8.594733116062275e-06
1.1317878322098476e-05   -2.205271784487409e-06   -8.594733116062275e-06
1.1317878322098476e-05   -2.205271784487409e-06   -8.594733116062275e-06
1.1317878322098476e-05   -2.205271784487409e-06   -8.594733116062275e-06
1.682954153268436e-05   -1.3628650067248633e-06   -1.2574486822118864e-06
1.682954153268436e-05   -1.3628650067248633e-06   -1.2574486822118864e-06
1.682954153268436e-05   -1.3628650067248633e-06   -1.2574486822118864e-06
1.682954153268436e-05   -1.3628650067248633e-06   -1.2574486822118864e-06
7.21232151746334e-06   -3.029754716918397e-06   -1.828628253369637e-05
7.21232151746334e-06   -3.029754716918397e-06   -1.828628253369637e-05
7.21232151746334e-06   -3.029754716918397e-06   -1.828628253369637e-05
7.21232151746334e-06   -3.029754716918397e-06   -1.828628253369637e-05
7.611541227096986e-06   -7.831339617933412e-07   -3.831819399346048e-06
7.611541227096986e-06   -7.831339617933412e-07   -3.831819399346048e-06
7.611541227096986e-06   -7.831339617933412e-07   -3.831819399346048e-06
7.611541227096986e-06   -7.831339617933412e-07   -3.831819399346048e-06
1.7905205476391543e-05   -2.3676182480413845e-06   -2.0037235909754823e-05
1.7905205476391543e-05   -2.3676182480413845e-06   -2.0037235909754823e-05
1.7905205476391543e-05   -2.3676182480413845e-06   -2.0037235909754823e-05
1.7905205476391543e-05   -2.3676182480413845e-06   -2.0037235909754823e-05
1.1762073515146993e-05   -1.9447865686943264e-06   -1.0052381648622432e-05
1.1762073515146993e-05   -1.9447865686943264e-06   -1.0052381648622432e-05
1.1762073515146993e-05   -1.9447865686943264e-06   -1.0052381648622432e-05
1.1762073515146993e-05   -1.9447865686943264e-06   -1.0052381648622432e-05
6.290422581992262e-06   -7.604001794916894e-07   -1.0154771846914465e-05
6.290422581992262e-06   -7.604001794916894e-07   -1.0154771846914465e-05
6.290422581992262e-06   -7.604001794916894e-07   -1.0154771846914465e-05
6.290422581992262e-06   -7.604001794916894e-07   -1.0154771846914465e-05
-2.6983090763710034e-06   -1.6213833547279975e-06   -2.56525811826616e-05
-2.6983090763710034e-06   -1.6213833547279975e-06   -2.56525811826616e-05
-2.6983090763710034e-06   -1.6213833547279975e-06   -2.56525811826616e-05
-2.6983090763710034e-06   -1.6213833547279975e-06   -2.56525811826616e-05
-2.2926143267139814e-06   -2.8749567512005494e-07   -1.0365704302043688e-05
-2.2926143267139814e-06   -2.8749567512005494e-07   -1.0365704302043688e-05
-2.2926143267139814e-06   -2.8749567512005494e-07   -1.0365704302043688e-05
-2.2926143267139814e-06   -2.8749567512005494e-07   -1.0365704302043688e-05
6.727581343401293e-06   -1.2819772457709627e-06   -2.4802674809845302e-05
6.727581343401293e-06   -1.2819772457709627e-06   -2.4802674809845302e-05
6.727581343401293e-06   -1.2819772457709627e-06   -2.4802674809845302e-05
6.727581343401293e-06   -1.2819772457709627e-06   -2.4802674809845302e-05
2.028625268655545e-06   -7.822836982924585e-07   -1.72708974804228e-05
2.028625268655545e-06   -7.822836982924585e-07   -1.72708974804228e-05
2.028625268655545e-06   -7.822836982924585e-07   -1.72708974804228e-05
2.028625268655545e-06   -7.822836982924585e-07   -1.72708974804228e-05
6.727581343401307e-06   -2.8749567512005494e-07   -9.769015359653295e-06
6.727581343401307e-06   -2.8749567512005494e-07   -9.769015359653295e-06
6.727581343401307e-06   -2.8749567512005494e-07   -9.769015359653295e-06
6.727581343401307e-06   -2.8749567512005494e-07   -9.769015359653295e-06
-2.292614326713995e-06   -1.2819772457709627e-06   -2.5399363752235803e-05
-2.292614326713995e-06   -1.2819772457709627e-06   -2.5399363752235803e-05
-2.292614326713995e-06   -1.2819772457709627e-06   -2.5399363752235803e-05
-2.292614326713995e-06   -1.2819772457709627e-06   -2.5399363752235803e-05
-1.9052975421396655e-06   2.0200155714431532e-07   -1.050197497302972e-05
-1.9052975421396655e-06   2.0200155714431532e-07   -1.050197497302972e-05
-1.9052975421396655e-06   2.0200155714431532e-07   -1.050197497302972e-05
-1.9052975421396655e-06   2.0200155714431532e-07   -1.050197497302972e-05
7.21232151746334e-06   -8.673680861690652e-07   -2.505638495304676e-05
7.21232151746334e-06   -8.673680861690652e-07   -2.505638495304676e-05
7.21232151746334e-06   -8.673680861690652e-07   -2.505638495304676e-05
7.21232151746334e-06   -8.673680861690652e-07   -2.505638495304676e-05
2.349164604972482e-06   -4.813875821951634e-07   -1.718271173461268e-05
2.349164604972482e-06   -4.813875821951634e-07   -1.718271173461268e-05
2.349164604972482e-06   -4.813875821951634e-07   -1.718271173461268e-05
2.349164604972482e-06   -4.813875821951634e-07   -1.718271173461268e-05
7.212321517463367e-06   2.0200155714431532e-07   -9.860353187041886e-06
7.212321517463367e-06   2.0200155714431532e-07   -9.860353187041886e-06
7.212321517463367e-06   2.0200155714431532e-07   -9.860353187041886e-06
7.212321517463367e-06   2.0200155714431532e-07   -9.860353187041886e-06
-1.9052975421396655e-06   -8.673680861690652e-07   -2.5698006739034837e-05
-1.9052975421396655e-06   -8.673680861690652e-07   -2.5698006739034837e-05
-1.9052975421396655e-06   -8.673680861690652e-07   -2.5698006739034837e-05
-1.9052975421396655e-06   -8.673680861690652e-07   -2.5698006739034837e-05
-1.5418697554972559e-06   7.824648113130897e-07   -1.0862889846959293e-05
-1.5418697554972559e-06   7.824648113130897e-07   -1.0862889846959293e-05
-1.5418697554972559e-06   7.824648113130897e-07   -1.0862889846959293e-05
-1.5418697554972559e-06   7.824648113130897e-07   -1.0862889846959293e-05
7.611541227096986e-06   -3.450759792330074e-07   -2.5442050343622044e-05
7.611541227096986e-06   -3.450759792330074e-07   -2.5442050343622044e-05
7.611541227096986e-06   -3.450759792330074e-07   -2.5442050343622044e-05
7.611541227096986e-06   -3.450759792330074e-07   -2.5442050343622044e-05
2.751225427867814e-06   -1.0987944038302021e-07   -1.748264193488381e-05
2.751225427867814e-06   -1.0987944038302021e-07   -1.748264193488381e-05
2.751225427867814e-06   -1.0987944038302021e-07   -1.748264193488381e-05
2.751225427867814e-06   -1.0987944038302021e-07   -1.748264193488381e-05
-2.6983090763710034e-06   5.959031224446031e-07   -1.3089964290470915e-05
-2.6983090763710034e-06   5.959031224446031e-07   -1.3089964290470915e-05
-2.6983090763710034e-06   5.959031224446031e-07   -1.3089964290470915e-05
-2.6983090763710034e-06   5.959031224446031e-07   -1.3089964290470915e-05
-1.1528643424790744e-05   3.134608654016633e-07   -2.7976653558729574e-05
-1.1528643424790744e-05   3.134608654016633e-07   -2.7976653558729574e-05
-1.1528643424790744e-05   3.134608654016633e-07   -2.7976653558729574e-05
-1.1528643424790744e-05   3.134608654016633e-07   -2.7976653558729574e-05
-1.1092110594533485e-05   1.097253041241206e-06   -1.2993904528641321e-05
-1.1092110594533485e-05   1.097253041241206e-06   -1.2993904528641321e-05
-1.1092110594533485e-05   1.097253041241206e-06   -1.2993904528641321e-05
-1.1092110594533485e-05   1.097253041241206e-06   -1.2993904528641321e-05
-2.292614326713995e-06   6.953683005183307e-07   -2.741860079724011e-05
-2.292614326713995e-06   6.953683005183307e-07   -2.741860079724011e-05
-2.292614326713995e-06   6.953683005183307e-07   -2.741860079724011e-05
-2.292614326713995e-06   6.953683005183307e-07   -2.741860079724011e-05
-6.8560287475605896e-06   8.177915281131973e-07   -1.9886364032385906e-05
-6.8560287475605896e-06   8.177915281131973e-07   -1.9886364032385906e-05
-6.8560287475605896e-06   8.177915281131973e-07   -1.9886364032385906e-05
-6.8560287475605896e-06   8.177915281131973e-07   -1.9886364032385906e-05
-2.2926143267139814e-06   1.097253041241206e-06   -1.275277368420751e-05
-2.2926143267139814e-06   1.097253041241206e-06   -1.275277368420751e-05
-2.2926143267139814e-06   1.097253041241206e-06   -1.275277368420751e-05
-2.2926143267139814e-06   1.097253041241206e-06   -1.275277368420751e-05
-1.1092110594533485e-05   6.953683005183307e-07   -2.765973164167387e-05
-1.1092110594533485e-05   6.953683005183307e-07   -2.765973164167387e-05
-1.1092110594533485e-05   6.953683005183307e-07   -2.765973164167387e-05
-1.1092110594533485e-05   6.953683005183307e-07   -2.765973164167387e-05
-1.0670822579835004e-05   1.6275852825870744e-06   -1.2974414601624965e-05
-1.0670822579835004e-05   1.6275852825870744e-06   -1.2974414601624965e-05
-1.0670822579835004e-05   1.6275852825870744e-06   -1.2974414601624965e-05
-1.0670822579835004e-05   1.6275852825870744e-06   -1.2974414601624965e-05
-1.905297542139652e-06   1.136597384152017e-06   -2.728903025872268e-05
-1.905297542139652e-06   1.136597384152017e-06   -2.728903025872268e-05
-1.905297542139652e-06   1.136597384152017e-06   -2.728903025872268e-05
-1.905297542139652e-06   1.136597384152017e-06   -2.728903025872268e-05
-6.480929001143918e-06   1.1755254748148803e-06   -1.9686334681446674e-05
-6.480929001143918e-06   1.1755254748148803e-06   -1.9686334681446674e-05
-6.480929001143918e-06   1.1755254748148803e-06   -1.9686334681446674e-05
-6.480929001143918e-06   1.1755254748148803e-06   -1.9686334681446674e-05
-1.905297542139652e-06   1.6275852825870744e-06   -1.2679821862563714e-05
-1.905297542139652e-06   1.6275852825870744e-06   -1.2679821862563714e-05
-1.905297542139652e-06   1.6275852825870744e-06   -1.2679821862563714e-05
-1.905297542139652e-06   1.6275852825870744e-06   -1.2679821862563714e-05
-1.0670822579835004e-05   1.136597384152017e-06   -2.7583622997783865e-05
-1.0670822579835004e-05   1.136597384152017e-06   -2.7583622997783865e-05
-1.0670822579835004e-05   1.136597384152017e-06   -2.7583622997783865e-05
-1.0670822579835004e-05   1.136597384152017e-06   -2.7583622997783865e-05
-1.0281571654754893e-05   2.1671355472589315e-06   -1.328172121023213e-05
-1.0281571654754893e-05   2.1671355472589315e-06   -1.328172121023213e-05
-1.0281571654754893e-05   2.1671355472589315e-06   -1.328172121023213e-05
-1.0281571654754893e-05   2.1671355472589315e-06   -1.328172121023213e-05
-1.5418697554972694e-06   1.5923984787490422e-06   -2.750304880122235e-05
-1.5418697554972694e-06   1.5923984787490422e-06   -2.750304880122235e-05
-1.5418697554972694e-06   1.5923984787490422e-06   -2.750304880122235e-05
-1.5418697554972694e-06   1.5923984787490422e-06   -2.750304880122235e-05
-6.14627772135236e-06   1.5425640777131343e-06   -1.9799134884175774e-05
-6.14627772135236e-06   1.5425640777131343e-06   -1.9799134884175774e-05
-6.14627772135236e-06   1.5425640777131343e-06   -1.9799134884175774e-05
-6.14627772135236e-06   1.5425640777131343e-06   -1.9799134884175774e-05
-1.1528643424790761e-05   1.914874635849527e-06   -1.0610644206614467e-05
-1.1528643424790761e-05   1.914874635849527e-06   -1.0610644206614467e-05
-1.1528643424790761e-05   1.914874635849527e-06   -1.0610644206614467e-05
-1.1528643424790761e-05   1.914874635849527e-06   -1.0610644206614467e-05
-2.0206013579326722e-05   2.3179045405097125e-06   -2.483110985471149e-05
-2.0206013579326722e-05   2.3179045405097125e-06   -2.483110985471149e-05
-2.0206013579326722e-05   2.3179045405097125e-06   -2.483110985471149e-05
-2.0206013579326722e-05   2.3179045405097125e-06   -2.483110985471149e-05
-1.9679184219830518e-05   2.4500974305476575e-06   -9.96023285585628e-06
-1.9679184219830518e-05   2.4500974305476575e-06   -9.96023285585628e-06
-1.9679184219830518e-05   2.4500974305476575e-06   -9.96023285585628e-06
-1.9679184219830518e-05   2.4500974305476575e-06   -9.96023285585628e-06
-1.1092110594533502e-05   2.8015971692437174e-06   -2.4482922074568928e-05
-1.1092110594533502e-05   2.8015971692437174e-06   -2.4482922074568928e-05
-1.1092110594533502e-05   2.8015971692437174e-06   -2.4482922074568928e-05
-1.1092110594533502e-05   2.8015971692437174e-06   -2.4482922074568928e-05
-1.551253681697346e-05   2.4706704773382222e-06   -1.691698902202574e-05
-1.551253681697346e-05   2.4706704773382222e-06   -1.691698902202574e-05
-1.551253681697346e-05   2.4706704773382222e-06   -1.691698902202574e-05
-1.551253681697346e-05   2.4706704773382222e-06   -1.691698902202574e-05
-1.1092110594533502e-05   2.4500974305476575e-06   -1.017113269907396e-05
-1.1092110594533502e-05   2.4500974305476575e-06   -1.017113269907396e-05
-1.1092110594533502e-05   2.4500974305476575e-06   -1.017113269907396e-05
-1.1092110594533502e-05   2.4500974305476575e-06   -1.017113269907396e-05
-1.967918421983055e-05   2.8015971692437174e-06   -2.4272022231351404e-05
-1.967918421983055e-05   2.8015971692437174e-06   -2.4272022231351404e-05
-1.967918421983055e-05   2.8015971692437174e-06   -2.4272022231351404e-05
-1.967918421983055e-05   2.8015971692437174e-06   -2.4272022231351404e-05
-1.9094743488388663e-05   2.931660259819437e-06   -9.598200764459838e-06
-1.9094743488388663e-05   2.931660259819437e-06   -9.598200764459838e-06
-1.9094743488388663e-05   2.931660259819437e-06   -9.598200764459838e-06
-1.9094743488388663e-05   2.931660259819437e-06   -9.598200764459838e-06
-1.0670822579835025e-05   3.2179573483906865e-06   -2.3809847198525345e-05
-1.0670822579835025e-05   3.2179573483906865e-06   -2.3809847198525345e-05
-1.0670822579835025e-05   3.2179573483906865e-06   -2.3809847198525345e-05
-1.0670822579835025e-05   3.2179573483906865e-06   -2.3809847198525345e-05
-1.4978138462994062e-05   2.848076072731404e-06   -1.640905862786464e-05
-1.4978138462994062e-05   2.848076072731404e-06   -1.640905862786464e-05
-1.4978138462994062e-05   2.848076072731404e-06   -1.640905862786464e-05
-1.4978138462994062e-05   2.848076072731404e-06   -1.640905862786464e-05
-1.0670822579835015e-05   2.931660259819437e-06   -9.769979017602631e-06
-1.0670822579835015e-05   2.931660259819437e-06   -9.769979017602631e-06
-1.0670822579835015e-05   2.931660259819437e-06   -9.769979017602631e-06
-1.0670822579835015e-05   2.931660259819437e-06   -9.769979017602631e-06
-1.9094743488388663e-05   3.2179573483909034e-06   -2.3638068945382586e-05
-1.9094743488388663e-05   3.2179573483909034e-06   -2.3638068945382586e-05
-1.9094743488388663e-05   3.2179573483909034e-06   -2.3638068945382586e-05
-1.9094743488388663e-05   3.2179573483909034e-06   -2.3638068945382586e-05
-1.8601281084168135e-05   3.4692738953485437e-06   -9.820702487630902e-06
-1.8601281084168135e-05   3.4692738953485437e-06   -9.820702487630902e-06
-1.8601281084168135e-05   3.4692738953485437e-06   -9.820702487630902e-06
-1.8601281084168135e-05   3.4692738953485437e-06   -9.820702487630902e-06
-1.0281571654754914e-05   3.6775510998453362e-06   -2.3811851192684363e-05
-1.0281571654754914e-05   3.6775510998453362e-06   -2.3811851192684363e-05
-1.0281571654754914e-05   3.6775510998453362e-06   -2.3811851192684363e-05
-1.0281571654754914e-05   3.6775510998453362e-06   -2.3811851192684363e-05
-1.464940991014237e-05   3.195303291839884e-06   -1.6242772082235444e-05
-1.464940991014237e-05   3.195303291839884e-06   -1.6242772082235444e-05
-1.464940991014237e-05   3.195303291839884e-06   -1.6242772082235444e-05
-1.464940991014237e-05   3.195303291839884e-06   -1.6242772082235444e-05
-2.0206013579326722e-05   3.2938211325809e-06   -5.3074567476109466e-06
-2.0206013579326722e-05   3.2938211325809e-06   -5.3074567476109466e-06
-2.0206013579326722e-05   3.2938211325809e-06   -5.3074567476109466e-06
-2.0206013579326722e-05   3.2938211325809e-06   -5.3074567476109466e-06
-2.936056149592419e-05   4.540732943189574e-06   -1.9816889522241646e-05
-2.936056149592419e-05   4.540732943189574e-06   -1.9816889522241646e-05
-2.936056149592419e-05   4.540732943189574e-06   -1.9816889522241646e-05
-2.936056149592419e-05   4.540732943189574e-06   -1.9816889522241646e-05
-2.8140155637635292e-05   3.850459824509427e-06   -1.6284861276654036e-06
-2.8140155637635292e-05   3.850459824509427e-06   -1.6284861276654036e-06
-2.8140155637635292e-05   3.850459824509427e-06   -1.6284861276654036e-06
-2.8140155637635292e-05   3.850459824509427e-06   -1.6284861276654036e-06
-1.9679184219830518e-05   5.183596653413058e-06   -1.6529987254682177e-05
-1.9679184219830518e-05   5.183596653413058e-06   -1.6529987254682177e-05
-1.9679184219830518e-05   5.183596653413058e-06   -1.6529987254682177e-05
-1.9679184219830518e-05   5.183596653413058e-06   -1.6529987254682177e-05
-2.334055906875135e-05   4.325378384806462e-06   -9.912764878650132e-06
-2.334055906875135e-05   4.325378384806462e-06   -9.912764878650132e-06
-2.334055906875135e-05   4.325378384806462e-06   -9.912764878650132e-06
-2.334055906875135e-05   4.325378384806462e-06   -9.912764878650132e-06
-1.967918421983053e-05   3.850459824509427e-06   -2.428368225007517e-06
-1.967918421983053e-05   3.850459824509427e-06   -2.428368225007517e-06
-1.967918421983053e-05   3.850459824509427e-06   -2.428368225007517e-06
-1.967918421983053e-05   3.850459824509427e-06   -2.428368225007517e-06
-2.814015563763523e-05   5.183596653413058e-06   -1.5730105157339908e-05
-2.814015563763523e-05   5.183596653413058e-06   -1.5730105157339908e-05
-2.814015563763523e-05   5.183596653413058e-06   -1.5730105157339908e-05
-2.814015563763523e-05   5.183596653413058e-06   -1.5730105157339908e-05
-2.713610196583003e-05   4.050226602995825e-06   -8.707742174367261e-08
-2.713610196583003e-05   4.050226602995825e-06   -8.707742174367261e-08
-2.713610196583003e-05   4.050226602995825e-06   -8.707742174367261e-08
-2.713610196583003e-05   4.050226602995825e-06   -8.707742174367261e-08
-1.9094743488388663e-05   5.353274981621933e-06   -1.4271170577988281e-05
-1.9094743488388663e-05   5.353274981621933e-06   -1.4271170577988281e-05
-1.9094743488388663e-05   5.353274981621933e-06   -1.4271170577988281e-05
-1.9094743488388663e-05   5.353274981621933e-06   -1.4271170577988281e-05
-2.2933125608955768e-05   4.583314761265507e-06   -7.411890911495714e-06
-2.2933125608955768e-05   4.583314761265507e-06   -7.411890911495714e-06
-2.2933125608955768e-05   4.583314761265507e-06   -7.411890911495714e-06
-2.2933125608955768e-05   4.583314761265507e-06   -7.411890911495714e-06
-1.9094743488388663e-05   4.050226602995825e-06   -8.689064489192941e-07
-1.9094743488388663e-05   4.050226602995825e-06   -8.689064489192941e-07
-1.9094743488388663e-05   4.050226602995825e-06   -8.689064489192941e-07
-1.9094743488388663e-05   4.050226602995825e-06   -8.689064489192941e-07
-2.7136101965829937e-05   5.353274981621716e-06   -1.348934155081269e-05
-2.7136101965829937e-05   5.353274981621716e-06   -1.348934155081269e-05
-2.7136101965829937e-05   5.353274981621716e-06   -1.348934155081269e-05
-2.7136101965829937e-05   5.353274981621716e-06   -1.348934155081269e-05
-2.605027710883065e-05   4.3007678814094416e-06   1.8766277106763455e-06
-2.605027710883065e-05   4.3007678814094416e-06   1.8766277106763455e-06
-2.605027710883065e-05   4.3007678814094416e-06   1.8766277106763455e-06
-2.605027710883065e-05   4.3007678814094416e-06   1.8766277106763455e-06
-1.8601281084168135e-05   5.496301495627309e-06   -1.1255685832291965e-05
-1.8601281084168135e-05   5.496301495627309e-06   -1.1255685832291965e-05
-1.8601281084168135e-05   5.496301495627309e-06   -1.1255685832291965e-05
-1.8601281084168135e-05   5.496301495627309e-06   -1.1255685832291965e-05
-2.1910653662479584e-05   4.624951719281673e-06   -5.2172550026323195e-06
-2.1910653662479584e-05   4.624951719281673e-06   -5.2172550026323195e-06
-2.1910653662479584e-05   4.624951719281673e-06   -5.2172550026323195e-06
-2.1910653662479584e-05   4.624951719281673e-06   -5.2172550026323195e-06
2.5010240730287517e-05   -3.4820549807568907e-06   5.051363344615303e-06
2.5010240730287517e-05   -3.4820549807568907e-06   5.051363344615303e-06
2.5010240730287517e-05   -3.4820549807568907e-06   5.051363344615303e-06
2.5010240730287517e-05   -3.4820549807568907e-06   5.051363344615303e-06
1.2032009483011784e-05   -5.1418497136949785e-06   -1.757489890727394e-05
1.2032009483011784e-05   -5.1418497136949785e-06   -1.757489890727394e-05
1.2032009483011784e-05   -5.1418497136949785e-06   -1.757489890727394e-05
1.2032009483011784e-05   -5.1418497136949785e-06   -1.757489890727394e-05
1.251591782206745e-05   -3.2397671591492903e-06   2.4848847975658065e-06
1.251591782206745e-05   -3.2397671591492903e-06   2.4848847975658065e-06
1.251591782206745e-05   -3.2397671591492903e-06   2.4848847975658065e-06
1.251591782206745e-05   -3.2397671591492903e-06   2.4848847975658065e-06
2.6141892325085085e-05   -5.023424752720676e-06   -1.9154878151320906e-05
2.6141892325085085e-05   -5.023424752720676e-06   -1.9154878151320906e-05
2.6141892325085085e-05   -5.023424752720676e-06   -1.9154878151320906e-05
2.6141892325085085e-05   -5.023424752720676e-06   -1.9154878151320906e-05
1.8154605433653104e-05   -3.8094380743712835e-06   -6.571125339277343e-06
1.8154605433653104e-05   -3.8094380743712835e-06   -6.571125339277343e-06
1.8154605433653104e-05   -3.8094380743712835e-06   -6.571125339277343e-06
1.8154605433653104e-05   -3.8094380743712835e-06   -6.571125339277343e-06
2.614189232508514e-05   -3.2397671591492903e-06   3.555079353708638e-06
2.614189232508514e-05   -3.2397671591492903e-06   3.555079353708638e-06
2.614189232508514e-05   -3.2397671591492903e-06   3.555079353708638e-06
2.614189232508514e-05   -3.2397671591492903e-06   3.555079353708638e-06
1.2515917822067423e-05   -5.023424752720676e-06   -2.0225072707463873e-05
1.2515917822067423e-05   -5.023424752720676e-06   -2.0225072707463873e-05
1.2515917822067423e-05   -5.023424752720676e-06   -2.0225072707463873e-05
1.2515917822067423e-05   -5.023424752720676e-06   -2.0225072707463873e-05
1.2997525395632936e-05   -3.029754716918397e-06   1.2253856256892477e-06
1.2997525395632936e-05   -3.029754716918397e-06   1.2253856256892477e-06
1.2997525395632936e-05   -3.029754716918397e-06   1.2253856256892477e-06
1.2997525395632936e-05   -3.029754716918397e-06   1.2253856256892477e-06
2.700926153921727e-05   -4.848468339657859e-06   -2.103627977330754e-05
2.700926153921727e-05   -4.848468339657859e-06   -2.103627977330754e-05
2.700926153921727e-05   -4.848468339657859e-06   -2.103627977330754e-05
2.700926153921727e-05   -4.848468339657859e-06   -2.103627977330754e-05
1.9109025744414714e-05   -3.796497055982232e-06   -8.500402885508717e-06
1.9109025744414714e-05   -3.796497055982232e-06   -8.500402885508717e-06
1.9109025744414714e-05   -3.796497055982232e-06   -8.500402885508717e-06
1.9109025744414714e-05   -3.796497055982232e-06   -8.500402885508717e-06
2.700926153921727e-05   -3.029754716918397e-06   2.3166137993330116e-06
2.700926153921727e-05   -3.029754716918397e-06   2.3166137993330116e-06
2.700926153921727e-05   -3.029754716918397e-06   2.3166137993330116e-06
2.700926153921727e-05   -3.029754716918397e-06   2.3166137993330116e-06
1.2997525395632936e-05   -4.848468339658076e-06   -2.212750794695136e-05
1.2997525395632936e-05   -4.848468339658076e-06   -2.212750794695136e-05
1.2997525395632936e-05   -4.848468339658076e-06   -2.212750794695136e-05
1.2997525395632936e-05   -4.848468339658076e-06   -2.212750794695136e-05
1.3323220385334813e-05   -2.3676182480413845e-06   -1.3049633073804103e-06
1.3323220385334813e-05   -2.3676182480413845e-06   -1.3049633073804103e-06
1.3323220385334813e-05   -2.3676182480413845e-06   -1.3049633073804103e-06
1.3323220385334813e-05   -2.3676182480413845e-06   -1.3049633073804103e-06
2.792691359414179e-05   -4.168078082009965e-06   -2.456417608834443e-05
2.792691359414179e-05   -4.168078082009965e-06   -2.456417608834443e-05
2.792691359414179e-05   -4.168078082009965e-06   -2.456417608834443e-05
2.792691359414179e-05   -4.168078082009965e-06   -2.456417608834443e-05
1.93695509804956e-05   -3.503639677573684e-06   -1.0700568108262733e-05
1.93695509804956e-05   -3.503639677573684e-06   -1.0700568108262733e-05
1.93695509804956e-05   -3.503639677573684e-06   -1.0700568108262733e-05
1.93695509804956e-05   -3.503639677573684e-06   -1.0700568108262733e-05
1.2032009483011797e-05   -1.6213833547277807e-06   -5.956139591854238e-06
1.2032009483011797e-05   -1.6213833547277807e-06   -5.956139591854238e-06
1.2032009483011797e-05   -1.6213833547277807e-06   -5.956139591854238e-06
1.2032009483011797e-05   -1.6213833547277807e-06   -5.956139591854238e-06
-7.653555919765153e-07   -3.3098639934750224e-06   -2.8298169766749763e-05
-7.653555919765153e-07   -3.3098639934750224e-06   -2.8298169766749763e-05
-7.653555919765153e-07   -3.3098639934750224e-06   -2.8298169766749763e-05
-7.653555919765153e-07   -3.3098639934750224e-06   -2.8298169766749763e-05
-2.6943678518106964e-07   -1.2819772457707459e-06   -6.571662342480045e-06
-2.6943678518106964e-07   -1.2819772457707459e-06   -6.571662342480045e-06
-2.6943678518106964e-07   -1.2819772457707459e-06   -6.571662342480045e-06
-2.6943678518106964e-07   -1.2819772457707459e-06   -6.571662342480045e-06
1.251591782206745e-05   -3.1483066383623977e-06   -2.6760789052339277e-05
1.251591782206745e-05   -3.1483066383623977e-06   -2.6760789052339277e-05
1.251591782206745e-05   -3.1483066383623977e-06   -2.6760789052339277e-05
1.251591782206745e-05   -3.1483066383623977e-06   -2.6760789052339277e-05
5.895275484055764e-06   -2.0034746344942383e-06   -1.6413284357974132e-05
5.895275484055764e-06   -2.0034746344942383e-06   -1.6413284357974132e-05
5.895275484055764e-06   -2.0034746344942383e-06   -1.6413284357974132e-05
5.895275484055764e-06   -2.0034746344942383e-06   -1.6413284357974132e-05
1.2515917822067437e-05   -1.2819772457707459e-06   -5.4518647069249455e-06
1.2515917822067437e-05   -1.2819772457707459e-06   -5.4518647069249455e-06
1.2515917822067437e-05   -1.2819772457707459e-06   -5.4518647069249455e-06
1.2515917822067437e-05   -1.2819772457707459e-06   -5.4518647069249455e-06
-2.6943678518106964e-07   -3.1483066383623977e-06   -2.7880586687894214e-05
-2.6943678518106964e-07   -3.1483066383623977e-06   -2.7880586687894214e-05
-2.6943678518106964e-07   -3.1483066383623977e-06   -2.7880586687894214e-05
-2.6943678518106964e-07   -3.1483066383623977e-06   -2.7880586687894214e-05
1.6729774729516266e-07   -8.673680861690652e-07   -6.73417455597763e-06
1.6729774729516266e-07   -8.673680861690652e-07   -6.73417455597763e-06
1.6729774729516266e-07   -8.673680861690652e-07   -6.73417455597763e-06
1.6729774729516266e-07   -8.673680861690652e-07   -6.73417455597763e-06
1.2997525395632936e-05   -2.8497976900297792e-06   -2.6928429540890904e-05
1.2997525395632936e-05   -2.8497976900297792e-06   -2.6928429540890904e-05
1.2997525395632936e-05   -2.8497976900297792e-06   -2.6928429540890904e-05
1.2997525395632936e-05   -2.8497976900297792e-06   -2.6928429540890904e-05
6.230918794279116e-06   -1.8357947890630666e-06   -1.6259153612547454e-05
6.230918794279116e-06   -1.8357947890630666e-06   -1.6259153612547454e-05
6.230918794279116e-06   -1.8357947890630666e-06   -1.6259153612547454e-05
6.230918794279116e-06   -1.8357947890630666e-06   -1.6259153612547454e-05
1.2997525395632936e-05   -8.673680861688484e-07   -5.5447167936612234e-06
1.2997525395632936e-05   -8.673680861688484e-07   -5.5447167936612234e-06
1.2997525395632936e-05   -8.673680861688484e-07   -5.5447167936612234e-06
1.2997525395632936e-05   -8.673680861688484e-07   -5.5447167936612234e-06
1.6729774729517621e-07   -2.8497976900295624e-06   -2.8117887303207283e-05
1.6729774729517621e-07   -2.8497976900295624e-06   -2.8117887303207283e-05
1.6729774729517621e-07   -2.8497976900295624e-06   -2.8117887303207283e-05
1.6729774729517621e-07   -2.8497976900295624e-06   -2.8117887303207283e-05
4.775453986930074e-07   -3.450759792330074e-07   -7.0069876986130495e-06
4.775453986930074e-07   -3.450759792330074e-07   -7.0069876986130495e-06
4.775453986930074e-07   -3.450759792330074e-07   -7.0069876986130495e-06
4.775453986930074e-07   -3.450759792330074e-07   -7.0069876986130495e-06
1.332322038533484e-05   -2.424910194423306e-06   -2.7168545480568804e-05
1.332322038533484e-05   -2.424910194423306e-06   -2.7168545480568804e-05
1.332322038533484e-05   -2.424910194423306e-06   -2.7168545480568804e-05
1.332322038533484e-05   -2.424910194423306e-06   -2.7168545480568804e-05
6.635638982552112e-06   -1.541735524020248e-06   -1.6552481278173022e-05
6.635638982552112e-06   -1.541735524020248e-06   -1.6552481278173022e-05
6.635638982552112e-06   -1.541735524020248e-06   -1.6552481278173022e-05
6.635638982552112e-06   -1.541735524020248e-06   -1.6552481278173022e-05
-7.653555919765153e-07   3.134608654016633e-07   -9.12383499694473e-06
-7.653555919765153e-07   3.134608654016633e-07   -9.12383499694473e-06
-7.653555919765153e-07   3.134608654016633e-07   -9.12383499694473e-06
-7.653555919765153e-07   3.134608654016633e-07   -9.12383499694473e-06
-1.337378200369236e-05   -1.7034830564364653e-06   -3.134804536957382e-05
-1.337378200369236e-05   -1.7034830564364653e-06   -3.134804536957382e-05
-1.337378200369236e-05   -1.7034830564364653e-06   -3.134804536957382e-05
-1.337378200369236e-05   -1.7034830564364653e-06   -3.134804536957382e-05
-1.277847181677567e-05   6.953683005183307e-07   -9.915414611402166e-06
-1.277847181677567e-05   6.953683005183307e-07   -9.915414611402166e-06
-1.277847181677567e-05   6.953683005183307e-07   -9.915414611402166e-06
-1.277847181677567e-05   6.953683005183307e-07   -9.915414611402166e-06
-2.6943678518106964e-07   -1.5121570726781691e-06   -2.9439291106808595e-05
-2.6943678518106964e-07   -1.5121570726781691e-06   -2.9439291106808595e-05
-2.6943678518106964e-07   -1.5121570726781691e-06   -2.9439291106808595e-05
-2.6943678518106964e-07   -1.5121570726781691e-06   -2.9439291106808595e-05
-6.717313576184303e-06   -3.069021185094986e-07   -1.9415982760971048e-05
-6.717313576184303e-06   -3.069021185094986e-07   -1.9415982760971048e-05
-6.717313576184303e-06   -3.069021185094986e-07   -1.9415982760971048e-05
-6.717313576184303e-06   -3.069021185094986e-07   -1.9415982760971048e-05
-2.6943678518106964e-07   6.953683005181139e-07   -8.590899387484353e-06
-2.6943678518106964e-07   6.953683005181139e-07   -8.590899387484353e-06
-2.6943678518106964e-07   6.953683005181139e-07   -8.590899387484353e-06
-2.6943678518106964e-07   6.953683005181139e-07   -8.590899387484353e-06
-1.277847181677567e-05   -1.5121570726779523e-06   -3.076380633072642e-05
-1.277847181677567e-05   -1.5121570726779523e-06   -3.076380633072642e-05
-1.277847181677567e-05   -1.5121570726779523e-06   -3.076380633072642e-05
-1.277847181677567e-05   -1.5121570726779523e-06   -3.076380633072642e-05
-1.2232341582292258e-05   1.1365973841518003e-06   -9.7377068922367e-06
-1.2232341582292258e-05   1.1365973841518003e-06   -9.7377068922367e-06
-1.2232341582292258e-05   1.1365973841518003e-06   -9.7377068922367e-06
-1.2232341582292258e-05   1.1365973841518003e-06   -9.7377068922367e-06
1.6729774729517621e-07   -1.2175839767998315e-06   -2.8991263624978043e-05
1.6729774729517621e-07   -1.2175839767998315e-06   -2.8991263624978043e-05
1.6729774729517621e-07   -1.2175839767998315e-06   -2.8991263624978043e-05
1.6729774729517621e-07   -1.2175839767998315e-06   -2.8991263624978043e-05
-6.2331141165440065e-06   -8.906526493819393e-08   -1.900102174569638e-05
-6.2331141165440065e-06   -8.906526493819393e-08   -1.900102174569638e-05
-6.2331141165440065e-06   -8.906526493819393e-08   -1.900102174569638e-05
-6.2331141165440065e-06   -8.906526493819393e-08   -1.900102174569638e-05
1.6729774729517621e-07   1.1365973841518003e-06   -8.325198075665678e-06
1.6729774729517621e-07   1.1365973841518003e-06   -8.325198075665678e-06
1.6729774729517621e-07   1.1365973841518003e-06   -8.325198075665678e-06
1.6729774729517621e-07   1.1365973841518003e-06   -8.325198075665678e-06
-1.2232341582292278e-05   -1.2175839767998315e-06   -3.0403772441549228e-05
-1.2232341582292278e-05   -1.2175839767998315e-06   -3.0403772441549228e-05
-1.2232341582292278e-05   -1.2175839767998315e-06   -3.0403772441549228e-05
-1.2232341582292278e-05   -1.2175839767998315e-06   -3.0403772441549228e-05
-1.186438794745574e-05   1.5923984787490422e-06   -9.909569032411254e-06
-1.186438794745574e-05   1.5923984787490422e-06   -9.909569032411254e-06
-1.186438794745574e-05   1.5923984787490422e-06   -9.909569032411254e-06
-1.186438794745574e-05   1.5923984787490422e-06   -9.909569032411254e-06
4.77545398693021e-07   -9.377804387935684e-07   -2.8961350592133568e-05
4.77545398693021e-07   -9.377804387935684e-07   -2.8961350592133568e-05
4.77545398693021e-07   -9.377804387935684e-07   -2.8961350592133568e-05
4.77545398693021e-07   -9.377804387935684e-07   -2.8961350592133568e-05
-5.888476653766511e-06   1.5510978329047811e-07   -1.900704797128507e-05
-5.888476653766511e-06   1.5510978329047811e-07   -1.900704797128507e-05
-5.888476653766511e-06   1.5510978329047811e-07   -1.900704797128507e-05
-5.888476653766511e-06   1.5510978329047811e-07   -1.900704797128507e-05
-1.337378200369234e-05   2.3179045405097125e-06   -7.4302755888254165e-06
-1.337378200369234e-05   2.3179045405097125e-06   -7.4302755888254165e-06
-1.337378200369234e-05   2.3179045405097125e-06   -7.4302755888254165e-06
-1.337378200369234e-05   2.3179045405097125e-06   -7.4302755888254165e-06
-2.6162575416369715e-05   5.064120298546235e-07   -2.9831826783014142e-05
-2.6162575416369715e-05   5.064120298546235e-07   -2.9831826783014142e-05
-2.6162575416369715e-05   5.064120298546235e-07   -2.9831826783014142e-05
-2.6162575416369715e-05   5.064120298546235e-07   -2.9831826783014142e-05
-2.5314717667942064e-05   2.8015971692437174e-06   -7.906199813224575e-06
-2.5314717667942064e-05   2.8015971692437174e-06   -7.906199813224575e-06
-2.5314717667942064e-05   2.8015971692437174e-06   -7.906199813224575e-06
-2.5314717667942064e-05   2.8015971692437174e-06   -7.906199813224575e-06
-1.277847181677565e-05   8.556058876977787e-07   -2.7632348129574615e-05
-1.277847181677565e-05   8.556058876977787e-07   -2.7632348129574615e-05
-1.277847181677565e-05   8.556058876977787e-07   -2.7632348129574615e-05
-1.277847181677565e-05   8.556058876977787e-07   -2.7632348129574615e-05
-1.9207724565860545e-05   1.7839104735533143e-06   -1.7473909632612967e-05
-1.9207724565860545e-05   1.7839104735533143e-06   -1.7473909632612967e-05
-1.9207724565860545e-05   1.7839104735533143e-06   -1.7473909632612967e-05
-1.9207724565860545e-05   1.7839104735533143e-06   -1.7473909632612967e-05
-1.277847181677565e-05   2.8015971692437174e-06   -6.738605044297164e-06
-1.277847181677565e-05   2.8015971692437174e-06   -6.738605044297164e-06
-1.277847181677565e-05   2.8015971692437174e-06   -6.738605044297164e-06
-1.277847181677565e-05   2.8015971692437174e-06   -6.738605044297164e-06
-2.5314717667942105e-05   8.556058876975619e-07   -2.879994289850215e-05
-2.5314717667942105e-05   8.556058876975619e-07   -2.879994289850215e-05
-2.5314717667942105e-05   8.556058876975619e-07   -2.879994289850215e-05
-2.5314717667942105e-05   8.556058876975619e-07   -2.879994289850215e-05
-2.449355360056047e-05   3.2179573483909034e-06   -7.188756087805523e-06
-2.449355360056047e-05   3.2179573483909034e-06   -7.188756087805523e-06
-2.449355360056047e-05   3.2179573483909034e-06   -7.188756087805523e-06
-2.449355360056047e-05   3.2179573483909034e-06   -7.188756087805523e-06
-1.2232341582292278e-05   1.1765823570118739e-06   -2.6399284456758606e-05
-1.2232341582292278e-05   1.1765823570118739e-06   -2.6399284456758606e-05
-1.2232341582292278e-05   1.1765823570118739e-06   -2.6399284456758606e-05
-1.2232341582292278e-05   1.1765823570118739e-06   -2.6399284456758606e-05
-1.8439147771829337e-05   2.087804342452461e-06   -1.6601340665461185e-05
-1.8439147771829337e-05   2.087804342452461e-06   -1.6601340665461185e-05
-1.8439147771829337e-05   2.087804342452461e-06   -1.6601340665461185e-05
-1.8439147771829337e-05   2.087804342452461e-06   -1.6601340665461185e-05
-1.2232341582292248e-05   3.2179573483909034e-06   -5.963931092978106e-06
-1.2232341582292248e-05   3.2179573483909034e-06   -5.963931092978106e-06
-1.2232341582292248e-05   3.2179573483909034e-06   -5.963931092978106e-06
-1.2232341582292248e-05   3.2179573483909034e-06   -5.963931092978106e-06
-2.4493553600560512e-05   1.1765823570118739e-06   -2.7624109451586105e-05
-2.4493553600560512e-05   1.1765823570118739e-06   -2.7624109451586105e-05
-2.4493553600560512e-05   1.1765823570118739e-06   -2.7624109451586105e-05
-2.4493553600560512e-05   1.1765823570118739e-06   -2.7624109451586105e-05
-2.3872889086636844e-05   3.6775510998453362e-06   -7.211818235123993e-06
-2.3872889086636844e-05   3.6775510998453362e-06   -7.211818235123993e-06
-2.3872889086636844e-05   3.6775510998453362e-06   -7.211818235123993e-06
-2.3872889086636844e-05   3.6775510998453362e-06   -7.211818235123993e-06
-1.1864387947455763e-05   1.4470693459173699e-06   -2.588769774806922e-05
-1.1864387947455763e-05   1.4470693459173699e-06   -2.588769774806922e-05
-1.1864387947455763e-05   1.4470693459173699e-06   -2.588769774806922e-05
-1.1864387947455763e-05   1.4470693459173699e-06   -2.588769774806922e-05
-1.8013867673035118e-05   2.300215879469901e-06   -1.6150452792235028e-05
-1.8013867673035118e-05   2.300215879469901e-06   -1.6150452792235028e-05
-1.8013867673035118e-05   2.300215879469901e-06   -1.6150452792235028e-05
-1.8013867673035118e-05   2.300215879469901e-06   -1.6150452792235028e-05
-2.6162575416369715e-05   4.540732943189574e-06   -4.251097849114049e-06
-2.6162575416369715e-05   4.540732943189574e-06   -4.251097849114049e-06
-2.6162575416369715e-05   4.540732943189574e-06   -4.251097849114049e-06
-2.6162575416369715e-05   4.540732943189574e-06   -4.251097849114049e-06
-3.953746442956971e-05   4.301178693339814e-06   -2.6686312087690592e-05
-3.953746442956971e-05   4.301178693339814e-06   -2.6686312087690592e-05
-3.953746442956971e-05   4.301178693339814e-06   -2.6686312087690592e-05
-3.953746442956971e-05   4.301178693339814e-06   -2.6686312087690592e-05
-3.78525039585993e-05   5.183596653413058e-06   -1.9144006123297634e-08
-3.78525039585993e-05   5.183596653413058e-06   -1.9144006123297634e-08
-3.78525039585993e-05   5.183596653413058e-06   -1.9144006123297634e-08
-3.78525039585993e-05   5.183596653413058e-06   -1.9144006123297634e-08
-2.5314717667942017e-05   5.425298037466759e-06   -2.1060475320984315e-05
-2.5314717667942017e-05   5.425298037466759e-06   -2.1060475320984315e-05
-2.5314717667942017e-05   5.425298037466759e-06   -2.1060475320984315e-05
-2.5314717667942017e-05   5.425298037466759e-06   -2.1060475320984315e-05
-3.082822589835849e-05   5.11292136433231e-06   -1.1683868933076232e-05
-3.082822589835849e-05   5.11292136433231e-06   -1.1683868933076232e-05
-3.082822589835849e-05   5.11292136433231e-06   -1.1683868933076232e-05
-3.082822589835849e-05   5.11292136433231e-06   -1.1683868933076232e-05
-2.5314717667942084e-05   5.183596653413058e-06   -1.6416483655540964e-07
-2.5314717667942084e-05   5.183596653413058e-06   -1.6416483655540964e-07
-2.5314717667942084e-05   5.183596653413058e-06   -1.6416483655540964e-07
-2.5314717667942084e-05   5.183596653413058e-06   -1.6416483655540964e-07
-3.78525039585993e-05   5.425298037466759e-06   -2.091545449055222e-05
-3.78525039585993e-05   5.425298037466759e-06   -2.091545449055222e-05
-3.78525039585993e-05   5.425298037466759e-06   -2.091545449055222e-05
-3.78525039585993e-05   5.425298037466759e-06   -2.091545449055222e-05
-3.645687526892939e-05   5.353274981621716e-06   2.373472095071761e-06
-3.645687526892939e-05   5.353274981621716e-06   2.373472095071761e-06
-3.645687526892939e-05   5.353274981621716e-06   2.373472095071761e-06
-3.645687526892939e-05   5.353274981621716e-06   2.373472095071761e-06
-2.449355360056047e-05   5.678824674093617e-06   -1.7760727167692823e-05
-2.449355360056047e-05   5.678824674093617e-06   -1.7760727167692823e-05
-2.449355360056047e-05   5.678824674093617e-06   -1.7760727167692823e-05
-2.449355360056047e-05   5.678824674093617e-06   -1.7760727167692823e-05
-3.020147251437948e-05   5.482233388161891e-06   -8.129574206434994e-06
-3.020147251437948e-05   5.482233388161891e-06   -8.129574206434994e-06
-3.020147251437948e-05   5.482233388161891e-06   -8.129574206434994e-06
-3.020147251437948e-05   5.482233388161891e-06   -8.129574206434994e-06
-2.4493553600560512e-05   5.353274981621933e-06   2.1781422795886423e-06
-2.4493553600560512e-05   5.353274981621933e-06   2.1781422795886423e-06
-2.4493553600560512e-05   5.353274981621933e-06   2.1781422795886423e-06
-2.4493553600560512e-05   5.353274981621933e-06   2.1781422795886423e-06
-3.6456875268929334e-05   5.6788246740938336e-06   -1.7565397352209823e-05
-3.6456875268929334e-05   5.6788246740938336e-06   -1.7565397352209823e-05
-3.6456875268929334e-05   5.6788246740938336e-06   -1.7565397352209823e-05
-3.6456875268929334e-05   5.6788246740938336e-06   -1.7565397352209823e-05
-3.499526661334093e-05   5.496301495627092e-06   5.586605060876968e-06
-3.499526661334093e-05   5.496301495627092e-06   5.586605060876968e-06
-3.499526661334093e-05   5.496301495627092e-06   5.586605060876968e-06
-3.499526661334093e-05   5.496301495627092e-06   5.586605060876968e-06
-2.3872889086636844e-05   6.108341926138339e-06   -1.331791507526987e-05
-2.3872889086636844e-05   6.108341926138339e-06   -1.331791507526987e-05
-2.3872889086636844e-05   6.108341926138339e-06   -1.331791507526987e-05
-2.3872889086636844e-05   6.108341926138339e-06   -1.331791507526987e-05
-2.878637224443127e-05   5.603957604921432e-06   -4.826145886215954e-06
-2.878637224443127e-05   5.603957604921432e-06   -4.826145886215954e-06
-2.878637224443127e-05   5.603957604921432e-06   -4.826145886215954e-06
-2.878637224443127e-05   5.603957604921432e-06   -4.826145886215954e-06
3.4302434142489155e-05   -5.1418497136949785e-06   1.1775620145046428e-05
3.4302434142489155e-05   -5.1418497136949785e-06   1.1775620145046428e-05
3.4302434142489155e-05   -5.1418497136949785e-06   1.1775620145046428e-05
3.4302434142489155e-05   -5.1418497136949785e-06   1.1775620145046428e-05
1.7220216278072506e-05   -6.491726638845627e-06   -1.7504669117405147e-05
1.7220216278072506e-05   -6.491726638845627e-06   -1.7504669117405147e-05
1.7220216278072506e-05   -6.491726638845627e-06   -1.7504669117405147e-05
1.7220216278072506e-05   -6.491726638845627e-06   -1.7504669117405147e-05
1.7633563418209465e-05   -5.023424752720459e-06   8.46469530004976e-06
1.7633563418209465e-05   -5.023424752720459e-06   8.46469530004976e-06
1.7633563418209465e-05   -5.023424752720459e-06   8.46469530004976e-06
1.7633563418209465e-05   -5.023424752720459e-06   8.46469530004976e-06
3.514762333178134e-05   -6.654199720368317e-06   -1.974693957531486e-05
3.514762333178134e-05   -6.654199720368317e-06   -1.974693957531486e-05
3.514762333178134e-05   -6.654199720368317e-06   -1.974693957531486e-05
3.514762333178134e-05   -6.654199720368317e-06   -1.974693957531486e-05
2.5035653309953987e-05   -5.2518927418292e-06   -3.7350403927260197e-06
2.5035653309953987e-05   -5.2518927418292e-06   -3.7350403927260197e-06
2.5035653309953987e-05   -5.2518927418292e-06   -3.7350403927260197e-06
2.5035653309953987e-05   -5.2518927418292e-06   -3.7350403927260197e-06
3.514762333178134e-05   -5.023424752720459e-06   9.4431602806383e-06
3.514762333178134e-05   -5.023424752720459e-06   9.4431602806383e-06
3.514762333178134e-05   -5.023424752720459e-06   9.4431602806383e-06
3.514762333178134e-05   -5.023424752720459e-06   9.4431602806383e-06
1.7633563418209465e-05   -6.654199720368317e-06   -2.07254045559034e-05
1.7633563418209465e-05   -6.654199720368317e-06   -2.07254045559034e-05
1.7633563418209465e-05   -6.654199720368317e-06   -2.07254045559034e-05
1.7633563418209465e-05   -6.654199720368317e-06   -2.07254045559034e-05
1.798277010962336e-05   -4.848468339658076e-06   6.6885444022951905e-06
1.798277010962336e-05   -4.848468339658076e-06   6.6885444022951905e-06
1.798277010962336e-05   -4.848468339658076e-06   6.6885444022951905e-06
1.798277010962336e-05   -4.848468339658076e-06   6.6885444022951905e-06
3.567360116911836e-05   -6.592473793999619e-06   -2.174977075759132e-05
3.567360116911836e-05   -6.592473793999619e-06   -2.174977075759132e-05
3.567360116911836e-05   -6.592473793999619e-06   -2.174977075759132e-05
3.567360116911836e-05   -6.592473793999619e-06   -2.174977075759132e-05
2.5911632784474704e-05   -5.416004399731722e-06   -6.185705086412781e-06
2.5911632784474704e-05   -5.416004399731722e-06   -6.185705086412781e-06
2.5911632784474704e-05   -5.416004399731722e-06   -6.185705086412781e-06
2.5911632784474704e-05   -5.416004399731722e-06   -6.185705086412781e-06
3.567360116911836e-05   -4.848468339658076e-06   7.734947674900377e-06
3.567360116911836e-05   -4.848468339658076e-06   7.734947674900377e-06
3.567360116911836e-05   -4.848468339658076e-06   7.734947674900377e-06
3.567360116911836e-05   -4.848468339658076e-06   7.734947674900377e-06
1.798277010962336e-05   -6.592473793999619e-06   -2.279617403019656e-05
1.798277010962336e-05   -6.592473793999619e-06   -2.279617403019656e-05
1.798277010962336e-05   -6.592473793999619e-06   -2.279617403019656e-05
1.798277010962336e-05   -6.592473793999619e-06   -2.279617403019656e-05
1.834652397123667e-05   -4.168078082009748e-06   3.2506444449419613e-06
1.834652397123667e-05   -4.168078082009748e-06   3.2506444449419613e-06
1.834652397123667e-05   -4.168078082009748e-06   3.2506444449419613e-06
1.834652397123667e-05   -4.168078082009748e-06   3.2506444449419613e-06
3.619159695141185e-05   -6.221535753371185e-06   -2.525906925253323e-05
3.619159695141185e-05   -6.221535753371185e-06   -2.525906925253323e-05
3.619159695141185e-05   -6.221535753371185e-06   -2.525906925253323e-05
3.619159695141185e-05   -6.221535753371185e-06   -2.525906925253323e-05
2.5917394055785726e-05   -5.210002251377537e-06   -8.742317861019222e-06
2.5917394055785726e-05   -5.210002251377537e-06   -8.742317861019222e-06
2.5917394055785726e-05   -5.210002251377537e-06   -8.742317861019222e-06
2.5917394055785726e-05   -5.210002251377537e-06   -8.742317861019222e-06
1.7220216278072506e-05   -3.3098639934748056e-06   1.2555115137283203e-06
1.7220216278072506e-05   -3.3098639934748056e-06   1.2555115137283203e-06
1.7220216278072506e-05   -3.3098639934748056e-06   1.2555115137283203e-06
1.7220216278072506e-05   -3.3098639934748056e-06   1.2555115137283203e-06
1.9837154300741353e-06   -6.459487753720985e-06   -2.6028430822416576e-05
1.9837154300741353e-06   -6.459487753720985e-06   -2.6028430822416576e-05
1.9837154300741353e-06   -6.459487753720985e-06   -2.6028430822416576e-05
1.9837154300741353e-06   -6.459487753720985e-06   -2.6028430822416576e-05
2.464764685287539e-06   -3.1483066383623977e-06   -3.60968758548021e-08
2.464764685287539e-06   -3.1483066383623977e-06   -3.60968758548021e-08
2.464764685287539e-06   -3.1483066383623977e-06   -3.60968758548021e-08
2.464764685287539e-06   -3.1483066383623977e-06   -3.60968758548021e-08
1.7633563418209493e-05   -6.423433023410941e-06   -2.3352352266362296e-05
1.7633563418209493e-05   -6.423433023410941e-06   -2.3352352266362296e-05
1.7633563418209493e-05   -6.423433023410941e-06   -2.3352352266362296e-05
1.7633563418209493e-05   -6.423433023410941e-06   -2.3352352266362296e-05
9.862484850690319e-06   -4.3609655544889214e-06   -1.1638035135183675e-05
9.862484850690319e-06   -4.3609655544889214e-06   -1.1638035135183675e-05
9.862484850690319e-06   -4.3609655544889214e-06   -1.1638035135183675e-05
9.862484850690319e-06   -4.3609655544889214e-06   -1.1638035135183675e-05
1.7633563418209452e-05   -3.1483066383626145e-06   1.928978955174302e-06
1.7633563418209452e-05   -3.1483066383626145e-06   1.928978955174302e-06
1.7633563418209452e-05   -3.1483066383626145e-06   1.928978955174302e-06
1.7633563418209452e-05   -3.1483066383626145e-06   1.928978955174302e-06
2.464764685287539e-06   -6.423433023410941e-06   -2.5317428097391373e-05
2.464764685287539e-06   -6.423433023410941e-06   -2.5317428097391373e-05
2.464764685287539e-06   -6.423433023410941e-06   -2.5317428097391373e-05
2.464764685287539e-06   -6.423433023410941e-06   -2.5317428097391373e-05
2.898902264120837e-06   -2.8497976900297792e-06   -2.024665149173363e-07
2.898902264120837e-06   -2.8497976900297792e-06   -2.024665149173363e-07
2.898902264120837e-06   -2.8497976900297792e-06   -2.024665149173363e-07
2.898902264120837e-06   -2.8497976900297792e-06   -2.024665149173363e-07
1.798277010962336e-05   -6.333279895484904e-06   -2.3252156934148538e-05
1.798277010962336e-05   -6.333279895484904e-06   -2.3252156934148538e-05
1.798277010962336e-05   -6.333279895484904e-06   -2.3252156934148538e-05
1.798277010962336e-05   -6.333279895484904e-06   -2.3252156934148538e-05
1.0133107330218348e-05   -4.4054636366421766e-06   -1.1326075390445276e-05
1.0133107330218348e-05   -4.4054636366421766e-06   -1.1326075390445276e-05
1.0133107330218348e-05   -4.4054636366421766e-06   -1.1326075390445276e-05
1.0133107330218348e-05   -4.4054636366421766e-06   -1.1326075390445276e-05
1.798277010962336e-05   -2.8497976900295624e-06   1.8876228083556735e-06
1.798277010962336e-05   -2.8497976900295624e-06   1.8876228083556735e-06
1.798277010962336e-05   -2.8497976900295624e-06   1.8876228083556735e-06
1.798277010962336e-05   -2.8497976900295624e-06   1.8876228083556735e-06
2.8989022641208234e-06   -6.333279895484904e-06   -2.5342246257421602e-05
2.8989022641208234e-06   -6.333279895484904e-06   -2.5342246257421602e-05
2.8989022641208234e-06   -6.333279895484904e-06   -2.5342246257421602e-05
2.8989022641208234e-06   -6.333279895484904e-06   -2.5342246257421602e-05
3.5474373424773626e-06   -2.424910194423306e-06   -5.119324967922624e-07
3.5474373424773626e-06   -2.424910194423306e-06   -5.119324967922624e-07
3.5474373424773626e-06   -2.424910194423306e-06   -5.119324967922624e-07
3.5474373424773626e-06   -2.424910194423306e-06   -5.119324967922624e-07
1.834652397123667e-05   -6.1557159442414845e-06   -2.2938593428166785e-05
1.834652397123667e-05   -6.1557159442414845e-06   -2.2938593428166785e-05
1.834652397123667e-05   -6.1557159442414845e-06   -2.2938593428166785e-05
1.834652397123667e-05   -6.1557159442414845e-06   -2.2938593428166785e-05
1.0655483642287493e-05   -4.332483130508593e-06   -1.1214132568158089e-05
1.0655483642287493e-05   -4.332483130508593e-06   -1.1214132568158089e-05
1.0655483642287493e-05   -4.332483130508593e-06   -1.1214132568158089e-05
1.0655483642287493e-05   -4.332483130508593e-06   -1.1214132568158089e-05
1.9837154300741353e-06   -1.7034830564364653e-06   -2.4739719921405444e-06
1.9837154300741353e-06   -1.7034830564364653e-06   -2.4739719921405444e-06
1.9837154300741353e-06   -1.7034830564364653e-06   -2.4739719921405444e-06
1.9837154300741353e-06   -1.7034830564364653e-06   -2.4739719921405444e-06
-1.3092762237027283e-05   -7.736110766896898e-06   -3.122101139691922e-05
-1.3092762237027283e-05   -7.736110766896898e-06   -3.122101139691922e-05
-1.3092762237027283e-05   -7.736110766896898e-06   -3.122101139691922e-05
-1.3092762237027283e-05   -7.736110766896898e-06   -3.122101139691922e-05
-1.2342788483824766e-05   -1.5121570726779523e-06   -5.429162080381714e-06
-1.2342788483824766e-05   -1.5121570726779523e-06   -5.429162080381714e-06
-1.2342788483824766e-05   -1.5121570726779523e-06   -5.429162080381714e-06
-1.2342788483824766e-05   -1.5121570726779523e-06   -5.429162080381714e-06
2.464764685287539e-06   -7.902758382032256e-06   -2.6274056576623065e-05
2.464764685287539e-06   -7.902758382032256e-06   -2.6274056576623065e-05
2.464764685287539e-06   -7.902758382032256e-06   -2.6274056576623065e-05
2.464764685287539e-06   -7.902758382032256e-06   -2.6274056576623065e-05
-5.075240708622913e-06   -4.360189077681591e-06   -1.5832922502716164e-05
-5.075240708622913e-06   -4.360189077681591e-06   -1.5832922502716164e-05
-5.075240708622913e-06   -4.360189077681591e-06   -1.5832922502716164e-05
-5.075240708622913e-06   -4.360189077681591e-06   -1.5832922502716164e-05
2.464764685287539e-06   -1.5121570726779523e-06   -1.5948012947691968e-06
2.464764685287539e-06   -1.5121570726779523e-06   -1.5948012947691968e-06
2.464764685287539e-06   -1.5121570726779523e-06   -1.5948012947691968e-06
2.464764685287539e-06   -1.5121570726779523e-06   -1.5948012947691968e-06
-1.2342788483824786e-05   -7.902758382032256e-06   -3.0108417362235528e-05
-1.2342788483824786e-05   -7.902758382032256e-06   -3.0108417362235528e-05
-1.2342788483824786e-05   -7.902758382032256e-06   -3.0108417362235528e-05
-1.2342788483824786e-05   -7.902758382032256e-06   -3.0108417362235528e-05
-1.1695776588489054e-05   -1.2175839768000483e-06   -5.061552109188227e-06
-1.1695776588489054e-05   -1.2175839768000483e-06   -5.061552109188227e-06
-1.1695776588489054e-05   -1.2175839768000483e-06   -5.061552109188227e-06
-1.1695776588489054e-05   -1.2175839768000483e-06   -5.061552109188227e-06
2.8989022641208234e-06   -7.860432764300249e-06   -2.5400307591037866e-05
2.8989022641208234e-06   -7.860432764300249e-06   -2.5400307591037866e-05
2.8989022641208234e-06   -7.860432764300249e-06   -2.5400307591037866e-05
2.8989022641208234e-06   -7.860432764300249e-06   -2.5400307591037866e-05
-4.543033033404537e-06   -4.455143198411242e-06   -1.5040255834695759e-05
-4.543033033404537e-06   -4.455143198411242e-06   -1.5040255834695759e-05
-4.543033033404537e-06   -4.455143198411242e-06   -1.5040255834695759e-05
-4.543033033404537e-06   -4.455143198411242e-06   -1.5040255834695759e-05
2.8989022641208234e-06   -1.2175839768000483e-06   -1.0758428366880414e-06
2.8989022641208234e-06   -1.2175839768000483e-06   -1.0758428366880414e-06
2.8989022641208234e-06   -1.2175839768000483e-06   -1.0758428366880414e-06
2.8989022641208234e-06   -1.2175839768000483e-06   -1.0758428366880414e-06
-1.1695776588489095e-05   -7.860432764300249e-06   -2.9386016863538187e-05
-1.1695776588489095e-05   -7.860432764300249e-06   -2.9386016863538187e-05
-1.1695776588489095e-05   -7.860432764300249e-06   -2.9386016863538187e-05
-1.1695776588489095e-05   -7.860432764300249e-06   -2.9386016863538187e-05
-1.057897857122187e-05   -9.377804387935684e-07   -5.041287999634132e-06
-1.057897857122187e-05   -9.377804387935684e-07   -5.041287999634132e-06
-1.057897857122187e-05   -9.377804387935684e-07   -5.041287999634132e-06
-1.057897857122187e-05   -9.377804387935684e-07   -5.041287999634132e-06
3.5474373424773626e-06   -7.578531972778817e-06   -2.460086360207504e-05
3.5474373424773626e-06   -7.578531972778817e-06   -2.460086360207504e-05
3.5474373424773626e-06   -7.578531972778817e-06   -2.460086360207504e-05
3.5474373424773626e-06   -7.578531972778817e-06   -2.460086360207504e-05
-3.8511167155174194e-06   -4.351446060343921e-06   -1.4206191719544868e-05
-3.8511167155174194e-06   -4.351446060343921e-06   -1.4206191719544868e-05
-3.8511167155174194e-06   -4.351446060343921e-06   -1.4206191719544868e-05
-3.8511167155174194e-06   -4.351446060343921e-06   -1.4206191719544868e-05
-1.3092762237027256e-05   5.064120298546235e-07   -3.490434525464203e-06
-1.3092762237027256e-05   5.064120298546235e-07   -3.490434525464203e-06
-1.3092762237027256e-05   5.064120298546235e-07   -3.490434525464203e-06
-1.3092762237027256e-05   5.064120298546235e-07   -3.490434525464203e-06
-2.9890555054567396e-05   -9.590790267008592e-06   -3.754507726614893e-05
-2.9890555054567396e-05   -9.590790267008592e-06   -3.754507726614893e-05
-2.9890555054567396e-05   -9.590790267008592e-06   -3.754507726614893e-05
-2.9890555054567396e-05   -9.590790267008592e-06   -3.754507726614893e-05
-2.8990552231052162e-05   8.556058876977787e-07   -9.249979028981819e-06
-2.8990552231052162e-05   8.556058876977787e-07   -9.249979028981819e-06
-2.8990552231052162e-05   8.556058876977787e-07   -9.249979028981819e-06
-2.8990552231052162e-05   8.556058876977787e-07   -9.249979028981819e-06
-1.2342788483824766e-05   -1.0731519361888934e-05   -3.0043976791275465e-05
-1.2342788483824766e-05   -1.0731519361888934e-05   -3.0043976791275465e-05
-1.2342788483824766e-05   -1.0731519361888934e-05   -3.0043976791275465e-05
-1.2342788483824766e-05   -1.0731519361888934e-05   -3.0043976791275465e-05
-2.0778858183327566e-05   -4.848608823911213e-06   -1.951360694822405e-05
-2.0778858183327566e-05   -4.848608823911213e-06   -1.951360694822405e-05
-2.0778858183327566e-05   -4.848608823911213e-06   -1.951360694822405e-05
-2.0778858183327566e-05   -4.848608823911213e-06   -1.951360694822405e-05
-1.2342788483824766e-05   8.556058876977787e-07   -2.2977038792299214e-06
-1.2342788483824766e-05   8.556058876977787e-07   -2.2977038792299214e-06
-1.2342788483824766e-05   8.556058876977787e-07   -2.2977038792299214e-06
-1.2342788483824766e-05   8.556058876977787e-07   -2.2977038792299214e-06
-2.8990552231052162e-05   -1.0731519361888934e-05   -3.699625194102747e-05
-2.8990552231052162e-05   -1.0731519361888934e-05   -3.699625194102747e-05
-2.8990552231052162e-05   -1.0731519361888934e-05   -3.699625194102747e-05
-2.8990552231052162e-05   -1.0731519361888934e-05   -3.699625194102747e-05
-2.8128301632317728e-05   1.1765823570118739e-06   -8.234599366963588e-06
-2.8128301632317728e-05   1.1765823570118739e-06   -8.234599366963588e-06
-2.8128301632317728e-05   1.1765823570118739e-06   -8.234599366963588e-06
-2.8128301632317728e-05   1.1765823570118739e-06   -8.234599366963588e-06
-1.1695776588489074e-05   -1.0785976380597818e-05   -2.8444605864112163e-05
-1.1695776588489074e-05   -1.0785976380597818e-05   -2.8444605864112163e-05
-1.1695776588489074e-05   -1.0785976380597818e-05   -2.8444605864112163e-05
-1.1695776588489074e-05   -1.0785976380597818e-05   -2.8444605864112163e-05
-1.990116320478342e-05   -4.8601572654447846e-06   -1.8324452972713303e-05
-1.990116320478342e-05   -4.8601572654447846e-06   -1.8324452972713303e-05
-1.990116320478342e-05   -4.8601572654447846e-06   -1.8324452972713303e-05
-1.990116320478342e-05   -4.8601572654447846e-06   -1.8324452972713303e-05
-1.169577658848906e-05   1.1765823570118739e-06   -1.057064124397795e-06
-1.169577658848906e-05   1.1765823570118739e-06   -1.057064124397795e-06
-1.169577658848906e-05   1.1765823570118739e-06   -1.057064124397795e-06
-1.169577658848906e-05   1.1765823570118739e-06   -1.057064124397795e-06
-2.8128301632317775e-05   -1.0785976380597818e-05   -3.562214110667801e-05
-2.8128301632317775e-05   -1.0785976380597818e-05   -3.562214110667801e-05
-2.8128301632317775e-05   -1.0785976380597818e-05   -3.562214110667801e-05
-2.8128301632317775e-05   -1.0785976380597818e-05   -3.562214110667801e-05
-2.6711630047130555e-05   1.447069345917153e-06   -7.204428329775857e-06
-2.6711630047130555e-05   1.447069345917153e-06   -7.204428329775857e-06
-2.6711630047130555e-05   1.447069345917153e-06   -7.204428329775857e-06
-2.6711630047130555e-05   1.447069345917153e-06   -7.204428329775857e-06
-1.0578978571221911e-05   -9.811098195302561e-06   -2.7337280264891996e-05
-1.0578978571221911e-05   -9.811098195302561e-06   -2.7337280264891996e-05
-1.0578978571221911e-05   -9.811098195302561e-06   -2.7337280264891996e-05
-1.0578978571221911e-05   -9.811098195302561e-06   -2.7337280264891996e-05
-1.903860021683682e-05   -4.269597377942139e-06   -1.6562811345949486e-05
-1.903860021683682e-05   -4.269597377942139e-06   -1.6562811345949486e-05
-1.903860021683682e-05   -4.269597377942139e-06   -1.6562811345949486e-05
-1.903860021683682e-05   -4.269597377942139e-06   -1.6562811345949486e-05
-2.9890555054567396e-05   4.301178693339814e-06   -6.259508658348727e-06
-2.9890555054567396e-05   4.301178693339814e-06   -6.259508658348727e-06
-2.9890555054567396e-05   4.301178693339814e-06   -6.259508658348727e-06
-2.9890555054567396e-05   4.301178693339814e-06   -6.259508658348727e-06
-5.134009794571506e-05   0.0   -4.458945402626563e-05
-5.134009794571506e-05   0.0   -4.458945402626563e-05
-5.134009794571506e-05   0.0   -4.458945402626563e-05
-5.134009794571506e-05   0.0   -4.458945402626563e-05
-5.002723988690756e-05   5.425298037466759e-06   -4.765690273944231e-06
-5.002723988690756e-05   5.425298037466759e-06   -4.765690273944231e-06
-5.002723988690756e-05   5.425298037466759e-06   -4.765690273944231e-06
-5.002723988690756e-05   5.425298037466759e-06   -4.765690273944231e-06
-2.8990552231052108e-05   0.0   -3.657165754455655e-05
-2.8990552231052108e-05   0.0   -3.657165754455655e-05
-2.8990552231052108e-05   0.0   -3.657165754455655e-05
-2.8990552231052108e-05   0.0   -3.657165754455655e-05
-3.8361032320340015e-05   1.669572712414101e-06   -2.195593435652523e-05
-3.8361032320340015e-05   1.669572712414101e-06   -2.195593435652523e-05
-3.8361032320340015e-05   1.669572712414101e-06   -2.195593435652523e-05
-3.8361032320340015e-05   1.669572712414101e-06   -2.195593435652523e-05
-2.8990552231052135e-05   5.425298037466759e-06   -1.5105114514641109e-06
-2.8990552231052135e-05   5.425298037466759e-06   -1.5105114514641109e-06
-2.8990552231052135e-05   5.425298037466759e-06   -1.5105114514641109e-06
-2.8990552231052135e-05   5.425298037466759e-06   -1.5105114514641109e-06
-5.002723988690747e-05   0.0   -3.9826836367036576e-05
-5.002723988690747e-05   0.0   -3.9826836367036576e-05
-5.002723988690747e-05   0.0   -3.9826836367036576e-05
-5.002723988690747e-05   0.0   -3.9826836367036576e-05
-4.891404615374544e-05   5.6788246740938336e-06   -1.778511887526638e-06
-4.891404615374544e-05   5.6788246740938336e-06   -1.778511887526638e-06
-4.891404615374544e-05   5.6788246740938336e-06   -1.778511887526638e-06
-4.891404615374544e-05   5.6788246740938336e-06   -1.778511887526638e-06
-2.8128301632317775e-05   0.0   -3.30141246187834e-05
-2.8128301632317775e-05   0.0   -3.30141246187834e-05
-2.8128301632317775e-05   0.0   -3.30141246187834e-05
-2.8128301632317775e-05   0.0   -3.30141246187834e-05
-3.7980742927198316e-05   2.6299602557267997e-06   -1.817136528075146e-05
-3.7980742927198316e-05   2.6299602557267997e-06   -1.817136528075146e-05
-3.7980742927198316e-05   2.6299602557267997e-06   -1.817136528075146e-05
-3.7980742927198316e-05   2.6299602557267997e-06   -1.817136528075146e-05
-2.8128301632317775e-05   5.6788246740938336e-06   1.6287829169294669e-06
-2.8128301632317775e-05   5.6788246740938336e-06   1.6287829169294669e-06
-2.8128301632317775e-05   5.6788246740938336e-06   1.6287829169294669e-06
-2.8128301632317775e-05   5.6788246740938336e-06   1.6287829169294669e-06
-4.891404615374535e-05   0.0   -3.642141942323954e-05
-4.891404615374535e-05   0.0   -3.642141942323954e-05
-4.891404615374535e-05   0.0   -3.642141942323954e-05
-4.891404615374535e-05   0.0   -3.642141942323954e-05
-4.669036304614214e-05   6.108341926138339e-06   3.038638239697116e-06
-4.669036304614214e-05   6.108341926138339e-06   3.038638239697116e-06
-4.669036304614214e-05   6.108341926138339e-06   3.038638239697116e-06
-4.669036304614214e-05   6.108341926138339e-06   3.038638239697116e-06
-2.67116300471306e-05   0.0   -2.659424493630599e-05
-2.67116300471306e-05   0.0   -2.659424493630599e-05
-2.67116300471306e-05   0.0   -2.659424493630599e-05
-2.67116300471306e-05   0.0   -2.659424493630599e-05
-3.6030822405878084e-05   3.2392684764450015e-06   -1.3005818757593664e-05
-3.6030822405878084e-05   3.2392684764450015e-06   -1.3005818757593664e-05
-3.6030822405878084e-05   3.2392684764450015e-06   -1.3005818757593664e-05
-3.6030822405878084e-05   3.2392684764450015e-06   -1.3005818757593664e-05
3.794825317849405e-05   -6.491726638845627e-06   2.2607107789020557e-05
3.794825317849405e-05   -6.491726638845627e-06   2.2607107789020557e-05
3.794825317849405e-05   -6.491726638845627e-06   2.2607107789020557e-05
3.794825317849405e-05   -6.491726638845627e-06   2.2607107789020557e-05
1.9659894762136795e-05   -5.024777672501439e-06   -6.9933201917683416e-06
1.9659894762136795e-05   -5.024777672501439e-06   -6.9933201917683416e-06
1.9659894762136795e-05   -5.024777672501439e-06   -6.9933201917683416e-06
1.9659894762136795e-05   -5.024777672501439e-06   -6.9933201917683416e-06
1.917120651924666e-05   -6.654199720368317e-06   1.9940151007446865e-05
1.917120651924666e-05   -6.654199720368317e-06   1.9940151007446865e-05
1.917120651924666e-05   -6.654199720368317e-06   1.9940151007446865e-05
1.917120651924666e-05   -6.654199720368317e-06   1.9940151007446865e-05
3.755056824800101e-05   -5.520372217627991e-06   -1.1372415042121194e-05
3.755056824800101e-05   -5.520372217627991e-06   -1.1372415042121194e-05
3.755056824800101e-05   -5.520372217627991e-06   -1.1372415042121194e-05
3.755056824800101e-05   -5.520372217627991e-06   -1.1372415042121194e-05
2.7411463353897418e-05   -5.605798011549092e-06   5.577348591070795e-06
2.7411463353897418e-05   -5.605798011549092e-06   5.577348591070795e-06
2.7411463353897418e-05   -5.605798011549092e-06   5.577348591070795e-06
2.7411463353897418e-05   -5.605798011549092e-06   5.577348591070795e-06
3.755056824800101e-05   -6.654199720368317e-06   1.925985450580269e-05
3.755056824800101e-05   -6.654199720368317e-06   1.925985450580269e-05
3.755056824800101e-05   -6.654199720368317e-06   1.925985450580269e-05
3.755056824800101e-05   -6.654199720368317e-06   1.925985450580269e-05
1.917120651924666e-05   -5.520372217627991e-06   -1.0692118540476993e-05
1.917120651924666e-05   -5.520372217627991e-06   -1.0692118540476993e-05
1.917120651924666e-05   -5.520372217627991e-06   -1.0692118540476993e-05
1.917120651924666e-05   -5.520372217627991e-06   -1.0692118540476993e-05
1.8728572882251946e-05   -6.592473793999619e-06   1.7889687115672402e-05
1.8728572882251946e-05   -6.592473793999619e-06   1.7889687115672402e-05
1.8728572882251946e-05   -6.592473793999619e-06   1.7889687115672402e-05
1.8728572882251946e-05   -6.592473793999619e-06   1.7889687115672402e-05
3.708850307494483e-05   -5.5642707766818955e-06   -1.332711834920655e-05
3.708850307494483e-05   -5.5642707766818955e-06   -1.332711834920655e-05
3.708850307494483e-05   -5.5642707766818955e-06   -1.332711834920655e-05
3.708850307494483e-05   -5.5642707766818955e-06   -1.332711834920655e-05
2.739762105593727e-05   -5.704172056766876e-06   2.908292450523806e-06
2.739762105593727e-05   -5.704172056766876e-06   2.908292450523806e-06
2.739762105593727e-05   -5.704172056766876e-06   2.908292450523806e-06
2.739762105593727e-05   -5.704172056766876e-06   2.908292450523806e-06
3.708850307494489e-05   -6.592473793999619e-06   1.7272765305281746e-05
3.708850307494489e-05   -6.592473793999619e-06   1.7272765305281746e-05
3.708850307494489e-05   -6.592473793999619e-06   1.7272765305281746e-05
3.708850307494489e-05   -6.592473793999619e-06   1.7272765305281746e-05
1.8728572882251946e-05   -5.5642707766818955e-06   -1.27101965388158e-05
1.8728572882251946e-05   -5.5642707766818955e-06   -1.27101965388158e-05
1.8728572882251946e-05   -5.5642707766818955e-06   -1.27101965388158e-05
1.8728572882251946e-05   -5.5642707766818955e-06   -1.27101965388158e-05
1.8188248434830856e-05   -6.221535753371185e-06   1.4553696648095921e-05
1.8188248434830856e-05   -6.221535753371185e-06   1.4553696648095921e-05
1.8188248434830856e-05   -6.221535753371185e-06   1.4553696648095921e-05
1.8188248434830856e-05   -6.221535753371185e-06   1.4553696648095921e-05
3.636433275430223e-05   -5.4423709516904055e-06   -1.6207276098698214e-05
3.636433275430223e-05   -5.4423709516904055e-06   -1.6207276098698214e-05
3.636433275430223e-05   -5.4423709516904055e-06   -1.6207276098698214e-05
3.636433275430223e-05   -5.4423709516904055e-06   -1.6207276098698214e-05
2.6468586280155982e-05   -5.423480113751766e-06   2.7430018878236485e-07
2.6468586280155982e-05   -5.423480113751766e-06   2.7430018878236485e-07
2.6468586280155982e-05   -5.423480113751766e-06   2.7430018878236485e-07
2.6468586280155982e-05   -5.423480113751766e-06   2.7430018878236485e-07
1.9659894762136795e-05   -6.459487753720985e-06   1.685328971996324e-05
1.9659894762136795e-05   -6.459487753720985e-06   1.685328971996324e-05
1.9659894762136795e-05   -6.459487753720985e-06   1.685328971996324e-05
1.9659894762136795e-05   -6.459487753720985e-06   1.685328971996324e-05
4.1057252985374725e-06   -3.0812536775694493e-06   -7.043385607011579e-06
4.1057252985374725e-06   -3.0812536775694493e-06   -7.043385607011579e-06
4.1057252985374725e-06   -3.0812536775694493e-06   -7.043385607011579e-06
4.1057252985374725e-06   -3.0812536775694493e-06   -7.043385607011579e-06
3.3324413187411824e-06   -6.423433023410941e-06   1.9207476575162073e-05
3.3324413187411824e-06   -6.423433023410941e-06   1.9207476575162073e-05
3.3324413187411824e-06   -6.423433023410941e-06   1.9207476575162073e-05
3.3324413187411824e-06   -6.423433023410941e-06   1.9207476575162073e-05
1.917120651924666e-05   -3.266310893120525e-06   -9.084738703854498e-06
1.917120651924666e-05   -3.266310893120525e-06   -9.084738703854498e-06
1.917120651924666e-05   -3.266310893120525e-06   -9.084738703854498e-06
1.917120651924666e-05   -3.266310893120525e-06   -9.084738703854498e-06
1.1550013466987507e-05   -4.629208638534752e-06   4.4349883638260224e-06
1.1550013466987507e-05   -4.629208638534752e-06   4.4349883638260224e-06
1.1550013466987507e-05   -4.629208638534752e-06   4.4349883638260224e-06
1.1550013466987507e-05   -4.629208638534752e-06   4.4349883638260224e-06
1.9171206519246674e-05   -6.423433023410941e-06   1.7313203296987997e-05
1.9171206519246674e-05   -6.423433023410941e-06   1.7313203296987997e-05
1.9171206519246674e-05   -6.423433023410941e-06   1.7313203296987997e-05
1.9171206519246674e-05   -6.423433023410941e-06   1.7313203296987997e-05
3.3324413187411824e-06   -3.266310893120525e-06   -7.190465425680327e-06
3.3324413187411824e-06   -3.266310893120525e-06   -7.190465425680327e-06
3.3324413187411824e-06   -3.266310893120525e-06   -7.190465425680327e-06
3.3324413187411824e-06   -3.266310893120525e-06   -7.190465425680327e-06
2.7801004887031034e-06   -6.333279895484904e-06   1.9225880747392762e-05
2.7801004887031034e-06   -6.333279895484904e-06   1.9225880747392762e-05
2.7801004887031034e-06   -6.333279895484904e-06   1.9225880747392762e-05
2.7801004887031034e-06   -6.333279895484904e-06   1.9225880747392762e-05
1.8728572882251946e-05   -3.346319002697296e-06   -9.14708311086106e-06
1.8728572882251946e-05   -3.346319002697296e-06   -9.14708311086106e-06
1.8728572882251946e-05   -3.346319002697296e-06   -9.14708311086106e-06
1.8728572882251946e-05   -3.346319002697296e-06   -9.14708311086106e-06
1.088499343673776e-05   -4.532625064007298e-06   4.637332935115583e-06
1.088499343673776e-05   -4.532625064007298e-06   4.637332935115583e-06
1.088499343673776e-05   -4.532625064007298e-06   4.637332935115583e-06
1.088499343673776e-05   -4.532625064007298e-06   4.637332935115583e-06
1.8728572882251973e-05   -6.333279895484904e-06   1.7433704211720262e-05
1.8728572882251973e-05   -6.333279895484904e-06   1.7433704211720262e-05
1.8728572882251973e-05   -6.333279895484904e-06   1.7433704211720262e-05
1.8728572882251973e-05   -6.333279895484904e-06   1.7433704211720262e-05
2.7801004887031034e-06   -3.346319002697296e-06   -7.354906575188615e-06
2.7801004887031034e-06   -3.346319002697296e-06   -7.354906575188615e-06
2.7801004887031034e-06   -3.346319002697296e-06   -7.354906575188615e-06
2.7801004887031034e-06   -3.346319002697296e-06   -7.354906575188615e-06
2.166046831075868e-06   -6.1557159442414845e-06   1.9839594353584047e-05
2.166046831075868e-06   -6.1557159442414845e-06   1.9839594353584047e-05
2.166046831075868e-06   -6.1557159442414845e-06   1.9839594353584047e-05
2.166046831075868e-06   -6.1557159442414845e-06   1.9839594353584047e-05
1.8188248434830836e-05   -3.2668038137330553e-06   -8.5974222643126e-06
1.8188248434830836e-05   -3.2668038137330553e-06   -8.5974222643126e-06
1.8188248434830836e-05   -3.2668038137330553e-06   -8.5974222643126e-06
1.8188248434830836e-05   -3.2668038137330553e-06   -8.5974222643126e-06
1.0480080381272654e-05   -4.330618703334097e-06   4.887813425378455e-06
1.0480080381272654e-05   -4.330618703334097e-06   4.887813425378455e-06
1.0480080381272654e-05   -4.330618703334097e-06   4.887813425378455e-06
1.0480080381272654e-05   -4.330618703334097e-06   4.887813425378455e-06
4.105725298537486e-06   -7.736110766896898e-06   1.7307226217427754e-05
4.105725298537486e-06   -7.736110766896898e-06   1.7307226217427754e-05
4.105725298537486e-06   -7.736110766896898e-06   1.7307226217427754e-05
4.105725298537486e-06   -7.736110766896898e-06   1.7307226217427754e-05
-1.0841884166176261e-05   -1.2560333479225572e-06   -3.717409772377358e-06
-1.0841884166176261e-05   -1.2560333479225572e-06   -3.717409772377358e-06
-1.0841884166176261e-05   -1.2560333479225572e-06   -3.717409772377358e-06
-1.0841884166176261e-05   -1.2560333479225572e-06   -3.717409772377358e-06
-1.2044138921316693e-05   -7.902758382032256e-06   2.219747717176787e-05
-1.2044138921316693e-05   -7.902758382032256e-06   2.219747717176787e-05
-1.2044138921316693e-05   -7.902758382032256e-06   2.219747717176787e-05
-1.2044138921316693e-05   -7.902758382032256e-06   2.219747717176787e-05
3.332441318741196e-06   -1.32504325563664e-06   -7.376785637499411e-06
3.332441318741196e-06   -1.32504325563664e-06   -7.376785637499411e-06
3.332441318741196e-06   -1.32504325563664e-06   -7.376785637499411e-06
3.332441318741196e-06   -1.32504325563664e-06   -7.376785637499411e-06
-3.730448744142651e-06   -4.407442299311434e-06   6.2441372268453145e-06
-3.730448744142651e-06   -4.407442299311434e-06   6.2441372268453145e-06
-3.730448744142651e-06   -4.407442299311434e-06   6.2441372268453145e-06
-3.730448744142651e-06   -4.407442299311434e-06   6.2441372268453145e-06
3.3324413187411824e-06   -7.902758382032256e-06   1.8250848095930543e-05
3.3324413187411824e-06   -7.902758382032256e-06   1.8250848095930543e-05
3.3324413187411824e-06   -7.902758382032256e-06   1.8250848095930543e-05
3.3324413187411824e-06   -7.902758382032256e-06   1.8250848095930543e-05
-1.2044138921316665e-05   -1.32504325563664e-06   -3.4301565616618682e-06
-1.2044138921316665e-05   -1.32504325563664e-06   -3.4301565616618682e-06
-1.2044138921316665e-05   -1.32504325563664e-06   -3.4301565616618682e-06
-1.2044138921316665e-05   -1.32504325563664e-06   -3.4301565616618682e-06
-1.2780465755860633e-05   -7.860432764300249e-06   2.3037969132849332e-05
-1.2780465755860633e-05   -7.860432764300249e-06   2.3037969132849332e-05
-1.2780465755860633e-05   -7.860432764300249e-06   2.3037969132849332e-05
-1.2780465755860633e-05   -7.860432764300249e-06   2.3037969132849332e-05
2.7801004887031034e-06   -1.4101832325121456e-06   -6.766457660496437e-06
2.7801004887031034e-06   -1.4101832325121456e-06   -6.766457660496437e-06
2.7801004887031034e-06   -1.4101832325121456e-06   -6.766457660496437e-06
2.7801004887031034e-06   -1.4101832325121456e-06   -6.766457660496437e-06
-4.545102142112285e-06   -4.389300476976676e-06   7.229683737541284e-06
-4.545102142112285e-06   -4.389300476976676e-06   7.229683737541284e-06
-4.545102142112285e-06   -4.389300476976676e-06   7.229683737541284e-06
-4.545102142112285e-06   -4.389300476976676e-06   7.229683737541284e-06
2.7801004887031034e-06   -7.860432764300032e-06   1.9167819413776362e-05
2.7801004887031034e-06   -7.860432764300032e-06   1.9167819413776362e-05
2.7801004887031034e-06   -7.860432764300032e-06   1.9167819413776362e-05
2.7801004887031034e-06   -7.860432764300032e-06   1.9167819413776362e-05
-1.278046575586062e-05   -1.4101832325121456e-06   -2.8963079414237244e-06
-1.278046575586062e-05   -1.4101832325121456e-06   -2.8963079414237244e-06
-1.278046575586062e-05   -1.4101832325121456e-06   -2.8963079414237244e-06
-1.278046575586062e-05   -1.4101832325121456e-06   -2.8963079414237244e-06
-1.3644704911831577e-05   -7.578531972778817e-06   2.412376825112702e-05
-1.3644704911831577e-05   -7.578531972778817e-06   2.412376825112702e-05
-1.3644704911831577e-05   -7.578531972778817e-06   2.412376825112702e-05
-1.3644704911831577e-05   -7.578531972778817e-06   2.412376825112702e-05
2.166046831075875e-06   -1.3985976035119259e-06   -5.9354452752790135e-06
2.166046831075875e-06   -1.3985976035119259e-06   -5.9354452752790135e-06
2.166046831075875e-06   -1.3985976035119259e-06   -5.9354452752790135e-06
2.166046831075875e-06   -1.3985976035119259e-06   -5.9354452752790135e-06
-5.209249304075787e-06   -4.209116413771011e-06   8.043026236129132e-06
-5.209249304075787e-06   -4.209116413771011e-06   8.043026236129132e-06
-5.209249304075787e-06   -4.209116413771011e-06   8.043026236129132e-06
-5.209249304075787e-06   -4.209116413771011e-06   8.043026236129132e-06
-1.0841884166176282e-05   -9.590790267008592e-06   2.0929528177700512e-05
-1.0841884166176282e-05   -9.590790267008592e-06   2.0929528177700512e-05
-1.0841884166176282e-05   -9.590790267008592e-06   2.0929528177700512e-05
-1.0841884166176282e-05   -9.590790267008592e-06   2.0929528177700512e-05
-2.7818680567054362e-05   1.4639775755955018e-06   -7.322717848669974e-07
-2.7818680567054362e-05   1.4639775755955018e-06   -7.322717848669974e-07
-2.7818680567054362e-05   1.4639775755955018e-06   -7.322717848669974e-07
-2.7818680567054362e-05   1.4639775755955018e-06   -7.322717848669974e-07
-2.926900658563138e-05   -1.0731519361888934e-05   2.9532946346661816e-05
-2.926900658563138e-05   -1.0731519361888934e-05   2.9532946346661816e-05
-2.926900658563138e-05   -1.0731519361888934e-05   2.9532946346661816e-05
-2.926900658563138e-05   -1.0731519361888934e-05   2.9532946346661816e-05
-1.2044138921316665e-05   1.3868616446674302e-06   -6.4461950311297134e-06
-1.2044138921316665e-05   1.3868616446674302e-06   -6.4461950311297134e-06
-1.2044138921316665e-05   1.3868616446674302e-06   -6.4461950311297134e-06
-1.2044138921316665e-05   1.3868616446674302e-06   -6.4461950311297134e-06
-1.9717631790035345e-05   -3.930010745504826e-06   9.533083184171158e-06
-1.9717631790035345e-05   -3.930010745504826e-06   9.533083184171158e-06
-1.9717631790035345e-05   -3.930010745504826e-06   9.533083184171158e-06
-1.9717631790035345e-05   -3.930010745504826e-06   9.533083184171158e-06
-1.2044138921316693e-05   -1.0731519361888934e-05   2.226191774272815e-05
-1.2044138921316693e-05   -1.0731519361888934e-05   2.226191774272815e-05
-1.2044138921316693e-05   -1.0731519361888934e-05   2.226191774272815e-05
-1.2044138921316693e-05   -1.0731519361888934e-05   2.226191774272815e-05
-2.926900658563138e-05   1.3868616446674302e-06   8.248335728040616e-07
-2.926900658563138e-05   1.3868616446674302e-06   8.248335728040616e-07
-2.926900658563138e-05   1.3868616446674302e-06   8.248335728040616e-07
-2.926900658563138e-05   1.3868616446674302e-06   8.248335728040616e-07
-3.0151882742016003e-05   -1.0785976380597818e-05   3.1193507622201216e-05
-3.0151882742016003e-05   -1.0785976380597818e-05   3.1193507622201216e-05
-3.0151882742016003e-05   -1.0785976380597818e-05   3.1193507622201216e-05
-3.0151882742016003e-05   -1.0785976380597818e-05   3.1193507622201216e-05
-1.278046575586062e-05   1.237569435945298e-06   -4.97298151131712e-06
-1.278046575586062e-05   1.237569435945298e-06   -4.97298151131712e-06
-1.278046575586062e-05   1.237569435945298e-06   -4.97298151131712e-06
-1.278046575586062e-05   1.237569435945298e-06   -4.97298151131712e-06
-2.065600962667914e-05   -4.543537429980158e-06   1.1621589059602436e-05
-2.065600962667914e-05   -4.543537429980158e-06   1.1621589059602436e-05
-2.065600962667914e-05   -4.543537429980158e-06   1.1621589059602436e-05
-2.065600962667914e-05   -4.543537429980158e-06   1.1621589059602436e-05
-1.27804657558606e-05   -1.0785976380597818e-05   2.3979380132275302e-05
-1.27804657558606e-05   -1.0785976380597818e-05   2.3979380132275302e-05
-1.27804657558606e-05   -1.0785976380597818e-05   2.3979380132275302e-05
-1.27804657558606e-05   -1.0785976380597818e-05   2.3979380132275302e-05
-3.0151882742015955e-05   1.237569435945298e-06   2.2411459786088068e-06
-3.0151882742015955e-05   1.237569435945298e-06   2.2411459786088068e-06
-3.0151882742015955e-05   1.237569435945298e-06   2.2411459786088068e-06
-3.0151882742015955e-05   1.237569435945298e-06   2.2411459786088068e-06
-3.1104426962220576e-05   -9.811098195302561e-06   3.189902753396312e-05
-3.1104426962220576e-05   -9.811098195302561e-06   3.189902753396312e-05
-3.1104426962220576e-05   -9.811098195302561e-06   3.189902753396312e-05
-3.1104426962220576e-05   -9.811098195302561e-06   3.189902753396312e-05
-1.364470491183153e-05   1.0676101801340623e-06   -3.7277342419469734e-06
-1.364470491183153e-05   1.0676101801340623e-06   -3.7277342419469734e-06
-1.364470491183153e-05   1.0676101801340623e-06   -3.7277342419469734e-06
-1.364470491183153e-05   1.0676101801340623e-06   -3.7277342419469734e-06
-2.1627406474107565e-05   -4.573941911357408e-06   1.2961699616741506e-05
-2.1627406474107565e-05   -4.573941911357408e-06   1.2961699616741506e-05
-2.1627406474107565e-05   -4.573941911357408e-06   1.2961699616741506e-05
-2.1627406474107565e-05   -4.573941911357408e-06   1.2961699616741506e-05
-2.781868056705426e-05   0.0   2.3098719339150137e-05
-2.781868056705426e-05   0.0   2.3098719339150137e-05
-2.781868056705426e-05   0.0   2.3098719339150137e-05
-2.781868056705426e-05   0.0   2.3098719339150137e-05
-4.8862329079923414e-05   6.422053690122945e-06   -8.120795968224515e-06
-4.8862329079923414e-05   6.422053690122945e-06   -8.120795968224515e-06
-4.8862329079923414e-05   6.422053690122945e-06   -8.120795968224515e-06
-4.8862329079923414e-05   6.422053690122945e-06   -8.120795968224515e-06
-5.085192704469051e-05   0.0   3.3684103719283784e-05
-5.085192704469051e-05   0.0   3.3684103719283784e-05
-5.085192704469051e-05   0.0   3.3684103719283784e-05
-5.085192704469051e-05   0.0   3.3684103719283784e-05
-2.926900658563134e-05   6.210938293585173e-06   -6.013993355299599e-06
-2.926900658563134e-05   6.210938293585173e-06   -6.013993355299599e-06
-2.926900658563134e-05   6.210938293585173e-06   -6.013993355299599e-06
-2.926900658563134e-05   6.210938293585173e-06   -6.013993355299599e-06
-3.7531011037828844e-05   3.809229294434585e-06   9.197039464520004e-06
-3.7531011037828844e-05   3.809229294434585e-06   9.197039464520004e-06
-3.7531011037828844e-05   3.809229294434585e-06   9.197039464520004e-06
-3.7531011037828844e-05   3.809229294434585e-06   9.197039464520004e-06
-2.9269006585631312e-05   0.0   2.9957540743132615e-05
-2.9269006585631312e-05   0.0   2.9957540743132615e-05
-2.9269006585631312e-05   0.0   2.9957540743132615e-05
-2.9269006585631312e-05   0.0   2.9957540743132615e-05
-5.08519270446906e-05   6.210938293585173e-06   -2.2874303791484574e-06
-5.08519270446906e-05   6.210938293585173e-06   -2.2874303791484574e-06
-5.08519270446906e-05   6.210938293585173e-06   -2.2874303791484574e-06
-5.08519270446906e-05   6.210938293585173e-06   -2.2874303791484574e-06
-5.185265499986071e-05   0.0   3.743533347057651e-05
-5.185265499986071e-05   0.0   3.743533347057651e-05
-5.185265499986071e-05   0.0   3.743533347057651e-05
-5.185265499986071e-05   0.0   3.743533347057651e-05
-3.0151882742015955e-05   6.056348934134568e-06   -2.3664296529790586e-06
-3.0151882742015955e-05   6.056348934134568e-06   -2.3664296529790586e-06
-3.0151882742015955e-05   6.056348934134568e-06   -2.3664296529790586e-06
-3.0151882742015955e-05   6.056348934134568e-06   -2.3664296529790586e-06
-3.9463802960331714e-05   3.1841944050524287e-06   1.4876730094996867e-05
-3.9463802960331714e-05   3.1841944050524287e-06   1.4876730094996867e-05
-3.9463802960331714e-05   3.1841944050524287e-06   1.4876730094996867e-05
-3.9463802960331714e-05   3.1841944050524287e-06   1.4876730094996867e-05
-3.0151882742015955e-05   0.0   3.380152411009568e-05
-3.0151882742015955e-05   0.0   3.380152411009568e-05
-3.0151882742015955e-05   0.0   3.380152411009568e-05
-3.0151882742015955e-05   0.0   3.380152411009568e-05
-5.1852654999860886e-05   6.056348934134568e-06   1.2673797075016605e-06
-5.1852654999860886e-05   6.056348934134568e-06   1.2673797075016605e-06
-5.1852654999860886e-05   6.056348934134568e-06   1.2673797075016605e-06
-5.1852654999860886e-05   6.056348934134568e-06   1.2673797075016605e-06
-5.2962059916864214e-05   0.0   4.243493324170564e-05
-5.2962059916864214e-05   0.0   4.243493324170564e-05
-5.2962059916864214e-05   0.0   4.243493324170564e-05
-5.2962059916864214e-05   0.0   4.243493324170564e-05
-3.1104426962220576e-05   5.063283090707806e-06   2.9675751295412956e-06
-3.1104426962220576e-05   5.063283090707806e-06   2.9675751295412956e-06
-3.1104426962220576e-05   5.063283090707806e-06   2.9675751295412956e-06
-3.1104426962220576e-05   5.063283090707806e-06   2.9675751295412956e-06
-3.977495563488022e-05   2.2444640136753437e-06   1.9109747696860368e-05
-3.977495563488022e-05   2.2444640136753437e-06   1.9109747696860368e-05
-3.977495563488022e-05   2.2444640136753437e-06   1.9109747696860368e-05
-3.977495563488022e-05   2.2444640136753437e-06   1.9109747696860368e-05
3.34751320738877e-05   -5.024777672501439e-06   2.3680328723114583e-05
3.34751320738877e-05   -5.024777672501439e-06   2.3680328723114583e-05
3.34751320738877e-05   -5.024777672501439e-06   2.3680328723114583e-05
3.34751320738877e-05   -5.024777672501439e-06   2.3680328723114583e-05
1.6909990172658442e-05   -3.808083317938596e-06   -3.1982244995296897e-06
1.6909990172658442e-05   -3.808083317938596e-06   -3.1982244995296897e-06
1.6909990172658442e-05   -3.808083317938596e-06   -3.1982244995296897e-06
1.6909990172658442e-05   -3.808083317938596e-06   -3.1982244995296897e-06
1.6469436179521586e-05   -5.520372217627774e-06   2.0650943385691384e-05
1.6469436179521586e-05   -5.520372217627774e-06   2.0650943385691384e-05
1.6469436179521586e-05   -5.520372217627774e-06   2.0650943385691384e-05
1.6469436179521586e-05   -5.520372217627774e-06   2.0650943385691384e-05
3.269107841555443e-05   -4.311101948296925e-06   -7.1106891692952515e-06
3.269107841555443e-05   -4.311101948296925e-06   -7.1106891692952515e-06
3.269107841555443e-05   -4.311101948296925e-06   -7.1106891692952515e-06
3.269107841555443e-05   -4.311101948296925e-06   -7.1106891692952515e-06
2.377851597553317e-05   -4.481040084107664e-06   7.845544445559942e-06
2.377851597553317e-05   -4.481040084107664e-06   7.845544445559942e-06
2.377851597553317e-05   -4.481040084107664e-06   7.845544445559942e-06
2.377851597553317e-05   -4.481040084107664e-06   7.845544445559942e-06
3.2691078415554367e-05   -5.520372217627774e-06   1.9925381224092722e-05
3.2691078415554367e-05   -5.520372217627774e-06   1.9925381224092722e-05
3.2691078415554367e-05   -5.520372217627774e-06   1.9925381224092722e-05
3.2691078415554367e-05   -5.520372217627774e-06   1.9925381224092722e-05
1.6469436179521613e-05   -4.311101948296925e-06   -6.385127007696705e-06
1.6469436179521613e-05   -4.311101948296925e-06   -6.385127007696705e-06
1.6469436179521613e-05   -4.311101948296925e-06   -6.385127007696705e-06
1.6469436179521613e-05   -4.311101948296925e-06   -6.385127007696705e-06
1.5901866831182784e-05   -5.5642707766818955e-06   1.8524721026738546e-05
1.5901866831182784e-05   -5.5642707766818955e-06   1.8524721026738546e-05
1.5901866831182784e-05   -5.5642707766818955e-06   1.8524721026738546e-05
1.5901866831182784e-05   -5.5642707766818955e-06   1.8524721026738546e-05
3.1896946286510225e-05   -4.384689675673197e-06   -8.841493392745766e-06
3.1896946286510225e-05   -4.384689675673197e-06   -8.841493392745766e-06
3.1896946286510225e-05   -4.384689675673197e-06   -8.841493392745766e-06
3.1896946286510225e-05   -4.384689675673197e-06   -8.841493392745766e-06
2.3564238882210088e-05   -4.6755557139544456e-06   5.220871904056327e-06
2.3564238882210088e-05   -4.6755557139544456e-06   5.220871904056327e-06
2.3564238882210088e-05   -4.6755557139544456e-06   5.220871904056327e-06
2.3564238882210088e-05   -4.6755557139544456e-06   5.220871904056327e-06
3.1896946286510225e-05   -5.5642707766818955e-06   1.7816972366133392e-05
3.1896946286510225e-05   -5.5642707766818955e-06   1.7816972366133392e-05
3.1896946286510225e-05   -5.5642707766818955e-06   1.7816972366133392e-05
3.1896946286510225e-05   -5.5642707766818955e-06   1.7816972366133392e-05
1.5901866831182784e-05   -4.384689675673197e-06   -8.13374473214066e-06
1.5901866831182784e-05   -4.384689675673197e-06   -8.13374473214066e-06
1.5901866831182784e-05   -4.384689675673197e-06   -8.13374473214066e-06
1.5901866831182784e-05   -4.384689675673197e-06   -8.13374473214066e-06
1.530595415329653e-05   -5.4423709516904055e-06   1.5366380219279836e-05
1.530595415329653e-05   -5.4423709516904055e-06   1.5366380219279836e-05
1.530595415329653e-05   -5.4423709516904055e-06   1.5366380219279836e-05
1.530595415329653e-05   -5.4423709516904055e-06   1.5366380219279836e-05
3.0902504135823876e-05   -4.351707911678156e-06   -1.128226757560633e-05
3.0902504135823876e-05   -4.351707911678156e-06   -1.128226757560633e-05
3.0902504135823876e-05   -4.351707911678156e-06   -1.128226757560633e-05
3.0902504135823876e-05   -4.351707911678156e-06   -1.128226757560633e-05
2.2523583681782314e-05   -4.551407269560298e-06   2.8024194625259974e-06
2.2523583681782314e-05   -4.551407269560298e-06   2.8024194625259974e-06
2.2523583681782314e-05   -4.551407269560298e-06   2.8024194625259974e-06
2.2523583681782314e-05   -4.551407269560298e-06   2.8024194625259974e-06
1.690999017265847e-05   -3.081253677569666e-06   2.233333947491837e-05
1.690999017265847e-05   -3.081253677569666e-06   2.233333947491837e-05
1.690999017265847e-05   -3.081253677569666e-06   2.233333947491837e-05
1.690999017265847e-05   -3.081253677569666e-06   2.233333947491837e-05
1.8046612914564611e-06   -1.3372408866588366e-06   -1.7958009858717785e-06
1.8046612914564611e-06   -1.3372408866588366e-06   -1.7958009858717785e-06
1.8046612914564611e-06   -1.3372408866588366e-06   -1.7958009858717785e-06
1.8046612914564611e-06   -1.3372408866588366e-06   -1.7958009858717785e-06
1.366442915551959e-06   -3.266310893120525e-06   2.3254273752395323e-05
1.366442915551959e-06   -3.266310893120525e-06   2.3254273752395323e-05
1.366442915551959e-06   -3.266310893120525e-06   2.3254273752395323e-05
1.366442915551959e-06   -3.266310893120525e-06   2.3254273752395323e-05
1.6469436179521613e-05   -1.606393342984836e-06   -2.913332217635567e-06
1.6469436179521613e-05   -1.606393342984836e-06   -2.913332217635567e-06
1.6469436179521613e-05   -1.606393342984836e-06   -2.913332217635567e-06
1.6469436179521613e-05   -1.606393342984836e-06   -2.913332217635567e-06
9.049764102200621e-06   -2.1606358266016215e-06   9.785333401402774e-06
9.049764102200621e-06   -2.1606358266016215e-06   9.785333401402774e-06
9.049764102200621e-06   -2.1606358266016215e-06   9.785333401402774e-06
9.049764102200621e-06   -2.1606358266016215e-06   9.785333401402774e-06
1.6469436179521607e-05   -3.266310893120525e-06   2.2258323222313866e-05
1.6469436179521607e-05   -3.266310893120525e-06   2.2258323222313866e-05
1.6469436179521607e-05   -3.266310893120525e-06   2.2258323222313866e-05
1.6469436179521607e-05   -3.266310893120525e-06   2.2258323222313866e-05
1.366442915551959e-06   -1.606393342984836e-06   -1.91738168755411e-06
1.366442915551959e-06   -1.606393342984836e-06   -1.91738168755411e-06
1.366442915551959e-06   -1.606393342984836e-06   -1.91738168755411e-06
1.366442915551959e-06   -1.606393342984836e-06   -1.91738168755411e-06
8.076657632622494e-07   -3.346319002697296e-06   2.3026848461154192e-05
8.076657632622494e-07   -3.346319002697296e-06   2.3026848461154192e-05
8.076657632622494e-07   -3.346319002697296e-06   2.3026848461154192e-05
8.076657632622494e-07   -3.346319002697296e-06   2.3026848461154192e-05
1.5901866831182784e-05   -1.7812956585954408e-06   -3.069167325174421e-06
1.5901866831182784e-05   -1.7812956585954408e-06   -3.069167325174421e-06
1.5901866831182784e-05   -1.7812956585954408e-06   -3.069167325174421e-06
1.5901866831182784e-05   -1.7812956585954408e-06   -3.069167325174421e-06
8.493037307633126e-06   -2.26167262732291e-06   9.567108061978553e-06
8.493037307633126e-06   -2.26167262732291e-06   9.567108061978553e-06
8.493037307633126e-06   -2.26167262732291e-06   9.567108061978553e-06
8.493037307633126e-06   -2.26167262732291e-06   9.567108061978553e-06
1.590186683118275e-05   -3.346319002697296e-06   2.2087834454693122e-05
1.590186683118275e-05   -3.346319002697296e-06   2.2087834454693122e-05
1.590186683118275e-05   -3.346319002697296e-06   2.2087834454693122e-05
1.590186683118275e-05   -3.346319002697296e-06   2.2087834454693122e-05
8.076657632622494e-07   -1.7812956585954408e-06   -2.130153318713338e-06
8.076657632622494e-07   -1.7812956585954408e-06   -2.130153318713338e-06
8.076657632622494e-07   -1.7812956585954408e-06   -2.130153318713338e-06
8.076657632622494e-07   -1.7812956585954408e-06   -2.130153318713338e-06
1.904626565108771e-07   -3.2668038137330553e-06   2.335647339890589e-05
1.904626565108771e-07   -3.2668038137330553e-06   2.335647339890589e-05
1.904626565108771e-07   -3.2668038137330553e-06   2.335647339890589e-05
1.904626565108771e-07   -3.2668038137330553e-06   2.335647339890589e-05
1.5305954153296517e-05   -1.8539067699850642e-06   -2.6837506553191144e-06
1.5305954153296517e-05   -1.8539067699850642e-06   -2.6837506553191144e-06
1.5305954153296517e-05   -1.8539067699850642e-06   -2.6837506553191144e-06
1.5305954153296517e-05   -1.8539067699850642e-06   -2.6837506553191144e-06
8.042070663352494e-06   -2.237989842219677e-06   9.653171671262259e-06
8.042070663352494e-06   -2.237989842219677e-06   9.653171671262259e-06
8.042070663352494e-06   -2.237989842219677e-06   9.653171671262259e-06
8.042070663352494e-06   -2.237989842219677e-06   9.653171671262259e-06
1.8046612914564476e-06   -1.2560333479223404e-06   2.281767653271446e-05
1.8046612914564476e-06   -1.2560333479223404e-06   2.281767653271446e-05
1.8046612914564476e-06   -1.2560333479223404e-06   2.281767653271446e-05
1.8046612914564476e-06   -1.2560333479223404e-06   2.281767653271446e-05
-1.2833855178584215e-05   1.2024107957002515e-06   -1.0478443117963726e-07
-1.2833855178584215e-05   1.2024107957002515e-06   -1.0478443117963726e-07
-1.2833855178584215e-05   1.2024107957002515e-06   -1.0478443117963726e-07
-1.2833855178584215e-05   1.2024107957002515e-06   -1.0478443117963726e-07
-1.3327839589253904e-05   -1.32504325563664e-06   2.446209647458564e-05
-1.3327839589253904e-05   -1.32504325563664e-06   2.446209647458564e-05
-1.3327839589253904e-05   -1.32504325563664e-06   2.446209647458564e-05
-1.3327839589253904e-05   -1.32504325563664e-06   2.446209647458564e-05
1.366442915551959e-06   9.98528301045373e-07   -1.4225173007666902e-06
1.366442915551959e-06   9.98528301045373e-07   -1.4225173007666902e-06
1.366442915551959e-06   9.98528301045373e-07   -1.4225173007666902e-06
1.366442915551959e-06   9.98528301045373e-07   -1.4225173007666902e-06
-5.7373164693238195e-06   1.2387539849575621e-08   1.1008766130743848e-05
-5.7373164693238195e-06   1.2387539849575621e-08   1.1008766130743848e-05
-5.7373164693238195e-06   1.2387539849575621e-08   1.1008766130743848e-05
-5.7373164693238195e-06   1.2387539849575621e-08   1.1008766130743848e-05
1.366442915551959e-06   -1.32504325563664e-06   2.3067953540576456e-05
1.366442915551959e-06   -1.32504325563664e-06   2.3067953540576456e-05
1.366442915551959e-06   -1.32504325563664e-06   2.3067953540576456e-05
1.366442915551959e-06   -1.32504325563664e-06   2.3067953540576456e-05
-1.3327839589253904e-05   9.98528301045373e-07   -2.8374366757436334e-08
-1.3327839589253904e-05   9.98528301045373e-07   -2.8374366757436334e-08
-1.3327839589253904e-05   9.98528301045373e-07   -2.8374366757436334e-08
-1.3327839589253904e-05   9.98528301045373e-07   -2.8374366757436334e-08
-1.3988687494046178e-05   -1.4101832325121456e-06   2.49466599129732e-05
-1.3988687494046178e-05   -1.4101832325121456e-06   2.49466599129732e-05
-1.3988687494046178e-05   -1.4101832325121456e-06   2.49466599129732e-05
-1.3988687494046178e-05   -1.4101832325121456e-06   2.49466599129732e-05
8.076657632622494e-07   8.087543293658263e-07   -1.0452913863342789e-06
8.076657632622494e-07   8.087543293658263e-07   -1.0452913863342789e-06
8.076657632622494e-07   8.087543293658263e-07   -1.0452913863342789e-06
8.076657632622494e-07   8.087543293658263e-07   -1.0452913863342789e-06
-6.224205215052593e-06   -4.346091761735921e-08   1.1185822725713601e-05
-6.224205215052593e-06   -4.346091761735921e-08   1.1185822725713601e-05
-6.224205215052593e-06   -4.346091761735921e-08   1.1185822725713601e-05
-6.224205215052593e-06   -4.346091761735921e-08   1.1185822725713601e-05
8.076657632622494e-07   -1.4101832325121456e-06   2.361529737584633e-05
8.076657632622494e-07   -1.4101832325121456e-06   2.361529737584633e-05
8.076657632622494e-07   -1.4101832325121456e-06   2.361529737584633e-05
8.076657632622494e-07   -1.4101832325121456e-06   2.361529737584633e-05
-1.3988687494046137e-05   8.087543293658263e-07   2.860711507924555e-07
-1.3988687494046137e-05   8.087543293658263e-07   2.860711507924555e-07
-1.3988687494046137e-05   8.087543293658263e-07   2.860711507924555e-07
-1.3988687494046137e-05   8.087543293658263e-07   2.860711507924555e-07
-1.4692737442983402e-05   -1.3985976035119259e-06   2.5527814670494274e-05
-1.4692737442983402e-05   -1.3985976035119259e-06   2.5527814670494274e-05
-1.4692737442983402e-05   -1.3985976035119259e-06   2.5527814670494274e-05
-1.4692737442983402e-05   -1.3985976035119259e-06   2.5527814670494274e-05
1.904626565108771e-07   6.725883312543295e-07   -5.202303895226199e-07
1.904626565108771e-07   6.725883312543295e-07   -5.202303895226199e-07
1.904626565108771e-07   6.725883312543295e-07   -5.202303895226199e-07
1.904626565108771e-07   6.725883312543295e-07   -5.202303895226199e-07
-6.844575681543974e-06   -8.273755668433691e-08   1.1658029039999005e-05
-6.844575681543974e-06   -8.273755668433691e-08   1.1658029039999005e-05
-6.844575681543974e-06   -8.273755668433691e-08   1.1658029039999005e-05
-6.844575681543974e-06   -8.273755668433691e-08   1.1658029039999005e-05
-1.283385517858416e-05   1.4639775755957186e-06   2.0645020300835682e-05
-1.283385517858416e-05   1.4639775755957186e-06   2.0645020300835682e-05
-1.283385517858416e-05   1.4639775755957186e-06   2.0645020300835682e-05
-1.283385517858416e-05   1.4639775755957186e-06   2.0645020300835682e-05
-2.7191102649817714e-05   3.898869788614189e-06   -1.8227901567421847e-06
-2.7191102649817714e-05   3.898869788614189e-06   -1.8227901567421847e-06
-2.7191102649817714e-05   3.898869788614189e-06   -1.8227901567421847e-06
-2.7191102649817714e-05   3.898869788614189e-06   -1.8227901567421847e-06
-2.790754906773758e-05   1.3868616446674302e-06   2.2831333868529027e-05
-2.790754906773758e-05   1.3868616446674302e-06   2.2831333868529027e-05
-2.790754906773758e-05   1.3868616446674302e-06   2.2831333868529027e-05
-2.790754906773758e-05   1.3868616446674302e-06   2.2831333868529027e-05
-1.3327839589253863e-05   3.6956547503528506e-06   -2.8534577923550848e-06
-1.3327839589253863e-05   3.6956547503528506e-06   -2.8534577923550848e-06
-1.3327839589253863e-05   3.6956547503528506e-06   -2.8534577923550848e-06
-1.3327839589253863e-05   3.6956547503528506e-06   -2.8534577923550848e-06
-2.0156924169010682e-05   2.653519932791946e-06   9.153630731109457e-06
-2.0156924169010682e-05   2.653519932791946e-06   9.153630731109457e-06
-2.0156924169010682e-05   2.653519932791946e-06   9.153630731109457e-06
-2.0156924169010682e-05   2.653519932791946e-06   9.153630731109457e-06
-1.3327839589253877e-05   1.3868616446674302e-06   2.1446058005117796e-05
-1.3327839589253877e-05   1.3868616446674302e-06   2.1446058005117796e-05
-1.3327839589253877e-05   1.3868616446674302e-06   2.1446058005117796e-05
-1.3327839589253877e-05   1.3868616446674302e-06   2.1446058005117796e-05
-2.7907549067737527e-05   3.6956547503528506e-06   -1.468181928943827e-06
-2.7907549067737527e-05   3.6956547503528506e-06   -1.468181928943827e-06
-2.7907549067737527e-05   3.6956547503528506e-06   -1.468181928943827e-06
-2.7907549067737527e-05   3.6956547503528506e-06   -1.468181928943827e-06
-2.8786590446139022e-05   1.237569435945298e-06   2.423142108948001e-05
-2.8786590446139022e-05   1.237569435945298e-06   2.423142108948001e-05
-2.8786590446139022e-05   1.237569435945298e-06   2.423142108948001e-05
-2.8786590446139022e-05   1.237569435945298e-06   2.423142108948001e-05
-1.3988687494046137e-05   3.5066273466127177e-06   -1.7931852437417205e-06
-1.3988687494046137e-05   3.5066273466127177e-06   -1.7931852437417205e-06
-1.3988687494046137e-05   3.5066273466127177e-06   -1.7931852437417205e-06
-1.3988687494046137e-05   3.5066273466127177e-06   -1.7931852437417205e-06
-2.068848847362963e-05   2.6091110437559926e-06   9.911659503944708e-06
-2.068848847362963e-05   2.6091110437559926e-06   9.911659503944708e-06
-2.068848847362963e-05   2.6091110437559926e-06   9.911659503944708e-06
-2.068848847362963e-05   2.6091110437559926e-06   9.911659503944708e-06
-1.3988687494046137e-05   1.237569435945298e-06   2.28699863430796e-05
-1.3988687494046137e-05   1.237569435945298e-06   2.28699863430796e-05
-1.3988687494046137e-05   1.237569435945298e-06   2.28699863430796e-05
-1.3988687494046137e-05   1.237569435945298e-06   2.28699863430796e-05
-2.8786590446139022e-05   3.5066273466127177e-06   -4.317504973414205e-07
-2.8786590446139022e-05   3.5066273466127177e-06   -4.317504973414205e-07
-2.8786590446139022e-05   3.5066273466127177e-06   -4.317504973414205e-07
-2.8786590446139022e-05   3.5066273466127177e-06   -4.317504973414205e-07
-2.971552807053166e-05   1.0676101801338454e-06   2.5337766422262953e-05
-2.971552807053166e-05   1.0676101801338454e-06   2.5337766422262953e-05
-2.971552807053166e-05   1.0676101801338454e-06   2.5337766422262953e-05
-2.971552807053166e-05   1.0676101801338454e-06   2.5337766422262953e-05
-1.4692737442983348e-05   3.2512790801287033e-06   -1.010419296981188e-06
-1.4692737442983348e-05   3.2512790801287033e-06   -1.010419296981188e-06
-1.4692737442983348e-05   3.2512790801287033e-06   -1.010419296981188e-06
-1.4692737442983348e-05   3.2512790801287033e-06   -1.010419296981188e-06
-2.158122042947272e-05   2.4566083384257136e-06   1.0947188125523706e-05
-2.158122042947272e-05   2.4566083384257136e-06   1.0947188125523706e-05
-2.158122042947272e-05   2.4566083384257136e-06   1.0947188125523706e-05
-2.158122042947272e-05   2.4566083384257136e-06   1.0947188125523706e-05
-2.7191102649817714e-05   6.422053690122945e-06   1.0864199231215587e-05
-2.7191102649817714e-05   6.422053690122945e-06   1.0864199231215587e-05
-2.7191102649817714e-05   6.422053690122945e-06   1.0864199231215587e-05
-2.7191102649817714e-05   6.422053690122945e-06   1.0864199231215587e-05
-4.096132466437914e-05   6.340876892155754e-06   -1.2134876871833949e-05
-4.096132466437914e-05   6.340876892155754e-06   -1.2134876871833949e-05
-4.096132466437914e-05   6.340876892155754e-06   -1.2134876871833949e-05
-4.096132466437914e-05   6.340876892155754e-06   -1.2134876871833949e-05
-4.2249157029275116e-05   6.210938293585173e-06   1.614674036106963e-05
-4.2249157029275116e-05   6.210938293585173e-06   1.614674036106963e-05
-4.2249157029275116e-05   6.210938293585173e-06   1.614674036106963e-05
-4.2249157029275116e-05   6.210938293585173e-06   1.614674036106963e-05
-2.7907549067737527e-05   6.4679939946589524e-06   -7.910172995470593e-06
-2.7907549067737527e-05   6.4679939946589524e-06   -7.910172995470593e-06
-2.7907549067737527e-05   6.4679939946589524e-06   -7.910172995470593e-06
-2.7907549067737527e-05   6.4679939946589524e-06   -7.910172995470593e-06
-3.3185473044597906e-05   6.4556780585420855e-06   8.937565276333648e-07
-3.3185473044597906e-05   6.4556780585420855e-06   8.937565276333648e-07
-3.3185473044597906e-05   6.4556780585420855e-06   8.937565276333648e-07
-3.3185473044597906e-05   6.4556780585420855e-06   8.937565276333648e-07
-2.79075490677375e-05   6.210938293585173e-06   1.599250694042534e-05
-2.79075490677375e-05   6.210938293585173e-06   1.599250694042534e-05
-2.79075490677375e-05   6.210938293585173e-06   1.599250694042534e-05
-2.79075490677375e-05   6.210938293585173e-06   1.599250694042534e-05
-4.2249157029275116e-05   6.467993994658736e-06   -7.755939574826494e-06
-4.2249157029275116e-05   6.467993994658736e-06   -7.755939574826494e-06
-4.2249157029275116e-05   6.467993994658736e-06   -7.755939574826494e-06
-4.2249157029275116e-05   6.467993994658736e-06   -7.755939574826494e-06
-4.3511947313872756e-05   6.056348934134351e-06   1.984395307605771e-05
-4.3511947313872756e-05   6.056348934134351e-06   1.984395307605771e-05
-4.3511947313872756e-05   6.056348934134351e-06   1.984395307605771e-05
-4.3511947313872756e-05   6.056348934134351e-06   1.984395307605771e-05
-2.8786590446138968e-05   6.42319496441026e-06   -4.918415988330855e-06
-2.8786590446138968e-05   6.42319496441026e-06   -4.918415988330855e-06
-2.8786590446138968e-05   6.42319496441026e-06   -4.918415988330855e-06
-2.8786590446138968e-05   6.42319496441026e-06   -4.918415988330855e-06
-3.46716462577836e-05   6.459565579604743e-06   4.868187995294023e-06
-3.46716462577836e-05   6.459565579604743e-06   4.868187995294023e-06
-3.46716462577836e-05   6.459565579604743e-06   4.868187995294023e-06
-3.46716462577836e-05   6.459565579604743e-06   4.868187995294023e-06
-2.8786590446138968e-05   6.056348934134568e-06   1.9623845457892252e-05
-2.8786590446138968e-05   6.056348934134568e-06   1.9623845457892252e-05
-2.8786590446138968e-05   6.056348934134568e-06   1.9623845457892252e-05
-2.8786590446138968e-05   6.056348934134568e-06   1.9623845457892252e-05
-4.3511947313872756e-05   6.42319496441026e-06   -4.698308370165369e-06
-4.3511947313872756e-05   6.42319496441026e-06   -4.698308370165369e-06
-4.3511947313872756e-05   6.42319496441026e-06   -4.698308370165369e-06
-4.3511947313872756e-05   6.42319496441026e-06   -4.698308370165369e-06
-4.500214356626375e-05   5.063283090707806e-06   2.601895835961654e-05
-4.500214356626375e-05   5.063283090707806e-06   2.601895835961654e-05
-4.500214356626375e-05   5.063283090707806e-06   2.601895835961654e-05
-4.500214356626375e-05   5.063283090707806e-06   2.601895835961654e-05
-2.9715528070531566e-05   5.918462409253405e-06   2.8158275602239947e-08
-2.9715528070531566e-05   5.918462409253405e-06   2.8158275602239947e-08
-2.9715528070531566e-05   5.918462409253405e-06   2.8158275602239947e-08
-2.9715528070531566e-05   5.918462409253405e-06   2.8158275602239947e-08
-3.519078166004095e-05   6.15689524674631e-06   9.010521222289176e-06
-3.519078166004095e-05   6.15689524674631e-06   9.010521222289176e-06
-3.519078166004095e-05   6.15689524674631e-06   9.010521222289176e-06
-3.519078166004095e-05   6.15689524674631e-06   9.010521222289176e-06
2.7256393537091394e-05   -3.808083317938596e-06   2.0944372231026338e-05
2.7256393537091394e-05   -3.808083317938596e-06   2.0944372231026338e-05
2.7256393537091394e-05   -3.808083317938596e-06   2.0944372231026338e-05
2.7256393537091394e-05   -3.808083317938596e-06   2.0944372231026338e-05
1.3477896889465623e-05   -2.806206289350348e-06   -1.4186626311970835e-06
1.3477896889465623e-05   -2.806206289350348e-06   -1.4186626311970835e-06
1.3477896889465623e-05   -2.806206289350348e-06   -1.4186626311970835e-06
1.3477896889465623e-05   -2.806206289350348e-06   -1.4186626311970835e-06
1.297010660599251e-05   -4.311101948296925e-06   1.8199974416591787e-05
1.297010660599251e-05   -4.311101948296925e-06   1.8199974416591787e-05
1.297010660599251e-05   -4.311101948296925e-06   1.8199974416591787e-05
1.297010660599251e-05   -4.311101948296925e-06   1.8199974416591787e-05
2.6323301232502618e-05   -3.2515690455876822e-06   -4.6910697025504785e-06
2.6323301232502618e-05   -3.2515690455876822e-06   -4.6910697025504785e-06
2.6323301232502618e-05   -3.2515690455876822e-06   -4.6910697025504785e-06
2.6323301232502618e-05   -3.2515690455876822e-06   -4.6910697025504785e-06
1.9091231752968674e-05   -3.5076510379987175e-06   7.516028625452486e-06
1.9091231752968674e-05   -3.5076510379987175e-06   7.516028625452486e-06
1.9091231752968674e-05   -3.5076510379987175e-06   7.516028625452486e-06
1.9091231752968674e-05   -3.5076510379987175e-06   7.516028625452486e-06
2.632330123250257e-05   -4.311101948296925e-06   1.7564254674966198e-05
2.632330123250257e-05   -4.311101948296925e-06   1.7564254674966198e-05
2.632330123250257e-05   -4.311101948296925e-06   1.7564254674966198e-05
2.632330123250257e-05   -4.311101948296925e-06   1.7564254674966198e-05
1.2970106605992557e-05   -3.2515690455876822e-06   -4.055349960925027e-06
1.2970106605992557e-05   -3.2515690455876822e-06   -4.055349960925027e-06
1.2970106605992557e-05   -3.2515690455876822e-06   -4.055349960925027e-06
1.2970106605992557e-05   -3.2515690455876822e-06   -4.055349960925027e-06
1.2405375805446696e-05   -4.384689675673414e-06   1.630181642194755e-05
1.2405375805446696e-05   -4.384689675673414e-06   1.630181642194755e-05
1.2405375805446696e-05   -4.384689675673414e-06   1.630181642194755e-05
1.2405375805446696e-05   -4.384689675673414e-06   1.630181642194755e-05
2.5477357168812355e-05   -3.340241348183089e-06   -6.111488180155962e-06
2.5477357168812355e-05   -3.340241348183089e-06   -6.111488180155962e-06
2.5477357168812355e-05   -3.340241348183089e-06   -6.111488180155962e-06
2.5477357168812355e-05   -3.340241348183089e-06   -6.111488180155962e-06
1.8745386168168844e-05   -3.68061560392899e-06   5.312688041030691e-06
1.8745386168168844e-05   -3.68061560392899e-06   5.312688041030691e-06
1.8745386168168844e-05   -3.68061560392899e-06   5.312688041030691e-06
1.8745386168168844e-05   -3.68061560392899e-06   5.312688041030691e-06
2.5477357168812267e-05   -4.384689675673414e-06   1.567514742545318e-05
2.5477357168812267e-05   -4.384689675673414e-06   1.567514742545318e-05
2.5477357168812267e-05   -4.384689675673414e-06   1.567514742545318e-05
2.5477357168812267e-05   -4.384689675673414e-06   1.567514742545318e-05
1.240537580544672e-05   -3.340241348183089e-06   -5.484819183661704e-06
1.240537580544672e-05   -3.340241348183089e-06   -5.484819183661704e-06
1.240537580544672e-05   -3.340241348183089e-06   -5.484819183661704e-06
1.240537580544672e-05   -3.340241348183089e-06   -5.484819183661704e-06
1.1861770450944498e-05   -4.351707911678156e-06   1.3648209261778806e-05
1.1861770450944498e-05   -4.351707911678156e-06   1.3648209261778806e-05
1.1861770450944498e-05   -4.351707911678156e-06   1.3648209261778806e-05
1.1861770450944498e-05   -4.351707911678156e-06   1.3648209261778806e-05
2.4518312706104735e-05   -3.3720118942977967e-06   -8.03384544058327e-06
2.4518312706104735e-05   -3.3720118942977967e-06   -8.03384544058327e-06
2.4518312706104735e-05   -3.3720118942977967e-06   -8.03384544058327e-06
2.4518312706104735e-05   -3.3720118942977967e-06   -8.03384544058327e-06
1.779096200815737e-05   -3.6167533697343407e-06   3.3252506079247857e-06
1.779096200815737e-05   -3.6167533697343407e-06   3.3252506079247857e-06
1.779096200815737e-05   -3.6167533697343407e-06   3.3252506079247857e-06
1.779096200815737e-05   -3.6167533697343407e-06   3.3252506079247857e-06
1.3477896889465623e-05   -1.3372408866588366e-06   2.1901514287290657e-05
1.3477896889465623e-05   -1.3372408866588366e-06   2.1901514287290657e-05
1.3477896889465623e-05   -1.3372408866588366e-06   2.1901514287290657e-05
1.3477896889465623e-05   -1.3372408866588366e-06   2.1901514287290657e-05
5.438723403590581e-07   -5.383478685646974e-07   8.24142516302976e-07
5.438723403590581e-07   -5.383478685646974e-07   8.24142516302976e-07
5.438723403590581e-07   -5.383478685646974e-07   8.24142516302976e-07
5.438723403590581e-07   -5.383478685646974e-07   8.24142516302976e-07
5.59024974117493e-08   -1.606393342985053e-06   2.2123728733180548e-05
5.59024974117493e-08   -1.606393342985053e-06   2.2123728733180548e-05
5.59024974117493e-08   -1.606393342985053e-06   2.2123728733180548e-05
5.59024974117493e-08   -1.606393342985053e-06   2.2123728733180548e-05
1.2970106605992557e-05   -8.531274654386897e-07   1.4809569235156394e-07
1.2970106605992557e-05   -8.531274654386897e-07   1.4809569235156394e-07
1.2970106605992557e-05   -8.531274654386897e-07   1.4809569235156394e-07
1.2970106605992557e-05   -8.531274654386897e-07   1.4809569235156394e-07
6.67961506015028e-06   -1.0441810952236275e-06   1.0746880446626205e-05
6.67961506015028e-06   -1.0441810952236275e-06   1.0746880446626205e-05
6.67961506015028e-06   -1.0441810952236275e-06   1.0746880446626205e-05
6.67961506015028e-06   -1.0441810952236275e-06   1.0746880446626205e-05
1.297010660599254e-05   -1.606393342984836e-06   2.1671769206652817e-05
1.297010660599254e-05   -1.606393342984836e-06   2.1671769206652817e-05
1.297010660599254e-05   -1.606393342984836e-06   2.1671769206652817e-05
1.297010660599254e-05   -1.606393342984836e-06   2.1671769206652817e-05
5.59024974117493e-08   -8.531274654386897e-07   6.000552188791799e-07
5.59024974117493e-08   -8.531274654386897e-07   6.000552188791799e-07
5.59024974117493e-08   -8.531274654386897e-07   6.000552188791799e-07
5.59024974117493e-08   -8.531274654386897e-07   6.000552188791799e-07
-4.5134859622789243e-07   -1.781295658595224e-06   2.1783769794931403e-05
-4.5134859622789243e-07   -1.781295658595224e-06   2.1783769794931403e-05
-4.5134859622789243e-07   -1.781295658595224e-06   2.1783769794931403e-05
-4.5134859622789243e-07   -1.781295658595224e-06   2.1783769794931403e-05
1.240537580544672e-05   -1.0856690485657426e-06   -6.148017387720695e-08
1.240537580544672e-05   -1.0856690485657426e-06   -6.148017387720695e-08
1.240537580544672e-05   -1.0856690485657426e-06   -6.148017387720695e-08
1.240537580544672e-05   -1.0856690485657426e-06   -6.148017387720695e-08
6.118261439148076e-06   -1.2085174390737315e-06   1.0490752804258888e-05
6.118261439148076e-06   -1.2085174390737315e-06   1.0490752804258888e-05
6.118261439148076e-06   -1.2085174390737315e-06   1.0490752804258888e-05
6.118261439148076e-06   -1.2085174390737315e-06   1.0490752804258888e-05
1.2405375805446696e-05   -1.781295658595224e-06   2.1366393828913693e-05
1.2405375805446696e-05   -1.781295658595224e-06   2.1366393828913693e-05
1.2405375805446696e-05   -1.781295658595224e-06   2.1366393828913693e-05
1.2405375805446696e-05   -1.781295658595224e-06   2.1366393828913693e-05
-4.5134859622789243e-07   -1.0856690485657426e-06   3.558957921403951e-07
-4.5134859622789243e-07   -1.0856690485657426e-06   3.558957921403951e-07
-4.5134859622789243e-07   -1.0856690485657426e-06   3.558957921403951e-07
-4.5134859622789243e-07   -1.0856690485657426e-06   3.558957921403951e-07
-9.794467638898452e-07   -1.8539067699850642e-06   2.1944138567022418e-05
-9.794467638898452e-07   -1.8539067699850642e-06   2.1944138567022418e-05
-9.794467638898452e-07   -1.8539067699850642e-06   2.1944138567022418e-05
-9.794467638898452e-07   -1.8539067699850642e-06   2.1944138567022418e-05
1.1861770450944529e-05   -1.2675564217119826e-06   1.9029966666811752e-07
1.1861770450944529e-05   -1.2675564217119826e-06   1.9029966666811752e-07
1.1861770450944529e-05   -1.2675564217119826e-06   1.9029966666811752e-07
1.1861770450944529e-05   -1.2675564217119826e-06   1.9029966666811752e-07
5.698225225851514e-06   -1.2952047799574297e-06   1.0479464056770772e-05
5.698225225851514e-06   -1.2952047799574297e-06   1.0479464056770772e-05
5.698225225851514e-06   -1.2952047799574297e-06   1.0479464056770772e-05
5.698225225851514e-06   -1.2952047799574297e-06   1.0479464056770772e-05
5.438723403590446e-07   1.2024107957000346e-06   2.2596800166665618e-05
5.438723403590446e-07   1.2024107957000346e-06   2.2596800166665618e-05
5.438723403590446e-07   1.2024107957000346e-06   2.2596800166665618e-05
5.438723403590446e-07   1.2024107957000346e-06   2.2596800166665618e-05
-1.2015881860254497e-05   1.7349187394120023e-06   1.9833812652035425e-06
-1.2015881860254497e-05   1.7349187394120023e-06   1.9833812652035425e-06
-1.2015881860254497e-05   1.7349187394120023e-06   1.9833812652035425e-06
-1.2015881860254497e-05   1.7349187394120023e-06   1.9833812652035425e-06
-1.2526031514475608e-05   9.985283010455898e-07   2.290416069222344e-05
-1.2526031514475608e-05   9.985283010455898e-07   2.290416069222344e-05
-1.2526031514475608e-05   9.985283010455898e-07   2.290416069222344e-05
-1.2526031514475608e-05   9.985283010455898e-07   2.290416069222344e-05
5.59024974117493e-08   1.4744742548044882e-06   1.6487031001556472e-06
5.59024974117493e-08   1.4744742548044882e-06   1.6487031001556472e-06
5.59024974117493e-08   1.4744742548044882e-06   1.6487031001556472e-06
5.59024974117493e-08   1.4744742548044882e-06   1.6487031001556472e-06
-5.994689924865987e-06   1.366632035803509e-06   1.1797729135352609e-05
-5.994689924865987e-06   1.366632035803509e-06   1.1797729135352609e-05
-5.994689924865987e-06   1.366632035803509e-06   1.1797729135352609e-05
-5.994689924865987e-06   1.366632035803509e-06   1.1797729135352609e-05
5.59024974117493e-08   9.985283010455898e-07   2.2618593119968036e-05
5.59024974117493e-08   9.985283010455898e-07   2.2618593119968036e-05
5.59024974117493e-08   9.985283010455898e-07   2.2618593119968036e-05
5.59024974117493e-08   9.985283010455898e-07   2.2618593119968036e-05
-1.2526031514475608e-05   1.4744742548044882e-06   1.934270672411119e-06
-1.2526031514475608e-05   1.4744742548044882e-06   1.934270672411119e-06
-1.2526031514475608e-05   1.4744742548044882e-06   1.934270672411119e-06
-1.2526031514475608e-05   1.4744742548044882e-06   1.934270672411119e-06
-1.306434011423007e-05   8.087543293656095e-07   2.3116369330964466e-05
-1.306434011423007e-05   8.087543293656095e-07   2.3116369330964466e-05
-1.306434011423007e-05   8.087543293656095e-07   2.3116369330964466e-05
-1.306434011423007e-05   8.087543293656095e-07   2.3116369330964466e-05
-4.5134859622789243e-07   1.221650335455661e-06   1.8469791973068793e-06
-4.5134859622789243e-07   1.221650335455661e-06   1.8469791973068793e-06
-4.5134859622789243e-07   1.221650335455661e-06   1.8469791973068793e-06
-4.5134859622789243e-07   1.221650335455661e-06   1.8469791973068793e-06
-6.468337110465939e-06   1.2187834411937423e-06   1.1877013524260794e-05
-6.468337110465939e-06   1.2187834411937423e-06   1.1877013524260794e-05
-6.468337110465939e-06   1.2187834411937423e-06   1.1877013524260794e-05
-6.468337110465939e-06   1.2187834411937423e-06   1.1877013524260794e-05
-4.5134859622789243e-07   8.087543293656095e-07   2.2868631727310544e-05
-4.5134859622789243e-07   8.087543293656095e-07   2.2868631727310544e-05
-4.5134859622789243e-07   8.087543293656095e-07   2.2868631727310544e-05
-4.5134859622789243e-07   8.087543293656095e-07   2.2868631727310544e-05
-1.3064340114230083e-05   1.221650335455661e-06   2.0947168009609373e-06
-1.3064340114230083e-05   1.221650335455661e-06   2.0947168009609373e-06
-1.3064340114230083e-05   1.221650335455661e-06   2.0947168009609373e-06
-1.3064340114230083e-05   1.221650335455661e-06   2.0947168009609373e-06
-1.3619603476904441e-05   6.725883312541127e-07   2.345438797230696e-05
-1.3619603476904441e-05   6.725883312541127e-07   2.345438797230696e-05
-1.3619603476904441e-05   6.725883312541127e-07   2.345438797230696e-05
-1.3619603476904441e-05   6.725883312541127e-07   2.345438797230696e-05
-9.794467638898452e-07   9.96700607482472e-07   2.1929927515457735e-06
-9.794467638898452e-07   9.96700607482472e-07   2.1929927515457735e-06
-9.794467638898452e-07   9.96700607482472e-07   2.1929927515457735e-06
-9.794467638898452e-07   9.96700607482472e-07   2.1929927515457735e-06
-6.980939299342524e-06   1.077310597741906e-06   1.2147114316478271e-05
-6.980939299342524e-06   1.077310597741906e-06   1.2147114316478271e-05
-6.980939299342524e-06   1.077310597741906e-06   1.2147114316478271e-05
-6.980939299342524e-06   1.077310597741906e-06   1.2147114316478271e-05
-1.2015881860254524e-05   3.898869788614406e-06   1.9737363879518996e-05
-1.2015881860254524e-05   3.898869788614406e-06   1.9737363879518996e-05
-1.2015881860254524e-05   3.898869788614406e-06   1.9737363879518996e-05
-1.2015881860254524e-05   3.898869788614406e-06   1.9737363879518996e-05
-2.4195286684908405e-05   3.948573399377604e-06   -5.318219951128307e-07
-2.4195286684908405e-05   3.948573399377604e-06   -5.318219951128307e-07
-2.4195286684908405e-05   3.948573399377604e-06   -5.318219951128307e-07
-2.4195286684908405e-05   3.948573399377604e-06   -5.318219951128307e-07
-2.478734152129233e-05   3.6956547503528506e-06   2.0082400458544514e-05
-2.478734152129233e-05   3.6956547503528506e-06   2.0082400458544514e-05
-2.478734152129233e-05   3.6956547503528506e-06   2.0082400458544514e-05
-2.478734152129233e-05   3.6956547503528506e-06   2.0082400458544514e-05
-1.2526031514475621e-05   3.7011934035508214e-06   -3.5643941140208867e-07
-1.2526031514475621e-05   3.7011934035508214e-06   -3.5643941140208867e-07
-1.2526031514475621e-05   3.7011934035508214e-06   -3.5643941140208867e-07
-1.2526031514475621e-05   3.7011934035508214e-06   -3.5643941140208867e-07
-1.829906474024826e-05   3.7999401116570013e-06   9.206034606688493e-06
-1.829906474024826e-05   3.7999401116570013e-06   9.206034606688493e-06
-1.829906474024826e-05   3.7999401116570013e-06   9.206034606688493e-06
-1.829906474024826e-05   3.7999401116570013e-06   9.206034606688493e-06
-1.2526031514475621e-05   3.6956547503528506e-06   2.007907726662571e-05
-1.2526031514475621e-05   3.6956547503528506e-06   2.007907726662571e-05
-1.2526031514475621e-05   3.6956547503528506e-06   2.007907726662571e-05
-1.2526031514475621e-05   3.6956547503528506e-06   2.007907726662571e-05
-2.478734152129229e-05   3.7011934035508214e-06   -3.531162194832845e-07
-2.478734152129229e-05   3.7011934035508214e-06   -3.531162194832845e-07
-2.478734152129229e-05   3.7011934035508214e-06   -3.531162194832845e-07
-2.478734152129229e-05   3.7011934035508214e-06   -3.531162194832845e-07
-2.5442788390559682e-05   3.5066273466127177e-06   2.10163348954304e-05
-2.5442788390559682e-05   3.5066273466127177e-06   2.10163348954304e-05
-2.5442788390559682e-05   3.5066273466127177e-06   2.10163348954304e-05
-2.5442788390559682e-05   3.5066273466127177e-06   2.10163348954304e-05
-1.3064340114230083e-05   3.471997278279605e-06   4.0636580921440436e-07
-1.3064340114230083e-05   3.471997278279605e-06   4.0636580921440436e-07
-1.3064340114230083e-05   3.471997278279605e-06   4.0636580921440436e-07
-1.3064340114230083e-05   3.471997278279605e-06   4.0636580921440436e-07
-1.8724780145255403e-05   3.6609951634247045e-06   9.727033796502662e-06
-1.8724780145255403e-05   3.6609951634247045e-06   9.727033796502662e-06
-1.8724780145255403e-05   3.6609951634247045e-06   9.727033796502662e-06
-1.8724780145255403e-05   3.6609951634247045e-06   9.727033796502662e-06
-1.3064340114230083e-05   3.5066273466127177e-06   2.1037112936430507e-05
-1.3064340114230083e-05   3.5066273466127177e-06   2.1037112936430507e-05
-1.3064340114230083e-05   3.5066273466127177e-06   2.1037112936430507e-05
-1.3064340114230083e-05   3.5066273466127177e-06   2.1037112936430507e-05
-2.544278839055964e-05   3.471997278279605e-06   3.8558776821440675e-07
-2.544278839055964e-05   3.471997278279605e-06   3.8558776821440675e-07
-2.544278839055964e-05   3.471997278279605e-06   3.8558776821440675e-07
-2.544278839055964e-05   3.471997278279605e-06   3.8558776821440675e-07
-2.6067017471340746e-05   3.25127908012892e-06   2.1685356890078925e-05
-2.6067017471340746e-05   3.25127908012892e-06   2.1685356890078925e-05
-2.6067017471340746e-05   3.25127908012892e-06   2.1685356890078925e-05
-2.6067017471340746e-05   3.25127908012892e-06   2.1685356890078925e-05
-1.3619603476904482e-05   3.1910613902787557e-06   9.757975132617931e-07
-1.3619603476904482e-05   3.1910613902787557e-06   9.757975132617931e-07
-1.3619603476904482e-05   3.1910613902787557e-06   9.757975132617931e-07
-1.3619603476904482e-05   3.1910613902787557e-06   9.757975132617931e-07
-1.9407235277696908e-05   3.4790356328328643e-06   1.0449065969050963e-05
-1.9407235277696908e-05   3.4790356328328643e-06   1.0449065969050963e-05
-1.9407235277696908e-05   3.4790356328328643e-06   1.0449065969050963e-05
-1.9407235277696908e-05   3.4790356328328643e-06   1.0449065969050963e-05
-2.4195286684908338e-05   6.340876892155754e-06   9.503805409665726e-06
-2.4195286684908338e-05   6.340876892155754e-06   9.503805409665726e-06
-2.4195286684908338e-05   6.340876892155754e-06   9.503805409665726e-06
-2.4195286684908338e-05   6.340876892155754e-06   9.503805409665726e-06
-3.57950880704693e-05   5.697937988335695e-06   -1.021496024189466e-05
-3.57950880704693e-05   5.697937988335695e-06   -1.021496024189466e-05
-3.57950880704693e-05   5.697937988335695e-06   -1.021496024189466e-05
-3.57950880704693e-05   5.697937988335695e-06   -1.021496024189466e-05
-3.6727757753313265e-05   6.467993994658736e-06   1.3217132569406887e-05
-3.6727757753313265e-05   6.467993994658736e-06   1.3217132569406887e-05
-3.6727757753313265e-05   6.467993994658736e-06   1.3217132569406887e-05
-3.6727757753313265e-05   6.467993994658736e-06   1.3217132569406887e-05
-2.478734152129233e-05   5.7625326236408064e-06   -6.26028432801744e-06
-2.478734152129233e-05   5.7625326236408064e-06   -6.26028432801744e-06
-2.478734152129233e-05   5.7625326236408064e-06   -6.26028432801744e-06
-2.478734152129233e-05   5.7625326236408064e-06   -6.26028432801744e-06
-2.9212558397650368e-05   6.029530794690163e-06   9.54878229949787e-07
-2.9212558397650368e-05   6.029530794690163e-06   9.54878229949787e-07
-2.9212558397650368e-05   6.029530794690163e-06   9.54878229949787e-07
-2.9212558397650368e-05   6.029530794690163e-06   9.54878229949787e-07
-2.478734152129225e-05   6.467993994658736e-06   1.3640409392017667e-05
-2.478734152129225e-05   6.467993994658736e-06   1.3640409392017667e-05
-2.478734152129225e-05   6.467993994658736e-06   1.3640409392017667e-05
-2.478734152129225e-05   6.467993994658736e-06   1.3640409392017667e-05
-3.672775775331337e-05   5.7625326236408064e-06   -6.683561150628247e-06
-3.672775775331337e-05   5.7625326236408064e-06   -6.683561150628247e-06
-3.672775775331337e-05   5.7625326236408064e-06   -6.683561150628247e-06
-3.672775775331337e-05   5.7625326236408064e-06   -6.683561150628247e-06
-3.763736460068889e-05   6.423194964410477e-06   1.6095917385616082e-05
-3.763736460068889e-05   6.423194964410477e-06   1.6095917385616082e-05
-3.763736460068889e-05   6.423194964410477e-06   1.6095917385616082e-05
-3.763736460068889e-05   6.423194964410477e-06   1.6095917385616082e-05
-2.5442788390559682e-05   5.700274933035949e-06   -3.794624279108115e-06
-2.5442788390559682e-05   5.700274933035949e-06   -3.794624279108115e-06
-2.5442788390559682e-05   5.700274933035949e-06   -3.794624279108115e-06
-2.5442788390559682e-05   5.700274933035949e-06   -3.794624279108115e-06
-3.036612558106713e-05   6.141219252190494e-06   4.146371113578789e-06
-3.036612558106713e-05   6.141219252190494e-06   4.146371113578789e-06
-3.036612558106713e-05   6.141219252190494e-06   4.146371113578789e-06
-3.036612558106713e-05   6.141219252190494e-06   4.146371113578789e-06
-2.5442788390559682e-05   6.423194964410477e-06   1.6529669404440777e-05
-2.5442788390559682e-05   6.423194964410477e-06   1.6529669404440777e-05
-2.5442788390559682e-05   6.423194964410477e-06   1.6529669404440777e-05
-2.5442788390559682e-05   6.423194964410477e-06   1.6529669404440777e-05
-3.763736460068903e-05   5.700274933035949e-06   -4.22837629793281e-06
-3.763736460068903e-05   5.700274933035949e-06   -4.22837629793281e-06
-3.763736460068903e-05   5.700274933035949e-06   -4.22837629793281e-06
-3.763736460068903e-05   5.700274933035949e-06   -4.22837629793281e-06
-3.869857180847416e-05   5.918462409253405e-06   2.102087634738871e-05
-3.869857180847416e-05   5.918462409253405e-06   2.102087634738871e-05
-3.869857180847416e-05   5.918462409253405e-06   2.102087634738871e-05
-3.869857180847416e-05   5.918462409253405e-06   2.102087634738871e-05
-2.6067017471340746e-05   5.2637011171260874e-06   3.6114256077605586e-07
-2.6067017471340746e-05   5.2637011171260874e-06   3.6114256077605586e-07
-2.6067017471340746e-05   5.2637011171260874e-06   3.6114256077605586e-07
-2.6067017471340746e-05   5.2637011171260874e-06   3.6114256077605586e-07
-3.064772406735566e-05   5.960845494396884e-06   7.577366927772277e-06
-3.064772406735566e-05   5.960845494396884e-06   7.577366927772277e-06
-3.064772406735566e-05   5.960845494396884e-06   7.577366927772277e-06
-3.064772406735566e-05   5.960845494396884e-06   7.577366927772277e-06
2.0792310983192445e-05   -2.806206289350348e-06   1.7559360331880543e-05
2.0792310983192445e-05   -2.806206289350348e-06   1.7559360331880543e-05
2.0792310983192445e-05   -2.806206289350348e-06   1.7559360331880543e-05
2.0792310983192445e-05   -2.806206289350348e-06   1.7559360331880543e-05
9.779484691907523e-06   -1.8669875289254942e-06   -2.3181889733942928e-07
9.779484691907523e-06   -1.8669875289254942e-06   -2.3181889733942928e-07
9.779484691907523e-06   -1.8669875289254942e-06   -2.3181889733942928e-07
9.779484691907523e-06   -1.8669875289254942e-06   -2.3181889733942928e-07
9.325109367973743e-06   -3.2515690455876822e-06   1.5418030208413903e-05
9.325109367973743e-06   -3.2515690455876822e-06   1.5418030208413903e-05
9.325109367973743e-06   -3.2515690455876822e-06   1.5418030208413903e-05
9.325109367973743e-06   -3.2515690455876822e-06   1.5418030208413903e-05
1.9912496707543038e-05   -2.2614878834620756e-06   -2.821664054810142e-06
1.9912496707543038e-05   -2.2614878834620756e-06   -2.821664054810142e-06
1.9912496707543038e-05   -2.2614878834620756e-06   -2.821664054810142e-06
1.9912496707543038e-05   -2.2614878834620756e-06   -2.821664054810142e-06
1.424934286756769e-05   -2.5650869147594065e-06   6.799085097260402e-06
1.424934286756769e-05   -2.5650869147594065e-06   6.799085097260402e-06
1.424934286756769e-05   -2.5650869147594065e-06   6.799085097260402e-06
1.424934286756769e-05   -2.5650869147594065e-06   6.799085097260402e-06
1.9912496707543038e-05   -3.2515690455876822e-06   1.4823981511138604e-05
1.9912496707543038e-05   -3.2515690455876822e-06   1.4823981511138604e-05
1.9912496707543038e-05   -3.2515690455876822e-06   1.4823981511138604e-05
1.9912496707543038e-05   -3.2515690455876822e-06   1.4823981511138604e-05
9.325109367973756e-06   -2.2614878834620756e-06   -2.227615357534938e-06
9.325109367973756e-06   -2.2614878834620756e-06   -2.227615357534938e-06
9.325109367973756e-06   -2.2614878834620756e-06   -2.227615357534938e-06
9.325109367973756e-06   -2.2614878834620756e-06   -2.227615357534938e-06
8.822921005045315e-06   -3.340241348183089e-06   1.3913955786059727e-05
8.822921005045315e-06   -3.340241348183089e-06   1.3913955786059727e-05
8.822921005045315e-06   -3.340241348183089e-06   1.3913955786059727e-05
8.822921005045315e-06   -3.340241348183089e-06   1.3913955786059727e-05
1.91405835313986e-05   -2.3662040784077753e-06   -3.866570786394149e-06
1.91405835313986e-05   -2.3662040784077753e-06   -3.866570786394149e-06
1.91405835313986e-05   -2.3662040784077753e-06   -3.866570786394149e-06
1.91405835313986e-05   -2.3662040784077753e-06   -3.866570786394149e-06
1.3889363137060583e-05   -2.7255218588016945e-06   5.101053872405849e-06
1.3889363137060583e-05   -2.7255218588016945e-06   5.101053872405849e-06
1.3889363137060583e-05   -2.7255218588016945e-06   5.101053872405849e-06
1.3889363137060583e-05   -2.7255218588016945e-06   5.101053872405849e-06
1.9140583531398565e-05   -3.340241348182872e-06   1.3329533424194647e-05
1.9140583531398565e-05   -3.340241348182872e-06   1.3329533424194647e-05
1.9140583531398565e-05   -3.340241348182872e-06   1.3329533424194647e-05
1.9140583531398565e-05   -3.340241348182872e-06   1.3329533424194647e-05
8.822921005045332e-06   -2.3662040784077753e-06   -3.2821484245290286e-06
8.822921005045332e-06   -2.3662040784077753e-06   -3.2821484245290286e-06
8.822921005045332e-06   -2.3662040784077753e-06   -3.2821484245290286e-06
8.822921005045332e-06   -2.3662040784077753e-06   -3.2821484245290286e-06
8.358840509460202e-06   -3.3720118942977967e-06   1.1870607633405919e-05
8.358840509460202e-06   -3.3720118942977967e-06   1.1870607633405919e-05
8.358840509460202e-06   -3.3720118942977967e-06   1.1870607633405919e-05
8.358840509460202e-06   -3.3720118942977967e-06   1.1870607633405919e-05
1.827688798542289e-05   -2.4609398375854963e-06   -5.2061147272257095e-06
1.827688798542289e-05   -2.4609398375854963e-06   -5.2061147272257095e-06
1.827688798542289e-05   -2.4609398375854963e-06   -5.2061147272257095e-06
1.827688798542289e-05   -2.4609398375854963e-06   -5.2061147272257095e-06
1.307882977281106e-05   -2.708336314623857e-06   3.6057535133505553e-06
1.307882977281106e-05   -2.708336314623857e-06   3.6057535133505553e-06
1.307882977281106e-05   -2.708336314623857e-06   3.6057535133505553e-06
1.307882977281106e-05   -2.708336314623857e-06   3.6057535133505553e-06
9.779484691907489e-06   -5.383478685646974e-07   1.988636092477877e-05
9.779484691907489e-06   -5.383478685646974e-07   1.988636092477877e-05
9.779484691907489e-06   -5.383478685646974e-07   1.988636092477877e-05
9.779484691907489e-06   -5.383478685646974e-07   1.988636092477877e-05
-6.392409537225153e-07   -1.6100973170181387e-08   2.835166319298905e-06
-6.392409537225153e-07   -1.6100973170181387e-08   2.835166319298905e-06
-6.392409537225153e-07   -1.6100973170181387e-08   2.835166319298905e-06
-6.392409537225153e-07   -1.6100973170181387e-08   2.835166319298905e-06
-1.0667910544075724e-06   -8.531274654386897e-07   1.9918511872573687e-05
-1.0667910544075724e-06   -8.531274654386897e-07   1.9918511872573687e-05
-1.0667910544075724e-06   -8.531274654386897e-07   1.9918511872573687e-05
-1.0667910544075724e-06   -8.531274654386897e-07   1.9918511872573687e-05
9.325109367973756e-06   -3.580674472996974e-07   2.301641824388169e-06
9.325109367973756e-06   -3.580674472996974e-07   2.301641824388169e-06
9.325109367973756e-06   -3.580674472996974e-07   2.301641824388169e-06
9.325109367973756e-06   -3.580674472996974e-07   2.301641824388169e-06
4.278972405724456e-06   -4.5401628543523254e-07   1.0769439397684854e-05
4.278972405724456e-06   -4.5401628543523254e-07   1.0769439397684854e-05
4.278972405724456e-06   -4.5401628543523254e-07   1.0769439397684854e-05
4.278972405724456e-06   -4.5401628543523254e-07   1.0769439397684854e-05
9.325109367973733e-06   -8.531274654389066e-07   1.9621475861690378e-05
9.325109367973733e-06   -8.531274654389066e-07   1.9621475861690378e-05
9.325109367973733e-06   -8.531274654389066e-07   1.9621475861690378e-05
9.325109367973733e-06   -8.531274654389066e-07   1.9621475861690378e-05
-1.0667910544075724e-06   -3.580674472996974e-07   2.598677835271559e-06
-1.0667910544075724e-06   -3.580674472996974e-07   2.598677835271559e-06
-1.0667910544075724e-06   -3.580674472996974e-07   2.598677835271559e-06
-1.0667910544075724e-06   -3.580674472996974e-07   2.598677835271559e-06
-1.5035906415767199e-06   -1.0856690485657426e-06   1.961279604737441e-05
-1.5035906415767199e-06   -1.0856690485657426e-06   1.961279604737441e-05
-1.5035906415767199e-06   -1.0856690485657426e-06   1.961279604737441e-05
-1.5035906415767199e-06   -1.0856690485657426e-06   1.961279604737441e-05
8.822921005045332e-06   -6.265002960156515e-07   2.1264420514741536e-06
8.822921005045332e-06   -6.265002960156515e-07   2.1264420514741536e-06
8.822921005045332e-06   -6.265002960156515e-07   2.1264420514741536e-06
8.822921005045332e-06   -6.265002960156515e-07   2.1264420514741536e-06
3.7983816509173647e-06   -6.644711237064997e-07   1.0523456804969211e-05
3.7983816509173647e-06   -6.644711237064997e-07   1.0523456804969211e-05
3.7983816509173647e-06   -6.644711237064997e-07   1.0523456804969211e-05
3.7983816509173647e-06   -6.644711237064997e-07   1.0523456804969211e-05
8.822921005045315e-06   -1.0856690485657426e-06   1.9337294795844333e-05
8.822921005045315e-06   -1.0856690485657426e-06   1.9337294795844333e-05
8.822921005045315e-06   -1.0856690485657426e-06   1.9337294795844333e-05
8.822921005045315e-06   -1.0856690485657426e-06   1.9337294795844333e-05
-1.5035906415767199e-06   -6.265002960156515e-07   2.4019433030043587e-06
-1.5035906415767199e-06   -6.265002960156515e-07   2.4019433030043587e-06
-1.5035906415767199e-06   -6.265002960156515e-07   2.4019433030043587e-06
-1.5035906415767199e-06   -6.265002960156515e-07   2.4019433030043587e-06
-1.942853536946487e-06   -1.2675564217119826e-06   1.974323796130953e-05
-1.942853536946487e-06   -1.2675564217119826e-06   1.974323796130953e-05
-1.942853536946487e-06   -1.2675564217119826e-06   1.974323796130953e-05
-1.942853536946487e-06   -1.2675564217119826e-06   1.974323796130953e-05
8.358840509460212e-06   -8.73718369911276e-07   2.3374450528844873e-06
8.358840509460212e-06   -8.73718369911276e-07   2.3374450528844873e-06
8.358840509460212e-06   -8.73718369911276e-07   2.3374450528844873e-06
8.358840509460212e-06   -8.73718369911276e-07   2.3374450528844873e-06
3.4330480325426218e-06   -8.189220375095802e-07   1.0514221381639855e-05
3.4330480325426218e-06   -8.189220375095802e-07   1.0514221381639855e-05
3.4330480325426218e-06   -8.189220375095802e-07   1.0514221381639855e-05
3.4330480325426218e-06   -8.189220375095802e-07   1.0514221381639855e-05
-6.392409537225153e-07   1.7349187394120023e-06   2.1039443044688975e-05
-6.392409537225153e-07   1.7349187394120023e-06   2.1039443044688975e-05
-6.392409537225153e-07   1.7349187394120023e-06   2.1039443044688975e-05
-6.392409537225153e-07   1.7349187394120023e-06   2.1039443044688975e-05
-1.0839226333094311e-05   1.7882659823001672e-06   4.071475758135601e-06
-1.0839226333094311e-05   1.7882659823001672e-06   4.071475758135601e-06
-1.0839226333094311e-05   1.7882659823001672e-06   4.071475758135601e-06
-1.0839226333094311e-05   1.7882659823001672e-06   4.071475758135601e-06
-1.126945535184258e-05   1.4744742548044882e-06   2.097589992771775e-05
-1.126945535184258e-05   1.4744742548044882e-06   2.097589992771775e-05
-1.126945535184258e-05   1.4744742548044882e-06   2.097589992771775e-05
-1.126945535184258e-05   1.4744742548044882e-06   2.097589992771775e-05
-1.0667910544075724e-06   1.4890412112502586e-06   3.962719258125363e-06
-1.0667910544075724e-06   1.4890412112502586e-06   3.962719258125363e-06
-1.0667910544075724e-06   1.4890412112502586e-06   3.962719258125363e-06
-1.0667910544075724e-06   1.4890412112502586e-06   3.962719258125363e-06
-5.969048396227154e-06   1.592577909200442e-06   1.2071026142387734e-05
-5.969048396227154e-06   1.592577909200442e-06   1.2071026142387734e-05
-5.969048396227154e-06   1.592577909200442e-06   1.2071026142387734e-05
-5.969048396227154e-06   1.592577909200442e-06   1.2071026142387734e-05
-1.0667910544075724e-06   1.474474254804705e-06   2.096715975385044e-05
-1.0667910544075724e-06   1.474474254804705e-06   2.096715975385044e-05
-1.0667910544075724e-06   1.474474254804705e-06   2.096715975385044e-05
-1.0667910544075724e-06   1.474474254804705e-06   2.096715975385044e-05
-1.126945535184258e-05   1.4890412112502586e-06   3.971459431992741e-06
-1.126945535184258e-05   1.4890412112502586e-06   3.971459431992741e-06
-1.126945535184258e-05   1.4890412112502586e-06   3.971459431992741e-06
-1.126945535184258e-05   1.4890412112502586e-06   3.971459431992741e-06
-1.1710222809566608e-05   1.221650335455661e-06   2.108766373269276e-05
-1.1710222809566608e-05   1.221650335455661e-06   2.108766373269276e-05
-1.1710222809566608e-05   1.221650335455661e-06   2.108766373269276e-05
-1.1710222809566608e-05   1.221650335455661e-06   2.108766373269276e-05
-1.5035906415767334e-06   1.1946241357091957e-06   4.092825839224385e-06
-1.5035906415767334e-06   1.1946241357091957e-06   4.092825839224385e-06
-1.5035906415767334e-06   1.1946241357091957e-06   4.092825839224385e-06
-1.5035906415767334e-06   1.1946241357091957e-06   4.092825839224385e-06
-6.368153987101279e-06   1.3919463194831706e-06   1.2082038104834403e-05
-6.368153987101279e-06   1.3919463194831706e-06   1.2082038104834403e-05
-6.368153987101279e-06   1.3919463194831706e-06   1.2082038104834403e-05
-6.368153987101279e-06   1.3919463194831706e-06   1.2082038104834403e-05
-1.5035906415767334e-06   1.221650335455661e-06   2.110387945254092e-05
-1.5035906415767334e-06   1.221650335455661e-06   2.110387945254092e-05
-1.5035906415767334e-06   1.221650335455661e-06   2.110387945254092e-05
-1.5035906415767334e-06   1.221650335455661e-06   2.110387945254092e-05
-1.1710222809566608e-05   1.1946241357091957e-06   4.076610119376346e-06
-1.1710222809566608e-05   1.1946241357091957e-06   4.076610119376346e-06
-1.1710222809566608e-05   1.1946241357091957e-06   4.076610119376346e-06
-1.1710222809566608e-05   1.1946241357091957e-06   4.076610119376346e-06
-1.215062724242026e-05   9.96700607482472e-07   2.134530679604471e-05
-1.215062724242026e-05   9.96700607482472e-07   2.134530679604471e-05
-1.215062724242026e-05   9.96700607482472e-07   2.134530679604471e-05
-1.215062724242026e-05   9.96700607482472e-07   2.134530679604471e-05
-1.942853536946487e-06   9.153438721846204e-07   4.381164661433832e-06
-1.942853536946487e-06   9.153438721846204e-07   4.381164661433832e-06
-1.942853536946487e-06   9.153438721846204e-07   4.381164661433832e-06
-1.942853536946487e-06   9.153438721846204e-07   4.381164661433832e-06
-6.78615480228108e-06   1.1966034251741607e-06   1.2284577705198017e-05
-6.78615480228108e-06   1.1966034251741607e-06   1.2284577705198017e-05
-6.78615480228108e-06   1.1966034251741607e-06   1.2284577705198017e-05
-6.78615480228108e-06   1.1966034251741607e-06   1.2284577705198017e-05
-1.0839226333094284e-05   3.948573399377604e-06   1.8526425963647647e-05
-1.0839226333094284e-05   3.948573399377604e-06   1.8526425963647647e-05
-1.0839226333094284e-05   3.948573399377604e-06   1.8526425963647647e-05
-1.0839226333094284e-05   3.948573399377604e-06   1.8526425963647647e-05
-2.0824601690499985e-05   3.5264495983422864e-06   1.6308594206837306e-06
-2.0824601690499985e-05   3.5264495983422864e-06   1.6308594206837306e-06
-2.0824601690499985e-05   3.5264495983422864e-06   1.6308594206837306e-06
-2.0824601690499985e-05   3.5264495983422864e-06   1.6308594206837306e-06
-2.1287856449844002e-05   3.7011934035508214e-06   1.840905334771941e-05
-2.1287856449844002e-05   3.7011934035508214e-06   1.840905334771941e-05
-2.1287856449844002e-05   3.7011934035508214e-06   1.840905334771941e-05
-2.1287856449844002e-05   3.7011934035508214e-06   1.840905334771941e-05
-1.1269455351842607e-05   3.2409659099085376e-06   1.9878546805690545e-06
-1.1269455351842607e-05   3.2409659099085376e-06   1.9878546805690545e-06
-1.1269455351842607e-05   3.2409659099085376e-06   1.9878546805690545e-06
-1.1269455351842607e-05   3.2409659099085376e-06   1.9878546805690545e-06
-1.6001947032025416e-05   3.5559774452910767e-06   9.686333892977382e-06
-1.6001947032025416e-05   3.5559774452910767e-06   9.686333892977382e-06
-1.6001947032025416e-05   3.5559774452910767e-06   9.686333892977382e-06
-1.6001947032025416e-05   3.5559774452910767e-06   9.686333892977382e-06
-1.126945535184258e-05   3.7011934035506046e-06   1.868518984390465e-05
-1.126945535184258e-05   3.7011934035506046e-06   1.868518984390465e-05
-1.126945535184258e-05   3.7011934035506046e-06   1.868518984390465e-05
-1.126945535184258e-05   3.7011934035506046e-06   1.868518984390465e-05
-2.1287856449844002e-05   3.2409659099085376e-06   1.7117181843837059e-06
-2.1287856449844002e-05   3.2409659099085376e-06   1.7117181843837059e-06
-2.1287856449844002e-05   3.2409659099085376e-06   1.7117181843837059e-06
-2.1287856449844002e-05   3.2409659099085376e-06   1.7117181843837059e-06
-2.1797318280100756e-05   3.471997278279605e-06   1.9100487699083568e-05
-2.1797318280100756e-05   3.471997278279605e-06   1.9100487699083568e-05
-2.1797318280100756e-05   3.471997278279605e-06   1.9100487699083568e-05
-2.1797318280100756e-05   3.471997278279605e-06   1.9100487699083568e-05
-1.1710222809566636e-05   2.973955541841263e-06   2.587486956722796e-06
-1.1710222809566636e-05   2.973955541841263e-06   2.587486956722796e-06
-1.1710222809566636e-05   2.973955541841263e-06   2.587486956722796e-06
-1.1710222809566636e-05   2.973955541841263e-06   2.587486956722796e-06
-1.633232614346585e-05   3.374175018826253e-06   1.005086082703105e-05
-1.633232614346585e-05   3.374175018826253e-06   1.005086082703105e-05
-1.633232614346585e-05   3.374175018826253e-06   1.005086082703105e-05
-1.633232614346585e-05   3.374175018826253e-06   1.005086082703105e-05
-1.1710222809566622e-05   3.4719972782793884e-06   1.9399312740946226e-05
-1.1710222809566622e-05   3.4719972782793884e-06   1.9399312740946226e-05
-1.1710222809566622e-05   3.4719972782793884e-06   1.9399312740946226e-05
-1.1710222809566622e-05   3.4719972782793884e-06   1.9399312740946226e-05
-2.1797318280100756e-05   2.973955541841263e-06   2.2886619148600293e-06
-2.1797318280100756e-05   2.973955541841263e-06   2.2886619148600293e-06
-2.1797318280100756e-05   2.973955541841263e-06   2.2886619148600293e-06
-2.1797318280100756e-05   2.973955541841263e-06   2.2886619148600293e-06
-2.2262544108985296e-05   3.1910613902787557e-06   1.9616262325392606e-05
-2.2262544108985296e-05   3.1910613902787557e-06   1.9616262325392606e-05
-2.2262544108985296e-05   3.1910613902787557e-06   1.9616262325392606e-05
-2.2262544108985296e-05   3.1910613902787557e-06   1.9616262325392606e-05
-1.2150627242420286e-05   2.6620916125602665e-06   3.080449414415517e-06
-1.2150627242420286e-05   2.6620916125602665e-06   3.080449414415517e-06
-1.2150627242420286e-05   2.6620916125602665e-06   3.080449414415517e-06
-1.2150627242420286e-05   2.6620916125602665e-06   3.080449414415517e-06
-1.686242280324075e-05   3.1679854989984796e-06   1.0629905683920827e-05
-1.686242280324075e-05   3.1679854989984796e-06   1.0629905683920827e-05
-1.686242280324075e-05   3.1679854989984796e-06   1.0629905683920827e-05
-1.686242280324075e-05   3.1679854989984796e-06   1.0629905683920827e-05
-2.0824601690499985e-05   5.697937988335695e-06   8.975776778536717e-06
-2.0824601690499985e-05   5.697937988335695e-06   8.975776778536717e-06
-2.0824601690499985e-05   5.697937988335695e-06   8.975776778536717e-06
-2.0824601690499985e-05   5.697937988335695e-06   8.975776778536717e-06
-3.0331249669679792e-05   4.873241758576556e-06   -7.363454257951652e-06
-3.0331249669679792e-05   4.873241758576556e-06   -7.363454257951652e-06
-3.0331249669679792e-05   4.873241758576556e-06   -7.363454257951652e-06
-3.0331249669679792e-05   4.873241758576556e-06   -7.363454257951652e-06
-3.1165004462403175e-05   5.7625326236408064e-06   1.1956021602643968e-05
-3.1165004462403175e-05   5.7625326236408064e-06   1.1956021602643968e-05
-3.1165004462403175e-05   5.7625326236408064e-06   1.1956021602643968e-05
-3.1165004462403175e-05   5.7625326236408064e-06   1.1956021602643968e-05
-2.1287856449844002e-05   4.852759896072133e-06   -3.960028115080152e-06
-2.1287856449844002e-05   4.852759896072133e-06   -3.960028115080152e-06
-2.1287856449844002e-05   4.852759896072133e-06   -3.960028115080152e-06
-2.1287856449844002e-05   4.852759896072133e-06   -3.960028115080152e-06
-2.491614667822118e-05   5.2175048865486535e-06   1.8682752712625744e-06
-2.491614667822118e-05   5.2175048865486535e-06   1.8682752712625744e-06
-2.491614667822118e-05   5.2175048865486535e-06   1.8682752712625744e-06
-2.491614667822118e-05   5.2175048865486535e-06   1.8682752712625744e-06
-2.1287856449844002e-05   5.762532623641023e-06   1.2501885239185172e-05
-2.1287856449844002e-05   5.762532623641023e-06   1.2501885239185172e-05
-2.1287856449844002e-05   5.762532623641023e-06   1.2501885239185172e-05
-2.1287856449844002e-05   5.762532623641023e-06   1.2501885239185172e-05
-3.116500446240323e-05   4.852759896072133e-06   -4.5058917516214644e-06
-3.116500446240323e-05   4.852759896072133e-06   -4.5058917516214644e-06
-3.116500446240323e-05   4.852759896072133e-06   -4.5058917516214644e-06
-3.116500446240323e-05   4.852759896072133e-06   -4.5058917516214644e-06
-3.1910391533907656e-05   5.700274933035949e-06   1.4353207619815698e-05
-3.1910391533907656e-05   5.700274933035949e-06   1.4353207619815698e-05
-3.1910391533907656e-05   5.700274933035949e-06   1.4353207619815698e-05
-3.1910391533907656e-05   5.700274933035949e-06   1.4353207619815698e-05
-2.1797318280100756e-05   4.755161546460621e-06   -1.9348464379173006e-06
-2.1797318280100756e-05   4.755161546460621e-06   -1.9348464379173006e-06
-2.1797318280100756e-05   4.755161546460621e-06   -1.9348464379173006e-06
-2.1797318280100756e-05   4.755161546460621e-06   -1.9348464379173006e-06
-2.587997650100648e-05   5.276540509783004e-06   4.556756552266325e-06
-2.587997650100648e-05   5.276540509783004e-06   4.556756552266325e-06
-2.587997650100648e-05   5.276540509783004e-06   4.556756552266325e-06
-2.587997650100648e-05   5.276540509783004e-06   4.556756552266325e-06
-2.1797318280100756e-05   5.700274933035949e-06   1.4920275651761155e-05
-2.1797318280100756e-05   5.700274933035949e-06   1.4920275651761155e-05
-2.1797318280100756e-05   5.700274933035949e-06   1.4920275651761155e-05
-2.1797318280100756e-05   5.700274933035949e-06   1.4920275651761155e-05
-3.191039153390771e-05   4.755161546460621e-06   -2.501914469862595e-06
-3.191039153390771e-05   4.755161546460621e-06   -2.501914469862595e-06
-3.191039153390771e-05   4.755161546460621e-06   -2.501914469862595e-06
-3.191039153390771e-05   4.755161546460621e-06   -2.501914469862595e-06
-3.2765808105782136e-05   5.2637011171260874e-06   1.847243825890319e-05
-3.2765808105782136e-05   5.2637011171260874e-06   1.847243825890319e-05
-3.2765808105782136e-05   5.2637011171260874e-06   1.847243825890319e-05
-3.2765808105782136e-05   5.2637011171260874e-06   1.847243825890319e-05
-2.2262544108985296e-05   4.321534903936304e-06   1.5322979921553095e-06
-2.2262544108985296e-05   4.321534903936304e-06   1.5322979921553095e-06
-2.2262544108985296e-05   4.321534903936304e-06   1.5322979921553095e-06
-2.2262544108985296e-05   4.321534903936304e-06   1.5322979921553095e-06
-2.60770962242823e-05   5.096381951424705e-06   7.424976622491389e-06
-2.60770962242823e-05   5.096381951424705e-06   7.424976622491389e-06
-2.60770962242823e-05   5.096381951424705e-06   7.424976622491389e-06
-2.60770962242823e-05   5.096381951424705e-06   7.424976622491389e-06
1.4420799046768877e-05   -1.8669875289254942e-06   1.4359833204458149e-05
1.4420799046768877e-05   -1.8669875289254942e-06   1.4359833204458149e-05
1.4420799046768877e-05   -1.8669875289254942e-06   1.4359833204458149e-05
1.4420799046768877e-05   -1.8669875289254942e-06   1.4359833204458149e-05
5.989747070468193e-06   -9.314541064873528e-07   8.693999640866116e-07
5.989747070468193e-06   -9.314541064873528e-07   8.693999640866116e-07
5.989747070468193e-06   -9.314541064873528e-07   8.693999640866116e-07
5.989747070468193e-06   -9.314541064873528e-07   8.693999640866116e-07
5.6230921150842864e-06   -2.2614878834620756e-06   1.2899704165406892e-05
5.6230921150842864e-06   -2.2614878834620756e-06   1.2899704165406892e-05
5.6230921150842864e-06   -2.2614878834620756e-06   1.2899704165406892e-05
5.6230921150842864e-06   -2.2614878834620756e-06   1.2899704165406892e-05
1.3638782045708584e-05   -1.2858039447287807e-06   -1.0451894155404096e-06
1.3638782045708584e-05   -1.2858039447287807e-06   -1.0451894155404096e-06
1.3638782045708584e-05   -1.2858039447287807e-06   -1.0451894155404096e-06
1.3638782045708584e-05   -1.2858039447287807e-06   -1.0451894155404096e-06
9.425297748768997e-06   -1.623656816076213e-06   6.179996135500946e-06
9.425297748768997e-06   -1.623656816076213e-06   6.179996135500946e-06
9.425297748768997e-06   -1.623656816076213e-06   6.179996135500946e-06
9.425297748768997e-06   -1.623656816076213e-06   6.179996135500946e-06
1.3638782045708608e-05   -2.2614878834620756e-06   1.2314293802166763e-05
1.3638782045708608e-05   -2.2614878834620756e-06   1.2314293802166763e-05
1.3638782045708608e-05   -2.2614878834620756e-06   1.2314293802166763e-05
1.3638782045708608e-05   -2.2614878834620756e-06   1.2314293802166763e-05
5.623092115084268e-06   -1.2858039447287807e-06   -4.5977905230028086e-07
5.623092115084268e-06   -1.2858039447287807e-06   -4.5977905230028086e-07
5.623092115084268e-06   -1.2858039447287807e-06   -4.5977905230028086e-07
5.623092115084268e-06   -1.2858039447287807e-06   -4.5977905230028086e-07
5.210526551783215e-06   -2.3662040784077753e-06   1.1816876791740337e-05
5.210526551783215e-06   -2.3662040784077753e-06   1.1816876791740337e-05
5.210526551783215e-06   -2.3662040784077753e-06   1.1816876791740337e-05
5.210526551783215e-06   -2.3662040784077753e-06   1.1816876791740337e-05
1.2966695841798252e-05   -1.4069989921806653e-06   -1.6855950766874519e-06
1.2966695841798252e-05   -1.4069989921806653e-06   -1.6855950766874519e-06
1.2966695841798252e-05   -1.4069989921806653e-06   -1.6855950766874519e-06
1.2966695841798252e-05   -1.4069989921806653e-06   -1.6855950766874519e-06
9.08117098612034e-06   -1.7742398434408575e-06   5.010624193532027e-06
9.08117098612034e-06   -1.7742398434408575e-06   5.010624193532027e-06
9.08117098612034e-06   -1.7742398434408575e-06   5.010624193532027e-06
9.08117098612034e-06   -1.7742398434408575e-06   5.010624193532027e-06
1.2966695841798272e-05   -2.3662040784077753e-06   1.1241353740004136e-05
1.2966695841798272e-05   -2.3662040784077753e-06   1.1241353740004136e-05
1.2966695841798272e-05   -2.3662040784077753e-06   1.1241353740004136e-05
1.2966695841798272e-05   -2.3662040784077753e-06   1.1241353740004136e-05
5.210526551783203e-06   -1.4069989921806653e-06   -1.1100720249512374e-06
5.210526551783203e-06   -1.4069989921806653e-06   -1.1100720249512374e-06
5.210526551783203e-06   -1.4069989921806653e-06   -1.1100720249512374e-06
5.210526551783203e-06   -1.4069989921806653e-06   -1.1100720249512374e-06
4.840383387436589e-06   -2.4609398375854963e-06   1.0404976559273433e-05
4.840383387436589e-06   -2.4609398375854963e-06   1.0404976559273433e-05
4.840383387436589e-06   -2.4609398375854963e-06   1.0404976559273433e-05
4.840383387436589e-06   -2.4609398375854963e-06   1.0404976559273433e-05
1.2203085583800075e-05   -1.564672175286149e-06   -2.40395436537866e-06
1.2203085583800075e-05   -1.564672175286149e-06   -2.40395436537866e-06
1.2203085583800075e-05   -1.564672175286149e-06   -2.40395436537866e-06
1.2203085583800075e-05   -1.564672175286149e-06   -2.40395436537866e-06
8.4324648921944e-06   -1.8020120463195293e-06   4.022817376584019e-06
8.4324648921944e-06   -1.8020120463195293e-06   4.022817376584019e-06
8.4324648921944e-06   -1.8020120463195293e-06   4.022817376584019e-06
8.4324648921944e-06   -1.8020120463195293e-06   4.022817376584019e-06
5.989747070468213e-06   -1.6100973170181387e-08   1.7674790337322897e-05
5.989747070468213e-06   -1.6100973170181387e-08   1.7674790337322897e-05
5.989747070468213e-06   -1.6100973170181387e-08   1.7674790337322897e-05
5.989747070468213e-06   -1.6100973170181387e-08   1.7674790337322897e-05
-1.9148105182353008e-06   4.610183196263008e-07   4.786799265161655e-06
-1.9148105182353008e-06   4.610183196263008e-07   4.786799265161655e-06
-1.9148105182353008e-06   4.610183196263008e-07   4.786799265161655e-06
-1.9148105182353008e-06   4.610183196263008e-07   4.786799265161655e-06
-2.252046740680355e-06   -3.580674472996974e-07   1.7706013804397224e-05
-2.252046740680355e-06   -3.580674472996974e-07   1.7706013804397224e-05
-2.252046740680355e-06   -3.580674472996974e-07   1.7706013804397224e-05
-2.252046740680355e-06   -3.580674472996974e-07   1.7706013804397224e-05
5.623092115084268e-06   1.036866478123892e-07   4.303729921055587e-06
5.623092115084268e-06   1.036866478123892e-07   4.303729921055587e-06
5.623092115084268e-06   1.036866478123892e-07   4.303729921055587e-06
5.623092115084268e-06   1.036866478123892e-07   4.303729921055587e-06
1.804888363492767e-06   1.6607016219659376e-08   1.0719650619330713e-05
1.804888363492767e-06   1.6607016219659376e-08   1.0719650619330713e-05
1.804888363492767e-06   1.6607016219659376e-08   1.0719650619330713e-05
1.804888363492767e-06   1.6607016219659376e-08   1.0719650619330713e-05
5.62309211508428e-06   -3.580674472996974e-07   1.7428961347329972e-05
5.62309211508428e-06   -3.580674472996974e-07   1.7428961347329972e-05
5.62309211508428e-06   -3.580674472996974e-07   1.7428961347329972e-05
5.62309211508428e-06   -3.580674472996974e-07   1.7428961347329972e-05
-2.2520467406803686e-06   1.036866478123892e-07   4.5807823781229134e-06
-2.2520467406803686e-06   1.036866478123892e-07   4.5807823781229134e-06
-2.2520467406803686e-06   1.036866478123892e-07   4.5807823781229134e-06
-2.2520467406803686e-06   1.036866478123892e-07   4.5807823781229134e-06
-2.5970164531009284e-06   -6.265002960156515e-07   1.748877551827283e-05
-2.5970164531009284e-06   -6.265002960156515e-07   1.748877551827283e-05
-2.5970164531009284e-06   -6.265002960156515e-07   1.748877551827283e-05
-2.5970164531009284e-06   -6.265002960156515e-07   1.748877551827283e-05
5.210526551783203e-06   -1.8765321180020528e-07   4.212895592936722e-06
5.210526551783203e-06   -1.8765321180020528e-07   4.212895592936722e-06
5.210526551783203e-06   -1.8765321180020528e-07   4.212895592936722e-06
5.210526551783203e-06   -1.8765321180020528e-07   4.212895592936722e-06
1.4333545065901664e-06   -2.21096161422585e-07   1.0528248104699334e-05
1.4333545065901664e-06   -2.21096161422585e-07   1.0528248104699334e-05
1.4333545065901664e-06   -2.21096161422585e-07   1.0528248104699334e-05
1.4333545065901664e-06   -2.21096161422585e-07   1.0528248104699334e-05
5.2105265517832215e-06   -6.265002960156515e-07   1.7225467267743648e-05
5.2105265517832215e-06   -6.265002960156515e-07   1.7225467267743648e-05
5.2105265517832215e-06   -6.265002960156515e-07   1.7225467267743648e-05
5.2105265517832215e-06   -6.265002960156515e-07   1.7225467267743648e-05
-2.5970164531009284e-06   -1.8765321180020528e-07   4.476203843465981e-06
-2.5970164531009284e-06   -1.8765321180020528e-07   4.476203843465981e-06
-2.5970164531009284e-06   -1.8765321180020528e-07   4.476203843465981e-06
-2.5970164531009284e-06   -1.8765321180020528e-07   4.476203843465981e-06
-2.9392172844830563e-06   -8.73718369911276e-07   1.7642072428408328e-05
-2.9392172844830563e-06   -8.73718369911276e-07   1.7642072428408328e-05
-2.9392172844830563e-06   -8.73718369911276e-07   1.7642072428408328e-05
-2.9392172844830563e-06   -8.73718369911276e-07   1.7642072428408328e-05
4.840383387436569e-06   -4.7341949815764024e-07   4.4358919854901706e-06
4.840383387436569e-06   -4.7341949815764024e-07   4.4358919854901706e-06
4.840383387436569e-06   -4.7341949815764024e-07   4.4358919854901706e-06
4.840383387436569e-06   -4.7341949815764024e-07   4.4358919854901706e-06
1.1410777322509488e-06   -4.1800252852314864e-07   1.0568151229018794e-05
1.1410777322509488e-06   -4.1800252852314864e-07   1.0568151229018794e-05
1.1410777322509488e-06   -4.1800252852314864e-07   1.0568151229018794e-05
1.1410777322509488e-06   -4.1800252852314864e-07   1.0568151229018794e-05
-1.9148105182353008e-06   1.7882659823001672e-06   1.9165363006104583e-05
-1.9148105182353008e-06   1.7882659823001672e-06   1.9165363006104583e-05
-1.9148105182353008e-06   1.7882659823001672e-06   1.9165363006104583e-05
-1.9148105182353008e-06   1.7882659823001672e-06   1.9165363006104583e-05
-9.686500089842423e-06   1.7633961623490227e-06   6.197625161455367e-06
-9.686500089842423e-06   1.7633961623490227e-06   6.197625161455367e-06
-9.686500089842423e-06   1.7633961623490227e-06   6.197625161455367e-06
-9.686500089842423e-06   1.7633961623490227e-06   6.197625161455367e-06
-1.0019582031829552e-05   1.4890412112502586e-06   1.9040548576026734e-05
-1.0019582031829552e-05   1.4890412112502586e-06   1.9040548576026734e-05
-1.0019582031829552e-05   1.4890412112502586e-06   1.9040548576026734e-05
-1.0019582031829552e-05   1.4890412112502586e-06   1.9040548576026734e-05
-2.252046740680355e-06   1.4398634592101625e-06   6.1241630753355e-06
-2.252046740680355e-06   1.4398634592101625e-06   6.1241630753355e-06
-2.252046740680355e-06   1.4398634592101625e-06   6.1241630753355e-06
-2.252046740680355e-06   1.4398634592101625e-06   6.1241630753355e-06
-5.983235977508645e-06   1.5791963008114683e-06   1.2259212098422327e-05
-5.983235977508645e-06   1.5791963008114683e-06   1.2259212098422327e-05
-5.983235977508645e-06   1.5791963008114683e-06   1.2259212098422327e-05
-5.983235977508645e-06   1.5791963008114683e-06   1.2259212098422327e-05
-2.252046740680355e-06   1.4890412112502586e-06   1.9070055227250987e-05
-2.252046740680355e-06   1.4890412112502586e-06   1.9070055227250987e-05
-2.252046740680355e-06   1.4890412112502586e-06   1.9070055227250987e-05
-2.252046740680355e-06   1.4890412112502586e-06   1.9070055227250987e-05
-1.0019582031829552e-05   1.439863459210271e-06   6.094656424111518e-06
-1.0019582031829552e-05   1.439863459210271e-06   6.094656424111518e-06
-1.0019582031829552e-05   1.439863459210271e-06   6.094656424111518e-06
-1.0019582031829552e-05   1.439863459210271e-06   6.094656424111518e-06
-1.0360525613516974e-05   1.1946241357091957e-06   1.9134931019516225e-05
-1.0360525613516974e-05   1.1946241357091957e-06   1.9134931019516225e-05
-1.0360525613516974e-05   1.1946241357091957e-06   1.9134931019516225e-05
-1.0360525613516974e-05   1.1946241357091957e-06   1.9134931019516225e-05
-2.5970164531009284e-06   1.1200790774143921e-06   6.240476120466276e-06
-2.5970164531009284e-06   1.1200790774143921e-06   6.240476120466276e-06
-2.5970164531009284e-06   1.1200790774143921e-06   6.240476120466276e-06
-2.5970164531009284e-06   1.1200790774143921e-06   6.240476120466276e-06
-6.287917167490294e-06   1.34487080701148e-06   1.2257102273357373e-05
-6.287917167490294e-06   1.34487080701148e-06   1.2257102273357373e-05
-6.287917167490294e-06   1.34487080701148e-06   1.2257102273357373e-05
-6.287917167490294e-06   1.34487080701148e-06   1.2257102273357373e-05
-2.5970164531009284e-06   1.1946241357091957e-06   1.9179658054492977e-05
-2.5970164531009284e-06   1.1946241357091957e-06   1.9179658054492977e-05
-2.5970164531009284e-06   1.1946241357091957e-06   1.9179658054492977e-05
-2.5970164531009284e-06   1.1946241357091957e-06   1.9179658054492977e-05
-1.0360525613516974e-05   1.1200790774142837e-06   6.195749085489565e-06
-1.0360525613516974e-05   1.1200790774142837e-06   6.195749085489565e-06
-1.0360525613516974e-05   1.1200790774142837e-06   6.195749085489565e-06
-1.0360525613516974e-05   1.1200790774142837e-06   6.195749085489565e-06
-1.0697351157551153e-05   9.153438721846204e-07   1.938771175410297e-05
-1.0697351157551153e-05   9.153438721846204e-07   1.938771175410297e-05
-1.0697351157551153e-05   9.153438721846204e-07   1.938771175410297e-05
-1.0697351157551153e-05   9.153438721846204e-07   1.938771175410297e-05
-2.9392172844830427e-06   8.123814525610442e-07   6.519266084097013e-06
-2.9392172844830427e-06   8.123814525610442e-07   6.519266084097013e-06
-2.9392172844830427e-06   8.123814525610442e-07   6.519266084097013e-06
-2.9392172844830427e-06   8.123814525610442e-07   6.519266084097013e-06
-6.606800434350546e-06   1.1161860564677661e-06   1.2449621904865458e-05
-6.606800434350546e-06   1.1161860564677661e-06   1.2449621904865458e-05
-6.606800434350546e-06   1.1161860564677661e-06   1.2449621904865458e-05
-6.606800434350546e-06   1.1161860564677661e-06   1.2449621904865458e-05
-9.686500089842423e-06   3.5264495983422864e-06   1.6963099057303098e-05
-9.686500089842423e-06   3.5264495983422864e-06   1.6963099057303098e-05
-9.686500089842423e-06   3.5264495983422864e-06   1.6963099057303098e-05
-9.686500089842423e-06   3.5264495983422864e-06   1.6963099057303098e-05
-1.7335320719242745e-05   3.031297549479107e-06   3.917973445651381e-06
-1.7335320719242745e-05   3.031297549479107e-06   3.917973445651381e-06
-1.7335320719242745e-05   3.031297549479107e-06   3.917973445651381e-06
-1.7335320719242745e-05   3.031297549479107e-06   3.917973445651381e-06
-1.769304832616899e-05   3.2409659099085376e-06   1.6741997619596546e-05
-1.769304832616899e-05   3.2409659099085376e-06   1.6741997619596546e-05
-1.769304832616899e-05   3.2409659099085376e-06   1.6741997619596546e-05
-1.769304832616899e-05   3.2409659099085376e-06   1.6741997619596546e-05
-1.0019582031829512e-05   2.7160555682310527e-06   4.267833334037265e-06
-1.0019582031829512e-05   2.7160555682310527e-06   4.267833334037265e-06
-1.0019582031829512e-05   2.7160555682310527e-06   4.267833334037265e-06
-1.0019582031829512e-05   2.7160555682310527e-06   4.267833334037265e-06
-1.3644692718859827e-05   3.0742301972985515e-06   1.009477970164769e-05
-1.3644692718859827e-05   3.0742301972985515e-06   1.009477970164769e-05
-1.3644692718859827e-05   3.0742301972985515e-06   1.009477970164769e-05
-1.3644692718859827e-05   3.0742301972985515e-06   1.009477970164769e-05
-1.0019582031829552e-05   3.2409659099085376e-06   1.7056943824602993e-05
-1.0019582031829552e-05   3.2409659099085376e-06   1.7056943824602993e-05
-1.0019582031829552e-05   3.2409659099085376e-06   1.7056943824602993e-05
-1.0019582031829552e-05   3.2409659099085376e-06   1.7056943824602993e-05
-1.7693048326168962e-05   2.716055568231161e-06   3.952887129030872e-06
-1.7693048326168962e-05   2.716055568231161e-06   3.952887129030872e-06
-1.7693048326168962e-05   2.716055568231161e-06   3.952887129030872e-06
-1.7693048326168962e-05   2.716055568231161e-06   3.952887129030872e-06
-1.809524202166872e-05   2.973955541841263e-06   1.7315535138157372e-05
-1.809524202166872e-05   2.973955541841263e-06   1.7315535138157372e-05
-1.809524202166872e-05   2.973955541841263e-06   1.7315535138157372e-05
-1.809524202166872e-05   2.973955541841263e-06   1.7315535138157372e-05
-1.0360525613516947e-05   2.423501010665992e-06   4.754613843276518e-06
-1.0360525613516947e-05   2.423501010665992e-06   4.754613843276518e-06
-1.0360525613516947e-05   2.423501010665992e-06   4.754613843276518e-06
-1.0360525613516947e-05   2.423501010665992e-06   4.754613843276518e-06
-1.389069854050966e-05   2.8598604698389573e-06   1.0376419712760895e-05
-1.389069854050966e-05   2.8598604698389573e-06   1.0376419712760895e-05
-1.389069854050966e-05   2.8598604698389573e-06   1.0376419712760895e-05
-1.389069854050966e-05   2.8598604698389573e-06   1.0376419712760895e-05
-1.0360525613516974e-05   2.973955541841263e-06   1.764580785686262e-05
-1.0360525613516974e-05   2.973955541841263e-06   1.764580785686262e-05
-1.0360525613516974e-05   2.973955541841263e-06   1.764580785686262e-05
-1.0360525613516974e-05   2.973955541841263e-06   1.764580785686262e-05
-1.8095242021668665e-05   2.4235010106661006e-06   4.424341124571187e-06
-1.8095242021668665e-05   2.4235010106661006e-06   4.424341124571187e-06
-1.8095242021668665e-05   2.4235010106661006e-06   4.424341124571187e-06
-1.8095242021668665e-05   2.4235010106661006e-06   4.424341124571187e-06
-1.8452186073924137e-05   2.6620916125602665e-06   1.779592319040306e-05
-1.8452186073924137e-05   2.6620916125602665e-06   1.779592319040306e-05
-1.8452186073924137e-05   2.6620916125602665e-06   1.779592319040306e-05
-1.8452186073924137e-05   2.6620916125602665e-06   1.779592319040306e-05
-1.0697351157551113e-05   2.095612682792981e-06   5.211085687641852e-06
-1.0697351157551113e-05   2.095612682792981e-06   5.211085687641852e-06
-1.0697351157551113e-05   2.095612682792981e-06   5.211085687641852e-06
-1.0697351157551113e-05   2.095612682792981e-06   5.211085687641852e-06
-1.4294805885700772e-05   2.6332586939854363e-06   1.0884255961176068e-05
-1.4294805885700772e-05   2.6332586939854363e-06   1.0884255961176068e-05
-1.4294805885700772e-05   2.6332586939854363e-06   1.0884255961176068e-05
-1.4294805885700772e-05   2.6332586939854363e-06   1.0884255961176068e-05
-1.7335320719242745e-05   4.873241758576556e-06   8.166511887205356e-06
-1.7335320719242745e-05   4.873241758576556e-06   8.166511887205356e-06
-1.7335320719242745e-05   4.873241758576556e-06   8.166511887205356e-06
-1.7335320719242745e-05   4.873241758576556e-06   8.166511887205356e-06
-2.4530093430921674e-05   3.988731376708995e-06   -4.355482194713569e-06
-2.4530093430921674e-05   3.988731376708995e-06   -4.355482194713569e-06
-2.4530093430921674e-05   3.988731376708995e-06   -4.355482194713569e-06
-2.4530093430921674e-05   3.988731376708995e-06   -4.355482194713569e-06
-2.5279700808907365e-05   4.852759896072133e-06   1.049246923367662e-05
-2.5279700808907365e-05   4.852759896072133e-06   1.049246923367662e-05
-2.5279700808907365e-05   4.852759896072133e-06   1.049246923367662e-05
-2.5279700808907365e-05   4.852759896072133e-06   1.049246923367662e-05
-1.7693048326168935e-05   3.889789751978742e-06   -1.5741694844314353e-06
-1.7693048326168935e-05   3.889789751978742e-06   -1.5741694844314353e-06
-1.7693048326168935e-05   3.889789751978742e-06   -1.5741694844314353e-06
-1.7693048326168935e-05   3.889789751978742e-06   -1.5741694844314353e-06
-2.041410438253438e-05   4.319614222882324e-06   2.703029260302573e-06
-2.041410438253438e-05   4.319614222882324e-06   2.703029260302573e-06
-2.041410438253438e-05   4.319614222882324e-06   2.703029260302573e-06
-2.041410438253438e-05   4.319614222882324e-06   2.703029260302573e-06
-1.7693048326168962e-05   4.852759896072133e-06   1.1070251320132525e-05
-1.7693048326168962e-05   4.852759896072133e-06   1.1070251320132525e-05
-1.7693048326168962e-05   4.852759896072133e-06   1.1070251320132525e-05
-1.7693048326168962e-05   4.852759896072133e-06   1.1070251320132525e-05
-2.527970080890742e-05   3.889789751978742e-06   -2.1519515708875027e-06
-2.527970080890742e-05   3.889789751978742e-06   -2.1519515708875027e-06
-2.527970080890742e-05   3.889789751978742e-06   -2.1519515708875027e-06
-2.527970080890742e-05   3.889789751978742e-06   -2.1519515708875027e-06
-2.5932623053477296e-05   4.755161546460621e-06   1.2498274555700767e-05
-2.5932623053477296e-05   4.755161546460621e-06   1.2498274555700767e-05
-2.5932623053477296e-05   4.755161546460621e-06   1.2498274555700767e-05
-2.5932623053477296e-05   4.755161546460621e-06   1.2498274555700767e-05
-1.809524202166864e-05   3.7655744969947646e-06   2.9725065699018685e-08
-1.809524202166864e-05   3.7655744969947646e-06   2.9725065699018685e-08
-1.809524202166864e-05   3.7655744969947646e-06   2.9725065699018685e-08
-1.809524202166864e-05   3.7655744969947646e-06   2.9725065699018685e-08
-2.1211650819577644e-05   4.324022111336194e-06   4.888671160276645e-06
-2.1211650819577644e-05   4.324022111336194e-06   4.888671160276645e-06
-2.1211650819577644e-05   4.324022111336194e-06   4.888671160276645e-06
-2.1211650819577644e-05   4.324022111336194e-06   4.888671160276645e-06
-1.809524202166872e-05   4.755161546460621e-06   1.3092026785380042e-05
-1.809524202166872e-05   4.755161546460621e-06   1.3092026785380042e-05
-1.809524202166872e-05   4.755161546460621e-06   1.3092026785380042e-05
-1.809524202166872e-05   4.755161546460621e-06   1.3092026785380042e-05
-2.5932623053477296e-05   3.7655744969947646e-06   -5.640271639803648e-07
-2.5932623053477296e-05   3.7655744969947646e-06   -5.640271639803648e-07
-2.5932623053477296e-05   3.7655744969947646e-06   -5.640271639803648e-07
-2.5932623053477296e-05   3.7655744969947646e-06   -5.640271639803648e-07
-2.6689054585704353e-05   4.321534903936304e-06   1.5979943488629838e-05
-2.6689054585704353e-05   4.321534903936304e-06   1.5979943488629838e-05
-2.6689054585704353e-05   4.321534903936304e-06   1.5979943488629838e-05
-2.6689054585704353e-05   4.321534903936304e-06   1.5979943488629838e-05
-1.8452186073924056e-05   3.34618466036273e-06   2.8370394484735677e-06
-1.8452186073924056e-05   3.34618466036273e-06   2.8370394484735677e-06
-1.8452186073924056e-05   3.34618466036273e-06   2.8370394484735677e-06
-1.8452186073924056e-05   3.34618466036273e-06   2.8370394484735677e-06
-2.138277670652236e-05   4.141135485783982e-06   7.244386674218036e-06
-2.138277670652236e-05   4.141135485783982e-06   7.244386674218036e-06
-2.138277670652236e-05   4.141135485783982e-06   7.244386674218036e-06
-2.138277670652236e-05   4.141135485783982e-06   7.244386674218036e-06
8.11009423013427e-06   -9.314541064873528e-07   1.1356219791238504e-05
8.11009423013427e-06   -9.314541064873528e-07   1.1356219791238504e-05
8.11009423013427e-06   -9.314541064873528e-07   1.1356219791238504e-05
8.11009423013427e-06   -9.314541064873528e-07   1.1356219791238504e-05
2.1600767424106454e-06   -1.091152073318287e-09   1.997741751014236e-06
2.1600767424106454e-06   -1.091152073318287e-09   1.997741751014236e-06
2.1600767424106454e-06   -1.091152073318287e-09   1.997741751014236e-06
2.1600767424106454e-06   -1.091152073318287e-09   1.997741751014236e-06
1.8841999974005945e-06   -1.2858039447287807e-06   1.0574561403509303e-05
1.8841999974005945e-06   -1.2858039447287807e-06   1.0574561403509303e-05
1.8841999974005945e-06   -1.2858039447287807e-06   1.0574561403509303e-05
1.8841999974005945e-06   -1.2858039447287807e-06   1.0574561403509303e-05
7.427016953489253e-06   -3.195937368030309e-07   7.568070186061748e-07
7.427016953489253e-06   -3.195937368030309e-07   7.568070186061748e-07
7.427016953489253e-06   -3.195937368030309e-07   7.568070186061748e-07
7.427016953489253e-06   -3.195937368030309e-07   7.568070186061748e-07
4.6081803044480295e-06   -6.79547656160938e-07   5.670840451956665e-06
4.6081803044480295e-06   -6.79547656160938e-07   5.670840451956665e-06
4.6081803044480295e-06   -6.79547656160938e-07   5.670840451956665e-06
4.6081803044480295e-06   -6.79547656160938e-07   5.670840451956665e-06
7.427016953489267e-06   -1.2858039447287807e-06   9.994835278753973e-06
7.427016953489267e-06   -1.2858039447287807e-06   9.994835278753973e-06
7.427016953489267e-06   -1.2858039447287807e-06   9.994835278753973e-06
7.427016953489267e-06   -1.2858039447287807e-06   9.994835278753973e-06
1.8841999974005894e-06   -3.195937368030309e-07   1.3365331433616004e-06
1.8841999974005894e-06   -3.195937368030309e-07   1.3365331433616004e-06
1.8841999974005894e-06   -3.195937368030309e-07   1.3365331433616004e-06
1.8841999974005894e-06   -3.195937368030309e-07   1.3365331433616004e-06
1.5619891511116124e-06   -1.4069989921807738e-06   9.91568479406221e-06
1.5619891511116124e-06   -1.4069989921807738e-06   9.91568479406221e-06
1.5619891511116124e-06   -1.4069989921807738e-06   9.91568479406221e-06
1.5619891511116124e-06   -1.4069989921807738e-06   9.91568479406221e-06
6.84785905273123e-06   -4.5580251378741967e-07   5.351837376602259e-07
6.84785905273123e-06   -4.5580251378741967e-07   5.351837376602259e-07
6.84785905273123e-06   -4.5580251378741967e-07   5.351837376602259e-07
6.84785905273123e-06   -4.5580251378741967e-07   5.351837376602259e-07
4.280780059979505e-06   -8.186852270286333e-07   5.031378353524512e-06
4.280780059979505e-06   -8.186852270286333e-07   5.031378353524512e-06
4.280780059979505e-06   -8.186852270286333e-07   5.031378353524512e-06
4.280780059979505e-06   -8.186852270286333e-07   5.031378353524512e-06
6.847859052731244e-06   -1.4069989921807738e-06   9.34496690702623e-06
6.847859052731244e-06   -1.4069989921807738e-06   9.34496690702623e-06
6.847859052731244e-06   -1.4069989921807738e-06   9.34496690702623e-06
6.847859052731244e-06   -1.4069989921807738e-06   9.34496690702623e-06
1.5619891511116074e-06   -4.5580251378741967e-07   1.1059016246962872e-06
1.5619891511116074e-06   -4.5580251378741967e-07   1.1059016246962872e-06
1.5619891511116074e-06   -4.5580251378741967e-07   1.1059016246962872e-06
1.5619891511116074e-06   -4.5580251378741967e-07   1.1059016246962872e-06
1.282457002628847e-06   -1.5646721752862573e-06   9.147391564064144e-06
1.282457002628847e-06   -1.5646721752862573e-06   9.147391564064144e-06
1.282457002628847e-06   -1.5646721752862573e-06   9.147391564064144e-06
1.282457002628847e-06   -1.5646721752862573e-06   9.147391564064144e-06
6.1685119461326956e-06   -6.805756454877389e-07   4.735087403454308e-07
6.1685119461326956e-06   -6.805756454877389e-07   4.735087403454308e-07
6.1685119461326956e-06   -6.805756454877389e-07   4.735087403454308e-07
6.1685119461326956e-06   -6.805756454877389e-07   4.735087403454308e-07
3.7908168520827906e-06   -8.884228817648658e-07   4.561042238861611e-06
3.7908168520827906e-06   -8.884228817648658e-07   4.561042238861611e-06
3.7908168520827906e-06   -8.884228817648658e-07   4.561042238861611e-06
3.7908168520827906e-06   -8.884228817648658e-07   4.561042238861611e-06
2.1600767424106488e-06   4.610183196263008e-07   1.5545565289283862e-05
2.1600767424106488e-06   4.610183196263008e-07   1.5545565289283862e-05
2.1600767424106488e-06   4.610183196263008e-07   1.5545565289283862e-05
2.1600767424106488e-06   4.610183196263008e-07   1.5545565289283862e-05
-3.254006527420348e-06   8.845740211878284e-07   6.776226593835767e-06
-3.254006527420348e-06   8.845740211878284e-07   6.776226593835767e-06
-3.254006527420348e-06   8.845740211878284e-07   6.776226593835767e-06
-3.254006527420348e-06   8.845740211878284e-07   6.776226593835767e-06
-3.496737951372259e-06   1.036866478123892e-07   1.5591548690813183e-05
-3.496737951372259e-06   1.036866478123892e-07   1.5591548690813183e-05
-3.496737951372259e-06   1.036866478123892e-07   1.5591548690813183e-05
-3.496737951372259e-06   1.036866478123892e-07   1.5591548690813183e-05
1.8841999974005894e-06   5.261505043923026e-07   6.369840462243857e-06
1.8841999974005894e-06   5.261505043923026e-07   6.369840462243857e-06
1.8841999974005894e-06   5.261505043923026e-07   6.369840462243857e-06
1.8841999974005894e-06   5.261505043923026e-07   6.369840462243857e-06
-7.175830394125251e-07   4.574843042494132e-07   1.0747345243685349e-05
-7.175830394125251e-07   4.574843042494132e-07   1.0747345243685349e-05
-7.175830394125251e-07   4.574843042494132e-07   1.0747345243685349e-05
-7.175830394125251e-07   4.574843042494132e-07   1.0747345243685349e-05
1.884199997400591e-06   1.0368664781228078e-07   1.533807037686519e-05
1.884199997400591e-06   1.0368664781228078e-07   1.533807037686519e-05
1.884199997400591e-06   1.0368664781228078e-07   1.533807037686519e-05
1.884199997400591e-06   1.0368664781228078e-07   1.533807037686519e-05
-3.496737951372259e-06   5.261505043923026e-07   6.623318776191947e-06
-3.496737951372259e-06   5.261505043923026e-07   6.623318776191947e-06
-3.496737951372259e-06   5.261505043923026e-07   6.623318776191947e-06
-3.496737951372259e-06   5.261505043923026e-07   6.623318776191947e-06
-3.74671716439276e-06   -1.8765321180009686e-07   1.5485338248490935e-05
-3.74671716439276e-06   -1.8765321180009686e-07   1.5485338248490935e-05
-3.74671716439276e-06   -1.8765321180009686e-07   1.5485338248490935e-05
-3.74671716439276e-06   -1.8765321180009686e-07   1.5485338248490935e-05
1.5619891511116074e-06   2.23489849100777e-07   6.390808552776461e-06
1.5619891511116074e-06   2.23489849100777e-07   6.390808552776461e-06
1.5619891511116074e-06   2.23489849100777e-07   6.390808552776461e-06
1.5619891511116074e-06   2.23489849100777e-07   6.390808552776461e-06
-9.771439824573461e-07   2.0819938591990633e-07   1.0631871386633396e-05
-9.771439824573461e-07   2.0819938591990633e-07   1.0631871386633396e-05
-9.771439824573461e-07   2.0819938591990633e-07   1.0631871386633396e-05
-9.771439824573461e-07   2.0819938591990633e-07   1.0631871386633396e-05
1.5619891511116124e-06   -1.8765321180009686e-07   1.5238652411950302e-05
1.5619891511116124e-06   -1.8765321180009686e-07   1.5238652411950302e-05
1.5619891511116124e-06   -1.8765321180009686e-07   1.5238652411950302e-05
1.5619891511116124e-06   -1.8765321180009686e-07   1.5238652411950302e-05
-3.74671716439276e-06   2.23489849100777e-07   6.6374943893170125e-06
-3.74671716439276e-06   2.23489849100777e-07   6.6374943893170125e-06
-3.74671716439276e-06   2.23489849100777e-07   6.6374943893170125e-06
-3.74671716439276e-06   2.23489849100777e-07   6.6374943893170125e-06
-3.993149331643053e-06   -4.7341949815764024e-07   1.5682855004965418e-05
-3.993149331643053e-06   -4.7341949815764024e-07   1.5682855004965418e-05
-3.993149331643053e-06   -4.7341949815764024e-07   1.5682855004965418e-05
-3.993149331643053e-06   -4.7341949815764024e-07   1.5682855004965418e-05
1.2824570026288437e-06   -8.445668580442899e-08   6.65680009376709e-06
1.2824570026288437e-06   -8.445668580442899e-08   6.65680009376709e-06
1.2824570026288437e-06   -8.445668580442899e-08   6.65680009376709e-06
1.2824570026288437e-06   -8.445668580442899e-08   6.65680009376709e-06
-1.1961858251826002e-06   -1.4240486030181812e-08   1.0745741753588462e-05
-1.1961858251826002e-06   -1.4240486030181812e-08   1.0745741753588462e-05
-1.1961858251826002e-06   -1.4240486030181812e-08   1.0745741753588462e-05
-1.1961858251826002e-06   -1.4240486030181812e-08   1.0745741753588462e-05
-3.254006527420348e-06   1.7633961623490227e-06   1.7225446498485265e-05
-3.254006527420348e-06   1.7633961623490227e-06   1.7225446498485265e-05
-3.254006527420348e-06   1.7633961623490227e-06   1.7225446498485265e-05
-3.254006527420348e-06   1.7633961623490227e-06   1.7225446498485265e-05
-8.572033067477493e-06   1.6658146164747313e-06   8.303520004198858e-06
-8.572033067477493e-06   1.6658146164747313e-06   8.303520004198858e-06
-8.572033067477493e-06   1.6658146164747313e-06   8.303520004198858e-06
-8.572033067477493e-06   1.6658146164747313e-06   8.303520004198858e-06
-8.80527021350982e-06   1.4398634592101625e-06   1.7072911035558003e-05
-8.80527021350982e-06   1.4398634592101625e-06   1.7072911035558003e-05
-8.80527021350982e-06   1.4398634592101625e-06   1.7072911035558003e-05
-8.80527021350982e-06   1.4398634592101625e-06   1.7072911035558003e-05
-3.4967379513722456e-06   1.3364995384303711e-06   8.287375617796873e-06
-3.4967379513722456e-06   1.3364995384303711e-06   8.287375617796873e-06
-3.4967379513722456e-06   1.3364995384303711e-06   8.287375617796873e-06
-3.4967379513722456e-06   1.3364995384303711e-06   8.287375617796873e-06
-6.043600932712333e-06   1.513301820138947e-06   1.2426065884338952e-05
-6.043600932712333e-06   1.513301820138947e-06   1.2426065884338952e-05
-6.043600932712333e-06   1.513301820138947e-06   1.2426065884338952e-05
-6.043600932712333e-06   1.513301820138947e-06   1.2426065884338952e-05
-3.496737951372259e-06   1.4398634592101625e-06   1.7134929388026095e-05
-3.496737951372259e-06   1.4398634592101625e-06   1.7134929388026095e-05
-3.496737951372259e-06   1.4398634592101625e-06   1.7134929388026095e-05
-3.496737951372259e-06   1.4398634592101625e-06   1.7134929388026095e-05
-8.805270213509806e-06   1.3364995384303711e-06   8.225357265328863e-06
-8.805270213509806e-06   1.3364995384303711e-06   8.225357265328863e-06
-8.805270213509806e-06   1.3364995384303711e-06   8.225357265328863e-06
-8.805270213509806e-06   1.3364995384303711e-06   8.225357265328863e-06
-9.046023646966649e-06   1.1200790774143921e-06   1.7182905382902465e-05
-9.046023646966649e-06   1.1200790774143921e-06   1.7182905382902465e-05
-9.046023646966649e-06   1.1200790774143921e-06   1.7182905382902465e-05
-9.046023646966649e-06   1.1200790774143921e-06   1.7182905382902465e-05
-3.7467171643927464e-06   1.0089038397666358e-06   8.417433054534667e-06
-3.7467171643927464e-06   1.0089038397666358e-06   8.417433054534667e-06
-3.7467171643927464e-06   1.0089038397666358e-06   8.417433054534667e-06
-3.7467171643927464e-06   1.0089038397666358e-06   8.417433054534667e-06
-6.250998724194501e-06   1.2633343891121484e-06   1.243857732459688e-05
-6.250998724194501e-06   1.2633343891121484e-06   1.243857732459688e-05
-6.250998724194501e-06   1.2633343891121484e-06   1.243857732459688e-05
-6.250998724194501e-06   1.2633343891121484e-06   1.243857732459688e-05
-3.74671716439276e-06   1.1200790774143921e-06   1.7249610525491054e-05
-3.74671716439276e-06   1.1200790774143921e-06   1.7249610525491054e-05
-3.74671716439276e-06   1.1200790774143921e-06   1.7249610525491054e-05
-3.74671716439276e-06   1.1200790774143921e-06   1.7249610525491054e-05
-9.046023646966622e-06   1.0089038397666358e-06   8.350727911946119e-06
-9.046023646966622e-06   1.0089038397666358e-06   8.350727911946119e-06
-9.046023646966622e-06   1.0089038397666358e-06   8.350727911946119e-06
-9.046023646966622e-06   1.0089038397666358e-06   8.350727911946119e-06
-9.282927694518532e-06   8.123814525610442e-07   1.7455929853156158e-05
-9.282927694518532e-06   8.123814525610442e-07   1.7455929853156158e-05
-9.282927694518532e-06   8.123814525610442e-07   1.7455929853156158e-05
-9.282927694518532e-06   8.123814525610442e-07   1.7455929853156158e-05
-3.993149331643053e-06   6.955149069546316e-07   8.709752509061019e-06
-3.993149331643053e-06   6.955149069546316e-07   8.709752509061019e-06
-3.993149331643053e-06   6.955149069546316e-07   8.709752509061019e-06
-3.993149331643053e-06   6.955149069546316e-07   8.709752509061019e-06
-6.47175141480617e-06   1.018521330682599e-06   1.2646952126762958e-05
-6.47175141480617e-06   1.018521330682599e-06   1.2646952126762958e-05
-6.47175141480617e-06   1.018521330682599e-06   1.2646952126762958e-05
-6.47175141480617e-06   1.018521330682599e-06   1.2646952126762958e-05
-8.572033067477493e-06   3.031297549479107e-06   1.51843370844746e-05
-8.572033067477493e-06   3.031297549479107e-06   1.51843370844746e-05
-8.572033067477493e-06   3.031297549479107e-06   1.51843370844746e-05
-8.572033067477493e-06   3.031297549479107e-06   1.51843370844746e-05
-1.3799383111815785e-05   2.482180135077584e-06   6.1426165619365394e-06
-1.3799383111815785e-05   2.482180135077584e-06   6.1426165619365394e-06
-1.3799383111815785e-05   2.482180135077584e-06   6.1426165619365394e-06
-1.3799383111815785e-05   2.482180135077584e-06   6.1426165619365394e-06
-1.405397868232318e-05   2.716055568231161e-06   1.4906803872549441e-05
-1.405397868232318e-05   2.716055568231161e-06   1.4906803872549441e-05
-1.405397868232318e-05   2.716055568231161e-06   1.4906803872549441e-05
-1.405397868232318e-05   2.716055568231161e-06   1.4906803872549441e-05
-8.80527021350982e-06   2.1505821133404115e-06   6.49824049746178e-06
-8.80527021350982e-06   2.1505821133404115e-06   6.49824049746178e-06
-8.80527021350982e-06   2.1505821133404115e-06   6.49824049746178e-06
-8.80527021350982e-06   2.1505821133404115e-06   6.49824049746178e-06
-1.1280247218223994e-05   2.5514026137063136e-06   1.0382709871766509e-05
-1.1280247218223994e-05   2.5514026137063136e-06   1.0382709871766509e-05
-1.1280247218223994e-05   2.5514026137063136e-06   1.0382709871766509e-05
-1.1280247218223994e-05   2.5514026137063136e-06   1.0382709871766509e-05
-8.80527021350982e-06   2.716055568231161e-06   1.5246087945483913e-05
-8.80527021350982e-06   2.716055568231161e-06   1.5246087945483913e-05
-8.80527021350982e-06   2.716055568231161e-06   1.5246087945483913e-05
-8.80527021350982e-06   2.716055568231161e-06   1.5246087945483913e-05
-1.4053978682323126e-05   2.1505821133404115e-06   6.15895642452739e-06
-1.4053978682323126e-05   2.1505821133404115e-06   6.15895642452739e-06
-1.4053978682323126e-05   2.1505821133404115e-06   6.15895642452739e-06
-1.4053978682323126e-05   2.1505821133404115e-06   6.15895642452739e-06
-1.435504621723522e-05   2.423501010665992e-06   1.5396699590853767e-05
-1.435504621723522e-05   2.423501010665992e-06   1.5396699590853767e-05
-1.435504621723522e-05   2.423501010665992e-06   1.5396699590853767e-05
-1.435504621723522e-05   2.423501010665992e-06   1.5396699590853767e-05
-9.046023646966608e-06   1.8483834276066544e-06   6.8933991902419005e-06
-9.046023646966608e-06   1.8483834276066544e-06   6.8933991902419005e-06
-9.046023646966608e-06   1.8483834276066544e-06   6.8933991902419005e-06
-9.046023646966608e-06   1.8483834276066544e-06   6.8933991902419005e-06
-1.1444069786039192e-05   2.317264579108783e-06   1.0608814064461515e-05
-1.1444069786039192e-05   2.317264579108783e-06   1.0608814064461515e-05
-1.1444069786039192e-05   2.317264579108783e-06   1.0608814064461515e-05
-1.1444069786039192e-05   2.317264579108783e-06   1.0608814064461515e-05
-9.046023646966636e-06   2.423501010665992e-06   1.574177014068939e-05
-9.046023646966636e-06   2.423501010665992e-06   1.574177014068939e-05
-9.046023646966636e-06   2.423501010665992e-06   1.574177014068939e-05
-9.046023646966636e-06   2.423501010665992e-06   1.574177014068939e-05
-1.4355046217235192e-05   1.8483834276066544e-06   6.548328640406276e-06
-1.4355046217235192e-05   1.8483834276066544e-06   6.548328640406276e-06
-1.4355046217235192e-05   1.8483834276066544e-06   6.548328640406276e-06
-1.4355046217235192e-05   1.8483834276066544e-06   6.548328640406276e-06
-1.4612837571466287e-05   2.095612682792981e-06   1.5866963582316057e-05
-1.4612837571466287e-05   2.095612682792981e-06   1.5866963582316057e-05
-1.4612837571466287e-05   2.095612682792981e-06   1.5866963582316057e-05
-1.4612837571466287e-05   2.095612682792981e-06   1.5866963582316057e-05
-9.282927694518505e-06   1.5246738058612933e-06   7.326343780228911e-06
-9.282927694518505e-06   1.5246738058612933e-06   7.326343780228911e-06
-9.282927694518505e-06   1.5246738058612933e-06   7.326343780228911e-06
-9.282927694518505e-06   1.5246738058612933e-06   7.326343780228911e-06
-1.172793990530731e-05   2.08196609278251e-06   1.106698875939148e-05
-1.172793990530731e-05   2.08196609278251e-06   1.106698875939148e-05
-1.172793990530731e-05   2.08196609278251e-06   1.106698875939148e-05
-1.172793990530731e-05   2.08196609278251e-06   1.106698875939148e-05
-1.3799383111815839e-05   3.988731376708995e-06   7.112117224589501e-06
-1.3799383111815839e-05   3.988731376708995e-06   7.112117224589501e-06
-1.3799383111815839e-05   3.988731376708995e-06   7.112117224589501e-06
-1.3799383111815839e-05   3.988731376708995e-06   7.112117224589501e-06
-1.8536666761954825e-05   3.065661066657373e-06   -1.337197711673223e-06
-1.8536666761954825e-05   3.065661066657373e-06   -1.337197711673223e-06
-1.8536666761954825e-05   3.065661066657373e-06   -1.337197711673223e-06
-1.8536666761954825e-05   3.065661066657373e-06   -1.337197711673223e-06
-1.9190342463575114e-05   3.889789751978742e-06   8.783990458654384e-06
-1.9190342463575114e-05   3.889789751978742e-06   8.783990458654384e-06
-1.9190342463575114e-05   3.889789751978742e-06   8.783990458654384e-06
-1.9190342463575114e-05   3.889789751978742e-06   8.783990458654384e-06
-1.4053978682323126e-05   2.896861751257654e-06   8.191409570007307e-07
-1.4053978682323126e-05   2.896861751257654e-06   8.191409570007307e-07
-1.4053978682323126e-05   2.896861751257654e-06   8.191409570007307e-07
-1.4053978682323126e-05   2.896861751257654e-06   8.191409570007307e-07
-1.5797396291684525e-05   3.395081326035103e-06   3.4259052277371043e-06
-1.5797396291684525e-05   3.395081326035103e-06   3.4259052277371043e-06
-1.5797396291684525e-05   3.395081326035103e-06   3.4259052277371043e-06
-1.5797396291684525e-05   3.395081326035103e-06   3.4259052277371043e-06
-1.4053978682323153e-05   3.889789751978742e-06   9.379747259087188e-06
-1.4053978682323153e-05   3.889789751978742e-06   9.379747259087188e-06
-1.4053978682323153e-05   3.889789751978742e-06   9.379747259087188e-06
-1.4053978682323153e-05   3.889789751978742e-06   9.379747259087188e-06
-1.9190342463575114e-05   2.896861751257654e-06   2.2338415656803466e-07
-1.9190342463575114e-05   2.896861751257654e-06   2.2338415656803466e-07
-1.9190342463575114e-05   2.896861751257654e-06   2.2338415656803466e-07
-1.9190342463575114e-05   2.896861751257654e-06   2.2338415656803466e-07
-1.9752126128192712e-05   3.765574496994873e-06   1.039535327603848e-05
-1.9752126128192712e-05   3.765574496994873e-06   1.039535327603848e-05
-1.9752126128192712e-05   3.765574496994873e-06   1.039535327603848e-05
-1.9752126128192712e-05   3.765574496994873e-06   1.039535327603848e-05
-1.4355046217235192e-05   2.754357403756324e-06   2.00695034705239e-06
-1.4355046217235192e-05   2.754357403756324e-06   2.00695034705239e-06
-1.4355046217235192e-05   2.754357403756324e-06   2.00695034705239e-06
-1.4355046217235192e-05   2.754357403756324e-06   2.00695034705239e-06
-1.6427231809547534e-05   3.35229659497306e-06   5.1018294861766085e-06
-1.6427231809547534e-05   3.35229659497306e-06   5.1018294861766085e-06
-1.6427231809547534e-05   3.35229659497306e-06   5.1018294861766085e-06
-1.6427231809547534e-05   3.35229659497306e-06   5.1018294861766085e-06
-1.4355046217235192e-05   3.7655744969947646e-06   1.1002083531981652e-05
-1.4355046217235192e-05   3.7655744969947646e-06   1.1002083531981652e-05
-1.4355046217235192e-05   3.7655744969947646e-06   1.1002083531981652e-05
-1.4355046217235192e-05   3.7655744969947646e-06   1.1002083531981652e-05
-1.9752126128192712e-05   2.754357403756324e-06   1.4002200911093256e-06
-1.9752126128192712e-05   2.754357403756324e-06   1.4002200911093256e-06
-1.9752126128192712e-05   2.754357403756324e-06   1.4002200911093256e-06
-1.9752126128192712e-05   2.754357403756324e-06   1.4002200911093256e-06
-2.0423356370306438e-05   3.3461846603628385e-06   1.3243715187412895e-05
-2.0423356370306438e-05   3.3461846603628385e-06   1.3243715187412895e-05
-2.0423356370306438e-05   3.3461846603628385e-06   1.3243715187412895e-05
-2.0423356370306438e-05   3.3461846603628385e-06   1.3243715187412895e-05
-1.461283757146626e-05   2.36436880437054e-06   4.1486067029414e-06
-1.461283757146626e-05   2.36436880437054e-06   4.1486067029414e-06
-1.461283757146626e-05   2.36436880437054e-06   4.1486067029414e-06
-1.461283757146626e-05   2.36436880437054e-06   4.1486067029414e-06
-1.657957343659246e-05   3.1749396882652364e-06   6.9401572811484845e-06
-1.657957343659246e-05   3.1749396882652364e-06   6.9401572811484845e-06
-1.657957343659246e-05   3.1749396882652364e-06   6.9401572811484845e-06
-1.657957343659246e-05   3.1749396882652364e-06   6.9401572811484845e-06
1.7713464295603454e-06   -1.091152073318287e-09   8.526719342189946e-06
1.7713464295603454e-06   -1.091152073318287e-09   8.526719342189946e-06
1.7713464295603454e-06   -1.091152073318287e-09   8.526719342189946e-06
1.7713464295603454e-06   -1.091152073318287e-09   8.526719342189946e-06
-1.6771270699257683e-06   8.957942232899968e-07   3.317394734931071e-06
-1.6771270699257683e-06   8.957942232899968e-07   3.317394734931071e-06
-1.6771270699257683e-06   8.957942232899968e-07   3.317394734931071e-06
-1.6771270699257683e-06   8.957942232899968e-07   3.317394734931071e-06
-1.8747451297777776e-06   -3.195937368030309e-07   8.391607949704693e-06
-1.8747451297777776e-06   -3.195937368030309e-07   8.391607949704693e-06
-1.8747451297777776e-06   -3.195937368030309e-07   8.391607949704693e-06
-1.8747451297777776e-06   -3.195937368030309e-07   8.391607949704693e-06
1.1717496274342567e-06   5.985192303091221e-07   2.7632489074172337e-06
1.1717496274342567e-06   5.985192303091221e-07   2.7632489074172337e-06
1.1717496274342567e-06   5.985192303091221e-07   2.7632489074172337e-06
1.1717496274342567e-06   5.985192303091221e-07   2.7632489074172337e-06
-2.3706589361064434e-07   2.419717937739239e-07   5.325203237746633e-06
-2.3706589361064434e-07   2.419717937739239e-07   5.325203237746633e-06
-2.3706589361064434e-07   2.419717937739239e-07   5.325203237746633e-06
-2.3706589361064434e-07   2.419717937739239e-07   5.325203237746633e-06
1.1717496274342567e-06   -3.195937368030309e-07   7.840740169437357e-06
1.1717496274342567e-06   -3.195937368030309e-07   7.840740169437357e-06
1.1717496274342567e-06   -3.195937368030309e-07   7.840740169437357e-06
1.1717496274342567e-06   -3.195937368030309e-07   7.840740169437357e-06
-1.8747451297777776e-06   5.985192303091221e-07   3.3141166876845553e-06
-1.8747451297777776e-06   5.985192303091221e-07   3.3141166876845553e-06
-1.8747451297777776e-06   5.985192303091221e-07   3.3141166876845553e-06
-1.8747451297777776e-06   5.985192303091221e-07   3.3141166876845553e-06
-2.1192413272490942e-06   -4.5580251378741967e-07   8.160319893033886e-06
-2.1192413272490942e-06   -4.5580251378741967e-07   8.160319893033886e-06
-2.1192413272490942e-06   -4.5580251378741967e-07   8.160319893033886e-06
-2.1192413272490942e-06   -4.5580251378741967e-07   8.160319893033886e-06
6.504732142531921e-07   4.3646117947886316e-07   3.008770774570304e-06
6.504732142531921e-07   4.3646117947886316e-07   3.008770774570304e-06
6.504732142531921e-07   4.3646117947886316e-07   3.008770774570304e-06
6.504732142531921e-07   4.3646117947886316e-07   3.008770774570304e-06
-5.589953149938312e-07   1.1542238071977733e-07   5.217174935904149e-06
-5.589953149938312e-07   1.1542238071977733e-07   5.217174935904149e-06
-5.589953149938312e-07   1.1542238071977733e-07   5.217174935904149e-06
-5.589953149938312e-07   1.1542238071977733e-07   5.217174935904149e-06
6.504732142531921e-07   -4.5580251378731125e-07   7.6249616770740405e-06
6.504732142531921e-07   -4.5580251378731125e-07   7.6249616770740405e-06
6.504732142531921e-07   -4.5580251378731125e-07   7.6249616770740405e-06
6.504732142531921e-07   -4.5580251378731125e-07   7.6249616770740405e-06
-2.119241327249091e-06   4.3646117947886316e-07   3.5441289905300275e-06
-2.119241327249091e-06   4.3646117947886316e-07   3.5441289905300275e-06
-2.119241327249091e-06   4.3646117947886316e-07   3.5441289905300275e-06
-2.119241327249091e-06   4.3646117947886316e-07   3.5441289905300275e-06
-2.3242154327260984e-06   -6.805756454877389e-07   8.06076239307852e-06
-2.3242154327260984e-06   -6.805756454877389e-07   8.06076239307852e-06
-2.3242154327260984e-06   -6.805756454877389e-07   8.06076239307852e-06
-2.3242154327260984e-06   -6.805756454877389e-07   8.06076239307852e-06
-4.274752383674589e-09   9.427344507025991e-08   3.72928513817306e-06
-4.274752383674589e-09   9.427344507025991e-08   3.72928513817306e-06
-4.274752383674589e-09   9.427344507025991e-08   3.72928513817306e-06
-4.274752383674589e-09   9.427344507025991e-08   3.72928513817306e-06
-9.1130480577582e-07   1.7384518644514985e-09   5.296522889750194e-06
-9.1130480577582e-07   1.7384518644514985e-09   5.296522889750194e-06
-9.1130480577582e-07   1.7384518644514985e-09   5.296522889750194e-06
-9.1130480577582e-07   1.7384518644514985e-09   5.296522889750194e-06
-1.6771270699257683e-06   8.845740211878284e-07   1.3589201989292691e-05
-1.6771270699257683e-06   8.845740211878284e-07   1.3589201989292691e-05
-1.6771270699257683e-06   8.845740211878284e-07   1.3589201989292691e-05
-1.6771270699257683e-06   8.845740211878284e-07   1.3589201989292691e-05
-4.560414361967654e-06   1.0645422399467933e-06   8.8917041004783e-06
-4.560414361967654e-06   1.0645422399467933e-06   8.8917041004783e-06
-4.560414361967654e-06   1.0645422399467933e-06   8.8917041004783e-06
-4.560414361967654e-06   1.0645422399467933e-06   8.8917041004783e-06
-4.710235358548325e-06   5.261505043923026e-07   1.3549274195106631e-05
-4.710235358548325e-06   5.261505043923026e-07   1.3549274195106631e-05
-4.710235358548325e-06   5.261505043923026e-07   1.3549274195106631e-05
-4.710235358548325e-06   5.261505043923026e-07   1.3549274195106631e-05
-1.8747451297777776e-06   7.33415381925194e-07   8.699098220636017e-06
-1.8747451297777776e-06   7.33415381925194e-07   8.699098220636017e-06
-1.8747451297777776e-06   7.33415381925194e-07   8.699098220636017e-06
-1.8747451297777776e-06   7.33415381925194e-07   8.699098220636017e-06
-3.226360988639695e-06   7.628662520868437e-07   1.0934120796642194e-05
-3.226360988639695e-06   7.628662520868437e-07   1.0934120796642194e-05
-3.226360988639695e-06   7.628662520868437e-07   1.0934120796642194e-05
-3.226360988639695e-06   7.628662520868437e-07   1.0934120796642194e-05
-1.8747451297777793e-06   5.261505043923026e-07   1.3424915268586831e-05
-1.8747451297777793e-06   5.261505043923026e-07   1.3424915268586831e-05
-1.8747451297777793e-06   5.261505043923026e-07   1.3424915268586831e-05
-1.8747451297777793e-06   5.261505043923026e-07   1.3424915268586831e-05
-4.710235358548325e-06   7.33415381925194e-07   8.823457147155776e-06
-4.710235358548325e-06   7.33415381925194e-07   8.823457147155776e-06
-4.710235358548325e-06   7.33415381925194e-07   8.823457147155776e-06
-4.710235358548325e-06   7.33415381925194e-07   8.823457147155776e-06
-4.864880012962796e-06   2.23489849100777e-07   1.3568635714189341e-05
-4.864880012962796e-06   2.23489849100777e-07   1.3568635714189341e-05
-4.864880012962796e-06   2.23489849100777e-07   1.3568635714189341e-05
-4.864880012962796e-06   2.23489849100777e-07   1.3568635714189341e-05
-2.119241327249091e-06   4.291713375595158e-07   8.869162344924514e-06
-2.119241327249091e-06   4.291713375595158e-07   8.869162344924514e-06
-2.119241327249091e-06   4.291713375595158e-07   8.869162344924514e-06
-2.119241327249091e-06   4.291713375595158e-07   8.869162344924514e-06
-3.379582153697301e-06   5.217249434347811e-07   1.0914198225479973e-05
-3.379582153697301e-06   5.217249434347811e-07   1.0914198225479973e-05
-3.379582153697301e-06   5.217249434347811e-07   1.0914198225479973e-05
-3.379582153697301e-06   5.217249434347811e-07   1.0914198225479973e-05
-2.1192413272490942e-06   2.2348984910066858e-07   1.3445226821114033e-05
-2.1192413272490942e-06   2.2348984910066858e-07   1.3445226821114033e-05
-2.1192413272490942e-06   2.2348984910066858e-07   1.3445226821114033e-05
-2.1192413272490942e-06   2.2348984910066858e-07   1.3445226821114033e-05
-4.864880012962796e-06   4.291713375595158e-07   8.992571237999812e-06
-4.864880012962796e-06   4.291713375595158e-07   8.992571237999812e-06
-4.864880012962796e-06   4.291713375595158e-07   8.992571237999812e-06
-4.864880012962796e-06   4.291713375595158e-07   8.992571237999812e-06
-5.01687547391753e-06   -8.445668580442899e-08   1.3824907708316018e-05
-5.01687547391753e-06   -8.445668580442899e-08   1.3824907708316018e-05
-5.01687547391753e-06   -8.445668580442899e-08   1.3824907708316018e-05
-5.01687547391753e-06   -8.445668580442899e-08   1.3824907708316018e-05
-2.324215432726095e-06   1.0106311368698363e-07   9.225829093302178e-06
-2.324215432726095e-06   1.0106311368698363e-07   9.225829093302178e-06
-2.324215432726095e-06   1.0106311368698363e-07   9.225829093302178e-06
-2.324215432726095e-06   1.0106311368698363e-07   9.225829093302178e-06
-3.532114144883955e-06   2.860721662628239e-07   1.112798818201975e-05
-3.532114144883955e-06   2.860721662628239e-07   1.112798818201975e-05
-3.532114144883955e-06   2.860721662628239e-07   1.112798818201975e-05
-3.532114144883955e-06   2.860721662628239e-07   1.112798818201975e-05
-4.560414361967641e-06   1.6658146164747313e-06   1.5283025258435693e-05
-4.560414361967641e-06   1.6658146164747313e-06   1.5283025258435693e-05
-4.560414361967641e-06   1.6658146164747313e-06   1.5283025258435693e-05
-4.560414361967641e-06   1.6658146164747313e-06   1.5283025258435693e-05
-7.425906196023715e-06   1.2859623759233765e-06   1.027929419067814e-05
-7.425906196023715e-06   1.2859623759233765e-06   1.027929419067814e-05
-7.425906196023715e-06   1.2859623759233765e-06   1.027929419067814e-05
-7.425906196023715e-06   1.2859623759233765e-06   1.027929419067814e-05
-7.553225850073818e-06   1.3364995384303711e-06   1.4999569855877136e-05
-7.553225850073818e-06   1.3364995384303711e-06   1.4999569855877136e-05
-7.553225850073818e-06   1.3364995384303711e-06   1.4999569855877136e-05
-7.553225850073818e-06   1.3364995384303711e-06   1.4999569855877136e-05
-4.710235358548325e-06   9.802309037062378e-07   1.0475013550835744e-05
-4.710235358548325e-06   9.802309037062378e-07   1.0475013550835744e-05
-4.710235358548325e-06   9.802309037062378e-07   1.0475013550835744e-05
-4.710235358548325e-06   9.802309037062378e-07   1.0475013550835744e-05
-6.066035529308193e-06   1.290542640007726e-06   1.25484934603213e-05
-6.066035529308193e-06   1.290542640007726e-06   1.25484934603213e-05
-6.066035529308193e-06   1.290542640007726e-06   1.25484934603213e-05
-6.066035529308193e-06   1.290542640007726e-06   1.25484934603213e-05
-4.710235358548325e-06   1.3364995384303711e-06   1.521333103671153e-05
-4.710235358548325e-06   1.3364995384303711e-06   1.521333103671153e-05
-4.710235358548325e-06   1.3364995384303711e-06   1.521333103671153e-05
-4.710235358548325e-06   1.3364995384303711e-06   1.521333103671153e-05
-7.553225850073818e-06   9.802309037062378e-07   1.0261252370001296e-05
-7.553225850073818e-06   9.802309037062378e-07   1.0261252370001296e-05
-7.553225850073818e-06   9.802309037062378e-07   1.0261252370001296e-05
-7.553225850073818e-06   9.802309037062378e-07   1.0261252370001296e-05
-7.689456192048452e-06   1.0089038397666358e-06   1.5145003271258852e-05
-7.689456192048452e-06   1.0089038397666358e-06   1.5145003271258852e-05
-7.689456192048452e-06   1.0089038397666358e-06   1.5145003271258852e-05
-7.689456192048452e-06   1.0089038397666358e-06   1.5145003271258852e-05
-4.864880012962796e-06   6.696186595197889e-07   1.0640947414264248e-05
-4.864880012962796e-06   6.696186595197889e-07   1.0640947414264248e-05
-4.864880012962796e-06   6.696186595197889e-07   1.0640947414264248e-05
-4.864880012962796e-06   6.696186595197889e-07   1.0640947414264248e-05
-6.1748508105416064e-06   1.0463314268967672e-06   1.2598204416469351e-05
-6.1748508105416064e-06   1.0463314268967672e-06   1.2598204416469351e-05
-6.1748508105416064e-06   1.0463314268967672e-06   1.2598204416469351e-05
-6.1748508105416064e-06   1.0463314268967672e-06   1.2598204416469351e-05
-4.864880012962796e-06   1.0089038397666358e-06   1.5348574379406982e-05
-4.864880012962796e-06   1.0089038397666358e-06   1.5348574379406982e-05
-4.864880012962796e-06   1.0089038397666358e-06   1.5348574379406982e-05
-4.864880012962796e-06   1.0089038397666358e-06   1.5348574379406982e-05
-7.689456192048452e-06   6.696186595197889e-07   1.0437376306116119e-05
-7.689456192048452e-06   6.696186595197889e-07   1.0437376306116119e-05
-7.689456192048452e-06   6.696186595197889e-07   1.0437376306116119e-05
-7.689456192048452e-06   6.696186595197889e-07   1.0437376306116119e-05
-7.822886122010072e-06   6.955149069546316e-07   1.5452604631398877e-05
-7.822886122010072e-06   6.955149069546316e-07   1.5452604631398877e-05
-7.822886122010072e-06   6.955149069546316e-07   1.5452604631398877e-05
-7.822886122010072e-06   6.955149069546316e-07   1.5452604631398877e-05
-5.01687547391753e-06   3.757185656224184e-07   1.0967798022710513e-05
-5.01687547391753e-06   3.757185656224184e-07   1.0967798022710513e-05
-5.01687547391753e-06   3.757185656224184e-07   1.0967798022710513e-05
-5.01687547391753e-06   3.757185656224184e-07   1.0967798022710513e-05
-6.296047992987753e-06   8.060260430796991e-07   1.2841567734686528e-05
-6.296047992987753e-06   8.060260430796991e-07   1.2841567734686528e-05
-6.296047992987753e-06   8.060260430796991e-07   1.2841567734686528e-05
-6.296047992987753e-06   8.060260430796991e-07   1.2841567734686528e-05
-7.425906196023715e-06   2.482180135077584e-06   1.322368092048355e-05
-7.425906196023715e-06   2.482180135077584e-06   1.322368092048355e-05
-7.425906196023715e-06   2.482180135077584e-06   1.322368092048355e-05
-7.425906196023715e-06   2.482180135077584e-06   1.322368092048355e-05
-1.0247966374135972e-05   1.7445690827283446e-06   8.077680658886836e-06
-1.0247966374135972e-05   1.7445690827283446e-06   8.077680658886836e-06
-1.0247966374135972e-05   1.7445690827283446e-06   8.077680658886836e-06
-1.0247966374135972e-05   1.7445690827283446e-06   8.077680658886836e-06
-1.0388039677638273e-05   2.1505821133404115e-06   1.2835934082176836e-05
-1.0388039677638273e-05   2.1505821133404115e-06   1.2835934082176836e-05
-1.0388039677638273e-05   2.1505821133404115e-06   1.2835934082176836e-05
-1.0388039677638273e-05   2.1505821133404115e-06   1.2835934082176836e-05
-7.553225850073818e-06   1.423050436951995e-06   8.54776337540252e-06
-7.553225850073818e-06   1.423050436951995e-06   8.54776337540252e-06
-7.553225850073818e-06   1.423050436951995e-06   8.54776337540252e-06
-7.553225850073818e-06   1.423050436951995e-06   8.54776337540252e-06
-8.88489349239218e-06   1.9319269688455876e-06   1.0461883526796938e-05
-8.88489349239218e-06   1.9319269688455876e-06   1.0461883526796938e-05
-8.88489349239218e-06   1.9319269688455876e-06   1.0461883526796938e-05
-8.88489349239218e-06   1.9319269688455876e-06   1.0461883526796938e-05
-7.553225850073818e-06   2.1505821133404115e-06   1.3272453088009973e-05
-7.553225850073818e-06   2.1505821133404115e-06   1.3272453088009973e-05
-7.553225850073818e-06   2.1505821133404115e-06   1.3272453088009973e-05
-7.553225850073818e-06   2.1505821133404115e-06   1.3272453088009973e-05
-1.0388039677638219e-05   1.423050436951995e-06   8.111244369569411e-06
-1.0388039677638219e-05   1.423050436951995e-06   8.111244369569411e-06
-1.0388039677638219e-05   1.423050436951995e-06   8.111244369569411e-06
-1.0388039677638219e-05   1.423050436951995e-06   8.111244369569411e-06
-1.0580545869978746e-05   1.8483834276066544e-06   1.3260519845963983e-05
-1.0580545869978746e-05   1.8483834276066544e-06   1.3260519845963983e-05
-1.0580545869978746e-05   1.8483834276066544e-06   1.3260519845963983e-05
-1.0580545869978746e-05   1.8483834276066544e-06   1.3260519845963983e-05
-7.689456192048452e-06   1.1364589216220555e-06   8.869191753004316e-06
-7.689456192048452e-06   1.1364589216220555e-06   8.869191753004316e-06
-7.689456192048452e-06   1.1364589216220555e-06   8.869191753004316e-06
-7.689456192048452e-06   1.1364589216220555e-06   8.869191753004316e-06
-8.9609544814206e-06   1.6952845726416182e-06   1.0653060178012754e-05
-8.9609544814206e-06   1.6952845726416182e-06   1.0653060178012754e-05
-8.9609544814206e-06   1.6952845726416182e-06   1.0653060178012754e-05
-8.9609544814206e-06   1.6952845726416182e-06   1.0653060178012754e-05
-7.689456192048452e-06   1.8483834276067628e-06   1.3687674549554634e-05
-7.689456192048452e-06   1.8483834276067628e-06   1.3687674549554634e-05
-7.689456192048452e-06   1.8483834276067628e-06   1.3687674549554634e-05
-7.689456192048452e-06   1.8483834276067628e-06   1.3687674549554634e-05
-1.0580545869978692e-05   1.136458921621947e-06   8.442037049413476e-06
-1.0580545869978692e-05   1.136458921621947e-06   8.442037049413476e-06
-1.0580545869978692e-05   1.136458921621947e-06   8.442037049413476e-06
-1.0580545869978692e-05   1.136458921621947e-06   8.442037049413476e-06
-1.073462417028586e-05   1.5246738058612933e-06   1.3730858089475444e-05
-1.073462417028586e-05   1.5246738058612933e-06   1.3730858089475444e-05
-1.073462417028586e-05   1.5246738058612933e-06   1.3730858089475444e-05
-1.073462417028586e-05   1.5246738058612933e-06   1.3730858089475444e-05
-7.822886122010045e-06   8.439109051028033e-07   9.286419082804354e-06
-7.822886122010045e-06   8.439109051028033e-07   9.286419082804354e-06
-7.822886122010045e-06   8.439109051028033e-07   9.286419082804354e-06
-7.822886122010045e-06   8.439109051028033e-07   9.286419082804354e-06
-9.120993130597624e-06   1.4696064261971635e-06   1.1074513451127179e-05
-9.120993130597624e-06   1.4696064261971635e-06   1.1074513451127179e-05
-9.120993130597624e-06   1.4696064261971635e-06   1.1074513451127179e-05
-9.120993130597624e-06   1.4696064261971635e-06   1.1074513451127179e-05
-1.0247966374135972e-05   3.065661066657373e-06   5.855142201495131e-06
-1.0247966374135972e-05   3.065661066657373e-06   5.855142201495131e-06
-1.0247966374135972e-05   3.065661066657373e-06   5.855142201495131e-06
-1.0247966374135972e-05   3.065661066657373e-06   5.855142201495131e-06
-1.2491078569970354e-05   2.071697683954962e-06   1.5202438454831112e-06
-1.2491078569970354e-05   2.071697683954962e-06   1.5202438454831112e-06
-1.2491078569970354e-05   2.071697683954962e-06   1.5202438454831112e-06
-1.2491078569970354e-05   2.071697683954962e-06   1.5202438454831112e-06
-1.3019043167499813e-05   2.896861751257654e-06   6.872746855611641e-06
-1.3019043167499813e-05   2.896861751257654e-06   6.872746855611641e-06
-1.3019043167499813e-05   2.896861751257654e-06   6.872746855611641e-06
-1.3019043167499813e-05   2.896861751257654e-06   6.872746855611641e-06
-1.0388039677638273e-05   1.8579088195267617e-06   3.1111127982141602e-06
-1.0388039677638273e-05   1.8579088195267617e-06   3.1111127982141602e-06
-1.0388039677638273e-05   1.8579088195267617e-06   3.1111127982141602e-06
-1.0388039677638273e-05   1.8579088195267617e-06   3.1111127982141602e-06
-1.1135578340363482e-05   2.446136313903331e-06   4.004074072796885e-06
-1.1135578340363482e-05   2.446136313903331e-06   4.004074072796885e-06
-1.1135578340363482e-05   2.446136313903331e-06   4.004074072796885e-06
-1.1135578340363482e-05   2.446136313903331e-06   4.004074072796885e-06
-1.0388039677638219e-05   2.896861751257654e-06   7.496118614650068e-06
-1.0388039677638219e-05   2.896861751257654e-06   7.496118614650068e-06
-1.0388039677638219e-05   2.896861751257654e-06   7.496118614650068e-06
-1.0388039677638219e-05   2.896861751257654e-06   7.496118614650068e-06
-1.3019043167499894e-05   1.8579088195266533e-06   2.4877410391755707e-06
-1.3019043167499894e-05   1.8579088195266533e-06   2.4877410391755707e-06
-1.3019043167499894e-05   1.8579088195266533e-06   2.4877410391755707e-06
-1.3019043167499894e-05   1.8579088195266533e-06   2.4877410391755707e-06
-1.3471516042110011e-05   2.7543574037562158e-06   8.09287895609705e-06
-1.3471516042110011e-05   2.7543574037562158e-06   8.09287895609705e-06
-1.3471516042110011e-05   2.7543574037562158e-06   8.09287895609705e-06
-1.3471516042110011e-05   2.7543574037562158e-06   8.09287895609705e-06
-1.0580545869978746e-05   1.7105864095678588e-06   3.90085793239124e-06
-1.0580545869978746e-05   1.7105864095678588e-06   3.90085793239124e-06
-1.0580545869978746e-05   1.7105864095678588e-06   3.90085793239124e-06
-1.0580545869978746e-05   1.7105864095678588e-06   3.90085793239124e-06
-1.1584315329016509e-05   2.3632917207751583e-06   5.1821838440635135e-06
-1.1584315329016509e-05   2.3632917207751583e-06   5.1821838440635135e-06
-1.1584315329016509e-05   2.3632917207751583e-06   5.1821838440635135e-06
-1.1584315329016509e-05   2.3632917207751583e-06   5.1821838440635135e-06
-1.0580545869978746e-05   2.7543574037562158e-06   8.719141552609988e-06
-1.0580545869978746e-05   2.7543574037562158e-06   8.719141552609988e-06
-1.0580545869978746e-05   2.7543574037562158e-06   8.719141552609988e-06
-1.0580545869978746e-05   2.7543574037562158e-06   8.719141552609988e-06
-1.3471516042110038e-05   1.7105864095679673e-06   3.2745953358782475e-06
-1.3471516042110038e-05   1.7105864095679673e-06   3.2745953358782475e-06
-1.3471516042110038e-05   1.7105864095679673e-06   3.2745953358782475e-06
-1.3471516042110038e-05   1.7105864095679673e-06   3.2745953358782475e-06
-1.404588236890989e-05   2.36436880437054e-06   1.0298964429603834e-05
-1.404588236890989e-05   2.36436880437054e-06   1.0298964429603834e-05
-1.404588236890989e-05   2.36436880437054e-06   1.0298964429603834e-05
-1.404588236890989e-05   2.36436880437054e-06   1.0298964429603834e-05
-1.073462417028586e-05   1.3698356231321923e-06   5.376920673973498e-06
-1.073462417028586e-05   1.3698356231321923e-06   5.376920673973498e-06
-1.073462417028586e-05   1.3698356231321923e-06   5.376920673973498e-06
-1.073462417028586e-05   1.3698356231321923e-06   5.376920673973498e-06
-1.1710305706207319e-05   2.201136575899856e-06   6.504275995515237e-06
-1.1710305706207319e-05   2.201136575899856e-06   6.504275995515237e-06
-1.1710305706207319e-05   2.201136575899856e-06   6.504275995515237e-06
-1.1710305706207319e-05   2.201136575899856e-06   6.504275995515237e-06
-4.86822821572817e-06   8.957942232899968e-07   6.132633079516654e-06
-4.86822821572817e-06   8.957942232899968e-07   6.132633079516654e-06
-4.86822821572817e-06   8.957942232899968e-07   6.132633079516654e-06
-4.86822821572817e-06   8.957942232899968e-07   6.132633079516654e-06
-5.430929609286691e-06   1.7114491749360672e-06   5.684190394573475e-06
-5.430929609286691e-06   1.7114491749360672e-06   5.684190394573475e-06
-5.430929609286691e-06   1.7114491749360672e-06   5.684190394573475e-06
-5.430929609286691e-06   1.7114491749360672e-06   5.684190394573475e-06
-5.575988416370891e-06   5.985192303091221e-07   6.558480307123596e-06
-5.575988416370891e-06   5.985192303091221e-07   6.558480307123596e-06
-5.575988416370891e-06   5.985192303091221e-07   6.558480307123596e-06
-5.575988416370891e-06   5.985192303091221e-07   6.558480307123596e-06
-5.468100099597247e-06   1.3332124829211326e-06   5.9378504942670345e-06
-5.468100099597247e-06   1.3332124829211326e-06   5.9378504942670345e-06
-5.468100099597247e-06   1.3332124829211326e-06   5.9378504942670345e-06
-5.468100099597247e-06   1.3332124829211326e-06   5.9378504942670345e-06
-5.206485488414419e-06   1.0586326730411969e-06   5.666574028223612e-06
-5.206485488414419e-06   1.0586326730411969e-06   5.666574028223612e-06
-5.206485488414419e-06   1.0586326730411969e-06   5.666574028223612e-06
-5.206485488414419e-06   1.0586326730411969e-06   5.666574028223612e-06
-5.468100099597254e-06   5.985192303091221e-07   6.11766435555639e-06
-5.468100099597254e-06   5.985192303091221e-07   6.11766435555639e-06
-5.468100099597254e-06   5.985192303091221e-07   6.11766435555639e-06
-5.468100099597254e-06   5.985192303091221e-07   6.11766435555639e-06
-5.575988416370891e-06   1.3332124829211326e-06   6.3786664458342e-06
-5.575988416370891e-06   1.3332124829211326e-06   6.3786664458342e-06
-5.575988416370891e-06   1.3332124829211326e-06   6.3786664458342e-06
-5.575988416370891e-06   1.3332124829211326e-06   6.3786664458342e-06
-5.7640533896480605e-06   4.3646117947886316e-07   6.748950595710163e-06
-5.7640533896480605e-06   4.3646117947886316e-07   6.748950595710163e-06
-5.7640533896480605e-06   4.3646117947886316e-07   6.748950595710163e-06
-5.7640533896480605e-06   4.3646117947886316e-07   6.748950595710163e-06
-6.05277470557011e-06   1.0732738414203323e-06   6.848065191748592e-06
-6.05277470557011e-06   1.0732738414203323e-06   6.848065191748592e-06
-6.05277470557011e-06   1.0732738414203323e-06   6.848065191748592e-06
-6.05277470557011e-06   1.0732738414203323e-06   6.848065191748592e-06
-5.562936101854201e-06   8.959491751092761e-07   6.1380623186751645e-06
-5.562936101854201e-06   8.959491751092761e-07   6.1380623186751645e-06
-5.562936101854201e-06   8.959491751092761e-07   6.1380623186751645e-06
-5.562936101854201e-06   8.959491751092761e-07   6.1380623186751645e-06
-6.052774705570123e-06   4.3646117947886316e-07   6.366862998545076e-06
-6.052774705570123e-06   4.3646117947886316e-07   6.366862998545076e-06
-6.052774705570123e-06   4.3646117947886316e-07   6.366862998545076e-06
-6.052774705570123e-06   4.3646117947886316e-07   6.366862998545076e-06
-5.7640533896480605e-06   1.0732738414203323e-06   7.2301527889134624e-06
-5.7640533896480605e-06   1.0732738414203323e-06   7.2301527889134624e-06
-5.7640533896480605e-06   1.0732738414203323e-06   7.2301527889134624e-06
-5.7640533896480605e-06   1.0732738414203323e-06   7.2301527889134624e-06
-5.885703923755438e-06   9.427344507025991e-08   7.387800867744818e-06
-5.885703923755438e-06   9.427344507025991e-08   7.387800867744818e-06
-5.885703923755438e-06   9.427344507025991e-08   7.387800867744818e-06
-5.885703923755438e-06   9.427344507025991e-08   7.387800867744818e-06
-6.6760784054781025e-06   4.347805311994096e-07   8.500787418938324e-06
-6.6760784054781025e-06   4.347805311994096e-07   8.500787418938324e-06
-6.6760784054781025e-06   4.347805311994096e-07   8.500787418938324e-06
-6.6760784054781025e-06   4.347805311994096e-07   8.500787418938324e-06
-5.81878608062221e-06   6.982232198277528e-07   6.91390126433462e-06
-5.81878608062221e-06   6.982232198277528e-07   6.91390126433462e-06
-5.81878608062221e-06   6.982232198277528e-07   6.91390126433462e-06
-5.81878608062221e-06   6.982232198277528e-07   6.91390126433462e-06
-5.430929609286681e-06   1.0645422399469017e-06   1.2088354484796114e-05
-5.430929609286681e-06   1.0645422399469017e-06   1.2088354484796114e-05
-5.430929609286681e-06   1.0645422399469017e-06   1.2088354484796114e-05
-5.430929609286681e-06   1.0645422399469017e-06   1.2088354484796114e-05
-5.57050924753981e-06   4.439840105533062e-07   1.1483386816738076e-05
-5.57050924753981e-06   4.439840105533062e-07   1.1483386816738076e-05
-5.57050924753981e-06   4.439840105533062e-07   1.1483386816738076e-05
-5.57050924753981e-06   4.439840105533062e-07   1.1483386816738076e-05
-5.618242901888679e-06   7.334153819250856e-07   1.1629309186719284e-05
-5.618242901888679e-06   7.334153819250856e-07   1.1629309186719284e-05
-5.618242901888679e-06   7.334153819250856e-07   1.1629309186719284e-05
-5.618242901888679e-06   7.334153819250856e-07   1.1629309186719284e-05
-5.575988416370891e-06   2.0982762633208873e-07   1.1873037697545457e-05
-5.575988416370891e-06   2.0982762633208873e-07   1.1873037697545457e-05
-5.575988416370891e-06   2.0982762633208873e-07   1.1873037697545457e-05
-5.575988416370891e-06   2.0982762633208873e-07   1.1873037697545457e-05
-5.533367498354661e-06   5.408334035580161e-07   1.1603399367849545e-05
-5.533367498354661e-06   5.408334035580161e-07   1.1603399367849545e-05
-5.533367498354661e-06   5.408334035580161e-07   1.1603399367849545e-05
-5.533367498354661e-06   5.408334035580161e-07   1.1603399367849545e-05
-5.575988416370883e-06   7.334153819250856e-07   1.1943461840074909e-05
-5.575988416370883e-06   7.334153819250856e-07   1.1943461840074909e-05
-5.575988416370883e-06   7.334153819250856e-07   1.1943461840074909e-05
-5.575988416370883e-06   7.334153819250856e-07   1.1943461840074909e-05
-5.618242901888666e-06   2.0982762633208873e-07   1.1558885044189629e-05
-5.618242901888666e-06   2.0982762633208873e-07   1.1558885044189629e-05
-5.618242901888666e-06   2.0982762633208873e-07   1.1558885044189629e-05
-5.618242901888666e-06   2.0982762633208873e-07   1.1558885044189629e-05
-5.676822752464998e-06   4.2917133755962424e-07   1.178112636939058e-05
-5.676822752464998e-06   4.2917133755962424e-07   1.178112636939058e-05
-5.676822752464998e-06   4.2917133755962424e-07   1.178112636939058e-05
-5.676822752464998e-06   4.2917133755962424e-07   1.178112636939058e-05
-5.7640533896480605e-06   -5.8924630297232505e-08   1.2219368345409654e-05
-5.7640533896480605e-06   -5.8924630297232505e-08   1.2219368345409654e-05
-5.7640533896480605e-06   -5.8924630297232505e-08   1.2219368345409654e-05
-5.7640533896480605e-06   -5.8924630297232505e-08   1.2219368345409654e-05
-5.591249395216538e-06   3.4835771972325895e-07   1.1686992278011355e-05
-5.591249395216538e-06   3.4835771972325895e-07   1.1686992278011355e-05
-5.591249395216538e-06   3.4835771972325895e-07   1.1686992278011355e-05
-5.591249395216538e-06   3.4835771972325895e-07   1.1686992278011355e-05
-5.7640533896480605e-06   4.2917133755962424e-07   1.2073983950104423e-05
-5.7640533896480605e-06   4.2917133755962424e-07   1.2073983950104423e-05
-5.7640533896480605e-06   4.2917133755962424e-07   1.2073983950104423e-05
-5.7640533896480605e-06   4.2917133755962424e-07   1.2073983950104423e-05
-5.676822752464998e-06   -5.8924630297232505e-08   1.1926510764695533e-05
-5.676822752464998e-06   -5.8924630297232505e-08   1.1926510764695533e-05
-5.676822752464998e-06   -5.8924630297232505e-08   1.1926510764695533e-05
-5.676822752464998e-06   -5.8924630297232505e-08   1.1926510764695533e-05
-5.721080492265747e-06   1.0106311368698363e-07   1.2112567022234174e-05
-5.721080492265747e-06   1.0106311368698363e-07   1.2112567022234174e-05
-5.721080492265747e-06   1.0106311368698363e-07   1.2112567022234174e-05
-5.721080492265747e-06   1.0106311368698363e-07   1.2112567022234174e-05
-5.885703923755435e-06   -4.103841301543389e-07   1.2693807754355016e-05
-5.885703923755435e-06   -4.103841301543389e-07   1.2693807754355016e-05
-5.885703923755435e-06   -4.103841301543389e-07   1.2693807754355016e-05
-5.885703923755435e-06   -4.103841301543389e-07   1.2693807754355016e-05
-5.6801333629964205e-06   1.2384318028512645e-07   1.2030653766826054e-05
-5.6801333629964205e-06   1.2384318028512645e-07   1.2030653766826054e-05
-5.6801333629964205e-06   1.2384318028512645e-07   1.2030653766826054e-05
-5.6801333629964205e-06   1.2384318028512645e-07   1.2030653766826054e-05
-5.570509247539824e-06   1.2859623759233765e-06   1.333152098169062e-05
-5.570509247539824e-06   1.2859623759233765e-06   1.333152098169062e-05
-5.570509247539824e-06   1.2859623759233765e-06   1.333152098169062e-05
-5.570509247539824e-06   1.2859623759233765e-06   1.333152098169062e-05
-6.05183662726432e-06   1.249413872207272e-07   1.1832696088928202e-05
-6.05183662726432e-06   1.249413872207272e-07   1.1832696088928202e-05
-6.05183662726432e-06   1.249413872207272e-07   1.1832696088928202e-05
-6.05183662726432e-06   1.249413872207272e-07   1.1832696088928202e-05
-6.070716063918095e-06   9.802309037062378e-07   1.2650044493022882e-05
-6.070716063918095e-06   9.802309037062378e-07   1.2650044493022882e-05
-6.070716063918095e-06   9.802309037062378e-07   1.2650044493022882e-05
-6.070716063918095e-06   9.802309037062378e-07   1.2650044493022882e-05
-5.618242901888666e-06   -7.11375919210176e-08   1.2526743653683536e-05
-5.618242901888666e-06   -7.11375919210176e-08   1.2526743653683536e-05
-5.618242901888666e-06   -7.11375919210176e-08   1.2526743653683536e-05
-5.618242901888666e-06   -7.11375919210176e-08   1.2526743653683536e-05
-5.818577407751133e-06   5.595460993199726e-07   1.2482224282043045e-05
-5.818577407751133e-06   5.595460993199726e-07   1.2482224282043045e-05
-5.818577407751133e-06   5.595460993199726e-07   1.2482224282043045e-05
-5.818577407751133e-06   5.595460993199726e-07   1.2482224282043045e-05
-5.618242901888679e-06   9.802309037063462e-07   1.3280865590399225e-05
-5.618242901888679e-06   9.802309037063462e-07   1.3280865590399225e-05
-5.618242901888679e-06   9.802309037063462e-07   1.3280865590399225e-05
-5.618242901888679e-06   9.802309037063462e-07   1.3280865590399225e-05
-6.070716063918095e-06   -7.11375919209634e-08   1.1895922556307166e-05
-6.070716063918095e-06   -7.11375919209634e-08   1.1895922556307166e-05
-6.070716063918095e-06   -7.11375919209634e-08   1.1895922556307166e-05
-6.070716063918095e-06   -7.11375919209634e-08   1.1895922556307166e-05
-6.1017586405726185e-06   6.696186595197889e-07   1.2844247406484108e-05
-6.1017586405726185e-06   6.696186595197889e-07   1.2844247406484108e-05
-6.1017586405726185e-06   6.696186595197889e-07   1.2844247406484108e-05
-6.1017586405726185e-06   6.696186595197889e-07   1.2844247406484108e-05
-5.676822752464998e-06   -3.058065724317058e-07   1.2721276065475509e-05
-5.676822752464998e-06   -3.058065724317058e-07   1.2721276065475509e-05
-5.676822752464998e-06   -3.058065724317058e-07   1.2721276065475509e-05
-5.676822752464998e-06   -3.058065724317058e-07   1.2721276065475509e-05
-5.8257986502539415e-06   3.6607040341466845e-07   1.2566443042948887e-05
-5.8257986502539415e-06   3.6607040341466845e-07   1.2566443042948887e-05
-5.8257986502539415e-06   3.6607040341466845e-07   1.2566443042948887e-05
-5.8257986502539415e-06   3.6607040341466845e-07   1.2566443042948887e-05
-5.676822752464998e-06   6.696186595197889e-07   1.3429502545654799e-05
-5.676822752464998e-06   6.696186595197889e-07   1.3429502545654799e-05
-5.676822752464998e-06   6.696186595197889e-07   1.3429502545654799e-05
-5.676822752464998e-06   6.696186595197889e-07   1.3429502545654799e-05
-6.101758640572591e-06   -3.058065724316516e-07   1.2136020926304601e-05
-6.101758640572591e-06   -3.058065724316516e-07   1.2136020926304601e-05
-6.101758640572591e-06   -3.058065724316516e-07   1.2136020926304601e-05
-6.101758640572591e-06   -3.058065724316516e-07   1.2136020926304601e-05
-6.12326035729434e-06   3.757185656224184e-07   1.3193567737448681e-05
-6.12326035729434e-06   3.757185656224184e-07   1.3193567737448681e-05
-6.12326035729434e-06   3.757185656224184e-07   1.3193567737448681e-05
-6.12326035729434e-06   3.757185656224184e-07   1.3193567737448681e-05
-5.721080492265747e-06   -5.403753252093257e-07   1.3072924296900017e-05
-5.721080492265747e-06   -5.403753252093257e-07   1.3072924296900017e-05
-5.721080492265747e-06   -5.403753252093257e-07   1.3072924296900017e-05
-5.721080492265747e-06   -5.403753252093257e-07   1.3072924296900017e-05
-5.842923714884431e-06   1.673956057454554e-07   1.285133377602459e-05
-5.842923714884431e-06   1.673956057454554e-07   1.285133377602459e-05
-5.842923714884431e-06   1.673956057454554e-07   1.285133377602459e-05
-5.842923714884431e-06   1.673956057454554e-07   1.285133377602459e-05
-6.05183662726432e-06   1.7445690827283446e-06   1.0875861488087281e-05
-6.05183662726432e-06   1.7445690827283446e-06   1.0875861488087281e-05
-6.05183662726432e-06   1.7445690827283446e-06   1.0875861488087281e-05
-6.05183662726432e-06   1.7445690827283446e-06   1.0875861488087281e-05
-6.72410418333546e-06   5.75820036338747e-07   9.054166133468295e-06
-6.72410418333546e-06   5.75820036338747e-07   9.054166133468295e-06
-6.72410418333546e-06   5.75820036338747e-07   9.054166133468295e-06
-6.72410418333546e-06   5.75820036338747e-07   9.054166133468295e-06
-6.739413260217081e-06   1.423050436951995e-06   1.0272868510588723e-05
-6.739413260217081e-06   1.423050436951995e-06   1.0272868510588723e-05
-6.739413260217081e-06   1.423050436951995e-06   1.0272868510588723e-05
-6.739413260217081e-06   1.423050436951995e-06   1.0272868510588723e-05
-6.070716063918095e-06   3.169054572263832e-07   9.822060171259212e-06
-6.070716063918095e-06   3.169054572263832e-07   9.822060171259212e-06
-6.070716063918095e-06   3.169054572263832e-07   9.822060171259212e-06
-6.070716063918095e-06   3.169054572263832e-07   9.822060171259212e-06
-6.379922324027971e-06   1.0376972238339082e-06   9.904928878144519e-06
-6.379922324027971e-06   1.0376972238339082e-06   9.904928878144519e-06
-6.379922324027971e-06   1.0376972238339082e-06   9.904928878144519e-06
-6.379922324027971e-06   1.0376972238339082e-06   9.904928878144519e-06
-6.070716063918095e-06   1.423050436951995e-06   1.093655549842408e-05
-6.070716063918095e-06   1.423050436951995e-06   1.093655549842408e-05
-6.070716063918095e-06   1.423050436951995e-06   1.093655549842408e-05
-6.070716063918095e-06   1.423050436951995e-06   1.093655549842408e-05
-6.739413260217081e-06   3.16905457226329e-07   9.158373183423856e-06
-6.739413260217081e-06   3.16905457226329e-07   9.158373183423856e-06
-6.739413260217081e-06   3.16905457226329e-07   9.158373183423856e-06
-6.739413260217081e-06   3.16905457226329e-07   9.158373183423856e-06
-6.815952146567829e-06   1.136458921621947e-06   1.0651113621995795e-05
-6.815952146567829e-06   1.136458921621947e-06   1.0651113621995795e-05
-6.815952146567829e-06   1.136458921621947e-06   1.0651113621995795e-05
-6.815952146567829e-06   1.136458921621947e-06   1.0651113621995795e-05
-6.1017586405726185e-06   9.487686932786992e-08   1.0085740343380062e-05
-6.1017586405726185e-06   9.487686932786992e-08   1.0085740343380062e-05
-6.1017586405726185e-06   9.487686932786992e-08   1.0085740343380062e-05
-6.1017586405726185e-06   9.487686932786992e-08   1.0085740343380062e-05
-6.365540651820186e-06   8.257935227552423e-07   1.0086827036735833e-05
-6.365540651820186e-06   8.257935227552423e-07   1.0086827036735833e-05
-6.365540651820186e-06   8.257935227552423e-07   1.0086827036735833e-05
-6.365540651820186e-06   8.257935227552423e-07   1.0086827036735833e-05
-6.1017586405726185e-06   1.136458921621947e-06   1.1276062853371926e-05
-6.1017586405726185e-06   1.136458921621947e-06   1.1276062853371926e-05
-6.1017586405726185e-06   1.136458921621947e-06   1.1276062853371926e-05
-6.1017586405726185e-06   1.136458921621947e-06   1.1276062853371926e-05
-6.815952146567829e-06   9.487686932786992e-08   9.460791112003632e-06
-6.815952146567829e-06   9.487686932786992e-08   9.460791112003632e-06
-6.815952146567829e-06   9.487686932786992e-08   9.460791112003632e-06
-6.815952146567829e-06   9.487686932786992e-08   9.460791112003632e-06
-6.8627481610223685e-06   8.439109051028033e-07   1.1120226989531435e-05
-6.8627481610223685e-06   8.439109051028033e-07   1.1120226989531435e-05
-6.8627481610223685e-06   8.439109051028033e-07   1.1120226989531435e-05
-6.8627481610223685e-06   8.439109051028033e-07   1.1120226989531435e-05
-6.12326035729434e-06   -1.291551162478882e-07   1.0471586929461618e-05
-6.12326035729434e-06   -1.291551162478882e-07   1.0471586929461618e-05
-6.12326035729434e-06   -1.291551162478882e-07   1.0471586929461618e-05
-6.12326035729434e-06   -1.291551162478882e-07   1.0471586929461618e-05
-6.401530535400708e-06   6.360915118371014e-07   1.0476222582787636e-05
-6.401530535400708e-06   6.360915118371014e-07   1.0476222582787636e-05
-6.401530535400708e-06   6.360915118371014e-07   1.0476222582787636e-05
-6.401530535400708e-06   6.360915118371014e-07   1.0476222582787636e-05
-6.72410418333546e-06   2.071697683954962e-06   4.213553276471223e-06
-6.72410418333546e-06   2.071697683954962e-06   4.213553276471223e-06
-6.72410418333546e-06   2.071697683954962e-06   4.213553276471223e-06
-6.72410418333546e-06   2.071697683954962e-06   4.213553276471223e-06
-6.701303120925186e-06   9.562274573937223e-07   3.5822729112183033e-06
-6.701303120925186e-06   9.562274573937223e-07   3.5822729112183033e-06
-6.701303120925186e-06   9.562274573937223e-07   3.5822729112183033e-06
-6.701303120925186e-06   9.562274573937223e-07   3.5822729112183033e-06
-7.046197171901012e-06   1.8579088195266533e-06   4.621243192168127e-06
-7.046197171901012e-06   1.8579088195266533e-06   4.621243192168127e-06
-7.046197171901012e-06   1.8579088195266533e-06   4.621243192168127e-06
-7.046197171901012e-06   1.8579088195266533e-06   4.621243192168127e-06
-6.7394132602170535e-06   7.720859077511941e-07   4.761430419760154e-06
-6.7394132602170535e-06   7.720859077511941e-07   4.761430419760154e-06
-6.7394132602170535e-06   7.720859077511941e-07   4.761430419760154e-06
-6.7394132602170535e-06   7.720859077511941e-07   4.761430419760154e-06
-6.581169894177418e-06   1.4601537830416424e-06   4.084850751186577e-06
-6.581169894177418e-06   1.4601537830416424e-06   4.084850751186577e-06
-6.581169894177418e-06   1.4601537830416424e-06   4.084850751186577e-06
-6.581169894177418e-06   1.4601537830416424e-06   4.084850751186577e-06
-6.7394132602170535e-06   1.8579088195267617e-06   5.272736939233283e-06
-6.7394132602170535e-06   1.8579088195267617e-06   5.272736939233283e-06
-6.7394132602170535e-06   1.8579088195267617e-06   5.272736939233283e-06
-6.7394132602170535e-06   1.8579088195267617e-06   5.272736939233283e-06
-7.046197171901012e-06   7.720859077512483e-07   4.109936672694862e-06
-7.046197171901012e-06   7.720859077512483e-07   4.109936672694862e-06
-7.046197171901012e-06   7.720859077512483e-07   4.109936672694862e-06
-7.046197171901012e-06   7.720859077512483e-07   4.109936672694862e-06
-7.3485847682922315e-06   1.7105864095679673e-06   5.474727906024947e-06
-7.3485847682922315e-06   1.7105864095679673e-06   5.474727906024947e-06
-7.3485847682922315e-06   1.7105864095679673e-06   5.474727906024947e-06
-7.3485847682922315e-06   1.7105864095679673e-06   5.474727906024947e-06
-6.815952146567802e-06   6.51908744653696e-07   5.222213468766032e-06
-6.815952146567802e-06   6.51908744653696e-07   5.222213468766032e-06
-6.815952146567802e-06   6.51908744653696e-07   5.222213468766032e-06
-6.815952146567802e-06   6.51908744653696e-07   5.222213468766032e-06
-6.8285198245318315e-06   1.3540201154212247e-06   4.821892776245306e-06
-6.8285198245318315e-06   1.3540201154212247e-06   4.821892776245306e-06
-6.8285198245318315e-06   1.3540201154212247e-06   4.821892776245306e-06
-6.8285198245318315e-06   1.3540201154212247e-06   4.821892776245306e-06
-6.815952146567829e-06   1.7105864095678588e-06   6.109934504973423e-06
-6.815952146567829e-06   1.7105864095678588e-06   6.109934504973423e-06
-6.815952146567829e-06   1.7105864095678588e-06   6.109934504973423e-06
-6.815952146567829e-06   1.7105864095678588e-06   6.109934504973423e-06
-7.348584768292286e-06   6.519087446536418e-07   4.587006869817529e-06
-7.348584768292286e-06   6.519087446536418e-07   4.587006869817529e-06
-7.348584768292286e-06   6.519087446536418e-07   4.587006869817529e-06
-7.348584768292286e-06   6.519087446536418e-07   4.587006869817529e-06
-7.794579774702192e-06   1.369835623132084e-06   7.041814349364366e-06
-7.794579774702192e-06   1.369835623132084e-06   7.041814349364366e-06
-7.794579774702192e-06   1.369835623132084e-06   7.041814349364366e-06
-7.794579774702192e-06   1.369835623132084e-06   7.041814349364366e-06
-6.862748161022341e-06   4.0754900347989573e-07   6.066133631689203e-06
-6.862748161022341e-06   4.0754900347989573e-07   6.066133631689203e-06
-6.862748161022341e-06   4.0754900347989573e-07   6.066133631689203e-06
-6.862748161022341e-06   4.0754900347989573e-07   6.066133631689203e-06
-6.91250156064434e-06   1.2257653311457234e-06   5.658126167792433e-06
-6.91250156064434e-06   1.2257653311457234e-06   5.658126167792433e-06
-6.91250156064434e-06   1.2257653311457234e-06   5.658126167792433e-06
-6.91250156064434e-06   1.2257653311457234e-06   5.658126167792433e-06
-1.2915063177917e-05   1.7114491749360672e-06   5.168665560760044e-06
-1.2915063177917e-05   1.7114491749360672e-06   5.168665560760044e-06
-1.2915063177917e-05   1.7114491749360672e-06   5.168665560760044e-06
-1.2915063177917e-05   1.7114491749360672e-06   5.168665560760044e-06
-8.767398237890922e-06   2.36389615627445e-06   1.2472908649606565e-05
-8.767398237890922e-06   2.36389615627445e-06   1.2472908649606565e-05
-8.767398237890922e-06   2.36389615627445e-06   1.2472908649606565e-05
-8.767398237890922e-06   2.36389615627445e-06   1.2472908649606565e-05
-8.76654651580747e-06   1.3332124829211326e-06   5.826326048168453e-06
-8.76654651580747e-06   1.3332124829211326e-06   5.826326048168453e-06
-8.76654651580747e-06   1.3332124829211326e-06   5.826326048168453e-06
-8.76654651580747e-06   1.3332124829211326e-06   5.826326048168453e-06
-1.4252849830745311e-05   9.339044979942161e-07   1.5209749697354445e-05
-1.4252849830745311e-05   9.339044979942161e-07   1.5209749697354445e-05
-1.4252849830745311e-05   9.339044979942161e-07   1.5209749697354445e-05
-1.4252849830745311e-05   9.339044979942161e-07   1.5209749697354445e-05
-1.0597775480834702e-05   1.3952996628036952e-06   8.841122015284417e-06
-1.0597775480834702e-05   1.3952996628036952e-06   8.841122015284417e-06
-1.0597775480834702e-05   1.3952996628036952e-06   8.841122015284417e-06
-1.0597775480834702e-05   1.3952996628036952e-06   8.841122015284417e-06
-1.4252849830745331e-05   1.3332124829211868e-06   6.065910839124614e-06
-1.4252849830745331e-05   1.3332124829211868e-06   6.065910839124614e-06
-1.4252849830745331e-05   1.3332124829211868e-06   6.065910839124614e-06
-1.4252849830745331e-05   1.3332124829211868e-06   6.065910839124614e-06
-8.76654651580747e-06   9.339044979942161e-07   1.4970164906398298e-05
-8.76654651580747e-06   9.339044979942161e-07   1.4970164906398298e-05
-8.76654651580747e-06   9.339044979942161e-07   1.4970164906398298e-05
-8.76654651580747e-06   9.339044979942161e-07   1.4970164906398298e-05
-8.894607924204175e-06   1.0732738414203323e-06   6.495740254558902e-06
-8.894607924204175e-06   1.0732738414203323e-06   6.495740254558902e-06
-8.894607924204175e-06   1.0732738414203323e-06   6.495740254558902e-06
-8.894607924204175e-06   1.0732738414203323e-06   6.495740254558902e-06
-1.4310696465884029e-05   6.617285313820578e-07   1.5769481676714876e-05
-1.4310696465884029e-05   6.617285313820578e-07   1.5769481676714876e-05
-1.4310696465884029e-05   6.617285313820578e-07   1.5769481676714876e-05
-1.4310696465884029e-05   6.617285313820578e-07   1.5769481676714876e-05
-1.1322283418358445e-05   8.62974733042564e-07   1.0668045543175805e-05
-1.1322283418358445e-05   8.62974733042564e-07   1.0668045543175805e-05
-1.1322283418358445e-05   8.62974733042564e-07   1.0668045543175805e-05
-1.1322283418358445e-05   8.62974733042564e-07   1.0668045543175805e-05
-1.431069646588406e-05   1.0732738414203323e-06   6.742667440581845e-06
-1.431069646588406e-05   1.0732738414203323e-06   6.742667440581845e-06
-1.431069646588406e-05   1.0732738414203323e-06   6.742667440581845e-06
-1.431069646588406e-05   1.0732738414203323e-06   6.742667440581845e-06
-8.894607924204161e-06   6.617285313820578e-07   1.5522554490691933e-05
-8.894607924204161e-06   6.617285313820578e-07   1.5522554490691933e-05
-8.894607924204161e-06   6.617285313820578e-07   1.5522554490691933e-05
-8.894607924204161e-06   6.617285313820578e-07   1.5522554490691933e-05
-8.808009168969685e-06   4.347805311994096e-07   7.664964993256797e-06
-8.808009168969685e-06   4.347805311994096e-07   7.664964993256797e-06
-8.808009168969685e-06   4.347805311994096e-07   7.664964993256797e-06
-8.808009168969685e-06   4.347805311994096e-07   7.664964993256797e-06
-1.4478830384516986e-05   -5.007107688358083e-07   1.7677628465856715e-05
-1.4478830384516986e-05   -5.007107688358083e-07   1.7677628465856715e-05
-1.4478830384516986e-05   -5.007107688358083e-07   1.7677628465856715e-05
-1.4478830384516986e-05   -5.007107688358083e-07   1.7677628465856715e-05
-1.1158073000486e-05   4.079423220366019e-07   1.1597840971281651e-05
-1.1158073000486e-05   4.079423220366019e-07   1.1597840971281651e-05
-1.1158073000486e-05   4.079423220366019e-07   1.1597840971281651e-05
-1.1158073000486e-05   4.079423220366019e-07   1.1597840971281651e-05
-8.767398237890936e-06   4.439840105533604e-07   1.1731665109363811e-05
-8.767398237890936e-06   4.439840105533604e-07   1.1731665109363811e-05
-8.767398237890936e-06   4.439840105533604e-07   1.1731665109363811e-05
-8.767398237890936e-06   4.439840105533604e-07   1.1731665109363811e-05
-5.402777980843796e-06   -2.745651998107293e-06   1.5425583932579355e-05
-5.402777980843796e-06   -2.745651998107293e-06   1.5425583932579355e-05
-5.402777980843796e-06   -2.745651998107293e-06   1.5425583932579355e-05
-5.402777980843796e-06   -2.745651998107293e-06   1.5425583932579355e-05
-5.419174456318908e-06   2.0982762633203452e-07   9.841093583571356e-06
-5.419174456318908e-06   2.0982762633203452e-07   9.841093583571356e-06
-5.419174456318908e-06   2.0982762633203452e-07   9.841093583571356e-06
-5.419174456318908e-06   2.0982762633203452e-07   9.841093583571356e-06
-8.76654651580747e-06   -2.256178567515226e-06   1.6899650732360726e-05
-8.76654651580747e-06   -2.256178567515226e-06   1.6899650732360726e-05
-8.76654651580747e-06   -2.256178567515226e-06   1.6899650732360726e-05
-8.76654651580747e-06   -2.256178567515226e-06   1.6899650732360726e-05
-7.053405013504222e-06   -1.3593519352750696e-06   1.3506318915844609e-05
-7.053405013504222e-06   -1.3593519352750696e-06   1.3506318915844609e-05
-7.053405013504222e-06   -1.3593519352750696e-06   1.3506318915844609e-05
-7.053405013504222e-06   -1.3593519352750696e-06   1.3506318915844609e-05
-8.766546515807477e-06   2.0982762633203452e-07   1.1320697299879614e-05
-8.766546515807477e-06   2.0982762633203452e-07   1.1320697299879614e-05
-8.766546515807477e-06   2.0982762633203452e-07   1.1320697299879614e-05
-8.766546515807477e-06   2.0982762633203452e-07   1.1320697299879614e-05
-5.419174456318908e-06   -2.256178567515226e-06   1.542004701605236e-05
-5.419174456318908e-06   -2.256178567515226e-06   1.542004701605236e-05
-5.419174456318908e-06   -2.256178567515226e-06   1.542004701605236e-05
-5.419174456318908e-06   -2.256178567515226e-06   1.542004701605236e-05
-5.448236777090833e-06   -5.8924630297232505e-08   1.0137508245560995e-05
-5.448236777090833e-06   -5.8924630297232505e-08   1.0137508245560995e-05
-5.448236777090833e-06   -5.8924630297232505e-08   1.0137508245560995e-05
-5.448236777090833e-06   -5.8924630297232505e-08   1.0137508245560995e-05
-8.894607924204161e-06   -2.3046705727873854e-06   1.7228907722910534e-05
-8.894607924204161e-06   -2.3046705727873854e-06   1.7228907722910534e-05
-8.894607924204161e-06   -2.3046705727873854e-06   1.7228907722910534e-05
-8.894607924204161e-06   -2.3046705727873854e-06   1.7228907722910534e-05
-7.007492895897326e-06   -1.1880359098923586e-06   1.3413735211328722e-05
-7.007492895897326e-06   -1.1880359098923586e-06   1.3413735211328722e-05
-7.007492895897326e-06   -1.1880359098923586e-06   1.3413735211328722e-05
-7.007492895897326e-06   -1.1880359098923586e-06   1.3413735211328722e-05
-8.894607924204175e-06   -5.8924630297232505e-08   1.148495581105506e-05
-8.894607924204175e-06   -5.8924630297232505e-08   1.148495581105506e-05
-8.894607924204175e-06   -5.8924630297232505e-08   1.148495581105506e-05
-8.894607924204175e-06   -5.8924630297232505e-08   1.148495581105506e-05
-5.448236777090819e-06   -2.3046705727873854e-06   1.588146015741643e-05
-5.448236777090819e-06   -2.3046705727873854e-06   1.588146015741643e-05
-5.448236777090819e-06   -2.3046705727873854e-06   1.588146015741643e-05
-5.448236777090819e-06   -2.3046705727873854e-06   1.588146015741643e-05
-5.404384065776758e-06   -4.103841301543389e-07   1.0509040391161462e-05
-5.404384065776758e-06   -4.103841301543389e-07   1.0509040391161462e-05
-5.404384065776758e-06   -4.103841301543389e-07   1.0509040391161462e-05
-5.404384065776758e-06   -4.103841301543389e-07   1.0509040391161462e-05
-8.808009168969662e-06   -2.318118606545416e-06   1.7326389582317513e-05
-8.808009168969662e-06   -2.318118606545416e-06   1.7326389582317513e-05
-8.808009168969662e-06   -2.318118606545416e-06   1.7326389582317513e-05
-8.808009168969662e-06   -2.318118606545416e-06   1.7326389582317513e-05
-7.0483660198766586e-06   -1.3288338276755103e-06   1.380008013317391e-05
-7.0483660198766586e-06   -1.3288338276755103e-06   1.380008013317391e-05
-7.0483660198766586e-06   -1.3288338276755103e-06   1.380008013317391e-05
-7.0483660198766586e-06   -1.3288338276755103e-06   1.380008013317391e-05
-5.402777980843796e-06   1.249413872207272e-07   1.0863805369579194e-05
-5.402777980843796e-06   1.249413872207272e-07   1.0863805369579194e-05
-5.402777980843796e-06   1.249413872207272e-07   1.0863805369579194e-05
-5.402777980843796e-06   1.249413872207272e-07   1.0863805369579194e-05
-4.003683257823538e-06   -2.145765841214556e-06   1.1833205570885164e-05
-4.003683257823538e-06   -2.145765841214556e-06   1.1833205570885164e-05
-4.003683257823538e-06   -2.145765841214556e-06   1.1833205570885164e-05
-4.003683257823538e-06   -2.145765841214556e-06   1.1833205570885164e-05
-3.974236901960898e-06   -7.11375919210176e-08   9.587177066656505e-06
-3.974236901960898e-06   -7.11375919210176e-08   9.587177066656505e-06
-3.974236901960898e-06   -7.11375919210176e-08   9.587177066656505e-06
-3.974236901960898e-06   -7.11375919210176e-08   9.587177066656505e-06
-5.419174456318908e-06   -2.1074294692688758e-06   1.3217181450328659e-05
-5.419174456318908e-06   -2.1074294692688758e-06   1.3217181450328659e-05
-5.419174456318908e-06   -2.1074294692688758e-06   1.3217181450328659e-05
-5.419174456318908e-06   -2.1074294692688758e-06   1.3217181450328659e-05
-4.672045084576987e-06   -1.0826837904115687e-06   1.1357118423444506e-05
-4.672045084576987e-06   -1.0826837904115687e-06   1.1357118423444506e-05
-4.672045084576987e-06   -1.0826837904115687e-06   1.1357118423444506e-05
-4.672045084576987e-06   -1.0826837904115687e-06   1.1357118423444506e-05
-5.419174456318908e-06   -7.11375919210176e-08   1.0808952193065236e-05
-5.419174456318908e-06   -7.11375919210176e-08   1.0808952193065236e-05
-5.419174456318908e-06   -7.11375919210176e-08   1.0808952193065236e-05
-5.419174456318908e-06   -7.11375919210176e-08   1.0808952193065236e-05
-3.974236901960898e-06   -2.107429469268903e-06   1.1995406323919941e-05
-3.974236901960898e-06   -2.107429469268903e-06   1.1995406323919941e-05
-3.974236901960898e-06   -2.107429469268903e-06   1.1995406323919941e-05
-3.974236901960898e-06   -2.107429469268903e-06   1.1995406323919941e-05
-3.95111021220563e-06   -3.058065724317058e-07   9.813617276305437e-06
-3.95111021220563e-06   -3.058065724317058e-07   9.813617276305437e-06
-3.95111021220563e-06   -3.058065724317058e-07   9.813617276305437e-06
-3.95111021220563e-06   -3.058065724317058e-07   9.813617276305437e-06
-5.448236777090819e-06   -2.1702336891574225e-06   1.342748448781615e-05
-5.448236777090819e-06   -2.1702336891574225e-06   1.342748448781615e-05
-5.448236777090819e-06   -2.1702336891574225e-06   1.342748448781615e-05
-5.448236777090819e-06   -2.1702336891574225e-06   1.342748448781615e-05
-4.637171576324664e-06   -1.1511699515253087e-06   1.1464270910626408e-05
-4.637171576324664e-06   -1.1511699515253087e-06   1.1464270910626408e-05
-4.637171576324664e-06   -1.1511699515253087e-06   1.1464270910626408e-05
-4.637171576324664e-06   -1.1511699515253087e-06   1.1464270910626408e-05
-5.448236777090819e-06   -3.058065724316516e-07   1.0932273546340889e-05
-5.448236777090819e-06   -3.058065724316516e-07   1.0932273546340889e-05
-5.448236777090819e-06   -3.058065724316516e-07   1.0932273546340889e-05
-5.448236777090819e-06   -3.058065724316516e-07   1.0932273546340889e-05
-3.95111021220563e-06   -2.1702336891574496e-06   1.2308828217780766e-05
-3.95111021220563e-06   -2.1702336891574496e-06   1.2308828217780766e-05
-3.95111021220563e-06   -2.1702336891574496e-06   1.2308828217780766e-05
-3.95111021220563e-06   -2.1702336891574496e-06   1.2308828217780766e-05
-3.882519277849074e-06   -5.403753252093257e-07   1.0165242544697185e-05
-3.882519277849074e-06   -5.403753252093257e-07   1.0165242544697185e-05
-3.882519277849074e-06   -5.403753252093257e-07   1.0165242544697185e-05
-3.882519277849074e-06   -5.403753252093257e-07   1.0165242544697185e-05
-5.404384065776758e-06   -2.256679884066052e-06   1.3731466593223945e-05
-5.404384065776758e-06   -2.256679884066052e-06   1.3731466593223945e-05
-5.404384065776758e-06   -2.256679884066052e-06   1.3731466593223945e-05
-5.404384065776758e-06   -2.256679884066052e-06   1.3731466593223945e-05
-4.596882175935215e-06   -1.2525497044534864e-06   1.1783152002387177e-05
-4.596882175935215e-06   -1.2525497044534864e-06   1.1783152002387177e-05
-4.596882175935215e-06   -1.2525497044534864e-06   1.1783152002387177e-05
-4.596882175935215e-06   -1.2525497044534864e-06   1.1783152002387177e-05
-4.003683257823538e-06   5.75820036338747e-07   7.4241005048918595e-06
-4.003683257823538e-06   5.75820036338747e-07   7.4241005048918595e-06
-4.003683257823538e-06   5.75820036338747e-07   7.4241005048918595e-06
-4.003683257823538e-06   5.75820036338747e-07   7.4241005048918595e-06
-3.3720168890967505e-06   -8.833950560688296e-07   7.601348730658646e-06
-3.3720168890967505e-06   -8.833950560688296e-07   7.601348730658646e-06
-3.3720168890967505e-06   -8.833950560688296e-07   7.601348730658646e-06
-3.3720168890967505e-06   -8.833950560688296e-07   7.601348730658646e-06
-3.3068715871385475e-06   3.169054572263832e-07   6.704349548992516e-06
-3.3068715871385475e-06   3.169054572263832e-07   6.704349548992516e-06
-3.3068715871385475e-06   3.169054572263832e-07   6.704349548992516e-06
-3.3068715871385475e-06   3.169054572263832e-07   6.704349548992516e-06
-3.974236901960898e-06   -1.031369763800278e-06   8.625590206312567e-06
-3.974236901960898e-06   -1.031369763800278e-06   8.625590206312567e-06
-3.974236901960898e-06   -1.031369763800278e-06   8.625590206312567e-06
-3.974236901960898e-06   -1.031369763800278e-06   8.625590206312567e-06
-3.6377896228822365e-06   -2.0200693757452043e-07   7.567227045446128e-06
-3.6377896228822365e-06   -2.0200693757452043e-07   7.567227045446128e-06
-3.6377896228822365e-06   -2.0200693757452043e-07   7.567227045446128e-06
-3.6377896228822365e-06   -2.0200693757452043e-07   7.567227045446128e-06
-3.974236901960898e-06   3.169054572263832e-07   7.513314681608524e-06
-3.974236901960898e-06   3.169054572263832e-07   7.513314681608524e-06
-3.974236901960898e-06   3.169054572263832e-07   7.513314681608524e-06
-3.974236901960898e-06   3.169054572263832e-07   7.513314681608524e-06
-3.3068715871385475e-06   -1.031369763800278e-06   7.816625073696587e-06
-3.3068715871385475e-06   -1.031369763800278e-06   7.816625073696587e-06
-3.3068715871385475e-06   -1.031369763800278e-06   7.816625073696587e-06
-3.3068715871385475e-06   -1.031369763800278e-06   7.816625073696587e-06
-3.281755561920915e-06   9.487686932786992e-08   7.0193087677100576e-06
-3.281755561920915e-06   9.487686932786992e-08   7.0193087677100576e-06
-3.281755561920915e-06   9.487686932786992e-08   7.0193087677100576e-06
-3.281755561920915e-06   9.487686932786992e-08   7.0193087677100576e-06
-3.95111021220563e-06   -1.145169673457037e-06   8.878927777188712e-06
-3.95111021220563e-06   -1.145169673457037e-06   8.878927777188712e-06
-3.95111021220563e-06   -1.145169673457037e-06   8.878927777188712e-06
-3.95111021220563e-06   -1.145169673457037e-06   8.878927777188712e-06
-3.57295093336627e-06   -3.58684038790399e-07   7.776770931656161e-06
-3.57295093336627e-06   -3.58684038790399e-07   7.776770931656161e-06
-3.57295093336627e-06   -3.58684038790399e-07   7.776770931656161e-06
-3.57295093336627e-06   -3.58684038790399e-07   7.776770931656161e-06
-3.951110212205603e-06   9.487686932786992e-08   7.763336693380872e-06
-3.951110212205603e-06   9.487686932786992e-08   7.763336693380872e-06
-3.951110212205603e-06   9.487686932786992e-08   7.763336693380872e-06
-3.951110212205603e-06   9.487686932786992e-08   7.763336693380872e-06
-3.281755561920942e-06   -1.145169673457037e-06   8.134899851517844e-06
-3.281755561920942e-06   -1.145169673457037e-06   8.134899851517844e-06
-3.281755561920942e-06   -1.145169673457037e-06   8.134899851517844e-06
-3.281755561920942e-06   -1.145169673457037e-06   8.134899851517844e-06
-3.2356460804777514e-06   -1.291551162478882e-07   7.4148134244585075e-06
-3.2356460804777514e-06   -1.291551162478882e-07   7.4148134244585075e-06
-3.2356460804777514e-06   -1.291551162478882e-07   7.4148134244585075e-06
-3.2356460804777514e-06   -1.291551162478882e-07   7.4148134244585075e-06
-3.882519277849074e-06   -1.2937352617467806e-06   9.19168350737662e-06
-3.882519277849074e-06   -1.2937352617467806e-06   9.19168350737662e-06
-3.882519277849074e-06   -1.2937352617467806e-06   9.19168350737662e-06
-3.882519277849074e-06   -1.2937352617467806e-06   9.19168350737662e-06
-3.525302429811328e-06   -4.966743934795405e-07   8.11808557302018e-06
-3.525302429811328e-06   -4.966743934795405e-07   8.11808557302018e-06
-3.525302429811328e-06   -4.966743934795405e-07   8.11808557302018e-06
-3.525302429811328e-06   -4.966743934795405e-07   8.11808557302018e-06
-3.3720168890967505e-06   9.562274573937223e-07   1.7459603631341143e-06
-3.3720168890967505e-06   9.562274573937223e-07   1.7459603631341143e-06
-3.3720168890967505e-06   9.562274573937223e-07   1.7459603631341143e-06
-3.3720168890967505e-06   9.562274573937223e-07   1.7459603631341143e-06
-2.002733129341115e-06   -9.414407214436774e-08   3.397877045003986e-06
-2.002733129341115e-06   -9.414407214436774e-08   3.397877045003986e-06
-2.002733129341115e-06   -9.414407214436774e-08   3.397877045003986e-06
-2.002733129341115e-06   -9.414407214436774e-08   3.397877045003986e-06
-2.1222041736286513e-06   7.720859077512483e-07   1.7642160332813437e-06
-2.1222041736286513e-06   7.720859077512483e-07   1.7642160332813437e-06
-2.1222041736286513e-06   7.720859077512483e-07   1.7642160332813437e-06
-2.1222041736286513e-06   7.720859077512483e-07   1.7642160332813437e-06
-3.3068715871385475e-06   -1.3323201232792238e-07   4.2818524745121185e-06
-3.3068715871385475e-06   -1.3323201232792238e-07   4.2818524745121185e-06
-3.3068715871385475e-06   -1.3323201232792238e-07   4.2818524745121185e-06
-3.3068715871385475e-06   -1.3323201232792238e-07   4.2818524745121185e-06
-2.607922234969026e-06   4.92735584379535e-07   2.7413563295385817e-06
-2.607922234969026e-06   4.92735584379535e-07   2.7413563295385817e-06
-2.607922234969026e-06   4.92735584379535e-07   2.7413563295385817e-06
-2.607922234969026e-06   4.92735584379535e-07   2.7413563295385817e-06
-3.3068715871385204e-06   7.720859077511941e-07   2.3074067853287865e-06
-3.3068715871385204e-06   7.720859077511941e-07   2.3074067853287865e-06
-3.3068715871385204e-06   7.720859077511941e-07   2.3074067853287865e-06
-3.3068715871385204e-06   7.720859077511941e-07   2.3074067853287865e-06
-2.1222041736287055e-06   -1.3323201232792238e-07   3.7386617224646214e-06
-2.1222041736287055e-06   -1.3323201232792238e-07   3.7386617224646214e-06
-2.1222041736287055e-06   -1.3323201232792238e-07   3.7386617224646214e-06
-2.1222041736287055e-06   -1.3323201232792238e-07   3.7386617224646214e-06
-2.2212049954845677e-06   6.51908744653696e-07   2.2782907828194617e-06
-2.2212049954845677e-06   6.51908744653696e-07   2.2782907828194617e-06
-2.2212049954845677e-06   6.51908744653696e-07   2.2782907828194617e-06
-2.2212049954845677e-06   6.51908744653696e-07   2.2782907828194617e-06
-3.281755561920915e-06   -1.8549182476796343e-07   4.548315401866352e-06
-3.281755561920915e-06   -1.8549182476796343e-07   4.548315401866352e-06
-3.281755561920915e-06   -1.8549182476796343e-07   4.548315401866352e-06
-3.281755561920915e-06   -1.8549182476796343e-07   4.548315401866352e-06
-2.661483456608982e-06   4.028594499373662e-07   3.161517794856368e-06
-2.661483456608982e-06   4.028594499373662e-07   3.161517794856368e-06
-2.661483456608982e-06   4.028594499373662e-07   3.161517794856368e-06
-2.661483456608982e-06   4.028594499373662e-07   3.161517794856368e-06
-3.281755561920915e-06   6.519087446536418e-07   2.7807311244724844e-06
-3.281755561920915e-06   6.519087446536418e-07   2.7807311244724844e-06
-3.281755561920915e-06   6.519087446536418e-07   2.7807311244724844e-06
-3.281755561920915e-06   6.519087446536418e-07   2.7807311244724844e-06
-2.2212049954845135e-06   -1.8549182476799053e-07   4.045875060213356e-06
-2.2212049954845135e-06   -1.8549182476799053e-07   4.045875060213356e-06
-2.2212049954845135e-06   -1.8549182476799053e-07   4.045875060213356e-06
-2.2212049954845135e-06   -1.8549182476799053e-07   4.045875060213356e-06
-2.4523394731922965e-06   4.0754900347989573e-07   3.1979919841841706e-06
-2.4523394731922965e-06   4.0754900347989573e-07   3.1979919841841706e-06
-2.4523394731922965e-06   4.0754900347989573e-07   3.1979919841841706e-06
-2.4523394731922965e-06   4.0754900347989573e-07   3.1979919841841706e-06
-3.2356460804777514e-06   -2.511305887072145e-07   4.898710751638784e-06
-3.2356460804777514e-06   -2.511305887072145e-07   4.898710751638784e-06
-3.2356460804777514e-06   -2.511305887072145e-07   4.898710751638784e-06
-3.2356460804777514e-06   -2.511305887072145e-07   4.898710751638784e-06
-2.6738826135436726e-06   3.408770793461493e-07   3.6072337059166334e-06
-2.6738826135436726e-06   3.408770793461493e-07   3.6072337059166334e-06
-2.6738826135436726e-06   3.408770793461493e-07   3.6072337059166334e-06
-2.6738826135436726e-06   3.408770793461493e-07   3.6072337059166334e-06
-3.0520976833044e-05   2.36389615627445e-06   1.3389542854866043e-05
-3.0520976833044e-05   2.36389615627445e-06   1.3389542854866043e-05
-3.0520976833044e-05   2.36389615627445e-06   1.3389542854866043e-05
-3.0520976833044e-05   2.36389615627445e-06   1.3389542854866043e-05
-7.139392473985342e-06   -1.5294732708024048e-05   4.176367280138473e-05
-7.139392473985342e-06   -1.5294732708024048e-05   4.176367280138473e-05
-7.139392473985342e-06   -1.5294732708024048e-05   4.176367280138473e-05
-7.139392473985342e-06   -1.5294732708024048e-05   4.176367280138473e-05
-8.404291337183117e-06   9.339044979942161e-07   7.318730233612497e-06
-8.404291337183117e-06   9.339044979942161e-07   7.318730233612497e-06
-8.404291337183117e-06   9.339044979942161e-07   7.318730233612497e-06
-8.404291337183117e-06   9.339044979942161e-07   7.318730233612497e-06
-2.7836264414888797e-05   -1.1945301459998979e-05   4.743287560458449e-05
-2.7836264414888797e-05   -1.1945301459998979e-05   4.743287560458449e-05
-2.7836264414888797e-05   -1.1945301459998979e-05   4.743287560458449e-05
-2.7836264414888797e-05   -1.1945301459998979e-05   4.743287560458449e-05
-1.85502855316301e-05   -5.9444117280309645e-06   2.8355710293305847e-05
-1.85502855316301e-05   -5.9444117280309645e-06   2.8355710293305847e-05
-1.85502855316301e-05   -5.9444117280309645e-06   2.8355710293305847e-05
-1.85502855316301e-05   -5.9444117280309645e-06   2.8355710293305847e-05
-2.783626441488875e-05   9.339044979942161e-07   1.5046253808408418e-05
-2.783626441488875e-05   9.339044979942161e-07   1.5046253808408418e-05
-2.783626441488875e-05   9.339044979942161e-07   1.5046253808408418e-05
-2.783626441488875e-05   9.339044979942161e-07   1.5046253808408418e-05
-8.404291337183134e-06   -1.1945301459998979e-05   3.9705352029788566e-05
-8.404291337183134e-06   -1.1945301459998979e-05   3.9705352029788566e-05
-8.404291337183134e-06   -1.1945301459998979e-05   3.9705352029788566e-05
-8.404291337183134e-06   -1.1945301459998979e-05   3.9705352029788566e-05
-8.606559063887366e-06   6.617285313820849e-07   8.044623880382495e-06
-8.606559063887366e-06   6.617285313820849e-07   8.044623880382495e-06
-8.606559063887366e-06   6.617285313820849e-07   8.044623880382495e-06
-8.606559063887366e-06   6.617285313820849e-07   8.044623880382495e-06
-2.626698232929985e-05   -1.0339027929621256e-05   4.407911653267188e-05
-2.626698232929985e-05   -1.0339027929621256e-05   4.407911653267188e-05
-2.626698232929985e-05   -1.0339027929621256e-05   4.407911653267188e-05
-2.626698232929985e-05   -1.0339027929621256e-05   4.407911653267188e-05
-1.8005073666900733e-05   -5.63781418224269e-06   2.7488540513579578e-05
-1.8005073666900733e-05   -5.63781418224269e-06   2.7488540513579578e-05
-1.8005073666900733e-05   -5.63781418224269e-06   2.7488540513579578e-05
-1.8005073666900733e-05   -5.63781418224269e-06   2.7488540513579578e-05
-2.62669823292998e-05   6.617285313820849e-07   1.4645077756984465e-05
-2.62669823292998e-05   6.617285313820849e-07   1.4645077756984465e-05
-2.62669823292998e-05   6.617285313820849e-07   1.4645077756984465e-05
-2.62669823292998e-05   6.617285313820849e-07   1.4645077756984465e-05
-8.60655906388738e-06   -1.0339027929621256e-05   3.747866265606989e-05
-8.60655906388738e-06   -1.0339027929621256e-05   3.747866265606989e-05
-8.60655906388738e-06   -1.0339027929621256e-05   3.747866265606989e-05
-8.60655906388738e-06   -1.0339027929621256e-05   3.747866265606989e-05
-9.452484844642106e-06   -5.007107688358083e-07   1.0062313585415521e-05
-9.452484844642106e-06   -5.007107688358083e-07   1.0062313585415521e-05
-9.452484844642106e-06   -5.007107688358083e-07   1.0062313585415521e-05
-9.452484844642106e-06   -5.007107688358083e-07   1.0062313585415521e-05
-2.4251322237581154e-05   -8.200989738002368e-06   3.934720995514714e-05
-2.4251322237581154e-05   -8.200989738002368e-06   3.934720995514714e-05
-2.4251322237581154e-05   -8.200989738002368e-06   3.934720995514714e-05
-2.4251322237581154e-05   -8.200989738002368e-06   3.934720995514714e-05
-1.733108743309636e-05   -5.206922800241525e-06   2.601704511834934e-05
-1.733108743309636e-05   -5.206922800241525e-06   2.601704511834934e-05
-1.733108743309636e-05   -5.206922800241525e-06   2.601704511834934e-05
-1.733108743309636e-05   -5.206922800241525e-06   2.601704511834934e-05
-7.139392473985332e-06   -2.745651998107293e-06   7.660822424456084e-06
-7.139392473985332e-06   -2.745651998107293e-06   7.660822424456084e-06
-7.139392473985332e-06   -2.745651998107293e-06   7.660822424456084e-06
-7.139392473985332e-06   -2.745651998107293e-06   7.660822424456084e-06
-2.4764831856785964e-06   -4.846465503001574e-06   1.417184980203077e-05
-2.4764831856785964e-06   -4.846465503001574e-06   1.417184980203077e-05
-2.4764831856785964e-06   -4.846465503001574e-06   1.417184980203077e-05
-2.4764831856785964e-06   -4.846465503001574e-06   1.417184980203077e-05
-2.780870534797186e-06   -2.256178567515226e-06   6.772934875350089e-06
-2.780870534797186e-06   -2.256178567515226e-06   6.772934875350089e-06
-2.780870534797186e-06   -2.256178567515226e-06   6.772934875350089e-06
-2.780870534797186e-06   -2.256178567515226e-06   6.772934875350089e-06
-8.404291337183134e-06   -6.381647207889939e-06   1.862058406355145e-05
-8.404291337183134e-06   -6.381647207889939e-06   1.862058406355145e-05
-8.404291337183134e-06   -6.381647207889939e-06   1.862058406355145e-05
-8.404291337183134e-06   -6.381647207889939e-06   1.862058406355145e-05
-4.9288742695698415e-06   -3.327647226014676e-06   1.0995822295070765e-05
-4.9288742695698415e-06   -3.327647226014676e-06   1.0995822295070765e-05
-4.9288742695698415e-06   -3.327647226014676e-06   1.0995822295070765e-05
-4.9288742695698415e-06   -3.327647226014676e-06   1.0995822295070765e-05
-8.40429133718311e-06   -2.256178567515226e-06   9.248216059574817e-06
-8.40429133718311e-06   -2.256178567515226e-06   9.248216059574817e-06
-8.40429133718311e-06   -2.256178567515226e-06   9.248216059574817e-06
-8.40429133718311e-06   -2.256178567515226e-06   9.248216059574817e-06
-2.7808705347971994e-06   -6.381647207889939e-06   1.614530287932663e-05
-2.7808705347971994e-06   -6.381647207889939e-06   1.614530287932663e-05
-2.7808705347971994e-06   -6.381647207889939e-06   1.614530287932663e-05
-2.7808705347971994e-06   -6.381647207889939e-06   1.614530287932663e-05
-3.042759306021652e-06   -2.3046705727874125e-06   7.61727931446944e-06
-3.042759306021652e-06   -2.3046705727874125e-06   7.61727931446944e-06
-3.042759306021652e-06   -2.3046705727874125e-06   7.61727931446944e-06
-3.042759306021652e-06   -2.3046705727874125e-06   7.61727931446944e-06
-8.60655906388738e-06   -5.860833569673506e-06   1.9023976709043908e-05
-8.60655906388738e-06   -5.860833569673506e-06   1.9023976709043908e-05
-8.60655906388738e-06   -5.860833569673506e-06   1.9023976709043908e-05
-8.60655906388738e-06   -5.860833569673506e-06   1.9023976709043908e-05
-5.574127027238176e-06   -4.054533786528608e-06   1.288614344474172e-05
-5.574127027238176e-06   -4.054533786528608e-06   1.288614344474172e-05
-5.574127027238176e-06   -4.054533786528608e-06   1.288614344474172e-05
-5.574127027238176e-06   -4.054533786528608e-06   1.288614344474172e-05
-8.606559063887366e-06   -2.3046705727874125e-06   9.75097711260111e-06
-8.606559063887366e-06   -2.3046705727874125e-06   9.75097711260111e-06
-8.606559063887366e-06   -2.3046705727874125e-06   9.75097711260111e-06
-8.606559063887366e-06   -2.3046705727874125e-06   9.75097711260111e-06
-3.0427593060216657e-06   -5.860833569673506e-06   1.6890278910912245e-05
-3.0427593060216657e-06   -5.860833569673506e-06   1.6890278910912245e-05
-3.0427593060216657e-06   -5.860833569673506e-06   1.6890278910912245e-05
-3.0427593060216657e-06   -5.860833569673506e-06   1.6890278910912245e-05
-3.471172534864306e-06   -2.318118606545416e-06   8.34538790687794e-06
-3.471172534864306e-06   -2.318118606545416e-06   8.34538790687794e-06
-3.471172534864306e-06   -2.318118606545416e-06   8.34538790687794e-06
-3.471172534864306e-06   -2.318118606545416e-06   8.34538790687794e-06
-9.452484844642113e-06   -5.529754564911336e-06   2.0241223331527084e-05
-9.452484844642113e-06   -5.529754564911336e-06   2.0241223331527084e-05
-9.452484844642113e-06   -5.529754564911336e-06   2.0241223331527084e-05
-9.452484844642113e-06   -5.529754564911336e-06   2.0241223331527084e-05
-5.959108846222239e-06   -3.704266019862365e-06   1.3323636873797929e-05
-5.959108846222239e-06   -3.704266019862365e-06   1.3323636873797929e-05
-5.959108846222239e-06   -3.704266019862365e-06   1.3323636873797929e-05
-5.959108846222239e-06   -3.704266019862365e-06   1.3323636873797929e-05
-2.4764831856785964e-06   -2.145765841214556e-06   4.17038029688648e-06
-2.4764831856785964e-06   -2.145765841214556e-06   4.17038029688648e-06
-2.4764831856785964e-06   -2.145765841214556e-06   4.17038029688648e-06
-2.4764831856785964e-06   -2.145765841214556e-06   4.17038029688648e-06
-1.3881650938997133e-06   -1.4134651304292539e-06   6.423624209655809e-06
-1.3881650938997133e-06   -1.4134651304292539e-06   6.423624209655809e-06
-1.3881650938997133e-06   -1.4134651304292539e-06   6.423624209655809e-06
-1.3881650938997133e-06   -1.4134651304292539e-06   6.423624209655809e-06
-1.3417924726710892e-06   -2.107429469268903e-06   4.736140957743284e-06
-1.3417924726710892e-06   -2.107429469268903e-06   4.736140957743284e-06
-1.3417924726710892e-06   -2.107429469268903e-06   4.736140957743284e-06
-1.3417924726710892e-06   -2.107429469268903e-06   4.736140957743284e-06
-2.7808705347971994e-06   -1.8306433890741489e-06   6.968532746503127e-06
-2.7808705347971994e-06   -1.8306433890741489e-06   6.968532746503127e-06
-2.7808705347971994e-06   -1.8306433890741489e-06   6.968532746503127e-06
-2.7808705347971994e-06   -1.8306433890741489e-06   6.968532746503127e-06
-1.8697540566806203e-06   -1.7645298059006402e-06   5.410337133071342e-06
-1.8697540566806203e-06   -1.7645298059006402e-06   5.410337133071342e-06
-1.8697540566806203e-06   -1.7645298059006402e-06   5.410337133071342e-06
-1.8697540566806203e-06   -1.7645298059006402e-06   5.410337133071342e-06
-2.7808705347971723e-06   -2.1074294692688758e-06   4.570069309626444e-06
-2.7808705347971723e-06   -2.1074294692688758e-06   4.570069309626444e-06
-2.7808705347971723e-06   -2.1074294692688758e-06   4.570069309626444e-06
-2.7808705347971723e-06   -2.1074294692688758e-06   4.570069309626444e-06
-1.3417924726710892e-06   -1.8306433890741489e-06   7.134604394619967e-06
-1.3417924726710892e-06   -1.8306433890741489e-06   7.134604394619967e-06
-1.3417924726710892e-06   -1.8306433890741489e-06   7.134604394619967e-06
-1.3417924726710892e-06   -1.8306433890741489e-06   7.134604394619967e-06
-1.3519218617828136e-06   -2.1702336891574496e-06   5.068986509543108e-06
-1.3519218617828136e-06   -2.1702336891574496e-06   5.068986509543108e-06
-1.3519218617828136e-06   -2.1702336891574496e-06   5.068986509543108e-06
-1.3519218617828136e-06   -2.1702336891574496e-06   5.068986509543108e-06
-3.0427593060216657e-06   -2.327428914700926e-06   7.981366051933858e-06
-3.0427593060216657e-06   -2.327428914700926e-06   7.981366051933858e-06
-3.0427593060216657e-06   -2.327428914700926e-06   7.981366051933858e-06
-3.0427593060216657e-06   -2.327428914700926e-06   7.981366051933858e-06
-1.9923309350887983e-06   -1.928804088174868e-06   5.991477204463449e-06
-1.9923309350887983e-06   -1.928804088174868e-06   5.991477204463449e-06
-1.9923309350887983e-06   -1.928804088174868e-06   5.991477204463449e-06
-1.9923309350887983e-06   -1.928804088174868e-06   5.991477204463449e-06
-3.042759306021652e-06   -2.1702336891574225e-06   5.163303644869141e-06
-3.042759306021652e-06   -2.1702336891574225e-06   5.163303644869141e-06
-3.042759306021652e-06   -2.1702336891574225e-06   5.163303644869141e-06
-3.042759306021652e-06   -2.1702336891574225e-06   5.163303644869141e-06
-1.3519218617828136e-06   -2.327428914700926e-06   7.887048916607758e-06
-1.3519218617828136e-06   -2.327428914700926e-06   7.887048916607758e-06
-1.3519218617828136e-06   -2.327428914700926e-06   7.887048916607758e-06
-1.3519218617828136e-06   -2.327428914700926e-06   7.887048916607758e-06
-1.3866780848704834e-06   -2.256679884066052e-06   5.570090142850909e-06
-1.3866780848704834e-06   -2.256679884066052e-06   5.570090142850909e-06
-1.3866780848704834e-06   -2.256679884066052e-06   5.570090142850909e-06
-1.3866780848704834e-06   -2.256679884066052e-06   5.570090142850909e-06
-3.4711725348643196e-06   -2.7983723186795414e-06   9.36926302027533e-06
-3.4711725348643196e-06   -2.7983723186795414e-06   9.36926302027533e-06
-3.4711725348643196e-06   -2.7983723186795414e-06   9.36926302027533e-06
-3.4711725348643196e-06   -2.7983723186795414e-06   9.36926302027533e-06
-2.1338537323900886e-06   -2.099092935671401e-06   6.720830719680047e-06
-2.1338537323900886e-06   -2.099092935671401e-06   6.720830719680047e-06
-2.1338537323900886e-06   -2.099092935671401e-06   6.720830719680047e-06
-2.1338537323900886e-06   -2.099092935671401e-06   6.720830719680047e-06
-1.3881650938997133e-06   -8.833950560688567e-07   1.253432938575733e-06
-1.3881650938997133e-06   -8.833950560688567e-07   1.253432938575733e-06
-1.3881650938997133e-06   -8.833950560688567e-07   1.253432938575733e-06
-1.3881650938997133e-06   -8.833950560688567e-07   1.253432938575733e-06
-1.0457651590724964e-06   1.7533801164841957e-07   2.459339337251425e-06
-1.0457651590724964e-06   1.7533801164841957e-07   2.459339337251425e-06
-1.0457651590724964e-06   1.7533801164841957e-07   2.459339337251425e-06
-1.0457651590724964e-06   1.7533801164841957e-07   2.459339337251425e-06
-8.528161150547385e-07   -1.031369763800278e-06   1.997448527944984e-06
-8.528161150547385e-07   -1.031369763800278e-06   1.997448527944984e-06
-8.528161150547385e-07   -1.031369763800278e-06   1.997448527944984e-06
-8.528161150547385e-07   -1.031369763800278e-06   1.997448527944984e-06
-1.3417924726710892e-06   2.0503049214883366e-08   2.1812854361630935e-06
-1.3417924726710892e-06   2.0503049214883366e-08   2.1812854361630935e-06
-1.3417924726710892e-06   2.0503049214883366e-08   2.1812854361630935e-06
-1.3417924726710892e-06   2.0503049214883366e-08   2.1812854361630935e-06
-1.0851533318306382e-06   -4.3552850947853664e-07   2.0271724699782263e-06
-1.0851533318306382e-06   -4.3552850947853664e-07   2.0271724699782263e-06
-1.0851533318306382e-06   -4.3552850947853664e-07   2.0271724699782263e-06
-1.0851533318306382e-06   -4.3552850947853664e-07   2.0271724699782263e-06
-1.3417924726710892e-06   -1.031369763800278e-06   1.366324840135883e-06
-1.3417924726710892e-06   -1.031369763800278e-06   1.366324840135883e-06
-1.3417924726710892e-06   -1.031369763800278e-06   1.366324840135883e-06
-1.3417924726710892e-06   -1.031369763800278e-06   1.366324840135883e-06
-8.528161150547385e-07   2.0503049214883366e-08   2.812409123972208e-06
-8.528161150547385e-07   2.0503049214883366e-08   2.812409123972208e-06
-8.528161150547385e-07   2.0503049214883366e-08   2.812409123972208e-06
-8.528161150547385e-07   2.0503049214883366e-08   2.812409123972208e-06
-7.497976093503143e-07   -1.14516967345701e-06   2.1949974371190234e-06
-7.497976093503143e-07   -1.14516967345701e-06   2.1949974371190234e-06
-7.497976093503143e-07   -1.14516967345701e-06   2.1949974371190234e-06
-7.497976093503143e-07   -1.14516967345701e-06   2.1949974371190234e-06
-1.3519218617828136e-06   -2.1865072651044355e-07   2.6426264896717646e-06
-1.3519218617828136e-06   -2.1865072651044355e-07   2.6426264896717646e-06
-1.3519218617828136e-06   -2.1865072651044355e-07   2.6426264896717646e-06
-1.3519218617828136e-06   -2.1865072651044355e-07   2.6426264896717646e-06
-9.897550747048963e-07   -5.533757942144109e-07   2.2398502184977276e-06
-9.897550747048963e-07   -5.533757942144109e-07   2.2398502184977276e-06
-9.897550747048963e-07   -5.533757942144109e-07   2.2398502184977276e-06
-9.897550747048963e-07   -5.533757942144109e-07   2.2398502184977276e-06
-1.3519218617827865e-06   -1.14516967345701e-06   1.639086068951041e-06
-1.3519218617827865e-06   -1.14516967345701e-06   1.639086068951041e-06
-1.3519218617827865e-06   -1.14516967345701e-06   1.639086068951041e-06
-1.3519218617827865e-06   -1.14516967345701e-06   1.639086068951041e-06
-7.497976093503143e-07   -2.1865072651044355e-07   3.19853785783972e-06
-7.497976093503143e-07   -2.1865072651044355e-07   3.19853785783972e-06
-7.497976093503143e-07   -2.1865072651044355e-07   3.19853785783972e-06
-7.497976093503143e-07   -2.1865072651044355e-07   3.19853785783972e-06
-5.921917762743555e-07   -1.2937352617467806e-06   2.4151581118010733e-06
-5.921917762743555e-07   -1.2937352617467806e-06   2.4151581118010733e-06
-5.921917762743555e-07   -1.2937352617467806e-06   2.4151581118010733e-06
-5.921917762743555e-07   -1.2937352617467806e-06   2.4151581118010733e-06
-1.3866780848704834e-06   -7.019547292743529e-07   3.3842336399777194e-06
-1.3866780848704834e-06   -7.019547292743529e-07   3.3842336399777194e-06
-1.3866780848704834e-06   -7.019547292743529e-07   3.3842336399777194e-06
-1.3866780848704834e-06   -7.019547292743529e-07   3.3842336399777194e-06
-9.152218289548909e-07   -7.306007376536069e-07   2.6156608184794462e-06
-9.152218289548909e-07   -7.306007376536069e-07   2.6156608184794462e-06
-9.152218289548909e-07   -7.306007376536069e-07   2.6156608184794462e-06
-9.152218289548909e-07   -7.306007376536069e-07   2.6156608184794462e-06
-1.0457651590724964e-06   -9.414407214436774e-08   -1.6845759887257697e-06
-1.0457651590724964e-06   -9.414407214436774e-08   -1.6845759887257697e-06
-1.0457651590724964e-06   -9.414407214436774e-08   -1.6845759887257697e-06
-1.0457651590724964e-06   -9.414407214436774e-08   -1.6845759887257697e-06
-2.1028893558292438e-07   1.43401067942978e-07   -1.4958853219071595e-07
-2.1028893558292438e-07   1.43401067942978e-07   -1.4958853219071595e-07
-2.1028893558292438e-07   1.43401067942978e-07   -1.4958853219071595e-07
-2.1028893558292438e-07   1.43401067942978e-07   -1.4958853219071595e-07
-2.139831299457183e-08   -1.3323201232789527e-07   -1.3100347037302588e-06
-2.139831299457183e-08   -1.3323201232789527e-07   -1.3100347037302588e-06
-2.139831299457183e-08   -1.3323201232789527e-07   -1.3100347037302588e-06
-2.139831299457183e-08   -1.3323201232789527e-07   -1.3100347037302588e-06
-8.528161150547385e-07   2.455836001874446e-07   -1.5162773447257617e-07
-8.528161150547385e-07   2.455836001874446e-07   -1.5162773447257617e-07
-8.528161150547385e-07   2.455836001874446e-07   -1.5162773447257617e-07
-8.528161150547385e-07   2.455836001874446e-07   -1.5162773447257617e-07
-4.867016127627424e-07   6.820713061891752e-08   -6.55392689885017e-07
-4.867016127627424e-07   6.820713061891752e-08   -6.55392689885017e-07
-4.867016127627424e-07   6.820713061891752e-08   -6.55392689885017e-07
-4.867016127627424e-07   6.820713061891752e-08   -6.55392689885017e-07
-8.528161150547385e-07   -1.3323201232792238e-07   -1.5373240712395522e-06
-8.528161150547385e-07   -1.3323201232792238e-07   -1.5373240712395522e-06
-8.528161150547385e-07   -1.3323201232792238e-07   -1.5373240712395522e-06
-8.528161150547385e-07   -1.3323201232792238e-07   -1.5373240712395522e-06
-2.139831299457183e-08   2.455836001874446e-07   7.566163303659524e-08
-2.139831299457183e-08   2.455836001874446e-07   7.566163303659524e-08
-2.139831299457183e-08   2.455836001874446e-07   7.566163303659524e-08
-2.139831299457183e-08   2.455836001874446e-07   7.566163303659524e-08
7.455221285245731e-08   -1.8549182476796343e-07   -1.1583323858610408e-06
7.455221285245731e-08   -1.8549182476796343e-07   -1.1583323858610408e-06
7.455221285245731e-08   -1.8549182476796343e-07   -1.1583323858610408e-06
7.455221285245731e-08   -1.8549182476796343e-07   -1.1583323858610408e-06
-7.497976093503143e-07   2.032658863510066e-07   -1.7670642194552322e-08
-7.497976093503143e-07   2.032658863510066e-07   -1.7670642194552322e-08
-7.497976093503143e-07   2.032658863510066e-07   -1.7670642194552322e-08
-7.497976093503143e-07   2.032658863510066e-07   -1.7670642194552322e-08
-3.4863553993529865e-07   4.3974454918191126e-08   -5.906992323596416e-07
-3.4863553993529865e-07   4.3974454918191126e-08   -5.906992323596416e-07
-3.4863553993529865e-07   4.3974454918191126e-08   -5.906992323596416e-07
-3.4863553993529865e-07   4.3974454918191126e-08   -5.906992323596416e-07
-7.497976093503143e-07   -1.8549182476799053e-07   -1.3915870125324824e-06
-7.497976093503143e-07   -1.8549182476799053e-07   -1.3915870125324824e-06
-7.497976093503143e-07   -1.8549182476799053e-07   -1.3915870125324824e-06
-7.497976093503143e-07   -1.8549182476799053e-07   -1.3915870125324824e-06
7.455221285245731e-08   2.032658863510066e-07   2.1558398447690287e-07
7.455221285245731e-08   2.032658863510066e-07   2.1558398447690287e-07
7.455221285245731e-08   2.032658863510066e-07   2.1558398447690287e-07
7.455221285245731e-08   2.032658863510066e-07   2.1558398447690287e-07
1.9197657885762888e-07   -2.511305887072145e-07   -9.318455692208382e-07
1.9197657885762888e-07   -2.511305887072145e-07   -9.318455692208382e-07
1.9197657885762888e-07   -2.511305887072145e-07   -9.318455692208382e-07
1.9197657885762888e-07   -2.511305887072145e-07   -9.318455692208382e-07
-5.921917762743555e-07   1.6090439032044067e-07   1.278807019157403e-07
-5.921917762743555e-07   1.6090439032044067e-07   1.278807019157403e-07
-5.921917762743555e-07   1.6090439032044067e-07   1.278807019157403e-07
-5.921917762743555e-07   1.6090439032044067e-07   1.278807019157403e-07
-2.2436759080884223e-07   1.3298539251237e-08   -3.96596096551786e-07
-2.2436759080884223e-07   1.3298539251237e-08   -3.96596096551786e-07
-2.2436759080884223e-07   1.3298539251237e-08   -3.96596096551786e-07
-2.2436759080884223e-07   1.3298539251237e-08   -3.96596096551786e-07
              </DataArray>   
             <DataArray type="Float64" NumberOfComponents="3" Name="Stress" format="ascii">   
-1.5899297929681264   -0.3974824482420316   -0.3974824482420316
-1.5899297929681264   -0.3974824482420316   -0.3974824482420316
-1.5899297929681264   -0.3974824482420316   -0.3974824482420316
-1.5899297929681264   -0.3974824482420316   -0.3974824482420316
-0.9198453352214594   -0.02963315345424744   -0.018634735687193427
-0.9198453352214594   -0.02963315345424744   -0.018634735687193427
-0.9198453352214594   -0.02963315345424744   -0.018634735687193427
-0.9198453352214594   -0.02963315345424744   -0.018634735687193427
-0.991064181818612   -0.247766045454653   -0.247766045454653
-0.991064181818612   -0.247766045454653   -0.247766045454653
-0.991064181818612   -0.247766045454653   -0.247766045454653
-0.991064181818612   -0.247766045454653   -0.247766045454653
-1.5321743000673984   -0.12621071421425814   -0.048388088341757986
-1.5321743000673984   -0.12621071421425814   -0.048388088341757986
-1.5321743000673984   -0.12621071421425814   -0.048388088341757986
-1.5321743000673984   -0.12621071421425814   -0.048388088341757986
-1.2015597223449799   -0.1972175297662967   -0.0033446386884520406
-1.2015597223449799   -0.1972175297662967   -0.0033446386884520406
-1.2015597223449799   -0.1972175297662967   -0.0033446386884520406
-1.2015597223449799   -0.1972175297662967   -0.0033446386884520406
-1.663616155062442   -0.4159040387656105   -0.4159040387656105
-1.663616155062442   -0.4159040387656105   -0.4159040387656105
-1.663616155062442   -0.4159040387656105   -0.4159040387656105
-1.663616155062442   -0.4159040387656105   -0.4159040387656105
-0.8908337028217155   0.010715903098554802   -0.005095599023377986
-0.8908337028217155   0.010715903098554802   -0.005095599023377986
-0.8908337028217155   0.010715903098554802   -0.005095599023377986
-0.8908337028217155   0.010715903098554802   -0.005095599023377986
-0.9935787982481743   -0.24839469956204357   -0.24839469956204357
-0.9935787982481743   -0.24839469956204357   -0.24839469956204357
-0.9935787982481743   -0.24839469956204357   -0.24839469956204357
-0.9935787982481743   -0.24839469956204357   -0.24839469956204357
-1.5833528825956993   -0.12733325114074903   -0.07086620315291697
-1.5833528825956993   -0.12733325114074903   -0.07086620315291697
-1.5833528825956993   -0.12733325114074903   -0.07086620315291697
-1.5833528825956993   -0.12733325114074903   -0.07086620315291697
-1.2460743568109804   -0.18558216890081092   -0.06610097020521481
-1.2460743568109804   -0.18558216890081092   -0.06610097020521481
-1.2460743568109804   -0.18558216890081092   -0.06610097020521481
-1.2460743568109804   -0.18558216890081092   -0.06610097020521481
-1.7152366574855207   -0.42880916437138017   -0.42880916437138017
-1.7152366574855207   -0.42880916437138017   -0.42880916437138017
-1.7152366574855207   -0.42880916437138017   -0.42880916437138017
-1.7152366574855207   -0.42880916437138017   -0.42880916437138017
-0.8879830414989658   0.02679319552797718   0.004396189093978653
-0.8879830414989658   0.02679319552797718   0.004396189093978653
-0.8879830414989658   0.02679319552797718   0.004396189093978653
-0.8879830414989658   0.02679319552797718   0.004396189093978653
-0.9927405073341726   -0.24818512683354316   -0.24818512683354316
-0.9927405073341726   -0.24818512683354316   -0.24818512683354316
-0.9927405073341726   -0.24818512683354316   -0.24818512683354316
-0.9927405073341726   -0.24818512683354316   -0.24818512683354316
-1.674877365402418   -0.11148271216883321   -0.04266561161767046
-1.674877365402418   -0.11148271216883321   -0.04266561161767046
-1.674877365402418   -0.11148271216883321   -0.04266561161767046
-1.674877365402418   -0.11148271216883321   -0.04266561161767046
-1.2789931469893494   -0.18260865582385238   -0.11940845827859523
-1.2789931469893494   -0.18260865582385238   -0.11940845827859523
-1.2789931469893494   -0.18260865582385238   -0.11940845827859523
-1.2789931469893494   -0.18260865582385238   -0.11940845827859523
-1.011324174881303   -0.2528310437203258   -0.2528310437203258
-1.011324174881303   -0.2528310437203258   -0.2528310437203258
-1.011324174881303   -0.2528310437203258   -0.2528310437203258
-1.011324174881303   -0.2528310437203258   -0.2528310437203258
-0.42232428230645125   -0.028423437762790646   -0.009207761262601904
-0.42232428230645125   -0.028423437762790646   -0.009207761262601904
-0.42232428230645125   -0.028423437762790646   -0.009207761262601904
-0.42232428230645125   -0.028423437762790646   -0.009207761262601904
-0.44300107159599283   -0.11075026789899821   -0.11075026789899821
-0.44300107159599283   -0.11075026789899821   -0.11075026789899821
-0.44300107159599283   -0.11075026789899821   -0.11075026789899821
-0.44300107159599283   -0.11075026789899821   -0.11075026789899821
-0.9205588778014678   -0.10846229775936649   -0.03454327306421852
-0.9205588778014678   -0.10846229775936649   -0.03454327306421852
-0.9205588778014678   -0.10846229775936649   -0.03454327306421852
-0.9205588778014678   -0.10846229775936649   -0.03454327306421852
-0.6791477045685679   -0.12876658856997167   0.005259870301042267
-0.6791477045685679   -0.12876658856997167   0.005259870301042267
-0.6791477045685679   -0.12876658856997167   0.005259870301042267
-0.6791477045685679   -0.12876658856997167   0.005259870301042267
-0.9910641818186111   -0.24776604545465278   -0.24776604545465278
-0.9910641818186111   -0.24776604545465278   -0.24776604545465278
-0.9910641818186111   -0.24776604545465278   -0.24776604545465278
-0.9910641818186111   -0.24776604545465278   -0.24776604545465278
-0.39819519747554727   0.00285404989958965   -0.00032521509535832563
-0.39819519747554727   0.00285404989958965   -0.00032521509535832563
-0.39819519747554727   0.00285404989958965   -0.00032521509535832563
-0.39819519747554727   0.00285404989958965   -0.00032521509535832563
-0.4328413400996898   -0.10821033502492244   -0.10821033502492244
-0.4328413400996898   -0.10821033502492244   -0.10821033502492244
-0.4328413400996898   -0.10821033502492244   -0.10821033502492244
-0.4328413400996898   -0.10821033502492244   -0.10821033502492244
-0.9179720465953839   -0.08840766038526013   -0.03034798047487465
-0.9179720465953839   -0.08840766038526013   -0.03034798047487465
-0.9179720465953839   -0.08840766038526013   -0.03034798047487465
-0.9179720465953839   -0.08840766038526013   -0.03034798047487465
-0.6694211102931135   -0.1083480501712203   -0.034970076978173975
-0.6694211102931135   -0.1083480501712203   -0.034970076978173975
-0.6694211102931135   -0.1083480501712203   -0.034970076978173975
-0.6694211102931135   -0.1083480501712203   -0.034970076978173975
-0.9935787982481743   -0.24839469956204357   -0.24839469956204357
-0.9935787982481743   -0.24839469956204357   -0.24839469956204357
-0.9935787982481743   -0.24839469956204357   -0.24839469956204357
-0.9935787982481743   -0.24839469956204357   -0.24839469956204357
-0.3821264342571963   0.02688485834156401   0.0102690008210585
-0.3821264342571963   0.02688485834156401   0.0102690008210585
-0.3821264342571963   0.02688485834156401   0.0102690008210585
-0.3821264342571963   0.02688485834156401   0.0102690008210585
-0.4235437948938337   -0.10588594872345843   -0.10588594872345843
-0.4235437948938337   -0.10588594872345843   -0.10588594872345843
-0.4235437948938337   -0.10588594872345843   -0.10588594872345843
-0.4235437948938337   -0.10588594872345843   -0.10588594872345843
-0.910930067241707   -0.06813849837050359   -0.019179554834266137
-0.910930067241707   -0.06813849837050359   -0.019179554834266137
-0.910930067241707   -0.06813849837050359   -0.019179554834266137
-0.910930067241707   -0.06813849837050359   -0.019179554834266137
-0.6724400388199611   -0.09580398701871243   -0.07787037251157623
-0.6724400388199611   -0.09580398701871243   -0.07787037251157623
-0.6724400388199611   -0.09580398701871243   -0.07787037251157623
-0.6724400388199611   -0.09580398701871243   -0.07787037251157623
-0.46088671389041497   -0.11522167847260374   -0.11522167847260374
-0.46088671389041497   -0.11522167847260374   -0.11522167847260374
-0.46088671389041497   -0.11522167847260374   -0.11522167847260374
-0.46088671389041497   -0.11522167847260374   -0.11522167847260374
0.05380490475117908   0.0033695652104387096   0.0004534029002272789
0.05380490475117908   0.0033695652104387096   0.0004534029002272789
0.05380490475117908   0.0033695652104387096   0.0004534029002272789
0.05380490475117908   0.0033695652104387096   0.0004534029002272789
0.07048001752389935   0.017620004380974837   0.017620004380974837
0.07048001752389935   0.017620004380974837   0.017620004380974837
0.07048001752389935   0.017620004380974837   0.017620004380974837
0.07048001752389935   0.017620004380974837   0.017620004380974837
-0.4164434814338929   -0.07197139287663741   -0.016741192110859383
-0.4164434814338929   -0.07197139287663741   -0.016741192110859383
-0.4164434814338929   -0.07197139287663741   -0.016741192110859383
-0.4164434814338929   -0.07197139287663741   -0.016741192110859383
-0.17872404609353154   -0.04531964851927189   0.030114484876272152
-0.17872404609353154   -0.04531964851927189   0.030114484876272152
-0.17872404609353154   -0.04531964851927189   0.030114484876272152
-0.17872404609353154   -0.04531964851927189   0.030114484876272152
-0.44300107159599283   -0.11075026789899821   -0.11075026789899821
-0.44300107159599283   -0.11075026789899821   -0.11075026789899821
-0.44300107159599283   -0.11075026789899821   -0.11075026789899821
-0.44300107159599283   -0.11075026789899821   -0.11075026789899821
0.07177799702352032   0.03113926874085659   0.010590637519197348
0.07177799702352032   0.03113926874085659   0.010590637519197348
0.07177799702352032   0.03113926874085659   0.010590637519197348
0.07177799702352032   0.03113926874085659   0.010590637519197348
0.0796301761549257   0.019907544038731424   0.019907544038731424
0.0796301761549257   0.019907544038731424   0.019907544038731424
0.0796301761549257   0.019907544038731424   0.019907544038731424
0.0796301761549257   0.019907544038731424   0.019907544038731424
-0.4014741771725505   -0.04836086199956221   -0.011223993414589526
-0.4014741771725505   -0.04836086199956221   -0.011223993414589526
-0.4014741771725505   -0.04836086199956221   -0.011223993414589526
-0.4014741771725505   -0.04836086199956221   -0.011223993414589526
-0.17118643890346252   -0.027971930500491765   -0.01037574927442018
-0.17118643890346252   -0.027971930500491765   -0.01037574927442018
-0.17118643890346252   -0.027971930500491765   -0.01037574927442018
-0.17118643890346252   -0.027971930500491765   -0.01037574927442018
-0.4328413400996898   -0.10821033502492244   -0.10821033502492244
-0.4328413400996898   -0.10821033502492244   -0.10821033502492244
-0.4328413400996898   -0.10821033502492244   -0.10821033502492244
-0.4328413400996898   -0.10821033502492244   -0.10821033502492244
0.08624677899192029   0.05500645697394743   0.017891645288487863
0.08624677899192029   0.05500645697394743   0.017891645288487863
0.08624677899192029   0.05500645697394743   0.017891645288487863
0.08624677899192029   0.05500645697394743   0.017891645288487863
0.09184869111725531   0.022962172779313828   0.022962172779313828
0.09184869111725531   0.022962172779313828   0.022962172779313828
0.09184869111725531   0.022962172779313828   0.022962172779313828
0.09184869111725531   0.022962172779313828   0.022962172779313828
-0.3851875783188191   -0.02022551242688876   0.00023469785504319843
-0.3851875783188191   -0.02022551242688876   0.00023469785504319843
-0.3851875783188191   -0.02022551242688876   0.00023469785504319843
-0.3851875783188191   -0.02022551242688876   0.00023469785504319843
-0.1657970547661492   -0.01124776592595958   -0.05050404769431057
-0.1657970547661492   -0.01124776592595958   -0.05050404769431057
-0.1657970547661492   -0.01124776592595958   -0.05050404769431057
-0.1657970547661492   -0.01124776592595958   -0.05050404769431057
0.058933679032273305   0.014733419758068326   0.014733419758068326
0.058933679032273305   0.014733419758068326   0.014733419758068326
0.058933679032273305   0.014733419758068326   0.014733419758068326
0.058933679032273305   0.014733419758068326   0.014733419758068326
0.5752284603006125   0.05281389890652084   0.017896221614764434
0.5752284603006125   0.05281389890652084   0.017896221614764434
0.5752284603006125   0.05281389890652084   0.017896221614764434
0.5752284603006125   0.05281389890652084   0.017896221614764434
0.6248805939121628   0.1562201484780407   0.1562201484780407
0.6248805939121628   0.1562201484780407   0.1562201484780407
0.6248805939121628   0.1562201484780407   0.1562201484780407
0.6248805939121628   0.1562201484780407   0.1562201484780407
0.05366802262677199   -0.04047673263078866   -0.008343233092899515
0.05366802262677199   -0.04047673263078866   -0.008343233092899515
0.05366802262677199   -0.04047673263078866   -0.008343233092899515
0.05366802262677199   -0.04047673263078866   -0.008343233092899515
0.32777774042863567   0.04082444358723846   0.05948214443095864
0.32777774042863567   0.04082444358723846   0.05948214443095864
0.32777774042863567   0.04082444358723846   0.05948214443095864
0.32777774042863567   0.04082444358723846   0.05948214443095864
0.07048001752389958   0.017620004380974896   0.017620004380974896
0.07048001752389958   0.017620004380974896   0.017620004380974896
0.07048001752389958   0.017620004380974896   0.017620004380974896
0.07048001752389958   0.017620004380974896   0.017620004380974896
0.5823857954828637   0.07244060793410573   0.02752569687548058
0.5823857954828637   0.07244060793410573   0.02752569687548058
0.5823857954828637   0.07244060793410573   0.02752569687548058
0.5823857954828637   0.07244060793410573   0.02752569687548058
0.622499617147676   0.155624904286919   0.155624904286919
0.622499617147676   0.155624904286919   0.155624904286919
0.622499617147676   0.155624904286919   0.155624904286919
0.622499617147676   0.155624904286919   0.155624904286919
0.06822692177586186   -0.017378127116126046   0.00017694329826913047
0.06822692177586186   -0.017378127116126046   0.00017694329826913047
0.06822692177586186   -0.017378127116126046   0.00017694329826913047
0.06822692177586186   -0.017378127116126046   0.00017694329826913047
0.32565952495337874   0.053690733746081305   0.015402713009767146
0.32565952495337874   0.053690733746081305   0.015402713009767146
0.32565952495337874   0.053690733746081305   0.015402713009767146
0.32565952495337874   0.053690733746081305   0.015402713009767146
0.07963017615492576   0.01990754403873144   0.01990754403873144
0.07963017615492576   0.01990754403873144   0.01990754403873144
0.07963017615492576   0.01990754403873144   0.01990754403873144
0.07963017615492576   0.01990754403873144   0.01990754403873144
0.585662054846128   0.09290492520957745   0.034157071856520435
0.585662054846128   0.09290492520957745   0.034157071856520435
0.585662054846128   0.09290492520957745   0.034157071856520435
0.585662054846128   0.09290492520957745   0.034157071856520435
0.6348393020371259   0.15870982550928148   0.15870982550928148
0.6348393020371259   0.15870982550928148   0.15870982550928148
0.6348393020371259   0.15870982550928148   0.15870982550928148
0.6348393020371259   0.15870982550928148   0.15870982550928148
0.08723831501044228   0.013153169939299256   0.00971929508526253
0.08723831501044228   0.013153169939299256   0.00971929508526253
0.08723831501044228   0.013153169939299256   0.00971929508526253
0.08723831501044228   0.013153169939299256   0.00971929508526253
0.33099996117288183   0.07291048390692814   -0.02546700397463426
0.33099996117288183   0.07291048390692814   -0.02546700397463426
0.33099996117288183   0.07291048390692814   -0.02546700397463426
0.33099996117288183   0.07291048390692814   -0.02546700397463426
0.6234293735515061   0.15585734338787652   0.15585734338787652
0.6234293735515061   0.15585734338787652   0.15585734338787652
0.6234293735515061   0.15585734338787652   0.15585734338787652
0.6234293735515061   0.15585734338787652   0.15585734338787652
1.2949732345060976   0.09880533071612468   0.03424413664041401
1.2949732345060976   0.09880533071612468   0.03424413664041401
1.2949732345060976   0.09880533071612468   0.03424413664041401
1.2949732345060976   0.09880533071612468   0.03424413664041401
1.3239982699965913   0.33099956749914783   0.33099956749914783
1.3239982699965913   0.33099956749914783   0.33099956749914783
1.3239982699965913   0.33099956749914783   0.33099956749914783
1.3239982699965913   0.33099956749914783   0.33099956749914783
0.5555271924280837   -0.03143324893605687   -0.002893461528256966
0.5555271924280837   -0.03143324893605687   -0.002893461528256966
0.5555271924280837   -0.03143324893605687   -0.002893461528256966
0.5555271924280837   -0.03143324893605687   -0.002893461528256966
0.923321772902892   0.13078472973534358   0.10411193679589761
0.923321772902892   0.13078472973534358   0.10411193679589761
0.923321772902892   0.13078472973534358   0.10411193679589761
0.923321772902892   0.13078472973534358   0.10411193679589761
0.6248805939121622   0.15622014847804055   0.15622014847804055
0.6248805939121622   0.15622014847804055   0.15622014847804055
0.6248805939121622   0.15622014847804055   0.15622014847804055
0.6248805939121622   0.15622014847804055   0.15622014847804055
1.2271059539887825   0.11580725556132418   0.06173029939794788
1.2271059539887825   0.11580725556132418   0.06173029939794788
1.2271059539887825   0.11580725556132418   0.06173029939794788
1.2271059539887825   0.11580725556132418   0.06173029939794788
1.2847990257541344   0.3211997564385336   0.3211997564385336
1.2847990257541344   0.3211997564385336   0.3211997564385336
1.2847990257541344   0.3211997564385336   0.3211997564385336
1.2847990257541344   0.3211997564385336   0.3211997564385336
0.5577492626224386   -0.01717686064076912   0.004674896588420387
0.5577492626224386   -0.01717686064076912   0.004674896588420387
0.5577492626224386   -0.01717686064076912   0.004674896588420387
0.5577492626224386   -0.01717686064076912   0.004674896588420387
0.8962672751960113   0.13465265547178623   0.04990457625910408
0.8962672751960113   0.13465265547178623   0.04990457625910408
0.8962672751960113   0.13465265547178623   0.04990457625910408
0.8962672751960113   0.13465265547178623   0.04990457625910408
0.622499617147676   0.155624904286919   0.155624904286919
0.622499617147676   0.155624904286919   0.155624904286919
0.622499617147676   0.155624904286919   0.155624904286919
0.622499617147676   0.155624904286919   0.155624904286919
1.1879247123236476   0.11627403260559954   0.04175391311905409
1.1879247123236476   0.11627403260559954   0.04175391311905409
1.1879247123236476   0.11627403260559954   0.04175391311905409
1.1879247123236476   0.11627403260559954   0.04175391311905409
1.226235981687489   0.30655899542187226   0.30655899542187226
1.226235981687489   0.30655899542187226   0.30655899542187226
1.226235981687489   0.30655899542187226   0.30655899542187226
1.226235981687489   0.30655899542187226   0.30655899542187226
0.5786890071272593   0.018738915998665576   0.01792926047056433
0.5786890071272593   0.018738915998665576   0.01792926047056433
0.5786890071272593   0.018738915998665576   0.01792926047056433
0.5786890071272593   0.018738915998665576   0.01792926047056433
0.8585173654921414   0.1461089940725413   -0.013177263990960194
0.8585173654921414   0.1461089940725413   -0.013177263990960194
0.8585173654921414   0.1461089940725413   -0.013177263990960194
0.8585173654921414   0.1461089940725413   -0.013177263990960194
-1.2540562487503113   -0.08984672507258037   0.014508319749994593
-1.2540562487503113   -0.08984672507258037   0.014508319749994593
-1.2540562487503113   -0.08984672507258037   0.014508319749994593
-1.2540562487503113   -0.08984672507258037   0.014508319749994593
-0.7986106891617908   -0.01879380268857722   -0.005301727087680959
-0.7986106891617908   -0.01879380268857722   -0.005301727087680959
-0.7986106891617908   -0.01879380268857722   -0.005301727087680959
-0.7986106891617908   -0.01879380268857722   -0.005301727087680959
-0.8037106585549296   0.03256603939997854   0.017032038216957722
-0.8037106585549296   0.03256603939997854   0.017032038216957722
-0.8037106585549296   0.03256603939997854   0.017032038216957722
-0.8037106585549296   0.03256603939997854   0.017032038216957722
-1.27257017226787   -0.08700300726295668   -0.015241433400226892
-1.27257017226787   -0.08700300726295668   -0.015241433400226892
-1.27257017226787   -0.08700300726295668   -0.015241433400226892
-1.27257017226787   -0.08700300726295668   -0.015241433400226892
-0.9916565533786088   -0.03398324905532535   -0.0041317125306973845
-0.9916565533786088   -0.03398324905532535   -0.0041317125306973845
-0.9916565533786088   -0.03398324905532535   -0.0041317125306973845
-0.9916565533786088   -0.03398324905532535   -0.0041317125306973845
-1.2631423192997189   -0.061456446297380424   0.0063512704749522295
-1.2631423192997189   -0.061456446297380424   0.0063512704749522295
-1.2631423192997189   -0.061456446297380424   0.0063512704749522295
-1.2631423192997189   -0.061456446297380424   0.0063512704749522295
-0.8144549955395907   0.00570299441789518   -0.00982660172425067
-0.8144549955395907   0.00570299441789518   -0.00982660172425067
-0.8144549955395907   0.00570299441789518   -0.00982660172425067
-0.8144549955395907   0.00570299441789518   -0.00982660172425067
-0.8044842707910096   0.046479097086856935   0.019326926180423205
-0.8044842707910096   0.046479097086856935   0.019326926180423205
-0.8044842707910096   0.046479097086856935   0.019326926180423205
-0.8044842707910096   0.046479097086856935   0.019326926180423205
-1.280025596719269   -0.07656601124738846   -0.020101781976064263
-1.280025596719269   -0.07656601124738846   -0.020101781976064263
-1.280025596719269   -0.07656601124738846   -0.020101781976064263
-1.280025596719269   -0.07656601124738846   -0.020101781976064263
-1.0192734317681402   -0.022675328124670102   -0.009763175252185612
-1.0192734317681402   -0.022675328124670102   -0.009763175252185612
-1.0192734317681402   -0.022675328124670102   -0.009763175252185612
-1.0192734317681402   -0.022675328124670102   -0.009763175252185612
-1.2568475506646535   -0.03667871392836117   0.05590115097797633
-1.2568475506646535   -0.03667871392836117   0.05590115097797633
-1.2568475506646535   -0.03667871392836117   0.05590115097797633
-1.2568475506646535   -0.03667871392836117   0.05590115097797633
-0.8180545518061649   0.016199564807289374   -0.0182449466157791
-0.8180545518061649   0.016199564807289374   -0.0182449466157791
-0.8180545518061649   0.016199564807289374   -0.0182449466157791
-0.8180545518061649   0.016199564807289374   -0.0182449466157791
-0.7896438706331762   0.0810814436883932   0.03492167289921928
-0.7896438706331762   0.0810814436883932   0.03492167289921928
-0.7896438706331762   0.0810814436883932   0.03492167289921928
-0.7896438706331762   0.0810814436883932   0.03492167289921928
-1.2442633138732462   -0.061618562730046844   -0.03279327845470091
-1.2442633138732462   -0.061618562730046844   -0.03279327845470091
-1.2442633138732462   -0.061618562730046844   -0.03279327845470091
-1.2442633138732462   -0.061618562730046844   -0.03279327845470091
-0.980004706781456   0.009312714073268086   0.021782155255766086
-0.980004706781456   0.009312714073268086   0.021782155255766086
-0.980004706781456   0.009312714073268086   0.021782155255766086
-0.980004706781456   0.009312714073268086   0.021782155255766086
-0.8183395555075524   -0.1086107603762533   -0.014129101128813208
-0.8183395555075524   -0.1086107603762533   -0.014129101128813208
-0.8183395555075524   -0.1086107603762533   -0.014129101128813208
-0.8183395555075524   -0.1086107603762533   -0.014129101128813208
-0.37749003228041655   -0.008633852266970735   0.0039489220863246355
-0.37749003228041655   -0.008633852266970735   0.0039489220863246355
-0.37749003228041655   -0.008633852266970735   0.0039489220863246355
-0.37749003228041655   -0.008633852266970735   0.0039489220863246355
-0.38281388310279935   0.0071574552284875415   0.0058104971763841134
-0.38281388310279935   0.0071574552284875415   0.0058104971763841134
-0.38281388310279935   0.0071574552284875415   0.0058104971763841134
-0.38281388310279935   0.0071574552284875415   0.0058104971763841134
-0.8344439751174998   -0.07946573454567252   -0.024602770650241815
-0.8344439751174998   -0.07946573454567252   -0.024602770650241815
-0.8344439751174998   -0.07946573454567252   -0.024602770650241815
-0.8344439751174998   -0.07946573454567252   -0.024602770650241815
-0.6032731813799672   -0.049097797102953325   -0.013928178592490719
-0.6032731813799672   -0.049097797102953325   -0.013928178592490719
-0.6032731813799672   -0.049097797102953325   -0.013928178592490719
-0.6032731813799672   -0.049097797102953325   -0.013928178592490719
-0.8336208341606223   -0.08679716208388333   -0.013155638327647365
-0.8336208341606223   -0.08679716208388333   -0.013155638327647365
-0.8336208341606223   -0.08679716208388333   -0.013155638327647365
-0.8336208341606223   -0.08679716208388333   -0.013155638327647365
-0.3821539689121779   0.015971937914197182   0.00029558544378492646
-0.3821539689121779   0.015971937914197182   0.00029558544378492646
-0.3821539689121779   0.015971937914197182   0.00029558544378492646
-0.3821539689121779   0.015971937914197182   0.00029558544378492646
-0.38120715973179364   0.02657836414284094   0.007817255302042473
-0.38120715973179364   0.02657836414284094   0.007817255302042473
-0.38120715973179364   0.02657836414284094   0.007817255302042473
-0.38120715973179364   0.02657836414284094   0.007817255302042473
-0.834598200611329   -0.05813982017678246   -0.026623805657534444
-0.834598200611329   -0.05813982017678246   -0.026623805657534444
-0.834598200611329   -0.05813982017678246   -0.026623805657534444
-0.834598200611329   -0.05813982017678246   -0.026623805657534444
-0.6019376007436307   -0.02728490710374569   -0.006628985199884221
-0.6019376007436307   -0.02728490710374569   -0.006628985199884221
-0.6019376007436307   -0.02728490710374569   -0.006628985199884221
-0.6019376007436307   -0.02728490710374569   -0.006628985199884221
-0.8313031662391377   -0.0655516491780903   -0.002736804795269703
-0.8313031662391377   -0.0655516491780903   -0.002736804795269703
-0.8313031662391377   -0.0655516491780903   -0.002736804795269703
-0.8313031662391377   -0.0655516491780903   -0.002736804795269703
-0.38174604678721535   0.03674634046092021   -0.005045156293138724
-0.38174604678721535   0.03674634046092021   -0.005045156293138724
-0.38174604678721535   0.03674634046092021   -0.005045156293138724
-0.38174604678721535   0.03674634046092021   -0.005045156293138724
-0.37466671507660576   0.046069664194940046   0.015597905827851734
-0.37466671507660576   0.046069664194940046   0.015597905827851734
-0.37466671507660576   0.046069664194940046   0.015597905827851734
-0.37466671507660576   0.046069664194940046   0.015597905827851734
-0.8254775107165737   -0.033496360391716135   -0.02966872343766213
-0.8254775107165737   -0.033496360391716135   -0.02966872343766213
-0.8254775107165737   -0.033496360391716135   -0.02966872343766213
-0.8254775107165737   -0.033496360391716135   -0.02966872343766213
-0.5992441676492251   -0.006639705915544192   0.002999806826824644
-0.5992441676492251   -0.006639705915544192   0.002999806826824644
-0.5992441676492251   -0.006639705915544192   0.002999806826824644
-0.5992441676492251   -0.006639705915544192   0.002999806826824644
-0.3979868051515953   -0.09042768021455828   -0.016741114321984333
-0.3979868051515953   -0.09042768021455828   -0.016741114321984333
-0.3979868051515953   -0.09042768021455828   -0.016741114321984333
-0.3979868051515953   -0.09042768021455828   -0.016741114321984333
0.0403301285608592   0.009157806282140142   0.015502998849782844
0.0403301285608592   0.009157806282140142   0.015502998849782844
0.0403301285608592   0.009157806282140142   0.015502998849782844
0.0403301285608592   0.009157806282140142   0.015502998849782844
0.038619185962149805   0.022643591921676847   0.0012710644846691483
0.038619185962149805   0.022643591921676847   0.0012710644846691483
0.038619185962149805   0.022643591921676847   0.0012710644846691483
0.038619185962149805   0.022643591921676847   0.0012710644846691483
-0.3995149613586844   -0.059840121332182236   -0.010697317542371229
-0.3995149613586844   -0.059840121332182236   -0.010697317542371229
-0.3995149613586844   -0.059840121332182236   -0.010697317542371229
-0.3995149613586844   -0.059840121332182236   -0.010697317542371229
-0.18137841912151428   -0.03004723132502782   -0.005789451817737404
-0.18137841912151428   -0.03004723132502782   -0.005789451817737404
-0.18137841912151428   -0.03004723132502782   -0.005789451817737404
-0.18137841912151428   -0.03004723132502782   -0.005789451817737404
-0.40228370502304134   -0.06888952550963569   -0.015491631686702385
-0.40228370502304134   -0.06888952550963569   -0.015491631686702385
-0.40228370502304134   -0.06888952550963569   -0.015491631686702385
-0.40228370502304134   -0.06888952550963569   -0.015491631686702385
0.04291230427220252   0.03321737074482673   0.012162877211782847
0.04291230427220252   0.03321737074482673   0.012162877211782847
0.04291230427220252   0.03321737074482673   0.012162877211782847
0.04291230427220252   0.03321737074482673   0.012162877211782847
0.04191198563210279   0.04399904744045278   0.0071893909808330835
0.04191198563210279   0.04399904744045278   0.0071893909808330835
0.04191198563210279   0.04399904744045278   0.0071893909808330835
0.04191198563210279   0.04399904744045278   0.0071893909808330835
-0.39804158763584674   -0.03641682849299484   -0.013359691582387243
-0.39804158763584674   -0.03641682849299484   -0.013359691582387243
-0.39804158763584674   -0.03641682849299484   -0.013359691582387243
-0.39804158763584674   -0.03641682849299484   -0.013359691582387243
-0.17837530970484017   -0.007363800983635701   0.0020917304961280423
-0.17837530970484017   -0.007363800983635701   0.0020917304961280423
-0.17837530970484017   -0.007363800983635701   0.0020917304961280423
-0.17837530970484017   -0.007363800983635701   0.0020917304961280423
-0.3991247351002864   -0.04723718865142312   -0.007955068746157236
-0.3991247351002864   -0.04723718865142312   -0.007955068746157236
-0.3991247351002864   -0.04723718865142312   -0.007955068746157236
-0.3991247351002864   -0.04723718865142312   -0.007955068746157236
0.044637109624583844   0.05646138412692243   0.008352674256768479
0.044637109624583844   0.05646138412692243   0.008352674256768479
0.044637109624583844   0.05646138412692243   0.008352674256768479
0.044637109624583844   0.05646138412692243   0.008352674256768479
0.043070909525058876   0.06773987663639916   0.011803155327605832
0.043070909525058876   0.06773987663639916   0.011803155327605832
0.043070909525058876   0.06773987663639916   0.011803155327605832
0.043070909525058876   0.06773987663639916   0.011803155327605832
-0.39264890538708597   -0.011390321186925914   -0.016853060342682066
-0.39264890538708597   -0.011390321186925914   -0.016853060342682066
-0.39264890538708597   -0.011390321186925914   -0.016853060342682066
-0.39264890538708597   -0.011390321186925914   -0.016853060342682066
-0.1737320889734813   0.016357193176839   0.010720131224969278
-0.1737320889734813   0.016357193176839   0.010720131224969278
-0.1737320889734813   0.016357193176839   0.010720131224969278
-0.1737320889734813   0.016357193176839   0.010720131224969278
0.017999817102568844   -0.06634102040662196   -0.020649731752906804
0.017999817102568844   -0.06634102040662196   -0.020649731752906804
0.017999817102568844   -0.06634102040662196   -0.020649731752906804
0.017999817102568844   -0.06634102040662196   -0.020649731752906804
0.47211089257918043   0.032476718601666565   0.028512767047801698
0.47211089257918043   0.032476718601666565   0.028512767047801698
0.47211089257918043   0.032476718601666565   0.028512767047801698
0.47211089257918043   0.032476718601666565   0.028512767047801698
0.4717004382080008   0.04387912977815081   -0.004596336629431919
0.4717004382080008   0.04387912977815081   -0.004596336629431919
0.4717004382080008   0.04387912977815081   -0.004596336629431919
0.4717004382080008   0.04387912977815081   -0.004596336629431919
0.02648037342610631   -0.03973407736689642   0.002954671093024953
0.02648037342610631   -0.03973407736689642   0.002954671093024953
0.02648037342610631   -0.03973407736689642   0.002954671093024953
0.02648037342610631   -0.03973407736689642   0.002954671093024953
0.24401692559066732   -0.005763241679673063   0.0004572676458598317
0.24401692559066732   -0.005763241679673063   0.0004572676458598317
0.24401692559066732   -0.005763241679673063   0.0004572676458598317
0.24401692559066732   -0.005763241679673063   0.0004572676458598317
0.021058475708966993   -0.048423145306402585   -0.01546574955316515
0.021058475708966993   -0.048423145306402585   -0.01546574955316515
0.021058475708966993   -0.048423145306402585   -0.01546574955316515
0.021058475708966993   -0.048423145306402585   -0.01546574955316515
0.4798731433146317   0.055319005107148066   0.024827313574721996
0.4798731433146317   0.055319005107148066   0.024827313574721996
0.4798731433146317   0.055319005107148066   0.024827313574721996
0.4798731433146317   0.055319005107148066   0.024827313574721996
0.4756614980883077   0.06501244025902014   0.004695203861552253
0.4756614980883077   0.06501244025902014   0.004695203861552253
0.4756614980883077   0.06501244025902014   0.004695203861552253
0.4756614980883077   0.06501244025902014   0.004695203861552253
0.027658768889425547   -0.018788617731968743   -0.0012890275601316432
0.027658768889425547   -0.018788617731968743   -0.0012890275601316432
0.027658768889425547   -0.018788617731968743   -0.0012890275601316432
0.027658768889425547   -0.018788617731968743   -0.0012890275601316432
0.24750406156956506   0.014430005121987811   0.01014479750305524
0.24750406156956506   0.014430005121987811   0.01014479750305524
0.24750406156956506   0.014430005121987811   0.01014479750305524
0.24750406156956506   0.014430005121987811   0.01014479750305524
0.02368869159881793   -0.028588973466846773   -0.011339058278291543
0.02368869159881793   -0.028588973466846773   -0.011339058278291543
0.02368869159881793   -0.028588973466846773   -0.011339058278291543
0.02368869159881793   -0.028588973466846773   -0.011339058278291543
0.4816239975928597   0.07680521820784114   0.02271492343548366
0.4816239975928597   0.07680521820784114   0.02271492343548366
0.4816239975928597   0.07680521820784114   0.02271492343548366
0.4816239975928597   0.07680521820784114   0.02271492343548366
0.46821432842575966   0.08939773115772558   0.009966087762076699
0.46821432842575966   0.08939773115772558   0.009966087762076699
0.46821432842575966   0.08939773115772558   0.009966087762076699
0.46821432842575966   0.08939773115772558   0.009966087762076699
0.02760068124177215   0.007115648993958078   -0.00492375844638673
0.02760068124177215   0.007115648993958078   -0.00492375844638673
0.02760068124177215   0.007115648993958078   -0.00492375844638673
0.02760068124177215   0.007115648993958078   -0.00492375844638673
0.2513889434911657   0.037508579831349226   0.01912384881434463
0.2513889434911657   0.037508579831349226   0.01912384881434463
0.2513889434911657   0.037508579831349226   0.01912384881434463
0.2513889434911657   0.037508579831349226   0.01912384881434463
0.4346948855714743   -0.08776439689724606   -0.038326152491816506
0.4346948855714743   -0.08776439689724606   -0.038326152491816506
0.4346948855714743   -0.08776439689724606   -0.038326152491816506
0.4346948855714743   -0.08776439689724606   -0.038326152491816506
0.8960190066481688   0.05919473067635797   0.027957712752889816
0.8960190066481688   0.05919473067635797   0.027957712752889816
0.8960190066481688   0.05919473067635797   0.027957712752889816
0.8960190066481688   0.05919473067635797   0.027957712752889816
0.9064027172841497   0.027785772657674512   -0.05767387841566593
0.9064027172841497   0.027785772657674512   -0.05767387841566593
0.9064027172841497   0.027785772657674512   -0.05767387841566593
0.9064027172841497   0.027785772657674512   -0.05767387841566593
0.4636553604662197   -0.017724093720891718   0.01678149816069769
0.4636553604662197   -0.017724093720891718   0.01678149816069769
0.4636553604662197   -0.017724093720891718   0.01678149816069769
0.4636553604662197   -0.017724093720891718   0.01678149816069769
0.6415882891422686   -0.01141104555552283   -0.016203352539589835
0.6415882891422686   -0.01141104555552283   -0.016203352539589835
0.6415882891422686   -0.01141104555552283   -0.016203352539589835
0.6415882891422686   -0.01141104555552283   -0.016203352539589835
0.44721553871919273   -0.05762102352603998   -0.025520680769282572
0.44721553871919273   -0.05762102352603998   -0.025520680769282572
0.44721553871919273   -0.05762102352603998   -0.025520680769282572
0.44721553871919273   -0.05762102352603998   -0.025520680769282572
0.9311135118538157   0.0759536752854631   0.01771219180487569
0.9311135118538157   0.0759536752854631   0.01771219180487569
0.9311135118538157   0.0759536752854631   0.01771219180487569
0.9311135118538157   0.0759536752854631   0.01771219180487569
0.9167406929695967   0.051026672215987   -0.013298869474957072
0.9167406929695967   0.051026672215987   -0.013298869474957072
0.9167406929695967   0.051026672215987   -0.013298869474957072
0.9167406929695967   0.051026672215987   -0.013298869474957072
0.46201667207333735   -0.007257253549433837   0.008740767595146741
0.46201667207333735   -0.007257253549433837   0.008740767595146741
0.46201667207333735   -0.007257253549433837   0.008740767595146741
0.46201667207333735   -0.007257253549433837   0.008740767595146741
0.6755583196031908   0.016895463414846712   0.011139706427421348
0.6755583196031908   0.016895463414846712   0.011139706427421348
0.6755583196031908   0.016895463414846712   0.011139706427421348
0.6755583196031908   0.016895463414846712   0.011139706427421348
0.4487949612275598   -0.04402309022838573   -0.020601949954785648
0.4487949612275598   -0.04402309022838573   -0.020601949954785648
0.4487949612275598   -0.04402309022838573   -0.020601949954785648
0.4487949612275598   -0.04402309022838573   -0.020601949954785648
0.928889758509368   0.08671986358893344   0.011753266850952494
0.928889758509368   0.08671986358893344   0.011753266850952494
0.928889758509368   0.08671986358893344   0.011753266850952494
0.928889758509368   0.08671986358893344   0.011753266850952494
0.915606902209869   0.0784830748292815   -0.020267840458965635
0.915606902209869   0.0784830748292815   -0.020267840458965635
0.915606902209869   0.0784830748292815   -0.020267840458965635
0.915606902209869   0.0784830748292815   -0.020267840458965635
0.4526846269633018   0.016791088282917047   0.004924223324587258
0.4526846269633018   0.016791088282917047   0.004924223324587258
0.4526846269633018   0.016791088282917047   0.004924223324587258
0.4526846269633018   0.016791088282917047   0.004924223324587258
0.6585614496200884   0.029748623795523732   0.008380202956126091
0.6585614496200884   0.029748623795523732   0.008380202956126091
0.6585614496200884   0.029748623795523732   0.008380202956126091
0.6585614496200884   0.029748623795523732   0.008380202956126091
-0.9835572643855889   -0.04451085665628718   0.05105957829756343
-0.9835572643855889   -0.04451085665628718   0.05105957829756343
-0.9835572643855889   -0.04451085665628718   0.05105957829756343
-0.9835572643855889   -0.04451085665628718   0.05105957829756343
-0.6538579763611427   -0.02511733105395328   -0.013285655937220198
-0.6538579763611427   -0.02511733105395328   -0.013285655937220198
-0.6538579763611427   -0.02511733105395328   -0.013285655937220198
-0.6538579763611427   -0.02511733105395328   -0.013285655937220198
-0.6300435714656343   0.053109053099363535   0.0427922676091385
-0.6300435714656343   0.053109053099363535   0.0427922676091385
-0.6300435714656343   0.053109053099363535   0.0427922676091385
-0.6300435714656343   0.053109053099363535   0.0427922676091385
-0.9880021742191183   -0.07063419946685875   -0.020791178840405752
-0.9880021742191183   -0.07063419946685875   -0.020791178840405752
-0.9880021742191183   -0.07063419946685875   -0.020791178840405752
-0.9880021742191183   -0.07063419946685875   -0.020791178840405752
-0.7808627003029786   -0.012068075891219415   -0.001632677868136409
-0.7808627003029786   -0.012068075891219415   -0.001632677868136409
-0.7808627003029786   -0.012068075891219415   -0.001632677868136409
-0.7808627003029786   -0.012068075891219415   -0.001632677868136409
-0.9603034835396478   -0.010073139849374357   0.05714121493946249
-0.9603034835396478   -0.010073139849374357   0.05714121493946249
-0.9603034835396478   -0.010073139849374357   0.05714121493946249
-0.9603034835396478   -0.010073139849374357   0.05714121493946249
-0.6533839854938446   -0.0030937298668606006   -0.017707019565688722
-0.6533839854938446   -0.0030937298668606006   -0.017707019565688722
-0.6533839854938446   -0.0030937298668606006   -0.017707019565688722
-0.6533839854938446   -0.0030937298668606006   -0.017707019565688722
-0.6273755056526075   0.0659105237865312   0.039630802126872595
-0.6273755056526075   0.0659105237865312   0.039630802126872595
-0.6273755056526075   0.0659105237865312   0.039630802126872595
-0.6273755056526075   0.0659105237865312   0.039630802126872595
-0.9724846077719314   -0.05901930842443978   -0.02843609761158271
-0.9724846077719314   -0.05901930842443978   -0.02843609761158271
-0.9724846077719314   -0.05901930842443978   -0.02843609761158271
-0.9724846077719314   -0.05901930842443978   -0.02843609761158271
-0.7823464659676249   0.0029696971470130062   0.008923021578848993
-0.7823464659676249   0.0029696971470130062   0.008923021578848993
-0.7823464659676249   0.0029696971470130062   0.008923021578848993
-0.7823464659676249   0.0029696971470130062   0.008923021578848993
-0.9467032069170198   0.0020076189633175534   0.03944397927521682
-0.9467032069170198   0.0020076189633175534   0.03944397927521682
-0.9467032069170198   0.0020076189633175534   0.03944397927521682
-0.9467032069170198   0.0020076189633175534   0.03944397927521682
-0.6517217583194569   0.006318744586836789   -0.022508682007674183
-0.6517217583194569   0.006318744586836789   -0.022508682007674183
-0.6517217583194569   0.006318744586836789   -0.022508682007674183
-0.6517217583194569   0.006318744586836789   -0.022508682007674183
-0.6278935565756246   0.0745036586606165   0.03144807120099423
-0.6278935565756246   0.0745036586606165   0.03144807120099423
-0.6278935565756246   0.0745036586606165   0.03144807120099423
-0.6278935565756246   0.0745036586606165   0.03144807120099423
-0.9524007728891423   -0.04662287852323885   -0.036235219968104346
-0.9524007728891423   -0.04662287852323885   -0.036235219968104346
-0.9524007728891423   -0.04662287852323885   -0.036235219968104346
-0.9524007728891423   -0.04662287852323885   -0.036235219968104346
-0.7597103424369286   0.01646219794778958   0.01873201318365738
-0.7597103424369286   0.01646219794778958   0.01873201318365738
-0.7597103424369286   0.01646219794778958   0.01873201318365738
-0.7597103424369286   0.01646219794778958   0.01873201318365738
-0.6556822152214977   -0.062139091275867975   0.014614909982919505
-0.6556822152214977   -0.062139091275867975   0.014614909982919505
-0.6556822152214977   -0.062139091275867975   0.014614909982919505
-0.6556822152214977   -0.062139091275867975   0.014614909982919505
-0.3317411523027383   -0.01215067639577011   0.0006060596097180806
-0.3317411523027383   -0.01215067639577011   0.0006060596097180806
-0.3317411523027383   -0.01215067639577011   0.0006060596097180806
-0.3317411523027383   -0.01215067639577011   0.0006060596097180806
-0.32221225120677666   0.032549389705635215   0.023241126695573808
-0.32221225120677666   0.032549389705635215   0.023241126695573808
-0.32221225120677666   0.032549389705635215   0.023241126695573808
-0.32221225120677666   0.032549389705635215   0.023241126695573808
-0.6660717847500148   -0.0612789952576681   -0.0229607504557376
-0.6660717847500148   -0.0612789952576681   -0.0229607504557376
-0.6660717847500148   -0.0612789952576681   -0.0229607504557376
-0.6660717847500148   -0.0612789952576681   -0.0229607504557376
-0.49219429278491056   -0.024155310545730488   -0.010065189356128108
-0.49219429278491056   -0.024155310545730488   -0.010065189356128108
-0.49219429278491056   -0.024155310545730488   -0.010065189356128108
-0.49219429278491056   -0.024155310545730488   -0.010065189356128108
-0.6535077581448261   -0.035534882965484266   0.014115270278025796
-0.6535077581448261   -0.035534882965484266   0.014115270278025796
-0.6535077581448261   -0.035534882965484266   0.014115270278025796
-0.6535077581448261   -0.035534882965484266   0.014115270278025796
-0.3322374528557645   0.009344102369653343   -0.0036795942133807623
-0.3322374528557645   0.009344102369653343   -0.0036795942133807623
-0.3322374528557645   0.009344102369653343   -0.0036795942133807623
-0.3322374528557645   0.009344102369653343   -0.0036795942133807623
-0.321103616201816   0.05390219949711522   0.02009170830244092
-0.321103616201816   0.05390219949711522   0.02009170830244092
-0.321103616201816   0.05390219949711522   0.02009170830244092
-0.321103616201816   0.05390219949711522   0.02009170830244092
-0.6621808774405784   -0.041364900870655946   -0.027120632155794563
-0.6621808774405784   -0.041364900870655946   -0.027120632155794563
-0.6621808774405784   -0.041364900870655946   -0.027120632155794563
-0.6621808774405784   -0.041364900870655946   -0.027120632155794563
-0.48672480987429   -0.0025803178009827926   -8.640930389043622e-05
-0.48672480987429   -0.0025803178009827926   -8.640930389043622e-05
-0.48672480987429   -0.0025803178009827926   -8.640930389043622e-05
-0.48672480987429   -0.0025803178009827926   -8.640930389043622e-05
-0.6493623476333795   -0.013872054373146758   0.009479170382690603
-0.6493623476333795   -0.013872054373146758   0.009479170382690603
-0.6493623476333795   -0.013872054373146758   0.009479170382690603
-0.6493623476333795   -0.013872054373146758   0.009479170382690603
-0.3318554335129577   0.02847606549566624   -0.008241244251811903
-0.3318554335129577   0.02847606549566624   -0.008241244251811903
-0.3318554335129577   0.02847606549566624   -0.008241244251811903
-0.3318554335129577   0.02847606549566624   -0.008241244251811903
-0.32092257130028906   0.07635669408488178   0.015041609529038852
-0.32092257130028906   0.07635669408488178   0.015041609529038852
-0.32092257130028906   0.07635669408488178   0.015041609529038852
-0.32092257130028906   0.07635669408488178   0.015041609529038852
-0.6588900735014108   -0.019853967338241907   -0.029176887429080714
-0.6588900735014108   -0.019853967338241907   -0.029176887429080714
-0.6588900735014108   -0.019853967338241907   -0.029176887429080714
-0.6588900735014108   -0.019853967338241907   -0.029176887429080714
-0.486935952946853   0.0172347745880555   0.007554463052308849
-0.486935952946853   0.0172347745880555   0.007554463052308849
-0.486935952946853   0.0172347745880555   0.007554463052308849
-0.486935952946853   0.0172347745880555   0.007554463052308849
-0.3440455655517486   -0.07119272409713281   -0.0018739589339741864
-0.3440455655517486   -0.07119272409713281   -0.0018739589339741864
-0.3440455655517486   -0.07119272409713281   -0.0018739589339741864
-0.3440455655517486   -0.07119272409713281   -0.0018739589339741864
-0.012562337293888986   0.0033171538244780403   0.014685337180348297
-0.012562337293888986   0.0033171538244780403   0.014685337180348297
-0.012562337293888986   0.0033171538244780403   0.014685337180348297
-0.012562337293888986   0.0033171538244780403   0.014685337180348297
-0.01373638824934775   0.02086112879627294   0.007030359990568013
-0.01373638824934775   0.02086112879627294   0.007030359990568013
-0.01373638824934775   0.02086112879627294   0.007030359990568013
-0.01373638824934775   0.02086112879627294   0.007030359990568013
-0.34419012073449756   -0.045537693699929827   -0.008561137537465707
-0.34419012073449756   -0.045537693699929827   -0.008561137537465707
-0.34419012073449756   -0.045537693699929827   -0.008561137537465707
-0.34419012073449756   -0.045537693699929827   -0.008561137537465707
-0.17918636324930282   -0.02237947672530905   -0.005653404799038787
-0.17918636324930282   -0.02237947672530905   -0.005653404799038787
-0.17918636324930282   -0.02237947672530905   -0.005653404799038787
-0.17918636324930282   -0.02237947672530905   -0.005653404799038787
-0.3438186366268511   -0.047508062514311625   -0.004733348184851466
-0.3438186366268511   -0.047508062514311625   -0.004733348184851466
-0.3438186366268511   -0.047508062514311625   -0.004733348184851466
-0.3438186366268511   -0.047508062514311625   -0.004733348184851466
-0.012216838321874354   0.024722531645774645   0.010766706778433456
-0.012216838321874354   0.024722531645774645   0.010766706778433456
-0.012216838321874354   0.024722531645774645   0.010766706778433456
-0.012216838321874354   0.024722531645774645   0.010766706778433456
-0.012077918313822784   0.044116786871885305   0.003344715919989503
-0.012077918313822784   0.044116786871885305   0.003344715919989503
-0.012077918313822784   0.044116786871885305   0.003344715919989503
-0.012077918313822784   0.044116786871885305   0.003344715919989503
-0.3432338376119528   -0.024091256343812477   -0.012565942907311596
-0.3432338376119528   -0.024091256343812477   -0.012565942907311596
-0.3432338376119528   -0.024091256343812477   -0.012565942907311596
-0.3432338376119528   -0.024091256343812477   -0.012565942907311596
-0.17736101391679346   -0.000888043478915565   0.002413812979957552
-0.17736101391679346   -0.000888043478915565   0.002413812979957552
-0.17736101391679346   -0.000888043478915565   0.002413812979957552
-0.17736101391679346   -0.000888043478915565   0.002413812979957552
-0.34271982742337226   -0.024581639829722238   -0.009505508478498778
-0.34271982742337226   -0.024581639829722238   -0.009505508478498778
-0.34271982742337226   -0.024581639829722238   -0.009505508478498778
-0.34271982742337226   -0.024581639829722238   -0.009505508478498778
-0.011031166458291946   0.04616793240190655   0.006527329667622628
-0.011031166458291946   0.04616793240190655   0.006527329667622628
-0.011031166458291946   0.04616793240190655   0.006527329667622628
-0.011031166458291946   0.04616793240190655   0.006527329667622628
-0.01165477745484867   0.068062000490789   -0.0005855798863447087
-0.01165477745484867   0.068062000490789   -0.0005855798863447087
-0.01165477745484867   0.068062000490789   -0.0005855798863447087
-0.01165477745484867   0.068062000490789   -0.0005855798863447087
-0.3429830414751933   -0.0022850569310083058   -0.016618990329593932
-0.3429830414751933   -0.0022850569310083058   -0.016618990329593932
-0.3429830414751933   -0.0022850569310083058   -0.016618990329593932
-0.3429830414751933   -0.0022850569310083058   -0.016618990329593932
-0.17592332179771555   0.020624290843372493   0.00981318994763161
-0.17592332179771555   0.020624290843372493   0.00981318994763161
-0.17592332179771555   0.020624290843372493   0.00981318994763161
-0.17592332179771555   0.020624290843372493   0.00981318994763161
-0.03519276206165667   -0.07809707691905299   -0.017052555914958956
-0.03519276206165667   -0.07809707691905299   -0.017052555914958956
-0.03519276206165667   -0.07809707691905299   -0.017052555914958956
-0.03519276206165667   -0.07809707691905299   -0.017052555914958956
0.30526227451677834   0.021397383369234725   0.027930910863859265
0.30526227451677834   0.021397383369234725   0.027930910863859265
0.30526227451677834   0.021397383369234725   0.027930910863859265
0.30526227451677834   0.021397383369234725   0.027930910863859265
0.29525135683441167   0.01120655034569016   -0.011113173752347534
0.29525135683441167   0.01120655034569016   -0.011113173752347534
0.29525135683441167   0.01120655034569016   -0.011113173752347534
0.29525135683441167   0.01120655034569016   -0.011113173752347534
-0.023794768018969792   -0.028479858609754685   0.006079448548485589
-0.023794768018969792   -0.028479858609754685   0.006079448548485589
-0.023794768018969792   -0.028479858609754685   0.006079448548485589
-0.023794768018969792   -0.028479858609754685   0.006079448548485589
0.13345574056326465   -0.018202417458179125   -0.003210971439449725
0.13345574056326465   -0.018202417458179125   -0.003210971439449725
0.13345574056326465   -0.018202417458179125   -0.003210971439449725
0.13345574056326465   -0.018202417458179125   -0.003210971439449725
-0.034984135580335994   -0.056906135800341574   -0.021441112067758516
-0.034984135580335994   -0.056906135800341574   -0.021441112067758516
-0.034984135580335994   -0.056906135800341574   -0.021441112067758516
-0.034984135580335994   -0.056906135800341574   -0.021441112067758516
0.3085921306329639   0.04178423377346305   0.02501301181264061
0.3085921306329639   0.04178423377346305   0.02501301181264061
0.3085921306329639   0.04178423377346305   0.02501301181264061
0.3085921306329639   0.04178423377346305   0.02501301181264061
0.3001718063915524   0.03285046282731068   -0.015606662265861342
0.3001718063915524   0.03285046282731068   -0.015606662265861342
0.3001718063915524   0.03285046282731068   -0.015606662265861342
0.3001718063915524   0.03285046282731068   -0.015606662265861342
-0.023062471953753775   -0.00926194927556853   0.0018006838677887438
-0.023062471953753775   -0.00926194927556853   0.0018006838677887438
-0.023062471953753775   -0.00926194927556853   0.0018006838677887438
-0.023062471953753775   -0.00926194927556853   0.0018006838677887438
0.13474881386914564   0.0012603744304521235   0.0048127328263874464
0.13474881386914564   0.0012603744304521235   0.0048127328263874464
0.13474881386914564   0.0012603744304521235   0.0048127328263874464
0.13474881386914564   0.0012603744304521235   0.0048127328263874464
-0.033947351661153216   -0.03602430759917801   -0.02586135634559921
-0.033947351661153216   -0.03602430759917801   -0.02586135634559921
-0.033947351661153216   -0.03602430759917801   -0.02586135634559921
-0.033947351661153216   -0.03602430759917801   -0.02586135634559921
0.3134018898381338   0.06195802489010205   0.02143619290425412
0.3134018898381338   0.06195802489010205   0.02143619290425412
0.3134018898381338   0.06195802489010205   0.02143619290425412
0.3134018898381338   0.06195802489010205   0.02143619290425412
0.3032434831216891   0.05996303795745321   -0.016329615508828044
0.3032434831216891   0.05996303795745321   -0.016329615508828044
0.3032434831216891   0.05996303795745321   -0.016329615508828044
0.3032434831216891   0.05996303795745321   -0.016329615508828044
-0.023010040591584166   0.01316844713348665   -0.002468342212719606
-0.023010040591584166   0.01316844713348665   -0.002468342212719606
-0.023010040591584166   0.01316844713348665   -0.002468342212719606
-0.023010040591584166   0.01316844713348665   -0.002468342212719606
0.13954678274273474   0.02293269837476099   0.01432815812049431
0.13954678274273474   0.02293269837476099   0.01432815812049431
0.13954678274273474   0.02293269837476099   0.01432815812049431
0.13954678274273474   0.02293269837476099   0.01432815812049431
0.27321697063567085   -0.07761405342600572   -0.03328417174643467
0.27321697063567085   -0.07761405342600572   -0.03328417174643467
0.27321697063567085   -0.07761405342600572   -0.03328417174643467
0.27321697063567085   -0.07761405342600572   -0.03328417174643467
0.6017913397889834   0.04472756105788474   0.031192776221415575
0.6017913397889834   0.04472756105788474   0.031192776221415575
0.6017913397889834   0.04472756105788474   0.031192776221415575
0.6017913397889834   0.04472756105788474   0.031192776221415575
0.5971303333721107   -0.003247075395177962   -0.04430838311662839
0.5971303333721107   -0.003247075395177962   -0.04430838311662839
0.5971303333721107   -0.003247075395177962   -0.04430838311662839
0.5971303333721107   -0.003247075395177962   -0.04430838311662839
0.2981684351824939   -0.006294914991165773   0.02097368332492229
0.2981684351824939   -0.006294914991165773   0.02097368332492229
0.2981684351824939   -0.006294914991165773   0.02097368332492229
0.2981684351824939   -0.006294914991165773   0.02097368332492229
0.4210865866541967   -0.015243553017221745   -0.013893465528382415
0.4210865866541967   -0.015243553017221745   -0.013893465528382415
0.4210865866541967   -0.015243553017221745   -0.013893465528382415
0.4210865866541967   -0.015243553017221745   -0.013893465528382415
0.2735855956964055   -0.06728452677194237   -0.040950902324741335
0.2735855956964055   -0.06728452677194237   -0.040950902324741335
0.2735855956964055   -0.06728452677194237   -0.040950902324741335
0.2735855956964055   -0.06728452677194237   -0.040950902324741335
0.623476361061345   0.059505724588745326   0.02466895534561903
0.623476361061345   0.059505724588745326   0.02466895534561903
0.623476361061345   0.059505724588745326   0.02466895534561903
0.623476361061345   0.059505724588745326   0.02466895534561903
0.612013749561419   0.009098238840639594   -0.059478847942567796
0.612013749561419   0.009098238840639594   -0.059478847942567796
0.612013749561419   0.009098238840639594   -0.059478847942567796
0.612013749561419   0.009098238840639594   -0.059478847942567796
0.30048005362622826   0.0031260725651937604   0.015658964169639623
0.30048005362622826   0.0031260725651937604   0.015658964169639623
0.30048005362622826   0.0031260725651937604   0.015658964169639623
0.30048005362622826   0.0031260725651937604   0.015658964169639623
0.4403479018533343   -0.0018781489846475402   -0.004194382916377307
0.4403479018533343   -0.0018781489846475402   -0.004194382916377307
0.4403479018533343   -0.0018781489846475402   -0.004194382916377307
0.4403479018533343   -0.0018781489846475402   -0.004194382916377307
0.27680903441923915   -0.0549674553827547   -0.044602603917359436
0.27680903441923915   -0.0549674553827547   -0.044602603917359436
0.27680903441923915   -0.0549674553827547   -0.044602603917359436
0.27680903441923915   -0.0549674553827547   -0.044602603917359436
0.6395829237730787   0.07108992179325892   0.01637534016311495
0.6395829237730787   0.07108992179325892   0.01637534016311495
0.6395829237730787   0.07108992179325892   0.01637534016311495
0.6395829237730787   0.07108992179325892   0.01637534016311495
0.6356333401490318   0.04119540452850559   -0.05600290863320009
0.6356333401490318   0.04119540452850559   -0.05600290863320009
0.6356333401490318   0.04119540452850559   -0.05600290863320009
0.6356333401490318   0.04119540452850559   -0.05600290863320009
0.3015819851993373   0.02387110486533006   0.01145482797154062
0.3015819851993373   0.02387110486533006   0.01145482797154062
0.3015819851993373   0.02387110486533006   0.01145482797154062
0.3015819851993373   0.02387110486533006   0.01145482797154062
0.44381481587702315   0.013376144897935996   0.0065665376732850535
0.44381481587702315   0.013376144897935996   0.0065665376732850535
0.44381481587702315   0.013376144897935996   0.0065665376732850535
0.44381481587702315   0.013376144897935996   0.0065665376732850535
-0.701243939959274   -0.022708261463696366   0.04614565561219558
-0.701243939959274   -0.022708261463696366   0.04614565561219558
-0.701243939959274   -0.022708261463696366   0.04614565561219558
-0.701243939959274   -0.022708261463696366   0.04614565561219558
-0.49145752116975766   -0.03303941388564263   -0.017378632967080653
-0.49145752116975766   -0.03303941388564263   -0.017378632967080653
-0.49145752116975766   -0.03303941388564263   -0.017378632967080653
-0.49145752116975766   -0.03303941388564263   -0.017378632967080653
-0.462443657225945   0.04649986929164482   0.039320647958938956
-0.462443657225945   0.04649986929164482   0.039320647958938956
-0.462443657225945   0.04649986929164482   0.039320647958938956
-0.462443657225945   0.04649986929164482   0.039320647958938956
-0.7012890667744203   -0.0577723688074025   -0.02543143645294453
-0.7012890667744203   -0.0577723688074025   -0.02543143645294453
-0.7012890667744203   -0.0577723688074025   -0.02543143645294453
-0.7012890667744203   -0.0577723688074025   -0.02543143645294453
-0.5650192712467298   -0.008957304076276776   -0.001414549540687763
-0.5650192712467298   -0.008957304076276776   -0.001414549540687763
-0.5650192712467298   -0.008957304076276776   -0.001414549540687763
-0.5650192712467298   -0.008957304076276776   -0.001414549540687763
-0.6748900183657405   0.004920629023756895   0.04387080775929479
-0.6748900183657405   0.004920629023756895   0.04387080775929479
-0.6748900183657405   0.004920629023756895   0.04387080775929479
-0.6748900183657405   0.004920629023756895   0.04387080775929479
-0.48669098257384874   -0.014041405478737973   -0.021374704010193354
-0.48669098257384874   -0.014041405478737973   -0.021374704010193354
-0.48669098257384874   -0.014041405478737973   -0.021374704010193354
-0.48669098257384874   -0.014041405478737973   -0.021374704010193354
-0.458080868787003   0.0561907592132008   0.03321050159169185
-0.458080868787003   0.0561907592132008   0.03321050159169185
-0.458080868787003   0.0561907592132008   0.03321050159169185
-0.458080868787003   0.0561907592132008   0.03321050159169185
-0.6845863215204079   -0.04696566944079063   -0.03212360796809126
-0.6845863215204079   -0.04696566944079063   -0.03212360796809126
-0.6845863215204079   -0.04696566944079063   -0.03212360796809126
-0.6845863215204079   -0.04696566944079063   -0.03212360796809126
-0.5609946969477823   0.0038139978558329735   0.005817727214922311
-0.5609946969477823   0.0038139978558329735   0.005817727214922311
-0.5609946969477823   0.0038139978558329735   0.005817727214922311
-0.5609946969477823   0.0038139978558329735   0.005817727214922311
-0.6584276447744142   0.016516770801331238   0.035187335519755294
-0.6584276447744142   0.016516770801331238   0.035187335519755294
-0.6584276447744142   0.016516770801331238   0.035187335519755294
-0.6584276447744142   0.016516770801331238   0.035187335519755294
-0.4822979100441806   -0.005350045540104403   -0.02633389994088742
-0.4822979100441806   -0.005350045540104403   -0.02633389994088742
-0.4822979100441806   -0.005350045540104403   -0.02633389994088742
-0.4822979100441806   -0.005350045540104403   -0.02633389994088742
-0.4556686653534401   0.06568565053245452   0.02857531777465254
-0.4556686653534401   0.06568565053245452   0.02857531777465254
-0.4556686653534401   0.06568565053245452   0.02857531777465254
-0.4556686653534401   0.06568565053245452   0.02857531777465254
-0.6622452193827906   -0.03265218655666853   -0.03844529950028827
-0.6622452193827906   -0.03265218655666853   -0.03844529950028827
-0.6622452193827906   -0.03265218655666853   -0.03844529950028827
-0.6622452193827906   -0.03265218655666853   -0.03844529950028827
-0.5398899874248732   0.015805146109874407   0.015931842650182236
-0.5398899874248732   0.015805146109874407   0.015931842650182236
-0.5398899874248732   0.015805146109874407   0.015931842650182236
-0.5398899874248732   0.015805146109874407   0.015931842650182236
-0.48580830541894887   -0.039599760467243755   0.017427792368560464
-0.48580830541894887   -0.039599760467243755   0.017427792368560464
-0.48580830541894887   -0.039599760467243755   0.017427792368560464
-0.48580830541894887   -0.039599760467243755   0.017427792368560464
-0.2824555657867491   -0.021403828676702145   -0.002808021157435274
-0.2824555657867491   -0.021403828676702145   -0.002808021157435274
-0.2824555657867491   -0.021403828676702145   -0.002808021157435274
-0.2824555657867491   -0.021403828676702145   -0.002808021157435274
-0.26808543808358737   0.027149887201361377   0.021197315172974573
-0.26808543808358737   0.027149887201361377   0.021197315172974573
-0.26808543808358737   0.027149887201361377   0.021197315172974573
-0.26808543808358737   0.027149887201361377   0.021197315172974573
-0.4931528802781393   -0.04717981333229937   -0.020545784678088323
-0.4931528802781393   -0.04717981333229937   -0.020545784678088323
-0.4931528802781393   -0.04717981333229937   -0.020545784678088323
-0.4931528802781393   -0.04717981333229937   -0.020545784678088323
-0.3808603233425649   -0.018520321137852278   -0.007848517040264211
-0.3808603233425649   -0.018520321137852278   -0.007848517040264211
-0.3808603233425649   -0.018520321137852278   -0.007848517040264211
-0.3808603233425649   -0.018520321137852278   -0.007848517040264211
-0.4800875020595304   -0.01664144167657751   0.01424273475923073
-0.4800875020595304   -0.01664144167657751   0.01424273475923073
-0.4800875020595304   -0.01664144167657751   0.01424273475923073
-0.4800875020595304   -0.01664144167657751   0.01424273475923073
-0.27947369325416954   -0.0017113614063355848   -0.006882712072239203
-0.27947369325416954   -0.0017113614063355848   -0.006882712072239203
-0.27947369325416954   -0.0017113614063355848   -0.006882712072239203
-0.27947369325416954   -0.0017113614063355848   -0.006882712072239203
-0.2646786097258885   0.04703369780330588   0.01737009349932475
-0.2646786097258885   0.04703369780330588   0.01737009349932475
-0.2646786097258885   0.04703369780330588   0.01737009349932475
-0.2646786097258885   0.04703369780330588   0.01737009349932475
-0.48649177399699767   -0.02843890337167075   -0.024214361873409692
-0.48649177399699767   -0.02843890337167075   -0.024214361873409692
-0.48649177399699767   -0.02843890337167075   -0.024214361873409692
-0.48649177399699767   -0.02843890337167075   -0.024214361873409692
-0.37354150105587447   0.000995160172113596   0.000537165165514504
-0.37354150105587447   0.000995160172113596   0.000537165165514504
-0.37354150105587447   0.000995160172113596   0.000537165165514504
-0.37354150105587447   0.000995160172113596   0.000537165165514504
-0.47243810055679386   0.004609001107039615   0.013006100848898805
-0.47243810055679386   0.004609001107039615   0.013006100848898805
-0.47243810055679386   0.004609001107039615   0.013006100848898805
-0.47243810055679386   0.004609001107039615   0.013006100848898805
-0.2766496731420317   0.01606840334865764   -0.011519929126741345
-0.2766496731420317   0.01606840334865764   -0.011519929126741345
-0.2766496731420317   0.01606840334865764   -0.011519929126741345
-0.2766496731420317   0.01606840334865764   -0.011519929126741345
-0.2613861040322312   0.06824342265671897   0.013806093076543943
-0.2613861040322312   0.06824342265671897   0.013806093076543943
-0.2613861040322312   0.06824342265671897   0.013806093076543943
-0.2613861040322312   0.06824342265671897   0.013806093076543943
-0.48151490682917386   -0.008219124068078884   -0.02675111500348097
-0.48151490682917386   -0.008219124068078884   -0.02675111500348097
-0.48151490682917386   -0.008219124068078884   -0.02675111500348097
-0.48151490682917386   -0.008219124068078884   -0.02675111500348097
-0.37069459129520044   0.019389085262557393   0.008534030179047008
-0.37069459129520044   0.019389085262557393   0.008534030179047008
-0.37069459129520044   0.019389085262557393   0.008534030179047008
-0.37069459129520044   0.019389085262557393   0.008534030179047008
-0.2883821678008552   -0.05462737641159755   0.0007825165069288402
-0.2883821678008552   -0.05462737641159755   0.0007825165069288402
-0.2883821678008552   -0.05462737641159755   0.0007825165069288402
-0.2883821678008552   -0.05462737641159755   0.0007825165069288402
-0.07553838437499007   -0.006549466664409353   0.011740936870923997
-0.07553838437499007   -0.006549466664409353   0.011740936870923997
-0.07553838437499007   -0.006549466664409353   0.011740936870923997
-0.07553838437499007   -0.006549466664409353   0.011740936870923997
-0.07371873049686757   0.011069726468813237   0.004004573068619619
-0.07371873049686757   0.011069726468813237   0.004004573068619619
-0.07371873049686757   0.011069726468813237   0.004004573068619619
-0.07371873049686757   0.011069726468813237   0.004004573068619619
-0.28522242717838947   -0.031880929499377986   -0.005456813600298522
-0.28522242717838947   -0.031880929499377986   -0.005456813600298522
-0.28522242717838947   -0.031880929499377986   -0.005456813600298522
-0.28522242717838947   -0.031880929499377986   -0.005456813600298522
-0.18102723707501328   -0.019615930401420737   -0.00558732964547218
-0.18102723707501328   -0.019615930401420737   -0.00558732964547218
-0.18102723707501328   -0.019615930401420737   -0.00558732964547218
-0.18102723707501328   -0.019615930401420737   -0.00558732964547218
-0.28475218899875354   -0.03244599190465601   -0.002540560296840632
-0.28475218899875354   -0.03244599190465601   -0.002540560296840632
-0.28475218899875354   -0.03244599190465601   -0.002540560296840632
-0.28475218899875354   -0.03244599190465601   -0.002540560296840632
-0.07250746787705602   0.013316289673538786   0.007814322962951837
-0.07250746787705602   0.013316289673538786   0.007814322962951837
-0.07250746787705602   0.013316289673538786   0.007814322962951837
-0.07250746787705602   0.013316289673538786   0.007814322962951837
-0.06960283628426125   0.03335117986932121   0.0010152368306651956
-0.06960283628426125   0.03335117986932121   0.0010152368306651956
-0.06960283628426125   0.03335117986932121   0.0010152368306651956
-0.06960283628426125   0.03335117986932121   0.0010152368306651956
-0.2818107975645202   -0.011874406031238148   -0.00938274185928986
-0.2818107975645202   -0.011874406031238148   -0.00938274185928986
-0.2818107975645202   -0.011874406031238148   -0.00938274185928986
-0.2818107975645202   -0.011874406031238148   -0.00938274185928986
-0.1766299160853694   0.000395018851739988   0.002321025842094383
-0.1766299160853694   0.000395018851739988   0.002321025842094383
-0.1766299160853694   0.000395018851739988   0.002321025842094383
-0.1766299160853694   0.000395018851739988   0.002321025842094383
-0.2807594841205477   -0.010236094331835165   -0.005764486338830184
-0.2807594841205477   -0.010236094331835165   -0.005764486338830184
-0.2807594841205477   -0.010236094331835165   -0.005764486338830184
-0.2807594841205477   -0.010236094331835165   -0.005764486338830184
-0.06910147797507156   0.033265539923079276   0.003607668322856295
-0.06910147797507156   0.033265539923079276   0.003607668322856295
-0.06910147797507156   0.033265539923079276   0.003607668322856295
-0.06910147797507156   0.033265539923079276   0.003607668322856295
-0.0659069241347953   0.055955919722269015   -0.00249022440360536
-0.0659069241347953   0.055955919722269015   -0.00249022440360536
-0.0659069241347953   0.055955919722269015   -0.00249022440360536
-0.0659069241347953   0.055955919722269015   -0.00249022440360536
-0.2788229002648812   0.00836149149254542   -0.013495956922533692
-0.2788229002648812   0.00836149149254542   -0.013495956922533692
-0.2788229002648812   0.00836149149254542   -0.013495956922533692
-0.2788229002648812   0.00836149149254542   -0.013495956922533692
-0.17261586484800223   0.020502145657364815   0.00994007060638555
-0.17261586484800223   0.020502145657364815   0.00994007060638555
-0.17261586484800223   0.020502145657364815   0.00994007060638555
-0.17261586484800223   0.020502145657364815   0.00994007060638555
-0.09305933152717605   -0.06694647760267597   -0.01546678795173992
-0.09305933152717605   -0.06694647760267597   -0.01546678795173992
-0.09305933152717605   -0.06694647760267597   -0.01546678795173992
-0.09305933152717605   -0.06694647760267597   -0.01546678795173992
0.1284766115288914   0.010092728313605595   0.02545099394859238
0.1284766115288914   0.010092728313605595   0.02545099394859238
0.1284766115288914   0.010092728313605595   0.02545099394859238
0.1284766115288914   0.010092728313605595   0.02545099394859238
0.1193262782496763   -0.0039361375816710405   -0.014322992579742289
0.1193262782496763   -0.0039361375816710405   -0.014322992579742289
0.1193262782496763   -0.0039361375816710405   -0.014322992579742289
0.1193262782496763   -0.0039361375816710405   -0.014322992579742289
-0.0779339673552473   -0.015477998635183213   0.009476113880717398
-0.0779339673552473   -0.015477998635183213   0.009476113880717398
-0.0779339673552473   -0.015477998635183213   0.009476113880717398
-0.0779339673552473   -0.015477998635183213   0.009476113880717398
0.018394191031266785   -0.018536071235601997   -0.00398380582757447
0.018394191031266785   -0.018536071235601997   -0.00398380582757447
0.018394191031266785   -0.018536071235601997   -0.00398380582757447
0.018394191031266785   -0.018536071235601997   -0.00398380582757447
-0.08989044117206144   -0.04672644476481453   -0.01905780907372199
-0.08989044117206144   -0.04672644476481453   -0.01905780907372199
-0.08989044117206144   -0.04672644476481453   -0.01905780907372199
-0.08989044117206144   -0.04672644476481453   -0.01905780907372199
0.1332831048323639   0.029312661313833418   0.022212341438189346
0.1332831048323639   0.029312661313833418   0.022212341438189346
0.1332831048323639   0.029312661313833418   0.022212341438189346
0.1332831048323639   0.029312661313833418   0.022212341438189346
0.12699680319011403   0.017142905097419673   -0.01623431941113804
0.12699680319011403   0.017142905097419673   -0.01623431941113804
0.12699680319011403   0.017142905097419673   -0.01623431941113804
0.12699680319011403   0.017142905097419673   -0.01623431941113804
-0.07496496950332865   0.0024134882513837976   0.005142262353266312
-0.07496496950332865   0.0024134882513837976   0.005142262353266312
-0.07496496950332865   0.0024134882513837976   0.005142262353266312
-0.07496496950332865   0.0024134882513837976   0.005142262353266312
0.022482123902210466   -0.0003746292187838847   0.004066704128549161
0.022482123902210466   -0.0003746292187838847   0.004066704128549161
0.022482123902210466   -0.0003746292187838847   0.004066704128549161
0.022482123902210466   -0.0003746292187838847   0.004066704128549161
-0.08650391491014169   -0.026948474938572445   -0.023190501490842928
-0.08650391491014169   -0.026948474938572445   -0.023190501490842928
-0.08650391491014169   -0.026948474938572445   -0.023190501490842928
-0.08650391491014169   -0.026948474938572445   -0.023190501490842928
0.14027106778887236   0.04824018747931924   0.019039721200750197
0.14027106778887236   0.04824018747931924   0.019039721200750197
0.14027106778887236   0.04824018747931924   0.019039721200750197
0.14027106778887236   0.04824018747931924   0.019039721200750197
0.13317857894174953   0.04114565065842735   -0.01877094412135747
0.13317857894174953   0.04114565065842735   -0.01877094412135747
0.13317857894174953   0.04114565065842735   -0.01877094412135747
0.13317857894174953   0.04114565065842735   -0.01877094412135747
-0.071793153574597   0.023015269084432737   0.0010192790352218997
-0.071793153574597   0.023015269084432737   0.0010192790352218997
-0.071793153574597   0.023015269084432737   0.0010192790352218997
-0.071793153574597   0.023015269084432737   0.0010192790352218997
0.02877055476558904   0.019350410543886733   0.012392972799259636
0.02877055476558904   0.019350410543886733   0.012392972799259636
0.02877055476558904   0.019350410543886733   0.012392972799259636
0.02877055476558904   0.019350410543886733   0.012392972799259636
0.10172255151340782   -0.06764172283713105   -0.03058485497808779
0.10172255151340782   -0.06764172283713105   -0.03058485497808779
0.10172255151340782   -0.06764172283713105   -0.03058485497808779
0.10172255151340782   -0.06764172283713105   -0.03058485497808779
0.3092776566883835   0.030593597127285654   0.03306641441051412
0.3092776566883835   0.030593597127285654   0.03306641441051412
0.3092776566883835   0.030593597127285654   0.03306641441051412
0.3092776566883835   0.030593597127285654   0.03306641441051412
0.3061296017199408   -0.01695253653068051   -0.04027559091010599
0.3061296017199408   -0.01695253653068051   -0.04027559091010599
0.3061296017199408   -0.01695253653068051   -0.04027559091010599
0.3061296017199408   -0.01695253653068051   -0.04027559091010599
0.12905937087684496   0.005714444015805852   0.024691888958623148
0.12905937087684496   0.005714444015805852   0.024691888958623148
0.12905937087684496   0.005714444015805852   0.024691888958623148
0.12905937087684496   0.005714444015805852   0.024691888958623148
0.20050862517874898   -0.014092583284973911   -0.010692093727077856
0.20050862517874898   -0.014092583284973911   -0.010692093727077856
0.20050862517874898   -0.014092583284973911   -0.010692093727077856
0.20050862517874898   -0.014092583284973911   -0.010692093727077856
0.10464633815737301   -0.05627153098813379   -0.035387299634796934
0.10464633815737301   -0.05627153098813379   -0.035387299634796934
0.10464633815737301   -0.05627153098813379   -0.035387299634796934
0.10464633815737301   -0.05627153098813379   -0.035387299634796934
0.33258204771472843   0.04707285174857419   0.027961250784581317
0.33258204771472843   0.04707285174857419   0.027961250784581317
0.33258204771472843   0.04707285174857419   0.027961250784581317
0.33258204771472843   0.04707285174857419   0.027961250784581317
0.32309121967677634   -0.005151386071284798   -0.04833949506330128
0.32309121967677634   -0.005151386071284798   -0.04833949506330128
0.32309121967677634   -0.005151386071284798   -0.04833949506330128
0.32309121967677634   -0.005151386071284798   -0.04833949506330128
0.13354210894483073   0.014361253718287791   0.019273860741573588
0.13354210894483073   0.014361253718287791   0.019273860741573588
0.13354210894483073   0.014361253718287791   0.019273860741573588
0.13354210894483073   0.014361253718287791   0.019273860741573588
0.21758397441841648   -0.0021768148573564766   -0.0012229262980503301
0.21758397441841648   -0.0021768148573564766   -0.0012229262980503301
0.21758397441841648   -0.0021768148573564766   -0.0012229262980503301
0.21758397441841648   -0.0021768148573564766   -0.0012229262980503301
0.1093118953266839   -0.04645211887901324   -0.041063834751858715
0.1093118953266839   -0.04645211887901324   -0.041063834751858715
0.1093118953266839   -0.04645211887901324   -0.041063834751858715
0.1093118953266839   -0.04645211887901324   -0.041063834751858715
0.3494497144949367   0.057790267726033455   0.02051132523018824
0.3494497144949367   0.057790267726033455   0.02051132523018824
0.3494497144949367   0.057790267726033455   0.02051132523018824
0.3494497144949367   0.057790267726033455   0.02051132523018824
0.3491689653434989   0.020742133462045523   -0.05177700918904369
0.3491689653434989   0.020742133462045523   -0.05177700918904369
0.3491689653434989   0.020742133462045523   -0.05177700918904369
0.3491689653434989   0.020742133462045523   -0.05177700918904369
0.13812755636135557   0.03179717684642998   0.015322416788668983
0.13812755636135557   0.03179717684642998   0.015322416788668983
0.13812755636135557   0.03179717684642998   0.015322416788668983
0.13812755636135557   0.03179717684642998   0.015322416788668983
0.22619437011420152   0.010928450387114853   0.0069511120500260915
0.22619437011420152   0.010928450387114853   0.0069511120500260915
0.22619437011420152   0.010928450387114853   0.0069511120500260915
0.22619437011420152   0.010928450387114853   0.0069511120500260915
-0.4188031021066692   -0.006779955657491302   0.04126423911058752
-0.4188031021066692   -0.006779955657491302   0.04126423911058752
-0.4188031021066692   -0.006779955657491302   0.04126423911058752
-0.4188031021066692   -0.006779955657491302   0.04126423911058752
-0.3277173637688987   -0.04177020651773051   -0.020334466455234228
-0.3277173637688987   -0.04177020651773051   -0.020334466455234228
-0.3277173637688987   -0.04177020651773051   -0.020334466455234228
-0.3277173637688987   -0.04177020651773051   -0.020334466455234228
-0.2965996521958287   0.035304131374866494   0.0352616498798089
-0.2965996521958287   0.035304131374866494   0.0352616498798089
-0.2965996521958287   0.035304131374866494   0.0352616498798089
-0.2965996521958287   0.035304131374866494   0.0352616498798089
-0.4170858630714668   -0.04547356136145403   -0.027709936945336473
-0.4170858630714668   -0.04547356136145403   -0.027709936945336473
-0.4170858630714668   -0.04547356136145403   -0.027709936945336473
-0.4170858630714668   -0.04547356136145403   -0.027709936945336473
-0.3511288351844145   -0.009610849190825749   -0.005332449808336706
-0.3511288351844145   -0.009610849190825749   -0.005332449808336706
-0.3511288351844145   -0.009610849190825749   -0.005332449808336706
-0.3511288351844145   -0.009610849190825749   -0.005332449808336706
-0.39112170321617107   0.01722904282397822   0.039408258145709876
-0.39112170321617107   0.01722904282397822   0.039408258145709876
-0.39112170321617107   0.01722904282397822   0.039408258145709876
-0.39112170321617107   0.01722904282397822   0.039408258145709876
-0.3207504301546391   -0.025585090914080122   -0.02460301762529471
-0.3207504301546391   -0.025585090914080122   -0.02460301762529471
-0.3207504301546391   -0.025585090914080122   -0.02460301762529471
-0.3207504301546391   -0.025585090914080122   -0.02460301762529471
-0.2892970779545574   0.04447851298737404   0.02980806060688923
-0.2892970779545574   0.04447851298737404   0.02980806060688923
-0.2892970779545574   0.04447851298737404   0.02980806060688923
-0.2892970779545574   0.04447851298737404   0.02980806060688923
-0.3978847535862301   -0.035074847384788804   -0.03459366444468194
-0.3978847535862301   -0.035074847384788804   -0.03459366444468194
-0.3978847535862301   -0.035074847384788804   -0.03459366444468194
-0.3978847535862301   -0.035074847384788804   -0.03459366444468194
-0.34108980360073893   0.0023857512231633266   0.002338764004871676
-0.34108980360073893   0.0023857512231633266   0.002338764004871676
-0.34108980360073893   0.0023857512231633266   0.002338764004871676
-0.34108980360073893   0.0023857512231633266   0.002338764004871676
-0.3719149185380082   0.028357887859694175   0.03182277555194074
-0.3719149185380082   0.028357887859694175   0.03182277555194074
-0.3719149185380082   0.028357887859694175   0.03182277555194074
-0.3719149185380082   0.028357887859694175   0.03182277555194074
-0.3135539934610233   -0.017241302715353304   -0.029756701222711276
-0.3135539934610233   -0.017241302715353304   -0.029756701222711276
-0.3135539934610233   -0.017241302715353304   -0.029756701222711276
-0.3135539934610233   -0.017241302715353304   -0.029756701222711276
-0.2833990563810554   0.05594716867050685   0.025705313633861027
-0.2833990563810554   0.05594716867050685   0.025705313633861027
-0.2833990563810554   0.05594716867050685   0.025705313633861027
-0.2833990563810554   0.05594716867050685   0.025705313633861027
-0.37209650858274596   -0.018418443266490128   -0.04002347028153114
-0.37209650858274596   -0.018418443266490128   -0.04002347028153114
-0.37209650858274596   -0.018418443266490128   -0.04002347028153114
-0.37209650858274596   -0.018418443266490128   -0.04002347028153114
-0.32086914711459   0.01423882703004442   0.011836765638638756
-0.32086914711459   0.01423882703004442   0.011836765638638756
-0.32086914711459   0.01423882703004442   0.011836765638638756
-0.32086914711459   0.01423882703004442   0.011836765638638756
-0.3161155760947469   -0.023661144522713173   0.01956540992050739
-0.3161155760947469   -0.023661144522713173   0.01956540992050739
-0.3161155760947469   -0.023661144522713173   0.01956540992050739
-0.3161155760947469   -0.023661144522713173   0.01956540992050739
-0.23300734442736798   -0.0316569819754281   -0.006014564432361978
-0.23300734442736798   -0.0316569819754281   -0.006014564432361978
-0.23300734442736798   -0.0316569819754281   -0.006014564432361978
-0.23300734442736798   -0.0316569819754281   -0.006014564432361978
-0.21569776827883627   0.016026277936537964   0.018029559666795317
-0.21569776827883627   0.016026277936537964   0.018029559666795317
-0.21569776827883627   0.016026277936537964   0.018029559666795317
-0.21569776827883627   0.016026277936537964   0.018029559666795317
-0.32088451696603526   -0.03353723900436537   -0.017321303591988517
-0.32088451696603526   -0.03353723900436537   -0.017321303591988517
-0.32088451696603526   -0.03353723900436537   -0.017321303591988517
-0.32088451696603526   -0.03353723900436537   -0.017321303591988517
-0.27069953860484963   -0.016757347787615014   -0.0073465455073630295
-0.27069953860484963   -0.016757347787615014   -0.0073465455073630295
-0.27069953860484963   -0.016757347787615014   -0.0073465455073630295
-0.27069953860484963   -0.016757347787615014   -0.0073465455073630295
-0.3079220945910509   -0.002694821169626313   0.016648390448188537
-0.3079220945910509   -0.002694821169626313   0.016648390448188537
-0.3079220945910509   -0.002694821169626313   0.016648390448188537
-0.3079220945910509   -0.002694821169626313   0.016648390448188537
-0.22719793161297305   -0.013353880857354464   -0.010091098209996206
-0.22719793161297305   -0.013353880857354464   -0.010091098209996206
-0.22719793161297305   -0.013353880857354464   -0.010091098209996206
-0.22719793161297305   -0.013353880857354464   -0.010091098209996206
-0.20940681383841359   0.034703696097047244   0.014413675311588547
-0.20940681383841359   0.034703696097047244   0.014413675311588547
-0.20940681383841359   0.034703696097047244   0.014413675311588547
-0.20940681383841359   0.034703696097047244   0.014413675311588547
-0.31142425037080157   -0.015607104167702689   -0.02074218431925133
-0.31142425037080157   -0.015607104167702689   -0.02074218431925133
-0.31142425037080157   -0.015607104167702689   -0.02074218431925133
-0.31142425037080157   -0.015607104167702689   -0.02074218431925133
-0.26157530771175824   0.0012243318392339553   0.0007067028701485904
-0.26157530771175824   0.0012243318392339553   0.0007067028701485904
-0.26157530771175824   0.0012243318392339553   0.0007067028701485904
-0.26157530771175824   0.0012243318392339553   0.0007067028701485904
-0.2976998765875718   0.017180720475613392   0.015091859953577508
-0.2976998765875718   0.017180720475613392   0.015091859953577508
-0.2976998765875718   0.017180720475613392   0.015091859953577508
-0.2976998765875718   0.017180720475613392   0.015091859953577508
-0.22144322557908677   0.003603833496284063   -0.014668520791017022
-0.22144322557908677   0.003603833496284063   -0.014668520791017022
-0.22144322557908677   0.003603833496284063   -0.014668520791017022
-0.22144322557908677   0.003603833496284063   -0.014668520791017022
-0.20313486716955428   0.05500101785848515   0.010969554969719644
-0.20313486716955428   0.05500101785848515   0.010969554969719644
-0.20313486716955428   0.05500101785848515   0.010969554969719644
-0.20313486716955428   0.05500101785848515   0.010969554969719644
-0.30363427726482733   0.004000729438261033   -0.02352435155274921
-0.30363427726482733   0.004000729438261033   -0.02352435155274921
-0.30363427726482733   0.004000729438261033   -0.02352435155274921
-0.30363427726482733   0.004000729438261033   -0.02352435155274921
-0.2549857240335647   0.01888102946130369   0.008594290806801932
-0.2549857240335647   0.01888102946130369   0.008594290806801932
-0.2549857240335647   0.01888102946130369   0.008594290806801932
-0.2549857240335647   0.01888102946130369   0.008594290806801932
-0.23269951666988278   -0.03963030168470522   0.003497894064337378
-0.23269951666988278   -0.03963030168470522   0.003497894064337378
-0.23269951666988278   -0.03963030168470522   0.003497894064337378
-0.23269951666988278   -0.03963030168470522   0.003497894064337378
-0.13950581429591258   -0.016834010200320104   0.008520406175605727
-0.13950581429591258   -0.016834010200320104   0.008520406175605727
-0.13950581429591258   -0.016834010200320104   0.008520406175605727
-0.13950581429591258   -0.016834010200320104   0.008520406175605727
-0.13484432116895645   -0.000495851050447027   0.0010904726349231873
-0.13484432116895645   -0.000495851050447027   0.0010904726349231873
-0.13484432116895645   -0.000495851050447027   0.0010904726349231873
-0.13484432116895645   -0.000495851050447027   0.0010904726349231873
-0.2265101914603231   -0.018018784050194345   -0.0019874942539066347
-0.2265101914603231   -0.018018784050194345   -0.0019874942539066347
-0.2265101914603231   -0.018018784050194345   -0.0019874942539066347
-0.2265101914603231   -0.018018784050194345   -0.0019874942539066347
-0.18368362673650937   -0.01786483993174543   -0.005358559280341608
-0.18368362673650937   -0.01786483993174543   -0.005358559280341608
-0.18368362673650937   -0.01786483993174543   -0.005358559280341608
-0.18368362673650937   -0.01786483993174543   -0.005358559280341608
-0.22622959046716415   -0.018926378420613486   0.00032310508230629
-0.22622959046716415   -0.018926378420613486   0.00032310508230629
-0.22622959046716415   -0.018926378420613486   0.00032310508230629
-0.22622959046716415   -0.018926378420613486   0.00032310508230629
-0.133670021667088   0.0018666438149980633   0.004599475278820268
-0.133670021667088   0.0018666438149980633   0.004599475278820268
-0.133670021667088   0.0018666438149980633   0.004599475278820268
-0.133670021667088   0.0018666438149980633   0.004599475278820268
-0.12800310273817098   0.0203896551219728   -0.0018701309195843525
-0.12800310273817098   0.0203896551219728   -0.0018701309195843525
-0.12800310273817098   0.0203896551219728   -0.0018701309195843525
-0.12800310273817098   0.0203896551219728   -0.0018701309195843525
-0.22020674793012918   0.0009498218766763322   -0.005832120926621271
-0.22020674793012918   0.0009498218766763322   -0.005832120926621271
-0.22020674793012918   0.0009498218766763322   -0.005832120926621271
-0.22020674793012918   0.0009498218766763322   -0.005832120926621271
-0.17646314711722985   0.000900022068397073   0.002457329934592094
-0.17646314711722985   0.000900022068397073   0.002457329934592094
-0.17646314711722985   0.000900022068397073   0.002457329934592094
-0.17646314711722985   0.000900022068397073   0.002457329934592094
-0.21943347938752905   0.0018953455905228872   -0.0029113019274681507
-0.21943347938752905   0.0018953455905228872   -0.0029113019274681507
-0.21943347938752905   0.0018953455905228872   -0.0029113019274681507
-0.21943347938752905   0.0018953455905228872   -0.0029113019274681507
-0.12746016440212538   0.020760338286770708   0.0004738775958468087
-0.12746016440212538   0.020760338286770708   0.0004738775958468087
-0.12746016440212538   0.020760338286770708   0.0004738775958468087
-0.12746016440212538   0.020760338286770708   0.0004738775958468087
-0.12154018188923299   0.041469365065899336   -0.005239307431412363
-0.12154018188923299   0.041469365065899336   -0.005239307431412363
-0.12154018188923299   0.041469365065899336   -0.005239307431412363
-0.12154018188923299   0.041469365065899336   -0.005239307431412363
-0.21430604617558113   0.020063774506369425   -0.00994909670829882
-0.21430604617558113   0.020063774506369425   -0.00994909670829882
-0.21430604617558113   0.020063774506369425   -0.00994909670829882
-0.21430604617558113   0.020063774506369425   -0.00994909670829882
-0.16963835486186918   0.019732663894740092   0.009957989132495956
-0.16963835486186918   0.019732663894740092   0.009957989132495956
-0.16963835486186918   0.019732663894740092   0.009957989132495956
-0.16963835486186918   0.019732663894740092   0.009957989132495956
-0.15108518324082343   -0.053459932649925004   -0.012750516099345802
-0.15108518324082343   -0.053459932649925004   -0.012750516099345802
-0.15108518324082343   -0.053459932649925004   -0.012750516099345802
-0.15108518324082343   -0.053459932649925004   -0.012750516099345802
-0.048812123558488345   -0.0010996697935467493   0.022325420875918642
-0.048812123558488345   -0.0010996697935467493   0.022325420875918642
-0.048812123558488345   -0.0010996697935467493   0.022325420875918642
-0.048812123558488345   -0.0010996697935467493   0.022325420875918642
-0.055253172478422506   -0.016145587644874962   -0.01654262604456613
-0.055253172478422506   -0.016145587644874962   -0.01654262604456613
-0.055253172478422506   -0.016145587644874962   -0.01654262604456613
-0.055253172478422506   -0.016145587644874962   -0.01654262604456613
-0.13280587006168681   -0.002033599951409719   0.01282047707223296
-0.13280587006168681   -0.002033599951409719   0.01282047707223296
-0.13280587006168681   -0.002033599951409719   0.01282047707223296
-0.13280587006168681   -0.002033599951409719   0.01282047707223296
-0.09695103025389191   -0.017394173027417484   -0.0038695607025495144
-0.09695103025389191   -0.017394173027417484   -0.0038695607025495144
-0.09695103025389191   -0.017394173027417484   -0.0038695607025495144
-0.09695103025389191   -0.017394173027417484   -0.0038695607025495144
-0.1449963475777852   -0.0340156662898069   -0.01614984416986314
-0.1449963475777852   -0.0340156662898069   -0.01614984416986314
-0.1449963475777852   -0.0340156662898069   -0.01614984416986314
-0.1449963475777852   -0.0340156662898069   -0.01614984416986314
-0.041433718298872144   0.017465455356973976   0.018943601851336783
-0.041433718298872144   0.017465455356973976   0.018943601851336783
-0.041433718298872144   0.017465455356973976   0.018943601851336783
-0.041433718298872144   0.017465455356973976   0.018943601851336783
-0.04520930981545076   0.0036108676744563122   -0.018626500219249005
-0.04520930981545076   0.0036108676744563122   -0.018626500219249005
-0.04520930981545076   0.0036108676744563122   -0.018626500219249005
-0.04520930981545076   0.0036108676744563122   -0.018626500219249005
-0.12699575321930776   0.014996059659439828   0.00856021213726467
-0.12699575321930776   0.014996059659439828   0.00856021213726467
-0.12699575321930776   0.014996059659439828   0.00856021213726467
-0.12699575321930776   0.014996059659439828   0.00856021213726467
-0.08925259035319687   9.659781712777205e-05   0.004100439440711775
-0.08925259035319687   9.659781712777205e-05   0.004100439440711775
-0.08925259035319687   9.659781712777205e-05   0.004100439440711775
-0.08925259035319687   9.659781712777205e-05   0.004100439440711775
-0.13879865130553962   -0.015394453588835802   -0.020063765045620713
-0.13879865130553962   -0.015394453588835802   -0.020063765045620713
-0.13879865130553962   -0.015394453588835802   -0.020063765045620713
-0.13879865130553962   -0.015394453588835802   -0.020063765045620713
-0.031889594689648436   0.03551819796229973   0.01606474512192017
-0.031889594689648436   0.03551819796229973   0.01606474512192017
-0.031889594689648436   0.03551819796229973   0.01606474512192017
-0.031889594689648436   0.03551819796229973   0.01606474512192017
-0.03671688755698298   0.02565154688338981   -0.020875597987606756
-0.03671688755698298   0.02565154688338981   -0.020875597987606756
-0.03671688755698298   0.02565154688338981   -0.020875597987606756
-0.03671688755698298   0.02565154688338981   -0.020875597987606756
-0.12104726833663673   0.03424186353823186   0.004452761859236383
-0.12104726833663673   0.03424186353823186   0.004452761859236383
-0.12104726833663673   0.03424186353823186   0.004452761859236383
-0.12104726833663673   0.03424186353823186   0.004452761859236383
-0.08130335820058451   0.018298209130032397   0.01206087880504324
-0.08130335820058451   0.018298209130032397   0.01206087880504324
-0.08130335820058451   0.018298209130032397   0.01206087880504324
-0.08130335820058451   0.018298209130032397   0.01206087880504324
-0.07010199617006972   -0.05745028226801249   -0.027773329707523463
-0.07010199617006972   -0.05745028226801249   -0.027773329707523463
-0.07010199617006972   -0.05745028226801249   -0.027773329707523463
-0.07010199617006972   -0.05745028226801249   -0.027773329707523463
0.019012195797451902   0.01667092127639007   0.034146095402773906
0.019012195797451902   0.01667092127639007   0.034146095402773906
0.019012195797451902   0.01667092127639007   0.034146095402773906
0.019012195797451902   0.01667092127639007   0.034146095402773906
0.01909036366188209   -0.028578841607250008   -0.03680553194169329
0.01909036366188209   -0.028578841607250008   -0.03680553194169329
0.01909036366188209   -0.028578841607250008   -0.03680553194169329
0.01909036366188209   -0.028578841607250008   -0.03680553194169329
-0.03956822788800089   0.017785312744951272   0.02795119651771574
-0.03956822788800089   0.017785312744951272   0.02795119651771574
-0.03956822788800089   0.017785312744951272   0.02795119651771574
-0.03956822788800089   0.017785312744951272   0.02795119651771574
-0.01848459855022167   -0.012299255902170413   -0.006417054589549486
-0.01848459855022167   -0.012299255902170413   -0.006417054589549486
-0.01848459855022167   -0.012299255902170413   -0.006417054589549486
-0.01848459855022167   -0.012299255902170413   -0.006417054589549486
-0.06394576075124307   -0.044212659260204304   -0.03193849579333959
-0.06394576075124307   -0.044212659260204304   -0.03193849579333959
-0.06394576075124307   -0.044212659260204304   -0.03193849579333959
-0.06394576075124307   -0.044212659260204304   -0.03193849579333959
0.045207888575721146   0.03515912244849989   0.030044128571752104
0.045207888575721146   0.03515912244849989   0.030044128571752104
0.045207888575721146   0.03515912244849989   0.030044128571752104
0.045207888575721146   0.03515912244849989   0.030044128571752104
0.03838439374111517   -0.017274616190355495   -0.04374777359792728
0.03838439374111517   -0.017274616190355495   -0.04374777359792728
0.03838439374111517   -0.017274616190355495   -0.04374777359792728
0.03838439374111517   -0.017274616190355495   -0.04374777359792728
-0.03252231290614505   0.025988800119374503   0.022430551882362305
-0.03252231290614505   0.025988800119374503   0.022430551882362305
-0.03252231290614505   0.025988800119374503   0.022430551882362305
-0.03252231290614505   0.025988800119374503   0.022430551882362305
-0.0026846122203711955   -0.000654188033732718   0.00220394194118406
-0.0026846122203711955   -0.000654188033732718   0.00220394194118406
-0.0026846122203711955   -0.000654188033732718   0.00220394194118406
-0.0026846122203711955   -0.000654188033732718   0.00220394194118406
-0.0565803342494028   -0.03491013167648684   -0.036960623038066055
-0.0565803342494028   -0.03491013167648684   -0.036960623038066055
-0.0565803342494028   -0.03491013167648684   -0.036960623038066055
-0.0565803342494028   -0.03491013167648684   -0.036960623038066055
0.06418658931047276   0.04536848983160554   0.022620098226899654
0.06418658931047276   0.04536848983160554   0.022620098226899654
0.06418658931047276   0.04536848983160554   0.022620098226899654
0.06418658931047276   0.04536848983160554   0.022620098226899654
0.06548184865643787   0.004828637136634371   -0.04687457405539135
0.06548184865643787   0.004828637136634371   -0.04687457405539135
0.06548184865643787   0.004828637136634371   -0.04687457405539135
0.06548184865643787   0.004828637136634371   -0.04687457405539135
-0.025944878563074765   0.04040495425879175   0.018231039606533307
-0.025944878563074765   0.04040495425879175   0.018231039606533307
-0.025944878563074765   0.04040495425879175   0.018231039606533307
-0.025944878563074765   0.04040495425879175   0.018231039606533307
0.01165602069111902   0.011554872996127251   0.010653394336433239
0.01165602069111902   0.011554872996127251   0.010653394336433239
0.01165602069111902   0.011554872996127251   0.010653394336433239
0.01165602069111902   0.011554872996127251   0.010653394336433239
-0.13710845246526823   0.008223458878834633   0.03902494922396097
-0.13710845246526823   0.008223458878834633   0.03902494922396097
-0.13710845246526823   0.008223458878834633   0.03902494922396097
-0.13710845246526823   0.008223458878834633   0.03902494922396097
-0.16494783114584377   -0.05077558601659062   -0.022907958953368803
-0.16494783114584377   -0.05077558601659062   -0.022907958953368803
-0.16494783114584377   -0.05077558601659062   -0.022907958953368803
-0.16494783114584377   -0.05077558601659062   -0.022907958953368803
-0.13169233839414152   0.02353338223721658   0.03193125637070662
-0.13169233839414152   0.02353338223721658   0.03193125637070662
-0.13169233839414152   0.02353338223721658   0.03193125637070662
-0.13169233839414152   0.02353338223721658   0.03193125637070662
-0.13319767837429664   -0.0331329461348777   -0.029562185545078855
-0.13319767837429664   -0.0331329461348777   -0.029562185545078855
-0.13319767837429664   -0.0331329461348777   -0.029562185545078855
-0.13319767837429664   -0.0331329461348777   -0.029562185545078855
-0.138215951402308   -0.010620569635761946   -0.010763791410021662
-0.138215951402308   -0.010620569635761946   -0.010763791410021662
-0.138215951402308   -0.010620569635761946   -0.010763791410021662
-0.138215951402308   -0.010620569635761946   -0.010763791410021662
-0.10754187604494342   0.029244999521897325   0.036338880444912236
-0.10754187604494342   0.029244999521897325   0.036338880444912236
-0.10754187604494342   0.029244999521897325   0.036338880444912236
-0.10754187604494342   0.029244999521897325   0.036338880444912236
-0.15572680019448842   -0.03722322289055177   -0.02748444750325746
-0.15572680019448842   -0.03722322289055177   -0.02748444750325746
-0.15572680019448842   -0.03722322289055177   -0.02748444750325746
-0.15572680019448842   -0.03722322289055177   -0.02748444750325746
-0.12152934485583947   0.03248605288924884   0.026855428195131002
-0.12152934485583947   0.03248605288924884   0.026855428195131002
-0.12152934485583947   0.03248605288924884   0.026855428195131002
-0.12152934485583947   0.03248605288924884   0.026855428195131002
-0.11125949087836855   -0.02301526342192073   -0.03679161536972964
-0.11125949087836855   -0.02301526342192073   -0.03679161536972964
-0.11125949087836855   -0.02301526342192073   -0.03679161536972964
-0.11125949087836855   -0.02301526342192073   -0.03679161536972964
-0.12203500076078386   0.0008039061999712757   -0.0023242931623581823
-0.12203500076078386   0.0008039061999712757   -0.0023242931623581823
-0.12203500076078386   0.0008039061999712757   -0.0023242931623581823
-0.12203500076078386   0.0008039061999712757   -0.0023242931623581823
-0.08547002893623451   0.04012909718162237   0.02901133373739365
-0.08547002893623451   0.04012909718162237   0.02901133373739365
-0.08547002893623451   0.04012909718162237   0.02901133373739365
-0.08547002893623451   0.04012909718162237   0.02901133373739365
-0.14579405518866342   -0.029133556104981917   -0.03284851447475601
-0.14579405518866342   -0.029133556104981917   -0.03284851447475601
-0.14579405518866342   -0.029133556104981917   -0.03284851447475601
-0.14579405518866342   -0.029133556104981917   -0.03284851447475601
-0.11224541568744842   0.0461949211915525   0.023192259113384486
-0.11224541568744842   0.0461949211915525   0.023192259113384486
-0.11224541568744842   0.0461949211915525   0.023192259113384486
-0.11224541568744842   0.0461949211915525   0.023192259113384486
-0.08196918454984181   -0.0037863712851775103   -0.0414363726840315
-0.08196918454984181   -0.0037863712851775103   -0.0414363726840315
-0.08196918454984181   -0.0037863712851775103   -0.0414363726840315
-0.08196918454984181   -0.0037863712851775103   -0.0414363726840315
-0.10262167894283118   0.012764092895239946   0.006694961437042178
-0.10262167894283118   0.012764092895239946   0.006694961437042178
-0.10262167894283118   0.012764092895239946   0.006694961437042178
-0.10262167894283118   0.012764092895239946   0.006694961437042178
-0.14753723366910929   -0.008905132045465572   0.02227457445917664
-0.14753723366910929   -0.008905132045465572   0.02227457445917664
-0.14753723366910929   -0.008905132045465572   0.02227457445917664
-0.14753723366910929   -0.008905132045465572   0.02227457445917664
-0.18445208382054312   -0.04142595637284494   -0.008947323941463943
-0.18445208382054312   -0.04142595637284494   -0.008947323941463943
-0.18445208382054312   -0.04142595637284494   -0.008947323941463943
-0.18445208382054312   -0.04142595637284494   -0.008947323941463943
-0.16462182632803712   0.004144111414739422   0.014822757865537316
-0.16462182632803712   0.004144111414739422   0.014822757865537316
-0.16462182632803712   0.004144111414739422   0.014822757865537316
-0.16462182632803712   0.004144111414739422   0.014822757865537316
-0.14936111825037207   -0.019369801251890754   -0.013509459421334871
-0.14936111825037207   -0.019369801251890754   -0.013509459421334871
-0.14936111825037207   -0.019369801251890754   -0.013509459421334871
-0.14936111825037207   -0.019369801251890754   -0.013509459421334871
-0.16162933838397012   -0.01512129674967572   -0.007530398582476385
-0.16162933838397012   -0.01512129674967572   -0.007530398582476385
-0.16162933838397012   -0.01512129674967572   -0.007530398582476385
-0.16162933838397012   -0.01512129674967572   -0.007530398582476385
-0.1367702924353378   0.010637366917133476   0.01943750148480826
-0.1367702924353378   0.010637366917133476   0.01943750148480826
-0.1367702924353378   0.010637366917133476   0.01943750148480826
-0.1367702924353378   0.010637366917133476   0.01943750148480826
-0.1759412107638493   -0.02459161537506351   -0.013038437523721427
-0.1759412107638493   -0.02459161537506351   -0.013038437523721427
-0.1759412107638493   -0.02459161537506351   -0.013038437523721427
-0.1759412107638493   -0.02459161537506351   -0.013038437523721427
-0.1555550264978941   0.021975863820444967   0.01130343174857947
-0.1555550264978941   0.021975863820444967   0.01130343174857947
-0.1555550264978941   0.021975863820444967   0.01130343174857947
-0.1555550264978941   0.021975863820444967   0.01130343174857947
-0.13719470566995126   -0.002209949138279571   -0.016775373847895587
-0.13719470566995126   -0.002209949138279571   -0.016775373847895587
-0.13719470566995126   -0.002209949138279571   -0.016775373847895587
-0.13719470566995126   -0.002209949138279571   -0.016775373847895587
-0.1507787646419567   0.0014943651635080796   0.00025144303116091983
-0.1507787646419567   0.0014943651635080796   0.00025144303116091983
-0.1507787646419567   0.0014943651635080796   0.00025144303116091983
-0.1507787646419567   0.0014943651635080796   0.00025144303116091983
-0.12398945097444174   0.02953040222807772   0.01751054826329087
-0.12398945097444174   0.02953040222807772   0.01751054826329087
-0.12398945097444174   0.02953040222807772   0.01751054826329087
-0.12398945097444174   0.02953040222807772   0.01751054826329087
-0.16740450481397615   -0.008408711166488524   -0.01755938484490007
-0.16740450481397615   -0.008408711166488524   -0.01755938484490007
-0.16740450481397615   -0.008408711166488524   -0.01755938484490007
-0.16740450481397615   -0.008408711166488524   -0.01755938484490007
-0.14644196598590342   0.04173568217736273   0.007958100863835384
-0.14644196598590342   0.04173568217736273   0.007958100863835384
-0.14644196598590342   0.04173568217736273   0.007958100863835384
-0.14644196598590342   0.04173568217736273   0.007958100863835384
-0.12671794035089068   0.01685928106161052   -0.019834724073882967
-0.12671794035089068   0.01685928106161052   -0.019834724073882967
-0.12671794035089068   0.01685928106161052   -0.019834724073882967
-0.12671794035089068   0.01685928106161052   -0.019834724073882967
-0.14051786048908396   0.018679830367067086   0.008181114385415968
-0.14051786048908396   0.018679830367067086   0.008181114385415968
-0.14051786048908396   0.018679830367067086   0.008181114385415968
-0.14051786048908396   0.018679830367067086   0.008181114385415968
-0.1781189829885521   -0.025001900337369654   0.0062941241830128825
-0.1781189829885521   -0.025001900337369654   0.0062941241830128825
-0.1781189829885521   -0.025001900337369654   0.0062941241830128825
-0.1781189829885521   -0.025001900337369654   0.0062941241830128825
-0.20382797647165124   -0.02630030467633983   0.005395546385918717
-0.20382797647165124   -0.02630030467633983   0.005395546385918717
-0.20382797647165124   -0.02630030467633983   0.005395546385918717
-0.20382797647165124   -0.02630030467633983   0.005395546385918717
-0.19658800909511565   -0.012023640495009123   -0.0019339588431726866
-0.19658800909511565   -0.012023640495009123   -0.0019339588431726866
-0.19658800909511565   -0.012023640495009123   -0.0019339588431726866
-0.19658800909511565   -0.012023640495009123   -0.0019339588431726866
-0.16875847093130864   -0.0034941197058606377   0.0017777659697798126
-0.16875847093130864   -0.0034941197058606377   0.0017777659697798126
-0.16875847093130864   -0.0034941197058606377   0.0017777659697798126
-0.16875847093130864   -0.0034941197058606377   0.0017777659697798126
-0.18710394552207454   -0.01575881002479006   -0.005011463878404637
-0.18710394552207454   -0.01575881002479006   -0.005011463878404637
-0.18710394552207454   -0.01575881002479006   -0.005011463878404637
-0.18710394552207454   -0.01575881002479006   -0.005011463878404637
-0.16887799537767964   -0.0054647009803933805   0.0031507250124546936
-0.16887799537767964   -0.0054647009803933805   0.0031507250124546936
-0.16887799537767964   -0.0054647009803933805   0.0031507250124546936
-0.16887799537767964   -0.0054647009803933805   0.0031507250124546936
-0.19526790178332704   -0.008852476355053839   0.001495413575816838
-0.19526790178332704   -0.008852476355053839   0.001495413575816838
-0.19526790178332704   -0.008852476355053839   0.001495413575816838
-0.19526790178332704   -0.008852476355053839   0.001495413575816838
-0.18705569963391636   0.007766935318473146   -0.00489760201385
-0.18705569963391636   0.007766935318473146   -0.00489760201385
-0.18705569963391636   0.007766935318473146   -0.00489760201385
-0.18705569963391636   0.007766935318473146   -0.00489760201385
-0.15972200196348585   0.014433909108084834   -0.0019894908670190694
-0.15972200196348585   0.014433909108084834   -0.0019894908670190694
-0.15972200196348585   0.014433909108084834   -0.0019894908670190694
-0.15972200196348585   0.014433909108084834   -0.0019894908670190694
-0.17714048280160177   0.0019205966125731555   0.0026781591509111337
-0.17714048280160177   0.0019205966125731555   0.0026781591509111337
-0.17714048280160177   0.0019205966125731555   0.0026781591509111337
-0.17714048280160177   0.0019205966125731555   0.0026781591509111337
-0.1593851636592288   0.014255237390541887   -0.00012662762819386393
-0.1593851636592288   0.014255237390541887   -0.00012662762819386393
-0.1593851636592288   0.014255237390541887   -0.00012662762819386393
-0.1593851636592288   0.014255237390541887   -0.00012662762819386393
-0.18634408816017195   0.00899405681401707   -0.002566666140671794
-0.18634408816017195   0.00899405681401707   -0.002566666140671794
-0.18634408816017195   0.00899405681401707   -0.002566666140671794
-0.18634408816017195   0.00899405681401707   -0.002566666140671794
-0.17792742060802014   0.027682281980212553   -0.008235184906644155
-0.17792742060802014   0.027682281980212553   -0.008235184906644155
-0.17792742060802014   0.027682281980212553   -0.008235184906644155
-0.17792742060802014   0.027682281980212553   -0.008235184906644155
-0.1511203932889608   0.03243538902709282   -0.006133742501180733
-0.1511203932889608   0.03243538902709282   -0.006133742501180733
-0.1511203932889608   0.03243538902709282   -0.006133742501180733
-0.1511203932889608   0.03243538902709282   -0.006133742501180733
-0.16764423444457807   0.01963341401246816   0.01000718190269653
-0.16764423444457807   0.01963341401246816   0.01000718190269653
-0.16764423444457807   0.01963341401246816   0.01000718190269653
-0.16764423444457807   0.01963341401246816   0.01000718190269653
-0.209611682621235   -0.03974110299079037   -0.010082186047552807
-0.209611682621235   -0.03974110299079037   -0.010082186047552807
-0.209611682621235   -0.03974110299079037   -0.010082186047552807
-0.209611682621235   -0.03974110299079037   -0.010082186047552807
-0.22493461466664716   -0.011480822647800176   0.019086854462637394
-0.22493461466664716   -0.011480822647800176   0.019086854462637394
-0.22493461466664716   -0.011480822647800176   0.019086854462637394
-0.22493461466664716   -0.011480822647800176   0.019086854462637394
-0.22864727984231958   -0.02755240896501096   -0.01893215821514045
-0.22864727984231958   -0.02755240896501096   -0.01893215821514045
-0.22864727984231958   -0.02755240896501096   -0.01893215821514045
-0.22864727984231958   -0.02755240896501096   -0.01893215821514045
-0.18819129756051375   0.011869179359511213   0.01615677897531642
-0.18819129756051375   0.011869179359511213   0.01615677897531642
-0.18819129756051375   0.011869179359511213   0.01615677897531642
-0.18819129756051375   0.011869179359511213   0.01615677897531642
-0.2119484220016724   -0.015653087805209766   -0.0031554247660542665
-0.2119484220016724   -0.015653087805209766   -0.0031554247660542665
-0.2119484220016724   -0.015653087805209766   -0.0031554247660542665
-0.2119484220016724   -0.015653087805209766   -0.0031554247660542665
-0.20062842428172123   -0.020828451053421244   -0.01333122421779024
-0.20062842428172123   -0.020828451053421244   -0.01333122421779024
-0.20062842428172123   -0.020828451053421244   -0.01333122421779024
-0.20062842428172123   -0.020828451053421244   -0.01333122421779024
-0.21495163111932714   0.006403743449703625   0.015589932985107248
-0.21495163111932714   0.006403743449703625   0.015589932985107248
-0.21495163111932714   0.006403743449703625   0.015589932985107248
-0.21495163111932714   0.006403743449703625   0.015589932985107248
-0.21611344787393977   -0.00878813408953523   -0.021243061952978586
-0.21611344787393977   -0.00878813408953523   -0.021243061952978586
-0.21611344787393977   -0.00878813408953523   -0.021243061952978586
-0.21611344787393977   -0.00878813408953523   -0.021243061952978586
-0.17962213137040126   0.02803509307732039   0.012002081544876836
-0.17962213137040126   0.02803509307732039   0.012002081544876836
-0.17962213137040126   0.02803509307732039   0.012002081544876836
-0.17962213137040126   0.02803509307732039   0.012002081544876836
-0.2005987644022392   0.0013821704407275606   0.004786898006233654
-0.2005987644022392   0.0013821704407275606   0.004786898006233654
-0.2005987644022392   0.0013821704407275606   0.004786898006233654
-0.2005987644022392   0.0013821704407275606   0.004786898006233654
-0.19167257069016616   -0.0030786255479281557   -0.017136396428701503
-0.19167257069016616   -0.0030786255479281557   -0.017136396428701503
-0.19167257069016616   -0.0030786255479281557   -0.017136396428701503
-0.19167257069016616   -0.0030786255479281557   -0.017136396428701503
-0.20279122433503777   0.023597368754850377   0.012982552897147944
-0.20279122433503777   0.023597368754850377   0.012982552897147944
-0.20279122433503777   0.023597368754850377   0.012982552897147944
-0.20279122433503777   0.023597368754850377   0.012982552897147944
-0.20515143303029051   0.011866901874913661   -0.02331788176368546
-0.20515143303029051   0.011866901874913661   -0.02331788176368546
-0.20515143303029051   0.011866901874913661   -0.02331788176368546
-0.20515143303029051   0.011866901874913661   -0.02331788176368546
-0.17102981667008516   0.04603144997391767   0.007903666789325688
-0.17102981667008516   0.04603144997391767   0.007903666789325688
-0.17102981667008516   0.04603144997391767   0.007903666789325688
-0.17102981667008516   0.04603144997391767   0.007903666789325688
-0.19099802359771995   0.01826000319820357   0.012371824313079191
-0.19099802359771995   0.01826000319820357   0.012371824313079191
-0.19099802359771995   0.01826000319820357   0.012371824313079191
-0.19099802359771995   0.01826000319820357   0.012371824313079191
-0.2409656226488291   -0.047219719260530146   -0.02532928883554619
-0.2409656226488291   -0.047219719260530146   -0.02532928883554619
-0.2409656226488291   -0.047219719260530146   -0.02532928883554619
-0.2409656226488291   -0.047219719260530146   -0.02532928883554619
-0.26783463195947615   0.0033334738227345576   0.034464264386245384
-0.26783463195947615   0.0033334738227345576   0.034464264386245384
-0.26783463195947615   0.0033334738227345576   0.034464264386245384
-0.26783463195947615   0.0033334738227345576   0.034464264386245384
-0.26443075010156886   -0.039534131883093945   -0.033783504408927044
-0.26443075010156886   -0.039534131883093945   -0.033783504408927044
-0.26443075010156886   -0.039534131883093945   -0.033783504408927044
-0.26443075010156886   -0.039534131883093945   -0.033783504408927044
-0.20721098881193267   0.029807619840534386   0.030889268131246813
-0.20721098881193267   0.029807619840534386   0.030889268131246813
-0.20721098881193267   0.029807619840534386   0.030889268131246813
-0.20721098881193267   0.029807619840534386   0.030889268131246813
-0.23526001667081756   -0.010246116017558746   -0.0014565185924804453
-0.23526001667081756   -0.010246116017558746   -0.0014565185924804453
-0.23526001667081756   -0.010246116017558746   -0.0014565185924804453
-0.23526001667081756   -0.010246116017558746   -0.0014565185924804453
-0.2315431922684524   -0.03199395441403853   -0.02897017489678177
-0.2315431922684524   -0.03199395441403853   -0.02897017489678177
-0.2315431922684524   -0.03199395441403853   -0.02897017489678177
-0.2315431922684524   -0.03199395441403853   -0.02897017489678177
-0.23876883915935954   0.023597149857170333   0.03139476856185337
-0.23876883915935954   0.023597149857170333   0.03139476856185337
-0.23876883915935954   0.023597149857170333   0.03139476856185337
-0.23876883915935954   0.023597149857170333   0.03139476856185337
-0.24269872390181937   -0.028589995978045846   -0.04028701760906513
-0.24269872390181937   -0.028589995978045846   -0.04028701760906513
-0.24269872390181937   -0.028589995978045846   -0.04028701760906513
-0.24269872390181937   -0.028589995978045846   -0.04028701760906513
-0.1975450578957787   0.037516879090346095   0.02529387475794543
-0.1975450578957787   0.037516879090346095   0.02529387475794543
-0.1975450578957787   0.037516879090346095   0.02529387475794543
-0.1975450578957787   0.037516879090346095   0.02529387475794543
-0.22064075563543212   0.0012048859828863376   0.0061510074889232855
-0.22064075563543212   0.0012048859828863376   0.0061510074889232855
-0.22064075563543212   0.0012048859828863376   0.0061510074889232855
-0.22064075563543212   0.0012048859828863376   0.0061510074889232855
-0.2214118494083959   -0.02298321525042297   -0.03353998846437424
-0.2214118494083959   -0.02298321525042297   -0.03353998846437424
-0.2214118494083959   -0.02298321525042297   -0.03353998846437424
-0.2214118494083959   -0.02298321525042297   -0.03353998846437424
-0.21743718509841053   0.033304845653514395   0.024125834776418734
-0.21743718509841053   0.033304845653514395   0.024125834776418734
-0.21743718509841053   0.033304845653514395   0.024125834776418734
-0.21743718509841053   0.033304845653514395   0.024125834776418734
-0.21411116528113958   -0.00968452201840999   -0.044050055061425925
-0.21411116528113958   -0.00968452201840999   -0.044050055061425925
-0.21411116528113958   -0.00968452201840999   -0.044050055061425925
-0.21411116528113958   -0.00968452201840999   -0.044050055061425925
-0.18890155540190304   0.04896449610029936   0.0208339121528643
-0.18890155540190304   0.04896449610029936   0.0208339121528643
-0.18890155540190304   0.04896449610029936   0.0208339121528643
-0.18890155540190304   0.04896449610029936   0.0208339121528643
-0.20045900352528123   0.012622377204884488   0.014981401278777298
-0.20045900352528123   0.012622377204884488   0.014981401278777298
-0.20045900352528123   0.012622377204884488   0.014981401278777298
-0.20045900352528123   0.012622377204884488   0.014981401278777298
0.14606055893130063   0.023532181268869967   0.03762248739678975
0.14606055893130063   0.023532181268869967   0.03762248739678975
0.14606055893130063   0.023532181268869967   0.03762248739678975
0.14606055893130063   0.023532181268869967   0.03762248739678975
-0.002988805444208993   -0.060377846202116954   -0.024774973902895535
-0.002988805444208993   -0.060377846202116954   -0.024774973902895535
-0.002988805444208993   -0.060377846202116954   -0.024774973902895535
-0.002988805444208993   -0.060377846202116954   -0.024774973902895535
0.03234778511754381   0.011697749971907843   0.029045831497008404
0.03234778511754381   0.011697749971907843   0.029045831497008404
0.03234778511754381   0.011697749971907843   0.029045831497008404
0.03234778511754381   0.011697749971907843   0.029045831497008404
0.15214064604282865   -0.020877165524837614   -0.031046962595132805
0.15214064604282865   -0.020877165524837614   -0.031046962595132805
0.15214064604282865   -0.020877165524837614   -0.031046962595132805
0.15214064604282865   -0.020877165524837614   -0.031046962595132805
0.0745899781156387   -0.011625782343775476   -0.017975101642490925
0.0745899781156387   -0.011625782343775476   -0.017975101642490925
0.0745899781156387   -0.011625782343775476   -0.017975101642490925
0.0745899781156387   -0.011625782343775476   -0.017975101642490925
0.1776622913351721   0.041740253820317035   0.03394384452142604
0.1776622913351721   0.041740253820317035   0.03394384452142604
0.1776622913351721   0.041740253820317035   0.03394384452142604
0.1776622913351721   0.041740253820317035   0.03394384452142604
0.008409484440170088   -0.04933632475827514   -0.029611597159677212
0.008409484440170088   -0.04933632475827514   -0.029611597159677212
0.008409484440170088   -0.04933632475827514   -0.029611597159677212
0.008409484440170088   -0.04933632475827514   -0.029611597159677212
0.04512890871510839   0.02046563264799483   0.024224465386371224
0.04512890871510839   0.02046563264799483   0.024224465386371224
0.04512890871510839   0.02046563264799483   0.024224465386371224
0.04512890871510839   0.02046563264799483   0.024224465386371224
0.1767655263086729   -0.010975997251632806   -0.03880011411526876
0.1767655263086729   -0.010975997251632806   -0.03880011411526876
0.1767655263086729   -0.010975997251632806   -0.03880011411526876
0.1767655263086729   -0.010975997251632806   -0.03880011411526876
0.09682790400567749   -0.0007107320569583325   -0.008494486100177267
0.09682790400567749   -0.0007107320569583325   -0.008494486100177267
0.09682790400567749   -0.0007107320569583325   -0.008494486100177267
0.09682790400567749   -0.0007107320569583325   -0.008494486100177267
0.20255352517746866   0.05244869954883944   0.026715183428233993
0.20255352517746866   0.05244869954883944   0.026715183428233993
0.20255352517746866   0.05244869954883944   0.026715183428233993
0.20255352517746866   0.05244869954883944   0.026715183428233993
0.020883660407192667   -0.04141631359160056   -0.03511982991361198
0.020883660407192667   -0.04141631359160056   -0.03511982991361198
0.020883660407192667   -0.04141631359160056   -0.03511982991361198
0.020883660407192667   -0.04141631359160056   -0.03511982991361198
0.057526732138545165   0.036592247324627715   0.020960803676607638
0.057526732138545165   0.036592247324627715   0.020960803676607638
0.057526732138545165   0.036592247324627715   0.020960803676607638
0.057526732138545165   0.036592247324627715   0.020960803676607638
0.20947037912760497   0.011176003389688403   -0.042776906585405165
0.20947037912760497   0.011176003389688403   -0.042776906585405165
0.20947037912760497   0.011176003389688403   -0.042776906585405165
0.20947037912760497   0.011176003389688403   -0.042776906585405165
0.11541510950315982   0.011544229807730098   0.00045089838184097456
0.11541510950315982   0.011544229807730098   0.00045089838184097456
0.11541510950315982   0.011544229807730098   0.00045089838184097456
0.11541510950315982   0.011544229807730098   0.00045089838184097456
0.02046046776829127   0.006470606603927077   0.025622939353561743
0.02046046776829127   0.006470606603927077   0.025622939353561743
0.02046046776829127   0.006470606603927077   0.025622939353561743
0.02046046776829127   0.006470606603927077   0.025622939353561743
-0.13753455951663163   -0.051300842429494634   -0.011373027232752148
-0.13753455951663163   -0.051300842429494634   -0.011373027232752148
-0.13753455951663163   -0.051300842429494634   -0.011373027232752148
-0.13753455951663163   -0.051300842429494634   -0.011373027232752148
-0.11529644933233196   -0.007522059101944069   0.011664582410358462
-0.11529644933233196   -0.007522059101944069   0.011664582410358462
-0.11529644933233196   -0.007522059101944069   0.011664582410358462
-0.11529644933233196   -0.007522059101944069   0.011664582410358462
0.021266251143198425   -0.005679745881516669   -0.008984342521293997
0.021266251143198425   -0.005679745881516669   -0.008984342521293997
0.021266251143198425   -0.005679745881516669   -0.008984342521293997
0.021266251143198425   -0.005679745881516669   -0.008984342521293997
-0.0539219969780905   -0.013194977744991806   -0.00861875669822962
-0.0539219969780905   -0.013194977744991806   -0.00861875669822962
-0.0539219969780905   -0.013194977744991806   -0.00861875669822962
-0.0539219969780905   -0.013194977744991806   -0.00861875669822962
0.03364059630312275   0.024478300852031468   0.022729336544781424
0.03364059630312275   0.024478300852031468   0.022729336544781424
0.03364059630312275   0.024478300852031468   0.022729336544781424
0.03364059630312275   0.024478300852031468   0.022729336544781424
-0.12651402873139422   -0.036523340074632385   -0.015422033612264574
-0.12651402873139422   -0.036523340074632385   -0.015422033612264574
-0.12651402873139422   -0.036523340074632385   -0.015422033612264574
-0.12651402873139422   -0.036523340074632385   -0.015422033612264574
-0.10364998746832549   0.009501765951771698   0.008238483400750375
-0.10364998746832549   0.009501765951771698   0.008238483400750375
-0.10364998746832549   0.009501765951771698   0.008238483400750375
-0.10364998746832549   0.009501765951771698   0.008238483400750375
0.03584832539001916   0.010453121189143292   -0.012165939780223328
0.03584832539001916   0.010453121189143292   -0.012165939780223328
0.03584832539001916   0.010453121189143292   -0.012165939780223328
0.03584832539001916   0.010453121189143292   -0.012165939780223328
-0.04157322424834525   0.0018055471184216503   -0.0010667188100438756
-0.04157322424834525   0.0018055471184216503   -0.0010667188100438756
-0.04157322424834525   0.0018055471184216503   -0.0010667188100438756
-0.04157322424834525   0.0018055471184216503   -0.0010667188100438756
0.04874573082838987   0.04240671220926873   0.020367496391504786
0.04874573082838987   0.04240671220926873   0.020367496391504786
0.04874573082838987   0.04240671220926873   0.020367496391504786
0.04874573082838987   0.04240671220926873   0.020367496391504786
-0.11543250712489013   -0.021336939286545106   -0.01983540964375603
-0.11543250712489013   -0.021336939286545106   -0.01983540964375603
-0.11543250712489013   -0.021336939286545106   -0.01983540964375603
-0.11543250712489013   -0.021336939286545106   -0.01983540964375603
-0.09193066729069242   0.028778234861497547   0.004972771865353887
-0.09193066729069242   0.028778234861497547   0.004972771865353887
-0.09193066729069242   0.028778234861497547   0.004972771865353887
-0.09193066729069242   0.028778234861497547   0.004972771865353887
0.04866526184350613   0.028771622028391404   -0.015525922502351283
0.04866526184350613   0.028771622028391404   -0.015525922502351283
0.04866526184350613   0.028771622028391404   -0.015525922502351283
0.04866526184350613   0.028771622028391404   -0.015525922502351283
-0.02789082294797416   0.018392742869723408   0.006993995007540077
-0.02789082294797416   0.018392742869723408   0.006993995007540077
-0.02789082294797416   0.018392742869723408   0.006993995007540077
-0.02789082294797416   0.018392742869723408   0.006993995007540077
-0.1251068546940862   -0.009785215589928419   0.009249870040410748
-0.1251068546940862   -0.009785215589928419   0.009249870040410748
-0.1251068546940862   -0.009785215589928419   0.009249870040410748
-0.1251068546940862   -0.009785215589928419   0.009249870040410748
-0.26962362920534055   -0.03659556603728158   0.0023255071930059863
-0.26962362920534055   -0.03659556603728158   0.0023255071930059863
-0.26962362920534055   -0.03659556603728158   0.0023255071930059863
-0.26962362920534055   -0.03659556603728158   0.0023255071930059863
-0.2594541931232751   -0.023002858895872398   -0.005070207788312568
-0.2594541931232751   -0.023002858895872398   -0.005070207788312568
-0.2594541931232751   -0.023002858895872398   -0.005070207788312568
-0.2594541931232751   -0.023002858895872398   -0.005070207788312568
-0.11307041715346158   0.009577262064156225   0.00569542213861203
-0.11307041715346158   0.009577262064156225   0.00569542213861203
-0.11307041715346158   0.009577262064156225   0.00569542213861203
-0.11307041715346158   0.009577262064156225   0.00569542213861203
-0.19209298956786217   -0.01373602246724761   -0.0050366207324794385
-0.19209298956786217   -0.01373602246724761   -0.0050366207324794385
-0.19209298956786217   -0.01373602246724761   -0.0050366207324794385
-0.19209298956786217   -0.01373602246724761   -0.0050366207324794385
-0.11320268527376517   0.008486460793285123   0.0061248828079651235
-0.11320268527376517   0.008486460793285123   0.0061248828079651235
-0.11320268527376517   0.008486460793285123   0.0061248828079651235
-0.11320268527376517   0.008486460793285123   0.0061248828079651235
-0.2583259739555012   -0.020916106577531048   -0.001515864267784675
-0.2583259739555012   -0.020916106577531048   -0.001515864267784675
-0.2583259739555012   -0.020916106577531048   -0.001515864267784675
-0.2583259739555012   -0.020916106577531048   -0.001515864267784675
-0.24720106983536025   -0.0042584908808353875   -0.007972422939745738
-0.24720106983536025   -0.0042584908808353875   -0.007972422939745738
-0.24720106983536025   -0.0042584908808353875   -0.007972422939745738
-0.24720106983536025   -0.0042584908808353875   -0.007972422939745738
-0.10154056825254615   0.026175015777490915   0.0021123296539297034
-0.10154056825254615   0.026175015777490915   0.0021123296539297034
-0.10154056825254615   0.026175015777490915   0.0021123296539297034
-0.10154056825254615   0.026175015777490915   0.0021123296539297034
-0.17943696282420296   0.0027191835171095566   0.0025783376985702815
-0.17943696282420296   0.0027191835171095566   0.0025783376985702815
-0.17943696282420296   0.0027191835171095566   0.0025783376985702815
-0.17943696282420296   0.0027191835171095566   0.0025783376985702815
-0.10122574536942845   0.027086125474751623   0.0027753343722574948
-0.10122574536942845   0.027086125474751623   0.0027753343722574948
-0.10122574536942845   0.027086125474751623   0.0027753343722574948
-0.10122574536942845   0.027086125474751623   0.0027753343722574948
-0.24671716359863238   -0.004370871458250887   -0.005440511178693078
-0.24671716359863238   -0.004370871458250887   -0.005440511178693078
-0.24671716359863238   -0.004370871458250887   -0.005440511178693078
-0.24671716359863238   -0.004370871458250887   -0.005440511178693078
-0.23544092408916265   0.014542773363993677   -0.011276290016474618
-0.23544092408916265   0.014542773363993677   -0.011276290016474618
-0.23544092408916265   0.014542773363993677   -0.011276290016474618
-0.23544092408916265   0.014542773363993677   -0.011276290016474618
-0.0905208496995247   0.042821487486719906   -0.0020213928040299436
-0.0905208496995247   0.042821487486719906   -0.0020213928040299436
-0.0905208496995247   0.042821487486719906   -0.0020213928040299436
-0.0905208496995247   0.042821487486719906   -0.0020213928040299436
-0.16744772101944902   0.019131686908558973   0.009696399153532287
-0.16744772101944902   0.019131686908558973   0.009696399153532287
-0.16744772101944902   0.019131686908558973   0.009696399153532287
-0.16744772101944902   0.019131686908558973   0.009696399153532287
-0.2694357049270624   -0.025720415902489406   -0.007610021550393441
-0.2694357049270624   -0.025720415902489406   -0.007610021550393441
-0.2694357049270624   -0.025720415902489406   -0.007610021550393441
-0.2694357049270624   -0.025720415902489406   -0.007610021550393441
-0.40055147005236125   -0.0227676575339488   0.015758421409909216
-0.40055147005236125   -0.0227676575339488   0.015758421409909216
-0.40055147005236125   -0.0227676575339488   0.015758421409909216
-0.40055147005236125   -0.0227676575339488   0.015758421409909216
-0.40085001300795053   -0.038181178812762666   -0.02143629643861617
-0.40085001300795053   -0.038181178812762666   -0.02143629643861617
-0.40085001300795053   -0.038181178812762666   -0.02143629643861617
-0.40085001300795053   -0.038181178812762666   -0.02143629643861617
-0.24512533767214534   0.02418910988696866   0.01938210068449507
-0.24512533767214534   0.02418910988696866   0.01938210068449507
-0.24512533767214534   0.02418910988696866   0.01938210068449507
-0.24512533767214534   0.02418910988696866   0.01938210068449507
-0.3271427870699703   -0.014035507768542795   -0.0021352673015452347
-0.3271427870699703   -0.014035507768542795   -0.0021352673015452347
-0.3271427870699703   -0.014035507768542795   -0.0021352673015452347
-0.3271427870699703   -0.014035507768542795   -0.0021352673015452347
-0.2574340963515862   -0.007337710632428475   -0.010634872193309544
-0.2574340963515862   -0.007337710632428475   -0.010634872193309544
-0.2574340963515862   -0.007337710632428475   -0.010634872193309544
-0.2574340963515862   -0.007337710632428475   -0.010634872193309544
-0.3877130829955323   -0.005826186960387211   0.011893361771102687
-0.3877130829955323   -0.005826186960387211   0.011893361771102687
-0.3877130829955323   -0.005826186960387211   0.011893361771102687
-0.3877130829955323   -0.005826186960387211   0.011893361771102687
-0.38546290536527683   -0.020304262647324697   -0.023853923083488358
-0.38546290536527683   -0.020304262647324697   -0.023853923083488358
-0.38546290536527683   -0.020304262647324697   -0.023853923083488358
-0.38546290536527683   -0.020304262647324697   -0.023853923083488358
-0.23381139197035117   0.03928933504976056   0.015428140454703657
-0.23381139197035117   0.03928933504976056   0.015428140454703657
-0.23381139197035117   0.03928933504976056   0.015428140454703657
-0.23381139197035117   0.03928933504976056   0.015428140454703657
-0.31192314847876507   0.0025566382963532475   0.005717798029036575
-0.31192314847876507   0.0025566382963532475   0.005717798029036575
-0.31192314847876507   0.0025566382963532475   0.005717798029036575
-0.31192314847876507   0.0025566382963532475   0.005717798029036575
-0.2457103069761077   0.00955135145195242   -0.014328450976271879
-0.2457103069761077   0.00955135145195242   -0.014328450976271879
-0.2457103069761077   0.00955135145195242   -0.014328450976271879
-0.2457103069761077   0.00955135145195242   -0.014328450976271879
-0.3726337430492854   0.01036396826072071   0.00962365758842329
-0.3726337430492854   0.01036396826072071   0.00962365758842329
-0.3726337430492854   0.01036396826072071   0.00962365758842329
-0.3726337430492854   0.01036396826072071   0.00962365758842329
-0.37170270958523327   -0.0008205266122388866   -0.02568332322630901
-0.37170270958523327   -0.0008205266122388866   -0.02568332322630901
-0.37170270958523327   -0.0008205266122388866   -0.02568332322630901
-0.37170270958523327   -0.0008205266122388866   -0.02568332322630901
-0.22261648221211627   0.05594574445207562   0.011442948280675443
-0.22261648221211627   0.05594574445207562   0.011442948280675443
-0.22261648221211627   0.05594574445207562   0.011442948280675443
-0.22261648221211627   0.05594574445207562   0.011442948280675443
-0.3005886884989398   0.018010533735435055   0.01274991427123846
-0.3005886884989398   0.018010533735435055   0.01274991427123846
-0.3005886884989398   0.018010533735435055   0.01274991427123846
-0.3005886884989398   0.018010533735435055   0.01274991427123846
-0.4111725005686961   -0.036874858764584344   -0.023239529941129232
-0.4111725005686961   -0.036874858764584344   -0.023239529941129232
-0.4111725005686961   -0.036874858764584344   -0.023239529941129232
-0.4111725005686961   -0.036874858764584344   -0.023239529941129232
-0.549977545511151   -0.009919947403356152   0.03430211823415752
-0.549977545511151   -0.009919947403356152   0.03430211823415752
-0.549977545511151   -0.009919947403356152   0.03430211823415752
-0.549977545511151   -0.009919947403356152   0.03430211823415752
-0.5425626453012381   -0.049656428846780995   -0.031079318816009335
-0.5425626453012381   -0.049656428846780995   -0.031079318816009335
-0.5425626453012381   -0.049656428846780995   -0.031079318816009335
-0.5425626453012381   -0.049656428846780995   -0.031079318816009335
-0.3739766144083087   0.04093549475110092   0.0338140229957293
-0.3739766144083087   0.04093549475110092   0.0338140229957293
-0.3739766144083087   0.04093549475110092   0.0338140229957293
-0.3739766144083087   0.04093549475110092   0.0338140229957293
-0.4491673867495077   -0.0079972686671307   0.003809215135320211
-0.4491673867495077   -0.0079972686671307   0.003809215135320211
-0.4491673867495077   -0.0079972686671307   0.003809215135320211
-0.4491673867495077   -0.0079972686671307   0.003809215135320211
-0.3981484992597222   -0.019816430981102542   -0.026293475529132995
-0.3981484992597222   -0.019816430981102542   -0.026293475529132995
-0.3981484992597222   -0.019816430981102542   -0.026293475529132995
-0.3981484992597222   -0.019816430981102542   -0.026293475529132995
-0.5176357694887064   0.011850487846539415   0.03204814355331944
-0.5176357694887064   0.011850487846539415   0.03204814355331944
-0.5176357694887064   0.011850487846539415   0.03204814355331944
-0.5176357694887064   0.011850487846539415   0.03204814355331944
-0.5181267375075372   -0.039059874999414615   -0.03700821607909956
-0.5181267375075372   -0.039059874999414615   -0.03700821607909956
-0.5181267375075372   -0.039059874999414615   -0.03700821607909956
-0.5181267375075372   -0.039059874999414615   -0.03700821607909956
-0.3614729011803859   0.04790433305619103   0.02788750213744723
-0.3614729011803859   0.04790433305619103   0.02788750213744723
-0.3614729011803859   0.04790433305619103   0.02788750213744723
-0.3614729011803859   0.04790433305619103   0.02788750213744723
-0.43543918116910285   0.0031362387007384668   0.01014054145498455
-0.43543918116910285   0.0031362387007384668   0.01014054145498455
-0.43543918116910285   0.0031362387007384668   0.01014054145498455
-0.43543918116910285   0.0031362387007384668   0.01014054145498455
-0.38492684254037746   -0.01109485592618828   -0.030383015680127724
-0.38492684254037746   -0.01109485592618828   -0.030383015680127724
-0.38492684254037746   -0.01109485592618828   -0.030383015680127724
-0.38492684254037746   -0.01109485592618828   -0.030383015680127724
-0.49375270110659064   0.02085940902392225   0.024942681902292672
-0.49375270110659064   0.02085940902392225   0.024942681902292672
-0.49375270110659064   0.02085940902392225   0.024942681902292672
-0.49375270110659064   0.02085940902392225   0.024942681902292672
-0.4879612922492385   -0.023273150892323485   -0.041294585962914444
-0.4879612922492385   -0.023273150892323485   -0.041294585962914444
-0.4879612922492385   -0.023273150892323485   -0.041294585962914444
-0.4879612922492385   -0.023273150892323485   -0.041294585962914444
-0.35050511524446426   0.05625627697337815   0.023227844891919015
-0.35050511524446426   0.05625627697337815   0.023227844891919015
-0.35050511524446426   0.05625627697337815   0.023227844891919015
-0.35050511524446426   0.05625627697337815   0.023227844891919015
-0.4094011850766741   0.01354328655881988   0.01908572131880376
-0.4094011850766741   0.01354328655881988   0.01908572131880376
-0.4094011850766741   0.01354328655881988   0.01908572131880376
-0.4094011850766741   0.01354328655881988   0.01908572131880376
0.4341885077148762   0.0395002289365917   0.03743808863156257
0.4341885077148762   0.0395002289365917   0.03743808863156257
0.4341885077148762   0.0395002289365917   0.03743808863156257
0.4341885077148762   0.0395002289365917   0.03743808863156257
0.15874897210614186   -0.07171862374868691   -0.024631311072507087
0.15874897210614186   -0.07171862374868691   -0.024631311072507087
0.15874897210614186   -0.07171862374868691   -0.024631311072507087
0.15874897210614186   -0.07171862374868691   -0.024631311072507087
0.195656850634728   -0.0005818612258001385   0.026913354308155227
0.195656850634728   -0.0005818612258001385   0.026913354308155227
0.195656850634728   -0.0005818612258001385   0.026913354308155227
0.195656850634728   -0.0005818612258001385   0.026913354308155227
0.44185108860853867   -0.009607700409865111   -0.03146253763827034
0.44185108860853867   -0.009607700409865111   -0.03146253763827034
0.44185108860853867   -0.009607700409865111   -0.03146253763827034
0.44185108860853867   -0.009607700409865111   -0.03146253763827034
0.2886946772254422   -0.012872202007839714   -0.027765601369121554
0.2886946772254422   -0.012872202007839714   -0.027765601369121554
0.2886946772254422   -0.012872202007839714   -0.027765601369121554
0.2886946772254422   -0.012872202007839714   -0.027765601369121554
0.46755739520322476   0.05492319650943929   0.03253809841585564
0.46755739520322476   0.05492319650943929   0.03253809841585564
0.46755739520322476   0.05492319650943929   0.03253809841585564
0.46755739520322476   0.05492319650943929   0.03253809841585564
0.17178118014365695   -0.06328212204149432   -0.02976473733150397
0.17178118014365695   -0.06328212204149432   -0.02976473733150397
0.17178118014365695   -0.06328212204149432   -0.02976473733150397
0.17178118014365695   -0.06328212204149432   -0.02976473733150397
0.21012207971957883   0.00789059752413971   0.022176306352687886
0.21012207971957883   0.00789059752413971   0.022176306352687886
0.21012207971957883   0.00789059752413971   0.022176306352687886
0.21012207971957883   0.00789059752413971   0.022176306352687886
0.46836217971035465   1.3776490562666943e-05   -0.03958300481361882
0.46836217971035465   1.3776490562666943e-05   -0.03958300481361882
0.46836217971035465   1.3776490562666943e-05   -0.03958300481361882
0.46836217971035465   1.3776490562666943e-05   -0.03958300481361882
0.31642768975956187   -0.0024932669207552854   -0.016848066858369867
0.31642768975956187   -0.0024932669207552854   -0.016848066858369867
0.31642768975956187   -0.0024932669207552854   -0.016848066858369867
0.31642768975956187   -0.0024932669207552854   -0.016848066858369867
0.49434134408908104   0.06530375653468018   0.02502283703588802
0.49434134408908104   0.06530375653468018   0.02502283703588802
0.49434134408908104   0.06530375653468018   0.02502283703588802
0.49434134408908104   0.06530375653468018   0.02502283703588802
0.18608064138188263   -0.05546165647895333   -0.034678631332696136
0.18608064138188263   -0.05546165647895333   -0.034678631332696136
0.18608064138188263   -0.05546165647895333   -0.034678631332696136
0.18608064138188263   -0.05546165647895333   -0.034678631332696136
0.2245695768088601   0.026595153604196578   0.01921964680588055
0.2245695768088601   0.026595153604196578   0.01921964680588055
0.2245695768088601   0.026595153604196578   0.01921964680588055
0.2245695768088601   0.026595153604196578   0.01921964680588055
0.5032007975066307   0.02510003800542078   -0.04268262538167082
0.5032007975066307   0.02510003800542078   -0.04268262538167082
0.5032007975066307   0.02510003800542078   -0.04268262538167082
0.5032007975066307   0.02510003800542078   -0.04268262538167082
0.333411727074532   0.010158276763940877   -0.0074330437845804564
0.333411727074532   0.010158276763940877   -0.0074330437845804564
0.333411727074532   0.010158276763940877   -0.0074330437845804564
0.333411727074532   0.010158276763940877   -0.0074330437845804564
0.1884596854522997   0.022177781993969845   0.030025849915623563
0.1884596854522997   0.022177781993969845   0.030025849915623563
0.1884596854522997   0.022177781993969845   0.030025849915623563
0.1884596854522997   0.022177781993969845   0.030025849915623563
-0.09233365699970376   -0.06693615873095621   -0.012921391961065617
-0.09233365699970376   -0.06693615873095621   -0.012921391961065617
-0.09233365699970376   -0.06693615873095621   -0.012921391961065617
-0.09233365699970376   -0.06693615873095621   -0.012921391961065617
-0.06701833784262422   -0.019730956309200777   0.0090441943261081
-0.06701833784262422   -0.019730956309200777   0.0090441943261081
-0.06701833784262422   -0.019730956309200777   0.0090441943261081
-0.06701833784262422   -0.019730956309200777   0.0090441943261081
0.18979024202047504   0.0008981519591626588   -0.0038997019480705355
0.18979024202047504   0.0008981519591626588   -0.0038997019480705355
0.18979024202047504   0.0008981519591626588   -0.0038997019480705355
0.18979024202047504   0.0008981519591626588   -0.0038997019480705355
0.0522417976669778   -0.014048805470212622   -0.011792681709658033
0.0522417976669778   -0.014048805470212622   -0.011792681709658033
0.0522417976669778   -0.014048805470212622   -0.011792681709658033
0.0522417976669778   -0.014048805470212622   -0.011792681709658033
0.2033332920475207   0.03789439236072526   0.026819307785593376
0.2033332920475207   0.03789439236072526   0.026819307785593376
0.2033332920475207   0.03789439236072526   0.026819307785593376
0.2033332920475207   0.03789439236072526   0.026819307785593376
-0.07944968454535498   -0.05561549338644847   -0.01722800211029618
-0.07944968454535498   -0.05561549338644847   -0.01722800211029618
-0.07944968454535498   -0.05561549338644847   -0.01722800211029618
-0.07944968454535498   -0.05561549338644847   -0.01722800211029618
-0.05354933265391258   -0.003852195562465359   0.005705134505665165
-0.05354933265391258   -0.003852195562465359   0.005705134505665165
-0.05354933265391258   -0.003852195562465359   0.005705134505665165
-0.05354933265391258   -0.003852195562465359   0.005705134505665165
0.20567325832953584   0.015127245177204957   -0.007304448250588335
0.20567325832953584   0.015127245177204957   -0.007304448250588335
0.20567325832953584   0.015127245177204957   -0.007304448250588335
0.20567325832953584   0.015127245177204957   -0.007304448250588335
0.06524220848375485   -0.001511647263615466   -0.0046841019212165505
0.06524220848375485   -0.001511647263615466   -0.0046841019212165505
0.06524220848375485   -0.001511647263615466   -0.0046841019212165505
0.06524220848375485   -0.001511647263615466   -0.0046841019212165505
0.2197605946020296   0.054433882204505284   0.023825596084576187
0.2197605946020296   0.054433882204505284   0.023825596084576187
0.2197605946020296   0.054433882204505284   0.023825596084576187
0.2197605946020296   0.054433882204505284   0.023825596084576187
-0.06652397048600911   -0.042046134149369106   -0.02097411606791371
-0.06652397048600911   -0.042046134149369106   -0.02097411606791371
-0.06652397048600911   -0.042046134149369106   -0.02097411606791371
-0.06652397048600911   -0.042046134149369106   -0.02097411606791371
-0.040243728478777205   0.014571828388500118   0.0023840996204756004
-0.040243728478777205   0.014571828388500118   0.0023840996204756004
-0.040243728478777205   0.014571828388500118   0.0023840996204756004
-0.040243728478777205   0.014571828388500118   0.0023840996204756004
0.2197384412171674   0.03209488543455174   -0.010435762982938171
0.2197384412171674   0.03209488543455174   -0.010435762982938171
0.2197384412171674   0.03209488543455174   -0.010435762982938171
0.2197384412171674   0.03209488543455174   -0.010435762982938171
0.08136160369424064   0.01388721388465846   0.0036224065432490325
0.08136160369424064   0.01388721388465846   0.0036224065432490325
0.08136160369424064   0.01388721388465846   0.0036224065432490325
0.08136160369424064   0.01388721388465846   0.0036224065432490325
-0.0728306877565395   0.004857816598861881   0.012799478924937574
-0.0728306877565395   0.004857816598861881   0.012799478924937574
-0.0728306877565395   0.004857816598861881   0.012799478924937574
-0.0728306877565395   0.004857816598861881   0.012799478924937574
-0.3384439418256062   -0.059167648981901966   -0.0017490155382389417
-0.3384439418256062   -0.059167648981901966   -0.0017490155382389417
-0.3384439418256062   -0.059167648981901966   -0.0017490155382389417
-0.3384439418256062   -0.059167648981901966   -0.0017490155382389417
-0.3225014755534817   -0.035035649809795205   -0.007938078831124969
-0.3225014755534817   -0.035035649809795205   -0.007938078831124969
-0.3225014755534817   -0.035035649809795205   -0.007938078831124969
-0.3225014755534817   -0.035035649809795205   -0.007938078831124969
-0.06136456880396919   0.009102021488259825   0.008480061721924505
-0.06136456880396919   0.009102021488259825   0.008480061721924505
-0.06136456880396919   0.009102021488259825   0.008480061721924505
-0.06136456880396919   0.009102021488259825   0.008480061721924505
-0.1991311763851365   -0.01815691488382968   -0.007370899262029313
-0.1991311763851365   -0.01815691488382968   -0.007370899262029313
-0.1991311763851365   -0.01815691488382968   -0.007370899262029313
-0.1991311763851365   -0.01815691488382968   -0.007370899262029313
-0.05869062237998763   0.021253749714288887   0.009698065615801388
-0.05869062237998763   0.021253749714288887   0.009698065615801388
-0.05869062237998763   0.021253749714288887   0.009698065615801388
-0.05869062237998763   0.021253749714288887   0.009698065615801388
-0.32442435056073643   -0.04643630661909772   -0.006151797058095985
-0.32442435056073643   -0.04643630661909772   -0.006151797058095985
-0.32442435056073643   -0.04643630661909772   -0.006151797058095985
-0.32442435056073643   -0.04643630661909772   -0.006151797058095985
-0.30765108352813514   -0.017613631439347792   -0.010720391154674805
-0.30765108352813514   -0.017613631439347792   -0.010720391154674805
-0.30765108352813514   -0.017613631439347792   -0.010720391154674805
-0.30765108352813514   -0.017613631439347792   -0.010720391154674805
-0.048258039534067224   0.023479982477644636   0.004829422064779992
-0.048258039534067224   0.023479982477644636   0.004829422064779992
-0.048258039534067224   0.023479982477644636   0.004829422064779992
-0.048258039534067224   0.023479982477644636   0.004829422064779992
-0.18414865123621088   -0.0035839331781825287   -0.00010786934100735952
-0.18414865123621088   -0.0035839331781825287   -0.00010786934100735952
-0.18414865123621088   -0.0035839331781825287   -0.00010786934100735952
-0.18414865123621088   -0.0035839331781825287   -0.00010786934100735952
-0.045027927398462154   0.038289225884676474   0.0061707393357734956
-0.045027927398462154   0.038289225884676474   0.0061707393357734956
-0.045027927398462154   0.038289225884676474   0.0061707393357734956
-0.045027927398462154   0.038289225884676474   0.0061707393357734956
-0.3101853540022822   -0.03172703318492161   -0.009278341779836278
-0.3101853540022822   -0.03172703318492161   -0.009278341779836278
-0.3101853540022822   -0.03172703318492161   -0.009278341779836278
-0.3101853540022822   -0.03172703318492161   -0.009278341779836278
-0.2938241331939285   -0.0002421216797691278   -0.014036155142055952
-0.2938241331939285   -0.0002421216797691278   -0.014036155142055952
-0.2938241331939285   -0.0002421216797691278   -0.014036155142055952
-0.2938241331939285   -0.0002421216797691278   -0.014036155142055952
-0.03575968736514752   0.03815680515916133   0.0012193284179646945
-0.03575968736514752   0.03815680515916133   0.0012193284179646945
-0.03575968736514752   0.03815680515916133   0.0012193284179646945
-0.03575968736514752   0.03815680515916133   0.0012193284179646945
-0.1703924755903638   0.010936043504264095   0.006799876115275794
-0.1703924755903638   0.010936043504264095   0.006799876115275794
-0.1703924755903638   0.010936043504264095   0.006799876115275794
-0.1703924755903638   0.010936043504264095   0.006799876115275794
-0.3298005936806227   -0.012757626083855916   -0.004942297711364934
-0.3298005936806227   -0.012757626083855916   -0.004942297711364934
-0.3298005936806227   -0.012757626083855916   -0.004942297711364934
-0.3298005936806227   -0.012757626083855916   -0.004942297711364934
-0.579245298696492   -0.04805622970368263   0.010980657695954407
-0.579245298696492   -0.04805622970368263   0.010980657695954407
-0.579245298696492   -0.04805622970368263   0.010980657695954407
-0.579245298696492   -0.04805622970368263   0.010980657695954407
-0.5716454581869848   -0.04976323259889945   -0.023859491230005983
-0.5716454581869848   -0.04976323259889945   -0.023859491230005983
-0.5716454581869848   -0.04976323259889945   -0.023859491230005983
-0.5716454581869848   -0.04976323259889945   -0.023859491230005983
-0.3051578935523146   0.02250204787676484   0.02124213348815275
-0.3051578935523146   0.02250204787676484   0.02124213348815275
-0.3051578935523146   0.02250204787676484   0.02124213348815275
-0.3051578935523146   0.02250204787676484   0.02124213348815275
-0.4433746376502511   -0.019270665626067288   -0.0025785630234437494
-0.4433746376502511   -0.019270665626067288   -0.0025785630234437494
-0.4433746376502511   -0.019270665626067288   -0.0025785630234437494
-0.4433746376502511   -0.019270665626067288   -0.0025785630234437494
-0.3144323917160755   0.004938014208755143   -0.007566323662642295
-0.3144323917160755   0.004938014208755143   -0.007566323662642295
-0.3144323917160755   0.004938014208755143   -0.007566323662642295
-0.3144323917160755   0.004938014208755143   -0.007566323662642295
-0.5623074689848099   -0.032135707892475024   0.005202930074448692
-0.5623074689848099   -0.032135707892475024   0.005202930074448692
-0.5623074689848099   -0.032135707892475024   0.005202930074448692
-0.5623074689848099   -0.032135707892475024   0.005202930074448692
-0.5522104893806723   -0.03275446765209787   -0.02639177564426743
-0.5522104893806723   -0.03275446765209787   -0.02639177564426743
-0.5522104893806723   -0.03275446765209787   -0.02639177564426743
-0.5522104893806723   -0.03275446765209787   -0.02639177564426743
-0.2913468301944438   0.03619689644621259   0.016990347628224597
-0.2913468301944438   0.03619689644621259   0.016990347628224597
-0.2913468301944438   0.03619689644621259   0.016990347628224597
-0.2913468301944438   0.03619689644621259   0.016990347628224597
-0.42357220545879515   -0.0031706459912695523   0.004716211210953735
-0.42357220545879515   -0.0031706459912695523   0.004716211210953735
-0.42357220545879515   -0.0031706459912695523   0.004716211210953735
-0.42357220545879515   -0.0031706459912695523   0.004716211210953735
-0.3000538985699306   0.020737988398586912   -0.01108608620158516
-0.3000538985699306   0.020737988398586912   -0.01108608620158516
-0.3000538985699306   0.020737988398586912   -0.01108608620158516
-0.3000538985699306   0.020737988398586912   -0.01108608620158516
-0.5430172241922357   -0.01680936279151761   0.0036294454373348647
-0.5430172241922357   -0.01680936279151761   0.0036294454373348647
-0.5430172241922357   -0.01680936279151761   0.0036294454373348647
-0.5430172241922357   -0.01680936279151761   0.0036294454373348647
-0.534835265262037   -0.014338010328435236   -0.0277570425719582
-0.534835265262037   -0.014338010328435236   -0.0277570425719582
-0.534835265262037   -0.014338010328435236   -0.0277570425719582
-0.534835265262037   -0.014338010328435236   -0.0277570425719582
-0.277970855426397   0.05123178953625891   0.01375632247957648
-0.277970855426397   0.05123178953625891   0.01375632247957648
-0.277970855426397   0.05123178953625891   0.01375632247957648
-0.277970855426397   0.05123178953625891   0.01375632247957648
-0.41026282858465973   0.010574991095421787   0.011002368266425117
-0.41026282858465973   0.010574991095421787   0.011002368266425117
-0.41026282858465973   0.010574991095421787   0.011002368266425117
-0.41026282858465973   0.010574991095421787   0.011002368266425117
-0.5815787089446036   -0.027374273655448797   -0.0213683495928377
-0.5815787089446036   -0.027374273655448797   -0.0213683495928377
-0.5815787089446036   -0.027374273655448797   -0.0213683495928377
-0.5815787089446036   -0.027374273655448797   -0.0213683495928377
-0.8295051964292518   -0.029999669240152155   0.03699313876716622
-0.8295051964292518   -0.029999669240152155   0.03699313876716622
-0.8295051964292518   -0.029999669240152155   0.03699313876716622
-0.8295051964292518   -0.029999669240152155   0.03699313876716622
-0.813948885647122   -0.05950353766487562   -0.028408867845340198
-0.813948885647122   -0.05950353766487562   -0.028408867845340198
-0.813948885647122   -0.05950353766487562   -0.028408867845340198
-0.813948885647122   -0.05950353766487562   -0.028408867845340198
-0.5401519180603435   0.0461953308669843   0.03764964593731712
-0.5401519180603435   0.0461953308669843   0.03764964593731712
-0.5401519180603435   0.0461953308669843   0.03764964593731712
-0.5401519180603435   0.0461953308669843   0.03764964593731712
-0.6606125648562848   -0.00815753990987983   0.007783823856771288
-0.6606125648562848   -0.00815753990987983   0.007783823856771288
-0.6606125648562848   -0.00815753990987983   0.007783823856771288
-0.6606125648562848   -0.00815753990987983   0.007783823856771288
-0.5633651180246976   -0.008457679312346783   -0.02376334370512035
-0.5633651180246976   -0.008457679312346783   -0.02376334370512035
-0.5633651180246976   -0.008457679312346783   -0.02376334370512035
-0.5633651180246976   -0.008457679312346783   -0.02376334370512035
-0.7903320995931945   -0.0044469413959722925   0.03461846615538522
-0.7903320995931945   -0.0044469413959722925   0.03461846615538522
-0.7903320995931945   -0.0044469413959722925   0.03461846615538522
-0.7903320995931945   -0.0044469413959722925   0.03461846615538522
-0.7844389249403958   -0.04896134285891937   -0.03347485367811021
-0.7844389249403958   -0.04896134285891937   -0.03347485367811021
-0.7844389249403958   -0.04896134285891937   -0.03347485367811021
-0.7844389249403958   -0.04896134285891937   -0.03347485367811021
-0.5238710320710529   0.05269473684669704   0.029856306405034498
-0.5238710320710529   0.05269473684669704   0.029856306405034498
-0.5238710320710529   0.05269473684669704   0.029856306405034498
-0.5238710320710529   0.05269473684669704   0.029856306405034498
-0.6455715865052073   0.0033577988925111713   0.013821542248693836
-0.6455715865052073   0.0033577988925111713   0.013821542248693836
-0.6455715865052073   0.0033577988925111713   0.013821542248693836
-0.6455715865052073   0.0033577988925111713   0.013821542248693836
-0.5457849826318547   5.0562023296091274e-05   -0.027069271575573962
-0.5457849826318547   5.0562023296091274e-05   -0.027069271575573962
-0.5457849826318547   5.0562023296091274e-05   -0.027069271575573962
-0.5457849826318547   5.0562023296091274e-05   -0.027069271575573962
-0.7621183591499612   0.004089447194107004   0.025077185221023292
-0.7621183591499612   0.004089447194107004   0.025077185221023292
-0.7621183591499612   0.004089447194107004   0.025077185221023292
-0.7621183591499612   0.004089447194107004   0.025077185221023292
-0.7521273048213655   -0.036348493801536624   -0.03817381940575366
-0.7521273048213655   -0.036348493801536624   -0.03817381940575366
-0.7521273048213655   -0.036348493801536624   -0.03817381940575366
-0.7521273048213655   -0.036348493801536624   -0.03817381940575366
-0.5095902565465263   0.05871106596031629   0.02541892471684354
-0.5095902565465263   0.05871106596031629   0.02541892471684354
-0.5095902565465263   0.05871106596031629   0.02541892471684354
-0.5095902565465263   0.05871106596031629   0.02541892471684354
-0.6128899038201246   0.012908123099744956   0.022999851040492757
-0.6128899038201246   0.012908123099744956   0.022999851040492757
-0.6128899038201246   0.012908123099744956   0.022999851040492757
-0.6128899038201246   0.012908123099744956   0.022999851040492757
0.7263071887319784   0.05436388154651434   0.03822299877769349
0.7263071887319784   0.05436388154651434   0.03822299877769349
0.7263071887319784   0.05436388154651434   0.03822299877769349
0.7263071887319784   0.05436388154651434   0.03822299877769349
0.3199596647255298   -0.08505718133013805   -0.0176738368883805
0.3199596647255298   -0.08505718133013805   -0.0176738368883805
0.3199596647255298   -0.08505718133013805   -0.0176738368883805
0.3199596647255298   -0.08505718133013805   -0.0176738368883805
0.35641086280836454   -0.015160707998663578   0.026212650217942127
0.35641086280836454   -0.015160707998663578   0.026212650217942127
0.35641086280836454   -0.015160707998663578   0.026212650217942127
0.35641086280836454   -0.015160707998663578   0.026212650217942127
0.7341173797021247   -0.0008646813827945243   -0.027626184106121672
0.7341173797021247   -0.0008646813827945243   -0.027626184106121672
0.7341173797021247   -0.0008646813827945243   -0.027626184106121672
0.7341173797021247   -0.0008646813827945243   -0.027626184106121672
0.5029313610626304   -0.015053998334944849   -0.03916586521381793
0.5029313610626304   -0.015053998334944849   -0.03916586521381793
0.5029313610626304   -0.015053998334944849   -0.03916586521381793
0.5029313610626304   -0.015053998334944849   -0.03916586521381793
0.7595329457060863   0.06661547620289088   0.03197148832799276
0.7595329457060863   0.06661547620289088   0.03197148832799276
0.7595329457060863   0.06661547620289088   0.03197148832799276
0.7595329457060863   0.06661547620289088   0.03197148832799276
0.3334403900578094   -0.08019577233094327   -0.023604649202550114
0.3334403900578094   -0.08019577233094327   -0.023604649202550114
0.3334403900578094   -0.08019577233094327   -0.023604649202550114
0.3334403900578094   -0.08019577233094327   -0.023604649202550114
0.37058701870692257   -0.007389670614079705   0.021174920666632072
0.37058701870692257   -0.007389670614079705   0.021174920666632072
0.37058701870692257   -0.007389670614079705   0.021174920666632072
0.37058701870692257   -0.007389670614079705   0.021174920666632072
0.759007800333019   0.007696337356213806   -0.034467843490362776
0.759007800333019   0.007696337356213806   -0.034467843490362776
0.759007800333019   0.007696337356213806   -0.034467843490362776
0.759007800333019   0.007696337356213806   -0.034467843490362776
0.5342668549111731   -0.005921724464854908   -0.026671143813961715
0.5342668549111731   -0.005921724464854908   -0.026671143813961715
0.5342668549111731   -0.005921724464854908   -0.026671143813961715
0.5342668549111731   -0.005921724464854908   -0.026671143813961715
0.784267654240701   0.07584752086683484   0.023680242537426437
0.784267654240701   0.07584752086683484   0.023680242537426437
0.784267654240701   0.07584752086683484   0.023680242537426437
0.784267654240701   0.07584752086683484   0.023680242537426437
0.34746271944500506   -0.07340529947894131   -0.028430946778093928
0.34746271944500506   -0.07340529947894131   -0.028430946778093928
0.34746271944500506   -0.07340529947894131   -0.028430946778093928
0.34746271944500506   -0.07340529947894131   -0.028430946778093928
0.3834395896908465   0.013397311920391244   0.01856495200896556
0.3834395896908465   0.013397311920391244   0.01856495200896556
0.3834395896908465   0.013397311920391244   0.01856495200896556
0.3834395896908465   0.013397311920391244   0.01856495200896556
0.7896685366856012   0.03276164965635567   -0.03607723979941276
0.7896685366856012   0.03276164965635567   -0.03607723979941276
0.7896685366856012   0.03276164965635567   -0.03607723979941276
0.7896685366856012   0.03276164965635567   -0.03607723979941276
0.5458288879377557   0.006402808251621761   -0.018049832302970636
0.5458288879377557   0.006402808251621761   -0.018049832302970636
0.5458288879377557   0.006402808251621761   -0.018049832302970636
0.5458288879377557   0.006402808251621761   -0.018049832302970636
0.3539169288317059   0.0319244144083475   0.03513088790401261
0.3539169288317059   0.0319244144083475   0.03513088790401261
0.3539169288317059   0.0319244144083475   0.03513088790401261
0.3539169288317059   0.0319244144083475   0.03513088790401261
-0.04459976008471006   -0.10460774988671653   -0.010093234272156873
-0.04459976008471006   -0.10460774988671653   -0.010093234272156873
-0.04459976008471006   -0.10460774988671653   -0.010093234272156873
-0.04459976008471006   -0.10460774988671653   -0.010093234272156873
-0.01329100804242856   -0.03717008723800176   0.008840352128980314
-0.01329100804242856   -0.03717008723800176   0.008840352128980314
-0.01329100804242856   -0.03717008723800176   0.008840352128980314
-0.01329100804242856   -0.03717008723800176   0.008840352128980314
0.35084735722914456   -0.01856726962932606   0.0018016839525044695
0.35084735722914456   -0.01856726962932606   0.0018016839525044695
0.35084735722914456   -0.01856726962932606   0.0018016839525044695
0.35084735722914456   -0.01856726962932606   0.0018016839525044695
0.15733182286325875   -0.028947034099212163   -0.018575332578384826
0.15733182286325875   -0.028947034099212163   -0.018575332578384826
0.15733182286325875   -0.028947034099212163   -0.018575332578384826
0.15733182286325875   -0.028947034099212163   -0.018575332578384826
0.369182609014107   0.04378225033092321   0.031128422917069548
0.369182609014107   0.04378225033092321   0.031128422917069548
0.369182609014107   0.04378225033092321   0.031128422917069548
0.369182609014107   0.04378225033092321   0.031128422917069548
-0.030328975832136465   -0.09822232320299612   -0.015297250854564839
-0.030328975832136465   -0.09822232320299612   -0.015297250854564839
-0.030328975832136465   -0.09822232320299612   -0.015297250854564839
-0.030328975832136465   -0.09822232320299612   -0.015297250854564839
0.0011601726753588861   -0.023240696563839154   0.005368928698368072
0.0011601726753588861   -0.023240696563839154   0.005368928698368072
0.0011601726753588861   -0.023240696563839154   0.005368928698368072
0.0011601726753588861   -0.023240696563839154   0.005368928698368072
0.36567139650274516   -0.008061306267467191   -0.002731554700867351
0.36567139650274516   -0.008061306267467191   -0.002731554700867351
0.36567139650274516   -0.008061306267467191   -0.002731554700867351
0.36567139650274516   -0.008061306267467191   -0.002731554700867351
0.1698527321783822   -0.020387263162104242   -0.012024085336479525
0.1698527321783822   -0.020387263162104242   -0.012024085336479525
0.1698527321783822   -0.020387263162104242   -0.012024085336479525
0.1698527321783822   -0.020387263162104242   -0.012024085336479525
0.3849919248982744   0.05801152028578235   0.027798260723529356
0.3849919248982744   0.05801152028578235   0.027798260723529356
0.3849919248982744   0.05801152028578235   0.027798260723529356
0.3849919248982744   0.05801152028578235   0.027798260723529356
-0.017380975403927475   -0.0885341428008359   -0.022043365461068914
-0.017380975403927475   -0.0885341428008359   -0.022043365461068914
-0.017380975403927475   -0.0885341428008359   -0.022043365461068914
-0.017380975403927475   -0.0885341428008359   -0.022043365461068914
0.012508998271921184   -0.006891155890834   0.001863473335379368
0.012508998271921184   -0.006891155890834   0.001863473335379368
0.012508998271921184   -0.006891155890834   0.001863473335379368
0.012508998271921184   -0.006891155890834   0.001863473335379368
0.3767558773184494   0.005362464479153076   -0.006818762411786184
0.3767558773184494   0.005362464479153076   -0.006818762411786184
0.3767558773184494   0.005362464479153076   -0.006818762411786184
0.3767558773184494   0.005362464479153076   -0.006818762411786184
0.1852802563679503   -0.007569492412047865   -0.004972141779324535
0.1852802563679503   -0.007569492412047865   -0.004972141779324535
0.1852802563679503   -0.007569492412047865   -0.004972141779324535
0.1852802563679503   -0.007569492412047865   -0.004972141779324535
-0.016342983148835578   0.009099104970999802   0.01748379554949922
-0.016342983148835578   0.009099104970999802   0.01748379554949922
-0.016342983148835578   0.009099104970999802   0.01748379554949922
-0.016342983148835578   0.009099104970999802   0.01748379554949922
-0.4063070111626709   -0.13108246098988596   -0.008062441300999167
-0.4063070111626709   -0.13108246098988596   -0.008062441300999167
-0.4063070111626709   -0.13108246098988596   -0.008062441300999167
-0.4063070111626709   -0.13108246098988596   -0.008062441300999167
-0.374741884480854   -0.05698382171467047   -0.008571838615842193
-0.374741884480854   -0.05698382171467047   -0.008571838615842193
-0.374741884480854   -0.05698382171467047   -0.008571838615842193
-0.374741884480854   -0.05698382171467047   -0.008571838615842193
-0.014873894865878007   -0.04418138164601794   0.007937212419749257
-0.014873894865878007   -0.04418138164601794   0.007937212419749257
-0.014873894865878007   -0.04418138164601794   0.007937212419749257
-0.014873894865878007   -0.04418138164601794   0.007937212419749257
-0.20397238512151628   -0.05279351491135214   -0.016568539666150364
-0.20397238512151628   -0.05279351491135214   -0.016568539666150364
-0.20397238512151628   -0.05279351491135214   -0.016568539666150364
-0.20397238512151628   -0.05279351491135214   -0.016568539666150364
-0.0002878576949360981   0.02246546224280298   0.014220554385637886
-0.0002878576949360981   0.02246546224280298   0.014220554385637886
-0.0002878576949360981   0.02246546224280298   0.014220554385637886
-0.0002878576949360981   0.02246546224280298   0.014220554385637886
-0.3883877116589557   -0.12269045561065117   -0.011094340610369947
-0.3883877116589557   -0.12269045561065117   -0.011094340610369947
-0.3883877116589557   -0.12269045561065117   -0.011094340610369947
-0.3883877116589557   -0.12269045561065117   -0.011094340610369947
-0.3568097296572547   -0.04152558569861564   -0.01164672869330323
-0.3568097296572547   -0.04152558569861564   -0.01164672869330323
-0.3568097296572547   -0.04152558569861564   -0.01164672869330323
-0.3568097296572547   -0.04152558569861564   -0.01164672869330323
-0.0014184757214332246   -0.03407860304800715   0.0033135931985736004
-0.0014184757214332246   -0.03407860304800715   0.0033135931985736004
-0.0014184757214332246   -0.03407860304800715   0.0033135931985736004
-0.0014184757214332246   -0.03407860304800715   0.0033135931985736004
-0.18656445740638797   -0.04166730532268423   -0.009169334218278723
-0.18656445740638797   -0.04166730532268423   -0.009169334218278723
-0.18656445740638797   -0.04166730532268423   -0.009169334218278723
-0.18656445740638797   -0.04166730532268423   -0.009169334218278723
0.014401032173464397   0.03726034860933312   0.011072181015721433
0.014401032173464397   0.03726034860933312   0.011072181015721433
0.014401032173464397   0.03726034860933312   0.011072181015721433
0.014401032173464397   0.03726034860933312   0.011072181015721433
-0.3726156247300581   -0.11285092453386122   -0.019350865222071918
-0.3726156247300581   -0.11285092453386122   -0.019350865222071918
-0.3726156247300581   -0.11285092453386122   -0.019350865222071918
-0.3726156247300581   -0.11285092453386122   -0.019350865222071918
-0.3441332508460522   -0.026777370961389366   -0.015077988703884201
-0.3441332508460522   -0.026777370961389366   -0.015077988703884201
-0.3441332508460522   -0.026777370961389366   -0.015077988703884201
-0.3441332508460522   -0.026777370961389366   -0.015077988703884201
0.0074051696927988206   -0.02597293130792658   -0.004573894143141793
0.0074051696927988206   -0.02597293130792658   -0.004573894143141793
0.0074051696927988206   -0.02597293130792658   -0.004573894143141793
0.0074051696927988206   -0.02597293130792658   -0.004573894143141793
-0.17380123025887284   -0.031273316784945486   -0.004513388001457265
-0.17380123025887284   -0.031273316784945486   -0.004513388001457265
-0.17380123025887284   -0.031273316784945486   -0.004513388001457265
-0.17380123025887284   -0.031273316784945486   -0.004513388001457265
-0.38070614491619037   -0.010643870582091958   -0.0004967004763937639
-0.38070614491619037   -0.010643870582091958   -0.0004967004763937639
-0.38070614491619037   -0.010643870582091958   -0.0004967004763937639
-0.38070614491619037   -0.010643870582091958   -0.0004967004763937639
-0.7698728572368584   -0.14092923663006768   -0.006430628137909243
-0.7698728572368584   -0.14092923663006768   -0.006430628137909243
-0.7698728572368584   -0.14092923663006768   -0.006430628137909243
-0.7698728572368584   -0.14092923663006768   -0.006430628137909243
-0.7360832990959598   -0.07300687418566174   -0.02537707128033498
-0.7360832990959598   -0.07300687418566174   -0.02537707128033498
-0.7360832990959598   -0.07300687418566174   -0.02537707128033498
-0.7360832990959598   -0.07300687418566174   -0.02537707128033498
-0.3674705305299013   -0.045933531332736255   0.016734640756984297
-0.3674705305299013   -0.045933531332736255   0.016734640756984297
-0.3674705305299013   -0.045933531332736255   0.016734640756984297
-0.3674705305299013   -0.045933531332736255   0.016734640756984297
-0.5586261358861686   -0.06357340953999176   -0.01166424382158408
-0.5586261358861686   -0.06357340953999176   -0.01166424382158408
-0.5586261358861686   -0.06357340953999176   -0.01166424382158408
-0.5586261358861686   -0.06357340953999176   -0.01166424382158408
-0.36089374316431544   0.0065362170893079885   -0.0028511708371306566
-0.36089374316431544   0.0065362170893079885   -0.0028511708371306566
-0.36089374316431544   0.0065362170893079885   -0.0028511708371306566
-0.36089374316431544   0.0065362170893079885   -0.0028511708371306566
-0.7429250416006202   -0.12574157774678474   -0.006851080242508418
-0.7429250416006202   -0.12574157774678474   -0.006851080242508418
-0.7429250416006202   -0.12574157774678474   -0.006851080242508418
-0.7429250416006202   -0.12574157774678474   -0.006851080242508418
-0.7104195858816881   -0.0568897860022515   -0.029370308926882256
-0.7104195858816881   -0.0568897860022515   -0.029370308926882256
-0.7104195858816881   -0.0568897860022515   -0.029370308926882256
-0.7104195858816881   -0.0568897860022515   -0.029370308926882256
-0.350078470435694   -0.03385134753377109   0.014335329249658406
-0.350078470435694   -0.03385134753377109   0.014335329249658406
-0.350078470435694   -0.03385134753377109   0.014335329249658406
-0.350078470435694   -0.03385134753377109   0.014335329249658406
-0.5322021996850993   -0.048108245656620155   -0.0037633430550247544
-0.5322021996850993   -0.048108245656620155   -0.0037633430550247544
-0.5322021996850993   -0.048108245656620155   -0.0037633430550247544
-0.5322021996850993   -0.048108245656620155   -0.0037633430550247544
-0.3429246495828932   0.021444900199051153   -0.005191814219163919
-0.3429246495828932   0.021444900199051153   -0.005191814219163919
-0.3429246495828932   0.021444900199051153   -0.005191814219163919
-0.3429246495828932   0.021444900199051153   -0.005191814219163919
-0.7187828294498851   -0.1133954564504697   -0.014680856319643575
-0.7187828294498851   -0.1133954564504697   -0.014680856319643575
-0.7187828294498851   -0.1133954564504697   -0.014680856319643575
-0.7187828294498851   -0.1133954564504697   -0.014680856319643575
-0.6896504404576618   -0.0399192260597903   -0.03031917046940488
-0.6896504404576618   -0.0399192260597903   -0.03031917046940488
-0.6896504404576618   -0.0399192260597903   -0.03031917046940488
-0.6896504404576618   -0.0399192260597903   -0.03031917046940488
-0.3400983912588386   -0.02616985675678886   0.004488795027586454
-0.3400983912588386   -0.02616985675678886   0.004488795027586454
-0.3400983912588386   -0.02616985675678886   0.004488795027586454
-0.3400983912588386   -0.02616985675678886   0.004488795027586454
-0.5177644239091584   -0.03869062012924847   -0.0011692236820748693
-0.5177644239091584   -0.03869062012924847   -0.0011692236820748693
-0.5177644239091584   -0.03869062012924847   -0.0011692236820748693
-0.5177644239091584   -0.03869062012924847   -0.0011692236820748693
-0.7490721754068872   -0.024985819927280578   -0.018370635690840388
-0.7490721754068872   -0.024985819927280578   -0.018370635690840388
-0.7490721754068872   -0.024985819927280578   -0.018370635690840388
-0.7490721754068872   -0.024985819927280578   -0.018370635690840388
-1.1296273977773248   -0.09576606412870847   0.0421802920261988
-1.1296273977773248   -0.09576606412870847   0.0421802920261988
-1.1296273977773248   -0.09576606412870847   0.0421802920261988
-1.1296273977773248   -0.09576606412870847   0.0421802920261988
-1.0914759863668904   -0.07654128026693197   -0.02470934142571743
-1.0914759863668904   -0.07654128026693197   -0.02470934142571743
-1.0914759863668904   -0.07654128026693197   -0.02470934142571743
-1.0914759863668904   -0.07654128026693197   -0.02470934142571743
-0.7045445319209033   0.02040750513165368   0.03890238527762527
-0.7045445319209033   0.02040750513165368   0.03890238527762527
-0.7045445319209033   0.02040750513165368   0.03890238527762527
-0.7045445319209033   0.02040750513165368   0.03890238527762527
-0.877522077273113   -0.029910020994655118   0.0044935992468156175
-0.877522077273113   -0.029910020994655118   0.0044935992468156175
-0.877522077273113   -0.029910020994655118   0.0044935992468156175
-0.877522077273113   -0.029910020994655118   0.0044935992468156175
-0.7207885247970959   -0.001536612051803804   -0.020373461919870828
-0.7207885247970959   -0.001536612051803804   -0.020373461919870828
-0.7207885247970959   -0.001536612051803804   -0.020373461919870828
-0.7207885247970959   -0.001536612051803804   -0.020373461919870828
-1.0726142856534386   -0.051979455246213974   0.04503733712082239
-1.0726142856534386   -0.051979455246213974   0.04503733712082239
-1.0726142856534386   -0.051979455246213974   0.04503733712082239
-1.0726142856534386   -0.051979455246213974   0.04503733712082239
-1.0505128678082483   -0.06449015773275127   -0.029426330754980932
-1.0505128678082483   -0.06449015773275127   -0.029426330754980932
-1.0505128678082483   -0.06449015773275127   -0.029426330754980932
-1.0505128678082483   -0.06449015773275127   -0.029426330754980932
-0.6791881349110066   0.032377119399585624   0.037520040524688
-0.6791881349110066   0.032377119399585624   0.037520040524688
-0.6791881349110066   0.032377119399585624   0.037520040524688
-0.6791881349110066   0.032377119399585624   0.037520040524688
-0.8536021085375941   -0.012061377669326773   0.0175591957660527
-0.8536021085375941   -0.012061377669326773   0.0175591957660527
-0.8536021085375941   -0.012061377669326773   0.0175591957660527
-0.8536021085375941   -0.012061377669326773   0.0175591957660527
-0.6959938396581834   0.007893867738285931   -0.022025231549890507
-0.6959938396581834   0.007893867738285931   -0.022025231549890507
-0.6959938396581834   0.007893867738285931   -0.022025231549890507
-0.6959938396581834   0.007893867738285931   -0.022025231549890507
-1.033160080768293   -0.03945982377866339   0.03230727049069869
-1.033160080768293   -0.03945982377866339   0.03230727049069869
-1.033160080768293   -0.03945982377866339   0.03230727049069869
-1.033160080768293   -0.03945982377866339   0.03230727049069869
-1.0081210779699312   -0.05319493006676865   -0.03558023399514547
-1.0081210779699312   -0.05319493006676865   -0.03558023399514547
-1.0081210779699312   -0.05319493006676865   -0.03558023399514547
-1.0081210779699312   -0.05319493006676865   -0.03558023399514547
-0.6604972686769857   0.046560096040962395   0.028967366333222735
-0.6604972686769857   0.046560096040962395   0.028967366333222735
-0.6604972686769857   0.046560096040962395   0.028967366333222735
-0.6604972686769857   0.046560096040962395   0.028967366333222735
-0.8078746379766428   0.0031639743039250934   0.030734508399885598
-0.8078746379766428   0.0031639743039250934   0.030734508399885598
-0.8078746379766428   0.0031639743039250934   0.030734508399885598
-0.8078746379766428   0.0031639743039250934   0.030734508399885598
0.9897901317395048   0.05956243746449552   0.03559379007081235
0.9897901317395048   0.05956243746449552   0.03559379007081235
0.9897901317395048   0.05956243746449552   0.03559379007081235
0.9897901317395048   0.05956243746449552   0.03559379007081235
0.4712812160801005   -0.08792543771055218   0.007670914763794952
0.4712812160801005   -0.08792543771055218   0.007670914763794952
0.4712812160801005   -0.08792543771055218   0.007670914763794952
0.4712812160801005   -0.08792543771055218   0.007670914763794952
0.497028368019962   -0.037298936344468736   0.02729155276763942
0.497028368019962   -0.037298936344468736   0.02729155276763942
0.497028368019962   -0.037298936344468736   0.02729155276763942
0.497028368019962   -0.037298936344468736   0.02729155276763942
0.9948487418290747   0.009022414849211985   -0.008167407150897997
0.9948487418290747   0.009022414849211985   -0.008167407150897997
0.9948487418290747   0.009022414849211985   -0.008167407150897997
0.9948487418290747   0.009022414849211985   -0.008167407150897997
0.6955594329324627   -0.01872186145542412   -0.04602591724075146
0.6955594329324627   -0.01872186145542412   -0.04602591724075146
0.6955594329324627   -0.01872186145542412   -0.04602591724075146
0.6955594329324627   -0.01872186145542412   -0.04602591724075146
1.0135387137854026   0.06617149645923526   0.02813337102071864
1.0135387137854026   0.06617149645923526   0.02813337102071864
1.0135387137854026   0.06617149645923526   0.02813337102071864
1.0135387137854026   0.06617149645923526   0.02813337102071864
0.48280347987373273   -0.08998293414439333   0.00885110983641748
0.48280347987373273   -0.08998293414439333   0.00885110983641748
0.48280347987373273   -0.08998293414439333   0.00885110983641748
0.48280347987373273   -0.08998293414439333   0.00885110983641748
0.5067178749025327   -0.03171883185968777   0.02074623586064605
0.5067178749025327   -0.03171883185968777   0.02074623586064605
0.5067178749025327   -0.03171883185968777   0.02074623586064605
0.5067178749025327   -0.03171883185968777   0.02074623586064605
1.0120776311969635   0.015302696650097675   -0.002729106095528948
1.0120776311969635   0.015302696650097675   -0.002729106095528948
1.0120776311969635   0.015302696650097675   -0.002729106095528948
1.0120776311969635   0.015302696650097675   -0.002729106095528948
0.7240465627811521   -0.0147635474797162   -0.03149967761769442
0.7240465627811521   -0.0147635474797162   -0.03149967761769442
0.7240465627811521   -0.0147635474797162   -0.03149967761769442
0.7240465627811521   -0.0147635474797162   -0.03149967761769442
1.0279102003511307   0.07226472776915308   0.019471708556252264
1.0279102003511307   0.07226472776915308   0.019471708556252264
1.0279102003511307   0.07226472776915308   0.019471708556252264
1.0279102003511307   0.07226472776915308   0.019471708556252264
0.4939907626296974   -0.0855754060974113   0.010967248734192338
0.4939907626296974   -0.0855754060974113   0.010967248734192338
0.4939907626296974   -0.0855754060974113   0.010967248734192338
0.4939907626296974   -0.0855754060974113   0.010967248734192338
0.5210076314032801   -0.009961733685781238   0.018966748772193114
0.5210076314032801   -0.009961733685781238   0.018966748772193114
0.5210076314032801   -0.009961733685781238   0.018966748772193114
0.5210076314032801   -0.009961733685781238   0.018966748772193114
1.0300419893087889   0.029798943020989038   -0.0006999651018210068
1.0300419893087889   0.029798943020989038   -0.0006999651018210068
1.0300419893087889   0.029798943020989038   -0.0006999651018210068
1.0300419893087889   0.029798943020989038   -0.0006999651018210068
0.7273998569748266   -0.006687905935773675   -0.023624068083773597
0.7273998569748266   -0.006687905935773675   -0.023624068083773597
0.7273998569748266   -0.006687905935773675   -0.023624068083773597
0.7273998569748266   -0.006687905935773675   -0.023624068083773597
0.4975013883597254   0.013333661955734627   0.03751267649563277
0.4975013883597254   0.013333661955734627   0.03751267649563277
0.4975013883597254   0.013333661955734627   0.03751267649563277
0.4975013883597254   0.013333661955734627   0.03751267649563277
0.024799176378095394   -0.1743196987064062   0.017619847241392983
0.024799176378095394   -0.1743196987064062   0.017619847241392983
0.024799176378095394   -0.1743196987064062   0.017619847241392983
0.024799176378095394   -0.1743196987064062   0.017619847241392983
0.05823959784195056   -0.07413533420746045   0.01656912044902647
0.05823959784195056   -0.07413533420746045   0.01656912044902647
0.05823959784195056   -0.07413533420746045   0.01656912044902647
0.05823959784195056   -0.07413533420746045   0.01656912044902647
0.4848155509635195   -0.08252861511802904   0.011457146258983392
0.4848155509635195   -0.08252861511802904   0.011457146258983392
0.4848155509635195   -0.08252861511802904   0.011457146258983392
0.4848155509635195   -0.08252861511802904   0.011457146258983392
0.25772015508555335   -0.07771621696992373   -0.029224613974989593
0.25772015508555335   -0.07771621696992373   -0.029224613974989593
0.25772015508555335   -0.07771621696992373   -0.029224613974989593
0.25772015508555335   -0.07771621696992373   -0.029224613974989593
0.5091024245354792   0.018996655701321294   0.03136624329943716
0.5091024245354792   0.018996655701321294   0.03136624329943716
0.5091024245354792   0.018996655701321294   0.03136624329943716
0.5091024245354792   0.018996655701321294   0.03136624329943716
0.04036757980591099   -0.16924574949089483   0.02231944555226298
0.04036757980591099   -0.16924574949089483   0.02231944555226298
0.04036757980591099   -0.16924574949089483   0.02231944555226298
0.04036757980591099   -0.16924574949089483   0.02231944555226298
0.07164429739530492   -0.06392920985674712   0.011956026460173238
0.07164429739530492   -0.06392920985674712   0.011956026460173238
0.07164429739530492   -0.06392920985674712   0.011956026460173238
0.07164429739530492   -0.06392920985674712   0.011956026460173238
0.4963068766826922   -0.07714663593777778   0.014119048839532869
0.4963068766826922   -0.07714663593777778   0.014119048839532869
0.4963068766826922   -0.07714663593777778   0.014119048839532869
0.4963068766826922   -0.07714663593777778   0.014119048839532869
0.26908735200841377   -0.07378061329338027   -0.014617313890447098
0.26908735200841377   -0.07378061329338027   -0.014617313890447098
0.26908735200841377   -0.07378061329338027   -0.014617313890447098
0.26908735200841377   -0.07378061329338027   -0.014617313890447098
0.5199327419472837   0.028631351338802208   0.026470387885910503
0.5199327419472837   0.028631351338802208   0.026470387885910503
0.5199327419472837   0.028631351338802208   0.026470387885910503
0.5199327419472837   0.028631351338802208   0.026470387885910503
0.05418638628946079   -0.16353924297457428   0.024276504048781705
0.05418638628946079   -0.16353924297457428   0.024276504048781705
0.05418638628946079   -0.16353924297457428   0.024276504048781705
0.05418638628946079   -0.16353924297457428   0.024276504048781705
0.09224572412392823   -0.048602138621312546   0.007868375280406896
0.09224572412392823   -0.048602138621312546   0.007868375280406896
0.09224572412392823   -0.048602138621312546   0.007868375280406896
0.09224572412392823   -0.048602138621312546   0.007868375280406896
0.5088622027082479   -0.06898228863177863   0.017260160243028976
0.5088622027082479   -0.06898228863177863   0.017260160243028976
0.5088622027082479   -0.06898228863177863   0.017260160243028976
0.5088622027082479   -0.06898228863177863   0.017260160243028976
0.2891708698794001   -0.06429534651237424   0.002398760525694592
0.2891708698794001   -0.06429534651237424   0.002398760525694592
0.2891708698794001   -0.06429534651237424   0.002398760525694592
0.2891708698794001   -0.06429534651237424   0.002398760525694592
0.05447118997482462   -0.03248524099871705   0.024145457517349957
0.05447118997482462   -0.03248524099871705   0.024145457517349957
0.05447118997482462   -0.03248524099871705   0.024145457517349957
0.05447118997482462   -0.03248524099871705   0.024145457517349957
-0.4251413863529311   -0.2988136891823561   0.02573261395706146
-0.4251413863529311   -0.2988136891823561   0.02573261395706146
-0.4251413863529311   -0.2988136891823561   0.02573261395706146
-0.4251413863529311   -0.2988136891823561   0.02573261395706146
-0.37238395788784384   -0.11696156710829812   0.0015463481302834224
-0.37238395788784384   -0.11696156710829812   0.0015463481302834224
-0.37238395788784384   -0.11696156710829812   0.0015463481302834224
-0.37238395788784384   -0.11696156710829812   0.0015463481302834224
0.028579792186136592   -0.2159209601514886   0.01005571811398475
0.028579792186136592   -0.2159209601514886   0.01005571811398475
0.028579792186136592   -0.2159209601514886   0.01005571811398475
0.028579792186136592   -0.2159209601514886   0.01005571811398475
-0.1840847997236869   -0.16722149876065404   -0.035055939587638224
-0.1840847997236869   -0.16722149876065404   -0.035055939587638224
-0.1840847997236869   -0.16722149876065404   -0.035055939587638224
-0.1840847997236869   -0.16722149876065404   -0.035055939587638224
0.06850842393617364   -0.025280647522512543   0.019058564235193896
0.06850842393617364   -0.025280647522512543   0.019058564235193896
0.06850842393617364   -0.025280647522512543   0.019058564235193896
0.06850842393617364   -0.025280647522512543   0.019058564235193896
-0.40299517339786484   -0.2982844634972577   0.029813166969140832
-0.40299517339786484   -0.2982844634972577   0.029813166969140832
-0.40299517339786484   -0.2982844634972577   0.029813166969140832
-0.40299517339786484   -0.2982844634972577   0.029813166969140832
-0.35202728986579207   -0.10491658077345964   -0.00026748128429928547
-0.35202728986579207   -0.10491658077345964   -0.00026748128429928547
-0.35202728986579207   -0.10491658077345964   -0.00026748128429928547
-0.35202728986579207   -0.10491658077345964   -0.00026748128429928547
0.04272238015501119   -0.21101860426525243   0.014435834667211891
0.04272238015501119   -0.21101860426525243   0.014435834667211891
0.04272238015501119   -0.21101860426525243   0.014435834667211891
0.04272238015501119   -0.21101860426525243   0.014435834667211891
-0.16343756182088112   -0.16136482654562256   -0.01298380833204095
-0.16343756182088112   -0.16136482654562256   -0.01298380833204095
-0.16343756182088112   -0.16136482654562256   -0.01298380833204095
-0.16343756182088112   -0.16136482654562256   -0.01298380833204095
0.08134382442636656   -0.01573664275535067   0.012261094514086936
0.08134382442636656   -0.01573664275535067   0.012261094514086936
0.08134382442636656   -0.01573664275535067   0.012261094514086936
0.08134382442636656   -0.01573664275535067   0.012261094514086936
-0.3822696632802332   -0.29181947142644626   0.035423542296487226
-0.3822696632802332   -0.29181947142644626   0.035423542296487226
-0.3822696632802332   -0.29181947142644626   0.035423542296487226
-0.3822696632802332   -0.29181947142644626   0.035423542296487226
-0.31842697668040604   -0.09105538739063859   -0.004154028183496981
-0.31842697668040604   -0.09105538739063859   -0.004154028183496981
-0.31842697668040604   -0.09105538739063859   -0.004154028183496981
-0.31842697668040604   -0.09105538739063859   -0.004154028183496981
0.06479014659016703   -0.19759729642795787   0.019585645418246228
0.06479014659016703   -0.19759729642795787   0.019585645418246228
0.06479014659016703   -0.19759729642795787   0.019585645418246228
0.06479014659016703   -0.19759729642795787   0.019585645418246228
-0.13667592745016593   -0.1484753611656576   0.010028739160542734
-0.13667592745016593   -0.1484753611656576   0.010028739160542734
-0.13667592745016593   -0.1484753611656576   0.010028739160542734
-0.13667592745016593   -0.1484753611656576   0.010028739160542734
-0.38009826990474666   -0.05938441011078227   0.011518917126406032
-0.38009826990474666   -0.05938441011078227   0.011518917126406032
-0.38009826990474666   -0.05938441011078227   0.011518917126406032
-0.38009826990474666   -0.05938441011078227   0.011518917126406032
-0.9429981061531382   -0.4642619865798764   -0.02121500396452805
-0.9429981061531382   -0.4642619865798764   -0.02121500396452805
-0.9429981061531382   -0.4642619865798764   -0.02121500396452805
-0.9429981061531382   -0.4642619865798764   -0.02121500396452805
-0.8560519653604949   -0.15218006972664214   -0.02591661638195144
-0.8560519653604949   -0.15218006972664214   -0.02591661638195144
-0.8560519653604949   -0.15218006972664214   -0.02591661638195144
-0.8560519653604949   -0.15218006972664214   -0.02591661638195144
-0.42510611812397286   -0.38710702133165276   0.008081001172993
-0.42510611812397286   -0.38710702133165276   0.008081001172993
-0.42510611812397286   -0.38710702133165276   0.008081001172993
-0.42510611812397286   -0.38710702133165276   0.008081001172993
-0.6503530934249081   -0.2746647126986724   -0.03689232148501725
-0.6503530934249081   -0.2746647126986724   -0.03689232148501725
-0.6503530934249081   -0.2746647126986724   -0.03689232148501725
-0.6503530934249081   -0.2746647126986724   -0.03689232148501725
-0.35607464358432356   -0.044812509655916904   0.010943862195503327
-0.35607464358432356   -0.044812509655916904   0.010943862195503327
-0.35607464358432356   -0.044812509655916904   0.010943862195503327
-0.35607464358432356   -0.044812509655916904   0.010943862195503327
-0.922811552796941   -0.49220269429917485   -0.019691928991649246
-0.922811552796941   -0.49220269429917485   -0.019691928991649246
-0.922811552796941   -0.49220269429917485   -0.019691928991649246
-0.922811552796941   -0.49220269429917485   -0.019691928991649246
-0.8288733945688773   -0.13776654715385425   -0.026445744717574125
-0.8288733945688773   -0.13776654715385425   -0.026445744717574125
-0.8288733945688773   -0.13776654715385425   -0.026445744717574125
-0.8288733945688773   -0.13776654715385425   -0.026445744717574125
-0.4053155408443657   -0.3838594192749303   0.01223410232430576
-0.4053155408443657   -0.3838594192749303   0.01223410232430576
-0.4053155408443657   -0.3838594192749303   0.01223410232430576
-0.4053155408443657   -0.3838594192749303   0.01223410232430576
-0.6217093024633628   -0.2669922457272933   -0.025539673112666715
-0.6217093024633628   -0.2669922457272933   -0.025539673112666715
-0.6217093024633628   -0.2669922457272933   -0.025539673112666715
-0.6217093024633628   -0.2669922457272933   -0.025539673112666715
-0.3369228290230038   -0.03334969722494009   0.003687939381123169
-0.3369228290230038   -0.03334969722494009   0.003687939381123169
-0.3369228290230038   -0.03334969722494009   0.003687939381123169
-0.3369228290230038   -0.03334969722494009   0.003687939381123169
-0.8971022653084658   -0.4881124281220701   -0.017244217447293514
-0.8971022653084658   -0.4881124281220701   -0.017244217447293514
-0.8971022653084658   -0.4881124281220701   -0.017244217447293514
-0.8971022653084658   -0.4881124281220701   -0.017244217447293514
-0.7864026827736934   -0.12232668875431826   -0.02999107344517512
-0.7864026827736934   -0.12232668875431826   -0.02999107344517512
-0.7864026827736934   -0.12232668875431826   -0.02999107344517512
-0.7864026827736934   -0.12232668875431826   -0.02999107344517512
-0.36248696776432215   -0.3443777888988908   0.02886841790518052
-0.36248696776432215   -0.3443777888988908   0.02886841790518052
-0.36248696776432215   -0.3443777888988908   0.02886841790518052
-0.36248696776432215   -0.3443777888988908   0.02886841790518052
-0.5898621110747311   -0.24155979412413153   -0.013788830567113795
-0.5898621110747311   -0.24155979412413153   -0.013788830567113795
-0.5898621110747311   -0.24155979412413153   -0.013788830567113795
-0.5898621110747311   -0.24155979412413153   -0.013788830567113795
-0.8572660234777879   -0.050910969256309585   -0.005905607911343536
-0.8572660234777879   -0.050910969256309585   -0.005905607911343536
-0.8572660234777879   -0.050910969256309585   -0.005905607911343536
-0.8572660234777879   -0.050910969256309585   -0.005905607911343536
-1.509600486114002   -0.29882984289422176   0.015451271642893283
-1.509600486114002   -0.29882984289422176   0.015451271642893283
-1.509600486114002   -0.29882984289422176   0.015451271642893283
-1.509600486114002   -0.29882984289422176   0.015451271642893283
-1.4506357323139503   -0.14288004626412243   -0.03144417130820834
-1.4506357323139503   -0.14288004626412243   -0.03144417130820834
-1.4506357323139503   -0.14288004626412243   -0.03144417130820834
-1.4506357323139503   -0.14288004626412243   -0.03144417130820834
-0.8393037494369512   -0.15560989265463895   0.061254286163756444
-0.8393037494369512   -0.15560989265463895   0.061254286163756444
-0.8393037494369512   -0.15560989265463895   0.061254286163756444
-0.8393037494369512   -0.15560989265463895   0.061254286163756444
-1.117115706936483   -0.17306060491403175   0.015568143559728955
-1.117115706936483   -0.17306060491403175   0.015568143559728955
-1.117115706936483   -0.17306060491403175   0.015568143559728955
-1.117115706936483   -0.17306060491403175   0.015568143559728955
-0.8225867595743943   -0.010946290741823822   0.00017563356372893302
-0.8225867595743943   -0.010946290741823822   0.00017563356372893302
-0.8225867595743943   -0.010946290741823822   0.00017563356372893302
-0.8225867595743943   -0.010946290741823822   0.00017563356372893302
-1.472872635007373   -0.2930635610078052   0.00755482996834711
-1.472872635007373   -0.2930635610078052   0.00755482996834711
-1.472872635007373   -0.2930635610078052   0.00755482996834711
-1.472872635007373   -0.2930635610078052   0.00755482996834711
-1.4184453336184375   -0.13096346326189467   -0.03992567407531318
-1.4184453336184375   -0.13096346326189467   -0.03992567407531318
-1.4184453336184375   -0.13096346326189467   -0.03992567407531318
-1.4184453336184375   -0.13096346326189467   -0.03992567407531318
-0.8113368956529994   -0.1479777821575051   0.07144798486547385
-0.8113368956529994   -0.1479777821575051   0.07144798486547385
-0.8113368956529994   -0.1479777821575051   0.07144798486547385
-0.8113368956529994   -0.1479777821575051   0.07144798486547385
-1.1003679614687532   -0.14263221140476928   0.015067528259564544
-1.1003679614687532   -0.14263221140476928   0.015067528259564544
-1.1003679614687532   -0.14263221140476928   0.015067528259564544
-1.1003679614687532   -0.14263221140476928   0.015067528259564544
-0.7976828349003027   -0.00039810617409546945   -0.007861387354452229
-0.7976828349003027   -0.00039810617409546945   -0.007861387354452229
-0.7976828349003027   -0.00039810617409546945   -0.007861387354452229
-0.7976828349003027   -0.00039810617409546945   -0.007861387354452229
-1.4340408996142577   -0.28048464448843   0.03161767717210784
-1.4340408996142577   -0.28048464448843   0.03161767717210784
-1.4340408996142577   -0.28048464448843   0.03161767717210784
-1.4340408996142577   -0.28048464448843   0.03161767717210784
-1.3515699358093014   -0.10640047687968679   -0.044762831137707335
-1.3515699358093014   -0.10640047687968679   -0.044762831137707335
-1.3515699358093014   -0.10640047687968679   -0.044762831137707335
-1.3515699358093014   -0.10640047687968679   -0.044762831137707335
-0.7677660555823251   -0.13781678030416178   0.0786821540615163
-0.7677660555823251   -0.13781678030416178   0.0786821540615163
-0.7677660555823251   -0.13781678030416178   0.0786821540615163
-0.7677660555823251   -0.13781678030416178   0.0786821540615163
-1.035234706962601   -0.10911506365448155   0.031302899273225535
-1.035234706962601   -0.10911506365448155   0.031302899273225535
-1.035234706962601   -0.10911506365448155   0.031302899273225535
-1.035234706962601   -0.10911506365448155   0.031302899273225535
1.0841902103999   0.03614735304097258   0.015125874201619184
1.0841902103999   0.03614735304097258   0.015125874201619184
1.0841902103999   0.03614735304097258   0.015125874201619184
1.0841902103999   0.03614735304097258   0.015125874201619184
0.5526517779559654   -0.02949508029425288   0.010878861231723796
0.5526517779559654   -0.02949508029425288   0.010878861231723796
0.5526517779559654   -0.02949508029425288   0.010878861231723796
0.5526517779559654   -0.02949508029425288   0.010878861231723796
0.53135180138394   -0.07769736243364658   0.021730646879943978
0.53135180138394   -0.07769736243364658   0.021730646879943978
0.53135180138394   -0.07769736243364658   0.021730646879943978
0.53135180138394   -0.07769736243364658   0.021730646879943978
1.076357601934309   0.06060125595322502   0.00778134662617689
1.076357601934309   0.06060125595322502   0.00778134662617689
1.076357601934309   0.06060125595322502   0.00778134662617689
1.076357601934309   0.06060125595322502   0.00778134662617689
0.7679134000273179   -0.010743680507795644   -0.02841138393209966
0.7679134000273179   -0.010743680507795644   -0.02841138393209966
0.7679134000273179   -0.010743680507795644   -0.02841138393209966
0.7679134000273179   -0.010743680507795644   -0.02841138393209966
1.0706125838673193   0.028116805946609452   0.011540706297844601
1.0706125838673193   0.028116805946609452   0.011540706297844601
1.0706125838673193   0.028116805946609452   0.011540706297844601
1.0706125838673193   0.028116805946609452   0.011540706297844601
0.5353704411483705   -0.046939290729589966   0.01106577399804038
0.5353704411483705   -0.046939290729589966   0.01106577399804038
0.5353704411483705   -0.046939290729589966   0.01106577399804038
0.5353704411483705   -0.046939290729589966   0.01106577399804038
0.517720678497578   -0.07943400561735478   0.017944335266594245
0.517720678497578   -0.07943400561735478   0.017944335266594245
0.517720678497578   -0.07943400561735478   0.017944335266594245
0.517720678497578   -0.07943400561735478   0.017944335266594245
1.0639396344132293   0.05804505107903235   0.01362993588242064
1.0639396344132293   0.05804505107903235   0.01362993588242064
1.0639396344132293   0.05804505107903235   0.01362993588242064
1.0639396344132293   0.05804505107903235   0.01362993588242064
0.7658416182069406   -0.014809002700998858   -0.03274628567942189
0.7658416182069406   -0.014809002700998858   -0.03274628567942189
0.7658416182069406   -0.014809002700998858   -0.03274628567942189
0.7658416182069406   -0.014809002700998858   -0.03274628567942189
1.0553287189293878   0.025185681103446378   0.0034347284387902313
1.0553287189293878   0.025185681103446378   0.0034347284387902313
1.0553287189293878   0.025185681103446378   0.0034347284387902313
1.0553287189293878   0.025185681103446378   0.0034347284387902313
0.523210313109242   -0.04969591651394761   0.015654419221507947
0.523210313109242   -0.04969591651394761   0.015654419221507947
0.523210313109242   -0.04969591651394761   0.015654419221507947
0.523210313109242   -0.04969591651394761   0.015654419221507947
0.5033678995639398   -0.07229617754115839   0.015498521832291029
0.5033678995639398   -0.07229617754115839   0.015498521832291029
0.5033678995639398   -0.07229617754115839   0.015498521832291029
0.5033678995639398   -0.07229617754115839   0.015498521832291029
1.044835940280069   0.05889451121374292   0.01973210545283787
1.044835940280069   0.05889451121374292   0.01973210545283787
1.044835940280069   0.05889451121374292   0.01973210545283787
1.044835940280069   0.05889451121374292   0.01973210545283787
0.7372745459288749   -0.014846686527449554   -0.044085542470247756
0.7372745459288749   -0.014846686527449554   -0.044085542470247756
0.7372745459288749   -0.014846686527449554   -0.044085542470247756
0.7372745459288749   -0.014846686527449554   -0.044085542470247756
0.5482489840926296   -0.06773312023968303   0.027102931860474605
0.5482489840926296   -0.06773312023968303   0.027102931860474605
0.5482489840926296   -0.06773312023968303   0.027102931860474605
0.5482489840926296   -0.06773312023968303   0.027102931860474605
0.10424874104117923   -0.065244179812009   0.005527755274852823
0.10424874104117923   -0.065244179812009   0.005527755274852823
0.10424874104117923   -0.065244179812009   0.005527755274852823
0.10424874104117923   -0.065244179812009   0.005527755274852823
0.06749254289611872   -0.16258349367296887   0.028505761551685133
0.06749254289611872   -0.16258349367296887   0.028505761551685133
0.06749254289611872   -0.16258349367296887   0.028505761551685133
0.06749254289611872   -0.16258349367296887   0.028505761551685133
0.5511087503896646   0.021957298081338422   0.020860731393581876
0.5511087503896646   0.021957298081338422   0.020860731393581876
0.5511087503896646   0.021957298081338422   0.020860731393581876
0.5511087503896646   0.021957298081338422   0.020860731393581876
0.3128799809379523   -0.06868000705061433   -0.0012469938383565318
0.3128799809379523   -0.06868000705061433   -0.0012469938383565318
0.3128799809379523   -0.06868000705061433   -0.0012469938383565318
0.3128799809379523   -0.06868000705061433   -0.0012469938383565318
0.5329678955852066   -0.07063902029580221   0.022752775748430473
0.5329678955852066   -0.07063902029580221   0.022752775748430473
0.5329678955852066   -0.07063902029580221   0.022752775748430473
0.5329678955852066   -0.07063902029580221   0.022752775748430473
0.08104650435575148   -0.0745740686406538   0.008266143817533884
0.08104650435575148   -0.0745740686406538   0.008266143817533884
0.08104650435575148   -0.0745740686406538   0.008266143817533884
0.08104650435575148   -0.0745740686406538   0.008266143817533884
0.05099184271339674   -0.16393204468037043   0.025507039095865006
0.05099184271339674   -0.16393204468037043   0.025507039095865006
0.05099184271339674   -0.16393204468037043   0.025507039095865006
0.05099184271339674   -0.16393204468037043   0.025507039095865006
0.5385425462246863   0.017943012604633463   0.024676655680148235
0.5385425462246863   0.017943012604633463   0.024676655680148235
0.5385425462246863   0.017943012604633463   0.024676655680148235
0.5385425462246863   0.017943012604633463   0.024676655680148235
0.29043460308077707   -0.07316423322846054   -0.014889322666047047
0.29043460308077707   -0.07316423322846054   -0.014889322666047047
0.29043460308077707   -0.07316423322846054   -0.014889322666047047
0.29043460308077707   -0.07316423322846054   -0.014889322666047047
0.5194796685156766   -0.07156235949261808   0.01886763923234684
0.5194796685156766   -0.07156235949261808   0.01886763923234684
0.5194796685156766   -0.07156235949261808   0.01886763923234684
0.5194796685156766   -0.07156235949261808   0.01886763923234684
0.06506540426863053   -0.07941598873689555   0.011358790928559084
0.06506540426863053   -0.07941598873689555   0.011358790928559084
0.06506540426863053   -0.07941598873689555   0.011358790928559084
0.06506540426863053   -0.07941598873689555   0.011358790928559084
0.03253800428932186   -0.16371690116191237   0.019911296011286293
0.03253800428932186   -0.16371690116191237   0.019911296011286293
0.03253800428932186   -0.16371690116191237   0.019911296011286293
0.03253800428932186   -0.16371690116191237   0.019911296011286293
0.5242807541101817   0.018299105248216638   0.029467511774128718
0.5242807541101817   0.018299105248216638   0.029467511774128718
0.5242807541101817   0.018299105248216638   0.029467511774128718
0.5242807541101817   0.018299105248216638   0.029467511774128718
0.276795673372889   -0.07248998003908684   -0.026463027046548508
0.276795673372889   -0.07248998003908684   -0.026463027046548508
0.276795673372889   -0.07248998003908684   -0.026463027046548508
0.276795673372889   -0.07248998003908684   -0.026463027046548508
0.08148892244397689   -0.19778104476585068   0.024265527242680787
0.08148892244397689   -0.19778104476585068   0.024265527242680787
0.08148892244397689   -0.19778104476585068   0.024265527242680787
0.08148892244397689   -0.19778104476585068   0.024265527242680787
-0.3269831865415641   -0.1009168714110809   0.00012754821720145637
-0.3269831865415641   -0.1009168714110809   0.00012754821720145637
-0.3269831865415641   -0.1009168714110809   0.00012754821720145637
-0.3269831865415641   -0.1009168714110809   0.00012754821720145637
-0.393478044177901   -0.29581048645977637   0.03266592293658343
-0.393478044177901   -0.29581048645977637   0.03266592293658343
-0.393478044177901   -0.29581048645977637   0.03266592293658343
-0.393478044177901   -0.29581048645977637   0.03266592293658343
0.09373902116000146   -0.01609999005240918   0.013254649250537234
0.09373902116000146   -0.01609999005240918   0.013254649250537234
0.09373902116000146   -0.01609999005240918   0.013254649250537234
0.09373902116000146   -0.01609999005240918   0.013254649250537234
-0.13452858201722828   -0.1504943466932921   0.005709933903335795
-0.13452858201722828   -0.1504943466932921   0.005709933903335795
-0.13452858201722828   -0.1504943466932921   0.005709933903335795
-0.13452858201722828   -0.1504943466932921   0.005709933903335795
0.056022048488680316   -0.2089414111212266   0.017511206962750873
0.056022048488680316   -0.2089414111212266   0.017511206962750873
0.056022048488680316   -0.2089414111212266   0.017511206962750873
0.056022048488680316   -0.2089414111212266   0.017511206962750873
-0.3622010496691389   -0.10940904355351828   0.0026494525741320406
-0.3622010496691389   -0.10940904355351828   0.0026494525741320406
-0.3622010496691389   -0.10940904355351828   0.0026494525741320406
-0.3622010496691389   -0.10940904355351828   0.0026494525741320406
-0.41642496567915427   -0.30039418762818854   0.026705263686696762
-0.41642496567915427   -0.30039418762818854   0.026705263686696762
-0.41642496567915427   -0.30039418762818854   0.026705263686696762
-0.41642496567915427   -0.30039418762818854   0.026705263686696762
0.07826967958766996   -0.020551178170989642   0.018515356957850414
0.07826967958766996   -0.020551178170989642   0.018515356957850414
0.07826967958766996   -0.020551178170989642   0.018515356957850414
0.07826967958766996   -0.020551178170989642   0.018515356957850414
-0.16322227973131043   -0.15954795712852898   -0.013431488419134843
-0.16322227973131043   -0.15954795712852898   -0.013431488419134843
-0.16322227973131043   -0.15954795712852898   -0.013431488419134843
-0.16322227973131043   -0.15954795712852898   -0.013431488419134843
0.038445612077029   -0.2124936304729616   0.011337471706617502
0.038445612077029   -0.2124936304729616   0.011337471706617502
0.038445612077029   -0.2124936304729616   0.011337471706617502
0.038445612077029   -0.2124936304729616   0.011337471706617502
-0.384292436945725   -0.11614327410342351   0.003116993829076103
-0.384292436945725   -0.11614327410342351   0.003116993829076103
-0.384292436945725   -0.11614327410342351   0.003116993829076103
-0.384292436945725   -0.11614327410342351   0.003116993829076103
-0.44133657822531996   -0.2982759997459924   0.02231885364356065
-0.44133657822531996   -0.2982759997459924   0.02231885364356065
-0.44133657822531996   -0.2982759997459924   0.02231885364356065
-0.44133657822531996   -0.2982759997459924   0.02231885364356065
0.06106808247794823   -0.022998115437747404   0.021842901230252253
0.06106808247794823   -0.022998115437747404   0.021842901230252253
0.06106808247794823   -0.022998115437747404   0.021842901230252253
0.06106808247794823   -0.022998115437747404   0.021842901230252253
-0.18653534071590283   -0.1629488733862152   -0.03261905366657512
-0.18653534071590283   -0.1629488733862152   -0.03261905366657512
-0.18653534071590283   -0.1629488733862152   -0.03261905366657512
-0.18653534071590283   -0.1629488733862152   -0.03261905366657512
-0.3689436175287166   -0.33943865307334525   0.028847174943706116
-0.3689436175287166   -0.33943865307334525   0.028847174943706116
-0.3689436175287166   -0.33943865307334525   0.028847174943706116
-0.3689436175287166   -0.33943865307334525   0.028847174943706116
-0.8161242521163796   -0.12554156425222038   -0.01873639609148566
-0.8161242521163796   -0.12554156425222038   -0.01873639609148566
-0.8161242521163796   -0.12554156425222038   -0.01873639609148566
-0.8161242521163796   -0.12554156425222038   -0.01873639609148566
-0.9324212580146817   -0.49524551765475566   -0.02529634055181261
-0.9324212580146817   -0.49524551765475566   -0.02529634055181261
-0.9324212580146817   -0.49524551765475566   -0.02529634055181261
-0.9324212580146817   -0.49524551765475566   -0.02529634055181261
-0.3440113282058966   -0.02726356485810502   0.011452581194930127
-0.3440113282058966   -0.02726356485810502   0.011452581194930127
-0.3440113282058966   -0.02726356485810502   0.011452581194930127
-0.3440113282058966   -0.02726356485810502   0.011452581194930127
-0.6094213771527427   -0.23709664751923132   -0.019965339954480996
-0.6094213771527427   -0.23709664751923132   -0.019965339954480996
-0.6094213771527427   -0.23709664751923132   -0.019965339954480996
-0.6094213771527427   -0.23709664751923132   -0.019965339954480996
-0.4158415081906503   -0.38488556358081233   0.009923679993872808
-0.4158415081906503   -0.38488556358081233   0.009923679993872808
-0.4158415081906503   -0.38488556358081233   0.009923679993872808
-0.4158415081906503   -0.38488556358081233   0.009923679993872808
-0.8588370340658164   -0.135869474967936   -0.016751263494305158
-0.8588370340658164   -0.135869474967936   -0.016751263494305158
-0.8588370340658164   -0.135869474967936   -0.016751263494305158
-0.8588370340658164   -0.135869474967936   -0.016751263494305158
-0.9597570382054321   -0.5030444131819867   -0.029249369849909834
-0.9597570382054321   -0.5030444131819867   -0.029249369849909834
-0.9597570382054321   -0.5030444131819867   -0.029249369849909834
-0.9597570382054321   -0.5030444131819867   -0.029249369849909834
-0.3652094548076407   -0.03461745820088453   0.017006088616958417
-0.3652094548076407   -0.03461745820088453   0.017006088616958417
-0.3652094548076407   -0.03461745820088453   0.017006088616958417
-0.3652094548076407   -0.03461745820088453   0.017006088616958417
-0.6428741263592226   -0.2628883237204049   -0.028656945900609583
-0.6428741263592226   -0.2628883237204049   -0.028656945900609583
-0.6428741263592226   -0.2628883237204049   -0.028656945900609583
-0.6428741263592226   -0.2628883237204049   -0.028656945900609583
-0.4393751349712543   -0.39233842720464035   0.003898656802643785
-0.4393751349712543   -0.39233842720464035   0.003898656802643785
-0.4393751349712543   -0.39233842720464035   0.003898656802643785
-0.4393751349712543   -0.39233842720464035   0.003898656802643785
-0.8858490984359948   -0.14558118457240857   -0.01717289961230764
-0.8858490984359948   -0.14558118457240857   -0.01717289961230764
-0.8858490984359948   -0.14558118457240857   -0.01717289961230764
-0.8858490984359948   -0.14558118457240857   -0.01717289961230764
-0.9830212471698939   -0.48085357708341075   -0.032976243611847256
-0.9830212471698939   -0.48085357708341075   -0.032976243611847256
-0.9830212471698939   -0.48085357708341075   -0.032976243611847256
-0.9830212471698939   -0.48085357708341075   -0.032976243611847256
-0.391989747745175   -0.045024316826319744   0.015801323124606477
-0.391989747745175   -0.045024316826319744   0.015801323124606477
-0.391989747745175   -0.045024316826319744   0.015801323124606477
-0.391989747745175   -0.045024316826319744   0.015801323124606477
-0.6737870437651655   -0.27160950449364096   -0.037047698245966
-0.6737870437651655   -0.27160950449364096   -0.037047698245966
-0.6737870437651655   -0.27160950449364096   -0.037047698245966
-0.6737870437651655   -0.27160950449364096   -0.037047698245966
-0.8024548960023523   -0.14639767929598932   0.07046649952240575
-0.8024548960023523   -0.14639767929598932   0.07046649952240575
-0.8024548960023523   -0.14639767929598932   0.07046649952240575
-0.8024548960023523   -0.14639767929598932   0.07046649952240575
-1.4086934862641747   -0.10490345927058131   -0.024544407241128705
-1.4086934862641747   -0.10490345927058131   -0.024544407241128705
-1.4086934862641747   -0.10490345927058131   -0.024544407241128705
-1.4086934862641747   -0.10490345927058131   -0.024544407241128705
-1.494250223337341   -0.2949922772000565   0.01928883733705855
-1.494250223337341   -0.2949922772000565   0.01928883733705855
-1.494250223337341   -0.2949922772000565   0.01928883733705855
-1.494250223337341   -0.2949922772000565   0.01928883733705855
-0.8244125623896592   0.012322804345196836   0.007178815573341463
-0.8244125623896592   0.012322804345196836   0.007178815573341463
-0.8244125623896592   0.012322804345196836   0.007178815573341463
-0.8244125623896592   0.012322804345196836   0.007178815573341463
-1.078531099538218   -0.10359043170233885   0.021572995864029974
-1.078531099538218   -0.10359043170233885   0.021572995864029974
-1.078531099538218   -0.10359043170233885   0.021572995864029974
-1.078531099538218   -0.10359043170233885   0.021572995864029974
-0.8472057291849697   -0.15694499054049785   0.06248077648248043
-0.8472057291849697   -0.15694499054049785   0.06248077648248043
-0.8472057291849697   -0.15694499054049785   0.06248077648248043
-0.8472057291849697   -0.15694499054049785   0.06248077648248043
-1.4677974771841835   -0.12206490295651323   -0.021374806140684627
-1.4677974771841835   -0.12206490295651323   -0.021374806140684627
-1.4677974771841835   -0.12206490295651323   -0.021374806140684627
-1.4677974771841835   -0.12206490295651323   -0.021374806140684627
-1.5302717991146806   -0.30741335203463205   -0.006794961058479765
-1.5302717991146806   -0.30741335203463205   -0.006794961058479765
-1.5302717991146806   -0.30741335203463205   -0.006794961058479765
-1.5302717991146806   -0.30741335203463205   -0.006794961058479765
-0.8498912259021536   0.004019571127062915   0.013015707357426763
-0.8498912259021536   0.004019571127062915   0.013015707357426763
-0.8498912259021536   0.004019571127062915   0.013015707357426763
-0.8498912259021536   0.004019571127062915   0.013015707357426763
-1.1423903468028604   -0.13660840893588425   0.00878479380852043
-1.1423903468028604   -0.13660840893588425   0.00878479380852043
-1.1423903468028604   -0.13660840893588425   0.00878479380852043
-1.1423903468028604   -0.13660840893588425   0.00878479380852043
-0.8759428903214981   -0.16486098898895507   0.051637945376722644
-0.8759428903214981   -0.16486098898895507   0.051637945376722644
-0.8759428903214981   -0.16486098898895507   0.051637945376722644
-0.8759428903214981   -0.16486098898895507   0.051637945376722644
-1.4967797444348958   -0.13109240165816963   -0.015655638035993825
-1.4967797444348958   -0.13109240165816963   -0.015655638035993825
-1.4967797444348958   -0.13109240165816963   -0.015655638035993825
-1.4967797444348958   -0.13109240165816963   -0.015655638035993825
-1.5613284434989954   -0.31230653045961443   -0.0002042087990765662
-1.5613284434989954   -0.31230653045961443   -0.0002042087990765662
-1.5613284434989954   -0.31230653045961443   -0.0002042087990765662
-1.5613284434989954   -0.31230653045961443   -0.0002042087990765662
-0.8857269621297125   -0.03277180004815147   0.00541340455380062
-0.8857269621297125   -0.03277180004815147   0.00541340455380062
-0.8857269621297125   -0.03277180004815147   0.00541340455380062
-0.8857269621297125   -0.03277180004815147   0.00541340455380062
-1.1558414996823216   -0.16488351963721937   0.013832243561163506
-1.1558414996823216   -0.16488351963721937   0.013832243561163506
-1.1558414996823216   -0.16488351963721937   0.013832243561163506
-1.1558414996823216   -0.16488351963721937   0.013832243561163506
0.9521036993558243   0.044147494503480295   -0.020360186179469164
0.9521036993558243   0.044147494503480295   -0.020360186179469164
0.9521036993558243   0.044147494503480295   -0.020360186179469164
0.9521036993558243   0.044147494503480295   -0.020360186179469164
0.4785123352168488   -0.010088897936397986   0.009886964589472604
0.4785123352168488   -0.010088897936397986   0.009886964589472604
0.4785123352168488   -0.010088897936397986   0.009886964589472604
0.4785123352168488   -0.010088897936397986   0.009886964589472604
0.448433656517322   -0.0701593248487838   -0.01809761196691089
0.448433656517322   -0.0701593248487838   -0.01809761196691089
0.448433656517322   -0.0701593248487838   -0.01809761196691089
0.448433656517322   -0.0701593248487838   -0.01809761196691089
0.9411800995715103   0.06854534599068252   0.011567556065917119
0.9411800995715103   0.06854534599068252   0.011567556065917119
0.9411800995715103   0.06854534599068252   0.011567556065917119
0.9411800995715103   0.06854534599068252   0.011567556065917119
0.6681023616357125   0.0016478312291828834   -0.02579603358856363
0.6681023616357125   0.0016478312291828834   -0.02579603358856363
0.6681023616357125   0.0016478312291828834   -0.02579603358856363
0.6681023616357125   0.0016478312291828834   -0.02579603358856363
0.9260101504627378   0.024856773030192403   -0.020593616517445797
0.9260101504627378   0.024856773030192403   -0.020593616517445797
0.9260101504627378   0.024856773030192403   -0.020593616517445797
0.9260101504627378   0.024856773030192403   -0.020593616517445797
0.4627716560701597   -0.027302701444227487   0.010735762392717764
0.4627716560701597   -0.027302701444227487   0.010735762392717764
0.4627716560701597   -0.027302701444227487   0.010735762392717764
0.4627716560701597   -0.027302701444227487   0.010735762392717764
0.4322227795066882   -0.07402029907878718   -0.014979960000135926
0.4322227795066882   -0.07402029907878718   -0.014979960000135926
0.4322227795066882   -0.07402029907878718   -0.014979960000135926
0.4322227795066882   -0.07402029907878718   -0.014979960000135926
0.9186918772646131   0.06304996248978728   0.016991524292080756
0.9186918772646131   0.06304996248978728   0.016991524292080756
0.9186918772646131   0.06304996248978728   0.016991524292080756
0.9186918772646131   0.06304996248978728   0.016991524292080756
0.6594194537219579   -0.006569035504255721   -0.030673497718682365
0.6594194537219579   -0.006569035504255721   -0.030673497718682365
0.6594194537219579   -0.006569035504255721   -0.030673497718682365
0.6594194537219579   -0.006569035504255721   -0.030673497718682365
0.9034031866130376   0.019942817539423535   -0.016344784015431914
0.9034031866130376   0.019942817539423535   -0.016344784015431914
0.9034031866130376   0.019942817539423535   -0.016344784015431914
0.9034031866130376   0.019942817539423535   -0.016344784015431914
0.44634482229413563   -0.03207980199255123   0.013689756850865542
0.44634482229413563   -0.03207980199255123   0.013689756850865542
0.44634482229413563   -0.03207980199255123   0.013689756850865542
0.44634482229413563   -0.03207980199255123   0.013689756850865542
0.4165462367007716   -0.07276843035850364   -0.010292898829097362
0.4165462367007716   -0.07276843035850364   -0.010292898829097362
0.4165462367007716   -0.07276843035850364   -0.010292898829097362
0.4165462367007716   -0.07276843035850364   -0.010292898829097362
0.8908696328232427   0.059457798702986425   0.022186030194148575
0.8908696328232427   0.059457798702986425   0.022186030194148575
0.8908696328232427   0.059457798702986425   0.022186030194148575
0.8908696328232427   0.059457798702986425   0.022186030194148575
0.6270892498698746   -0.01142928673262203   -0.04021155489020253
0.6270892498698746   -0.01142928673262203   -0.04021155489020253
0.6270892498698746   -0.01142928673262203   -0.04021155489020253
0.6270892498698746   -0.01142928673262203   -0.04021155489020253
0.4814608139358606   0.010000646467980434   0.004539813780149296
0.4814608139358606   0.010000646467980434   0.004539813780149296
0.4814608139358606   0.010000646467980434   0.004539813780149296
0.4814608139358606   0.010000646467980434   0.004539813780149296
0.04500594236144273   -0.029090584005776375   -0.0012392769280992321
0.04500594236144273   -0.029090584005776375   -0.0012392769280992321
0.04500594236144273   -0.029090584005776375   -0.0012392769280992321
0.04500594236144273   -0.029090584005776375   -0.0012392769280992321
0.016658772998386022   -0.09259700432280674   -0.017460803235865366
0.016658772998386022   -0.09259700432280674   -0.017460803235865366
0.016658772998386022   -0.09259700432280674   -0.017460803235865366
0.016658772998386022   -0.09259700432280674   -0.017460803235865366
0.4819670891802106   0.0556787762744335   0.023731450224311255
0.4819670891802106   0.0556787762744335   0.023731450224311255
0.4819670891802106   0.0556787762744335   0.023731450224311255
0.4819670891802106   0.0556787762744335   0.023731450224311255
0.2515727949752248   -0.012805803345694755   -0.009871842239569096
0.2515727949752248   -0.012805803345694755   -0.009871842239569096
0.2515727949752248   -0.012805803345694755   -0.009871842239569096
0.2515727949752248   -0.012805803345694755   -0.009871842239569096
0.46813420032244984   0.002699498525972871   0.007546283683968806
0.46813420032244984   0.002699498525972871   0.007546283683968806
0.46813420032244984   0.002699498525972871   0.007546283683968806
0.46813420032244984   0.002699498525972871   0.007546283683968806
0.03102533547692624   -0.03908405295356651   0.000859057787595513
0.03102533547692624   -0.03908405295356651   0.000859057787595513
0.03102533547692624   -0.03908405295356651   0.000859057787595513
0.03102533547692624   -0.03908405295356651   0.000859057787595513
0.0010273870276298613   -0.09693742036958275   -0.012210349993876234
0.0010273870276298613   -0.09693742036958275   -0.012210349993876234
0.0010273870276298613   -0.09693742036958275   -0.012210349993876234
0.0010273870276298613   -0.09693742036958275   -0.012210349993876234
0.464811841560881   0.047783926176944505   0.026161125015096424
0.464811841560881   0.047783926176944505   0.026161125015096424
0.464811841560881   0.047783926176944505   0.026161125015096424
0.464811841560881   0.047783926176944505   0.026161125015096424
0.233539405506322   -0.020092503793057853   -0.013975247705419545
0.233539405506322   -0.020092503793057853   -0.013975247705419545
0.233539405506322   -0.020092503793057853   -0.013975247705419545
0.233539405506322   -0.020092503793057853   -0.013975247705419545
0.4517616770600008   -0.0021747055223369505   0.010868934209981806
0.4517616770600008   -0.0021747055223369505   0.010868934209981806
0.4517616770600008   -0.0021747055223369505   0.010868934209981806
0.4517616770600008   -0.0021747055223369505   0.010868934209981806
0.014008713913045277   -0.047047626285765254   0.002806490349383354
0.014008713913045277   -0.047047626285765254   0.002806490349383354
0.014008713913045277   -0.047047626285765254   0.002806490349383354
0.014008713913045277   -0.047047626285765254   0.002806490349383354
-0.015739240941500473   -0.09727310853141988   -0.0083735620723716
-0.015739240941500473   -0.09727310853141988   -0.0083735620723716
-0.015739240941500473   -0.09727310853141988   -0.0083735620723716
-0.015739240941500473   -0.09727310853141988   -0.0083735620723716
0.44750144482031584   0.04281472471292517   0.02889998669719665
0.44750144482031584   0.04281472471292517   0.02889998669719665
0.44750144482031584   0.04281472471292517   0.02889998669719665
0.44750144482031584   0.04281472471292517   0.02889998669719665
0.21951076411132744   -0.02292732947841629   -0.01747184882932459
0.21951076411132744   -0.02292732947841629   -0.01747184882932459
0.21951076411132744   -0.02292732947841629   -0.01747184882932459
0.21951076411132744   -0.02292732947841629   -0.01747184882932459
0.046241321521024004   -0.025940060390992416   0.0017870952550250955
0.046241321521024004   -0.025940060390992416   0.0017870952550250955
0.046241321521024004   -0.025940060390992416   0.0017870952550250955
0.046241321521024004   -0.025940060390992416   0.0017870952550250955
-0.37417916679640656   -0.04315722756953123   -0.011748098642835133
-0.37417916679640656   -0.04315722756953123   -0.011748098642835133
-0.37417916679640656   -0.04315722756953123   -0.011748098642835133
-0.37417916679640656   -0.04315722756953123   -0.011748098642835133
-0.4056951682862022   -0.12262922141839508   -0.019957318133188618
-0.4056951682862022   -0.12262922141839508   -0.019957318133188618
-0.4056951682862022   -0.12262922141839508   -0.019957318133188618
-0.4056951682862022   -0.12262922141839508   -0.019957318133188618
0.04958815010023148   0.040911497108117825   0.013677580842437358
0.04958815010023148   0.040911497108117825   0.013677580842437358
0.04958815010023148   0.040911497108117825   0.013677580842437358
0.04958815010023148   0.040911497108117825   0.013677580842437358
-0.17150012730340924   -0.035902941087070005   -0.009767415020655727
-0.17150012730340924   -0.035902941087070005   -0.009767415020655727
-0.17150012730340924   -0.035902941087070005   -0.009767415020655727
-0.17150012730340924   -0.035902941087070005   -0.009767415020655727
0.03448729738346644   -0.028986918153731354   0.008071732520461363
0.03448729738346644   -0.028986918153731354   0.008071732520461363
0.03448729738346644   -0.028986918153731354   0.008071732520461363
0.03448729738346644   -0.028986918153731354   0.008071732520461363
-0.3894303668485789   -0.05156685743568761   -0.00969567492777944
-0.3894303668485789   -0.05156685743568761   -0.00969567492777944
-0.3894303668485789   -0.05156685743568761   -0.00969567492777944
-0.3894303668485789   -0.05156685743568761   -0.00969567492777944
-0.42401559405207156   -0.12737253521756062   -0.013306154635262963
-0.42401559405207156   -0.12737253521756062   -0.013306154635262963
-0.42401559405207156   -0.12737253521756062   -0.013306154635262963
-0.42401559405207156   -0.12737253521756062   -0.013306154635262963
0.03244064255701752   0.032466314574293546   0.01545219270918578
0.03244064255701752   0.032466314574293546   0.01545219270918578
0.03244064255701752   0.032466314574293546   0.01545219270918578
0.03244064255701752   0.032466314574293546   0.01545219270918578
-0.18666712998820548   -0.040904576973691216   -0.011706035037394279
-0.18666712998820548   -0.040904576973691216   -0.011706035037394279
-0.18666712998820548   -0.040904576973691216   -0.011706035037394279
-0.18666712998820548   -0.040904576973691216   -0.011706035037394279
0.018263468539834724   -0.03404080361051143   0.011073440808076747
0.018263468539834724   -0.03404080361051143   0.011073440808076747
0.018263468539834724   -0.03404080361051143   0.011073440808076747
0.018263468539834724   -0.03404080361051143   0.011073440808076747
-0.40958830370685795   -0.060615300704725816   -0.007926937422035589
-0.40958830370685795   -0.060615300704725816   -0.007926937422035589
-0.40958830370685795   -0.060615300704725816   -0.007926937422035589
-0.40958830370685795   -0.060615300704725816   -0.007926937422035589
-0.44433168185727856   -0.13081155064307626   -0.01182451046116516
-0.44433168185727856   -0.13081155064307626   -0.01182451046116516
-0.44433168185727856   -0.13081155064307626   -0.01182451046116516
-0.44433168185727856   -0.13081155064307626   -0.01182451046116516
0.013891359809848933   0.025261490305882022   0.01724484284707354
0.013891359809848933   0.025261490305882022   0.01724484284707354
0.013891359809848933   0.025261490305882022   0.01724484284707354
0.013891359809848933   0.025261490305882022   0.01724484284707354
-0.2063580345165295   -0.04689135207192306   -0.016391361572252152
-0.2063580345165295   -0.04689135207192306   -0.016391361572252152
-0.2063580345165295   -0.04689135207192306   -0.016391361572252152
-0.2063580345165295   -0.04689135207192306   -0.016391361572252152
-0.3682373002829549   -0.031046744496879428   0.005850750851763585
-0.3682373002829549   -0.031046744496879428   0.005850750851763585
-0.3682373002829549   -0.031046744496879428   0.005850750851763585
-0.3682373002829549   -0.031046744496879428   0.005850750851763585
-0.7837374813302171   -0.050532297990531494   -0.02061408371134793
-0.7837374813302171   -0.050532297990531494   -0.02061408371134793
-0.7837374813302171   -0.050532297990531494   -0.02061408371134793
-0.7837374813302171   -0.050532297990531494   -0.02061408371134793
-0.8195248896504366   -0.12866503701621834   -0.020041218151096652
-0.8195248896504366   -0.12866503701621834   -0.020041218151096652
-0.8195248896504366   -0.12866503701621834   -0.020041218151096652
-0.8195248896504366   -0.12866503701621834   -0.020041218151096652
-0.37011256439949985   0.03135817710955845   0.003968302772363753
-0.37011256439949985   0.03135817710955845   0.003968302772363753
-0.37011256439949985   0.03135817710955845   0.003968302772363753
-0.37011256439949985   0.03135817710955845   0.003968302772363753
-0.5806004871367665   -0.04265418040258771   -0.008143485366232554
-0.5806004871367665   -0.04265418040258771   -0.008143485366232554
-0.5806004871367665   -0.04265418040258771   -0.008143485366232554
-0.5806004871367665   -0.04265418040258771   -0.008143485366232554
-0.38124771826132975   -0.034226014161352264   0.013876724734127068
-0.38124771826132975   -0.034226014161352264   0.013876724734127068
-0.38124771826132975   -0.034226014161352264   0.013876724734127068
-0.38124771826132975   -0.034226014161352264   0.013876724734127068
-0.8061224585424583   -0.06081356849916024   -0.020880531128271176
-0.8061224585424583   -0.06081356849916024   -0.020880531128271176
-0.8061224585424583   -0.06081356849916024   -0.020880531128271176
-0.8061224585424583   -0.06081356849916024   -0.020880531128271176
-0.8448413292092334   -0.1367715586567448   -0.014132539260750336
-0.8448413292092334   -0.1367715586567448   -0.014132539260750336
-0.8448413292092334   -0.1367715586567448   -0.014132539260750336
-0.8448413292092334   -0.1367715586567448   -0.014132539260750336
-0.39049391680216916   0.022103924856702165   0.004825771539980459
-0.39049391680216916   0.022103924856702165   0.004825771539980459
-0.39049391680216916   0.022103924856702165   0.004825771539980459
-0.39049391680216916   0.022103924856702165   0.004825771539980459
-0.5965306959699658   -0.047095640684954754   -0.008136720146281015
-0.5965306959699658   -0.047095640684954754   -0.008136720146281015
-0.5965306959699658   -0.047095640684954754   -0.008136720146281015
-0.5965306959699658   -0.047095640684954754   -0.008136720146281015
-0.4014700203471848   -0.04238412774822014   0.01443330641982442
-0.4014700203471848   -0.04238412774822014   0.01443330641982442
-0.4014700203471848   -0.04238412774822014   0.01443330641982442
-0.4014700203471848   -0.04238412774822014   0.01443330641982442
-0.8323427885822784   -0.0707610689698832   -0.01765032581283715
-0.8323427885822784   -0.0707610689698832   -0.01765032581283715
-0.8323427885822784   -0.0707610689698832   -0.01765032581283715
-0.8323427885822784   -0.0707610689698832   -0.01765032581283715
-0.8734642368047285   -0.14749522639320034   -0.01507873565021237
-0.8734642368047285   -0.14749522639320034   -0.01507873565021237
-0.8734642368047285   -0.14749522639320034   -0.01507873565021237
-0.8734642368047285   -0.14749522639320034   -0.01507873565021237
-0.412525804754942   0.010653918248450508   0.005739406158983055
-0.412525804754942   0.010653918248450508   0.005739406158983055
-0.412525804754942   0.010653918248450508   0.005739406158983055
-0.412525804754942   0.010653918248450508   0.005739406158983055
-0.6250397785296306   -0.05814765008669255   -0.013308551791070624
-0.6250397785296306   -0.05814765008669255   -0.013308551791070624
-0.6250397785296306   -0.05814765008669255   -0.013308551791070624
-0.6250397785296306   -0.05814765008669255   -0.013308551791070624
-0.7574144259296255   0.03529584442064165   0.025173050880437156
-0.7574144259296255   0.03529584442064165   0.025173050880437156
-0.7574144259296255   0.03529584442064165   0.025173050880437156
-0.7574144259296255   0.03529584442064165   0.025173050880437156
-1.1739997190564233   -0.058456132348142065   -0.015515022924326174
-1.1739997190564233   -0.058456132348142065   -0.015515022924326174
-1.1739997190564233   -0.058456132348142065   -0.015515022924326174
-1.1739997190564233   -0.058456132348142065   -0.015515022924326174
-1.2024055667054612   -0.05955498534133935   0.02578287145646238
-1.2024055667054612   -0.05955498534133935   0.02578287145646238
-1.2024055667054612   -0.05955498534133935   0.02578287145646238
-1.2024055667054612   -0.05955498534133935   0.02578287145646238
-0.7860695700739548   0.024620320480895436   -0.0060499777658096845
-0.7860695700739548   0.024620320480895436   -0.0060499777658096845
-0.7860695700739548   0.024620320480895436   -0.0060499777658096845
-0.7860695700739548   0.024620320480895436   -0.0060499777658096845
-0.9342754787104987   0.0005950014718861529   0.023772040786224448
-0.9342754787104987   0.0005950014718861529   0.023772040786224448
-0.9342754787104987   0.0005950014718861529   0.023772040786224448
-0.9342754787104987   0.0005950014718861529   0.023772040786224448
-0.7781041562352722   0.02652350403592091   0.03187390787257466
-0.7781041562352722   0.02652350403592091   0.03187390787257466
-0.7781041562352722   0.02652350403592091   0.03187390787257466
-0.7781041562352722   0.02652350403592091   0.03187390787257466
-1.2098329079417869   -0.06092009629401371   -0.009988723772492512
-1.2098329079417869   -0.06092009629401371   -0.009988723772492512
-1.2098329079417869   -0.06092009629401371   -0.009988723772492512
-1.2098329079417869   -0.06092009629401371   -0.009988723772492512
-1.2382111364463722   -0.0692254832642045   0.035110345945338996
-1.2382111364463722   -0.0692254832642045   0.035110345945338996
-1.2382111364463722   -0.0692254832642045   0.035110345945338996
-1.2382111364463722   -0.0692254832642045   0.035110345945338996
-0.812321929647241   0.018042176284878225   -0.006349276392419653
-0.812321929647241   0.018042176284878225   -0.006349276392419653
-0.812321929647241   0.018042176284878225   -0.006349276392419653
-0.812321929647241   0.018042176284878225   -0.006349276392419653
-0.9807077732111387   -0.010696694046063437   0.013195773466750292
-0.9807077732111387   -0.010696694046063437   0.013195773466750292
-0.9807077732111387   -0.010696694046063437   0.013195773466750292
-0.9807077732111387   -0.010696694046063437   0.013195773466750292
-0.8050372796326526   0.016675374085464933   0.03144077587993587
-0.8050372796326526   0.016675374085464933   0.03144077587993587
-0.8050372796326526   0.016675374085464933   0.03144077587993587
-0.8050372796326526   0.016675374085464933   0.03144077587993587
-1.246868194363525   -0.06923108896735036   -0.008169337937278906
-1.246868194363525   -0.06923108896735036   -0.008169337937278906
-1.246868194363525   -0.06923108896735036   -0.008169337937278906
-1.246868194363525   -0.06923108896735036   -0.008169337937278906
-1.2891758191809464   -0.10846617385403393   0.030390392575622253
-1.2891758191809464   -0.10846617385403393   0.030390392575622253
-1.2891758191809464   -0.10846617385403393   0.030390392575622253
-1.2891758191809464   -0.10846617385403393   0.030390392575622253
-0.842593012695752   -0.0022247372141564192   -0.005993104284386888
-0.842593012695752   -0.0022247372141564192   -0.005993104284386888
-0.842593012695752   -0.0022247372141564192   -0.005993104284386888
-0.842593012695752   -0.0022247372141564192   -0.005993104284386888
-1.000097226594484   -0.024981179542751364   0.003990651466124456
-1.000097226594484   -0.024981179542751364   0.003990651466124456
-1.000097226594484   -0.024981179542751364   0.003990651466124456
-1.000097226594484   -0.024981179542751364   0.003990651466124456
0.7742437381818228   0.041639825684032225   -0.02720082027335043
0.7742437381818228   0.041639825684032225   -0.02720082027335043
0.7742437381818228   0.041639825684032225   -0.02720082027335043
0.7742437381818228   0.041639825684032225   -0.02720082027335043
0.3832080178708355   -0.0008254154295744692   0.009743094924366362
0.3832080178708355   -0.0008254154295744692   0.009743094924366362
0.3832080178708355   -0.0008254154295744692   0.009743094924366362
0.3832080178708355   -0.0008254154295744692   0.009743094924366362
0.3506705999430366   -0.05687790179562256   -0.025039183237134548
0.3506705999430366   -0.05687790179562256   -0.025039183237134548
0.3506705999430366   -0.05687790179562256   -0.025039183237134548
0.3506705999430366   -0.05687790179562256   -0.025039183237134548
0.7598766681401952   0.06240264408189891   0.012233572219956454
0.7598766681401952   0.06240264408189891   0.012233572219956454
0.7598766681401952   0.06240264408189891   0.012233572219956454
0.7598766681401952   0.06240264408189891   0.012233572219956454
0.5376863490339315   0.00472936321361711   -0.01770691108902732
0.5376863490339315   0.00472936321361711   -0.01770691108902732
0.5376863490339315   0.00472936321361711   -0.01770691108902732
0.5376863490339315   0.00472936321361711   -0.01770691108902732
0.7440101863121358   0.021548844631614356   -0.026245037470049103
0.7440101863121358   0.021548844631614356   -0.026245037470049103
0.7440101863121358   0.021548844631614356   -0.026245037470049103
0.7440101863121358   0.021548844631614356   -0.026245037470049103
0.3658654510894672   -0.016695733026966808   0.010752903726355859
0.3658654510894672   -0.016695733026966808   0.010752903726355859
0.3658654510894672   -0.016695733026966808   0.010752903726355859
0.3658654510894672   -0.016695733026966808   0.010752903726355859
0.33440105411737214   -0.06156465681237712   -0.021790749071469676
0.33440105411737214   -0.06156465681237712   -0.021790749071469676
0.33440105411737214   -0.06156465681237712   -0.021790749071469676
0.33440105411737214   -0.06156465681237712   -0.021790749071469676
0.7355548461984628   0.05593981450598687   0.0167883770993787
0.7355548461984628   0.05593981450598687   0.0167883770993787
0.7355548461984628   0.05593981450598687   0.0167883770993787
0.7355548461984628   0.05593981450598687   0.0167883770993787
0.5251159177444594   -0.003763957380847824   -0.023128596692746427
0.5251159177444594   -0.003763957380847824   -0.023128596692746427
0.5251159177444594   -0.003763957380847824   -0.023128596692746427
0.5251159177444594   -0.003763957380847824   -0.023128596692746427
0.7200196271046927   0.01577302235557207   -0.020720926219044297
0.7200196271046927   0.01577302235557207   -0.020720926219044297
0.7200196271046927   0.01577302235557207   -0.020720926219044297
0.7200196271046927   0.01577302235557207   -0.020720926219044297
0.34932621020706234   -0.022007927666040636   0.013278302230641553
0.34932621020706234   -0.022007927666040636   0.013278302230641553
0.34932621020706234   -0.022007927666040636   0.013278302230641553
0.34932621020706234   -0.022007927666040636   0.013278302230641553
0.3195655094269372   -0.06280235529158043   -0.01781061638238019
0.3195655094269372   -0.06280235529158043   -0.01781061638238019
0.3195655094269372   -0.06280235529158043   -0.01781061638238019
0.3195655094269372   -0.06280235529158043   -0.01781061638238019
0.708136403262231   0.050389581436071265   0.020951186961263513
0.708136403262231   0.050389581436071265   0.020951186961263513
0.708136403262231   0.050389581436071265   0.020951186961263513
0.708136403262231   0.050389581436071265   0.020951186961263513
0.49530157688531207   -0.009563710776634135   -0.03134952895107354
0.49530157688531207   -0.009563710776634135   -0.03134952895107354
0.49530157688531207   -0.009563710776634135   -0.03134952895107354
0.49530157688531207   -0.009563710776634135   -0.03134952895107354
0.3900156355356794   0.040625302982077574   0.002330464836933839
0.3900156355356794   0.040625302982077574   0.002330464836933839
0.3900156355356794   0.040625302982077574   0.002330464836933839
0.3900156355356794   0.040625302982077574   0.002330464836933839
0.012432125387541371   -0.013090234539577198   -0.0017070746835226728
0.012432125387541371   -0.013090234539577198   -0.0017070746835226728
0.012432125387541371   -0.013090234539577198   -0.0017070746835226728
0.012432125387541371   -0.013090234539577198   -0.0017070746835226728
-0.012098643749638639   -0.05130112065232989   -0.017102301479625825
-0.012098643749638639   -0.05130112065232989   -0.017102301479625825
-0.012098643749638639   -0.05130112065232989   -0.017102301479625825
-0.012098643749638639   -0.05130112065232989   -0.017102301479625825
0.38259420415626577   0.05659626730501219   0.021104668728369746
0.38259420415626577   0.05659626730501219   0.021104668728369746
0.38259420415626577   0.05659626730501219   0.021104668728369746
0.38259420415626577   0.05659626730501219   0.021104668728369746
0.19022085846504755   0.008067999134146228   -0.0021292378201731004
0.19022085846504755   0.008067999134146228   -0.0021292378201731004
0.19022085846504755   0.008067999134146228   -0.0021292378201731004
0.19022085846504755   0.008067999134146228   -0.0021292378201731004
0.37399919657206004   0.03023673944201022   0.004489158670345373
0.37399919657206004   0.03023673944201022   0.004489158670345373
0.37399919657206004   0.03023673944201022   0.004489158670345373
0.37399919657206004   0.03023673944201022   0.004489158670345373
-0.0033478687565820222   -0.02478582538047154   0.00013627821379890402
-0.0033478687565820222   -0.02478582538047154   0.00013627821379890402
-0.0033478687565820222   -0.02478582538047154   0.00013627821379890402
-0.0033478687565820222   -0.02478582538047154   0.00013627821379890402
-0.027509035263421862   -0.0588736201509181   -0.014805729799944425
-0.027509035263421862   -0.0588736201509181   -0.014805729799944425
-0.027509035263421862   -0.0588736201509181   -0.014805729799944425
-0.027509035263421862   -0.0588736201509181   -0.014805729799944425
0.3651341853377817   0.0469703775306544   0.02333987268754299
0.3651341853377817   0.0469703775306544   0.02333987268754299
0.3651341853377817   0.0469703775306544   0.02333987268754299
0.3651341853377817   0.0469703775306544   0.02333987268754299
0.17135542316158142   -0.0014344453831495393   -0.007522432448396125
0.17135542316158142   -0.0014344453831495393   -0.007522432448396125
0.17135542316158142   -0.0014344453831495393   -0.007522432448396125
0.17135542316158142   -0.0014344453831495393   -0.007522432448396125
0.3568651741191305   0.022296172092141874   0.006669022032803123
0.3568651741191305   0.022296172092141874   0.006669022032803123
0.3568651741191305   0.022296172092141874   0.006669022032803123
0.3568651741191305   0.022296172092141874   0.006669022032803123
-0.01922630805268477   -0.034185698720319076   0.0019199848231420003
-0.01922630805268477   -0.034185698720319076   0.0019199848231420003
-0.01922630805268477   -0.034185698720319076   0.0019199848231420003
-0.01922630805268477   -0.034185698720319076   0.0019199848231420003
-0.042756850677494566   -0.06337953248790681   -0.011813003809152928
-0.042756850677494566   -0.06337953248790681   -0.011813003809152928
-0.042756850677494566   -0.06337953248790681   -0.011813003809152928
-0.042756850677494566   -0.06337953248790681   -0.011813003809152928
0.3485264483430302   0.03889315626288082   0.025298566643619416
0.3485264483430302   0.03889315626288082   0.025298566643619416
0.3485264483430302   0.03889315626288082   0.025298566643619416
0.3485264483430302   0.03889315626288082   0.025298566643619416
0.1574730169653527   -0.007455374004974875   -0.011478410626250796
0.1574730169653527   -0.007455374004974875   -0.011478410626250796
0.1574730169653527   -0.007455374004974875   -0.011478410626250796
0.1574730169653527   -0.007455374004974875   -0.011478410626250796
0.025325618291034083   0.0408561501961591   0.008814005098206517
0.025325618291034083   0.0408561501961591   0.008814005098206517
0.025325618291034083   0.0408561501961591   0.008814005098206517
0.025325618291034083   0.0408561501961591   0.008814005098206517
-0.346966579344732   -0.022676865202597048   -0.01190874829505159
-0.346966579344732   -0.022676865202597048   -0.01190874829505159
-0.346966579344732   -0.022676865202597048   -0.01190874829505159
-0.346966579344732   -0.022676865202597048   -0.01190874829505159
-0.36610256563574894   -0.04714836331970738   -0.010931005560738843
-0.36610256563574894   -0.04714836331970738   -0.010931005560738843
-0.36610256563574894   -0.04714836331970738   -0.010931005560738843
-0.36610256563574894   -0.04714836331970738   -0.010931005560738843
0.012911203129128256   0.04636585374097368   0.010279958520905071
0.012911203129128256   0.04636585374097368   0.010279958520905071
0.012911203129128256   0.04636585374097368   0.010279958520905071
0.012911203129128256   0.04636585374097368   0.010279958520905071
-0.16849357971416015   0.005110929858295456   0.0006697959394408991
-0.16849357971416015   0.005110929858295456   0.0006697959394408991
-0.16849357971416015   0.005110929858295456   0.0006697959394408991
-0.16849357971416015   0.005110929858295456   0.0006697959394408991
0.01029369858597872   0.03252395712167679   0.011034332424454285
0.01029369858597872   0.03252395712167679   0.011034332424454285
0.01029369858597872   0.03252395712167679   0.011034332424454285
0.01029369858597872   0.03252395712167679   0.011034332424454285
-0.36306271631011866   -0.03288412191792972   -0.009996000334364985
-0.36306271631011866   -0.03288412191792972   -0.009996000334364985
-0.36306271631011866   -0.03288412191792972   -0.009996000334364985
-0.36306271631011866   -0.03288412191792972   -0.009996000334364985
-0.38263660652242315   -0.0554627958942917   -0.009116110554269105
-0.38263660652242315   -0.0554627958942917   -0.009116110554269105
-0.38263660652242315   -0.0554627958942917   -0.009116110554269105
-0.38263660652242315   -0.0554627958942917   -0.009116110554269105
-0.0029880387662201673   0.03646685270598364   0.012458779829162311
-0.0029880387662201673   0.03646685270598364   0.012458779829162311
-0.0029880387662201673   0.03646685270598364   0.012458779829162311
-0.0029880387662201673   0.03646685270598364   0.012458779829162311
-0.18433823416663386   -0.0030503078233263745   -0.0033711618789125358
-0.18433823416663386   -0.0030503078233263745   -0.0033711618789125358
-0.18433823416663386   -0.0030503078233263745   -0.0033711618789125358
-0.18433823416663386   -0.0030503078233263745   -0.0033711618789125358
-0.005219622430006373   0.024497804898573717   0.013269909317641201
-0.005219622430006373   0.024497804898573717   0.013269909317641201
-0.005219622430006373   0.024497804898573717   0.013269909317641201
-0.005219622430006373   0.024497804898573717   0.013269909317641201
-0.3800453575610805   -0.04313408278932506   -0.008488578852520795
-0.3800453575610805   -0.04313408278932506   -0.008488578852520795
-0.3800453575610805   -0.04313408278932506   -0.008488578852520795
-0.3800453575610805   -0.04313408278932506   -0.008488578852520795
-0.3990530778752249   -0.06199555439948577   -0.00609594299466079
-0.3990530778752249   -0.06199555439948577   -0.00609594299466079
-0.3990530778752249   -0.06199555439948577   -0.00609594299466079
-0.3990530778752249   -0.06199555439948577   -0.00609594299466079
-0.019462322306342657   0.02714181986852116   0.014138285690178661
-0.019462322306342657   0.02714181986852116   0.014138285690178661
-0.019462322306342657   0.02714181986852116   0.014138285690178661
-0.019462322306342657   0.02714181986852116   0.014138285690178661
-0.20138902630966557   -0.011348632903424409   -0.007793587787936195
-0.20138902630966557   -0.011348632903424409   -0.007793587787936195
-0.20138902630966557   -0.011348632903424409   -0.007793587787936195
-0.20138902630966557   -0.011348632903424409   -0.007793587787936195
-0.32726128648129793   0.048061606571194376   0.01587924424833133
-0.32726128648129793   0.048061606571194376   0.01587924424833133
-0.32726128648129793   0.048061606571194376   0.01587924424833133
-0.32726128648129793   0.048061606571194376   0.01587924424833133
-0.6948428788686887   -0.031116845214276975   -0.019464483214627144
-0.6948428788686887   -0.031116845214276975   -0.019464483214627144
-0.6948428788686887   -0.031116845214276975   -0.019464483214627144
-0.6948428788686887   -0.031116845214276975   -0.019464483214627144
-0.7097500440618066   -0.03802604865550781   -0.0033153463906606916
-0.7097500440618066   -0.03802604865550781   -0.0033153463906606916
-0.7097500440618066   -0.03802604865550781   -0.0033153463906606916
-0.7097500440618066   -0.03802604865550781   -0.0033153463906606916
-0.3475508481954827   0.0351412061213076   -0.00046198780042061224
-0.3475508481954827   0.0351412061213076   -0.00046198780042061224
-0.3475508481954827   0.0351412061213076   -0.00046198780042061224
-0.3475508481954827   0.0351412061213076   -0.00046198780042061224
-0.5160913382360038   0.0050768595214286255   0.003784110043681236
-0.5160913382360038   0.0050768595214286255   0.003784110043681236
-0.5160913382360038   0.0050768595214286255   0.003784110043681236
-0.5160913382360038   0.0050768595214286255   0.003784110043681236
-0.34301554668738354   0.039545887724821246   0.0178098381365614
-0.34301554668738354   0.039545887724821246   0.0178098381365614
-0.34301554668738354   0.039545887724821246   0.0178098381365614
-0.34301554668738354   0.039545887724821246   0.0178098381365614
-0.7137205675714032   -0.041865952260519826   -0.019328060333637192
-0.7137205675714032   -0.041865952260519826   -0.019328060333637192
-0.7137205675714032   -0.041865952260519826   -0.019328060333637192
-0.7137205675714032   -0.041865952260519826   -0.019328060333637192
-0.7301053937839342   -0.04738167264895181   -0.0029907390065242977
-0.7301053937839342   -0.04738167264895181   -0.0029907390065242977
-0.7301053937839342   -0.04738167264895181   -0.0029907390065242977
-0.7301053937839342   -0.04738167264895181   -0.0029907390065242977
-0.36428678073452436   0.025695176105495793   0.001475046385439164
-0.36428678073452436   0.025695176105495793   0.001475046385439164
-0.36428678073452436   0.025695176105495793   0.001475046385439164
-0.36428678073452436   0.025695176105495793   0.001475046385439164
-0.530287595315026   -0.002356394285320154   0.0004748082638294758
-0.530287595315026   -0.002356394285320154   0.0004748082638294758
-0.530287595315026   -0.002356394285320154   0.0004748082638294758
-0.530287595315026   -0.002356394285320154   0.0004748082638294758
-0.3593144343226177   0.03148421496225828   0.02054773958820966
-0.3593144343226177   0.03148421496225828   0.02054773958820966
-0.3593144343226177   0.03148421496225828   0.02054773958820966
-0.3593144343226177   0.03148421496225828   0.02054773958820966
-0.7339181722156515   -0.05201114352552598   -0.01742516028854253
-0.7339181722156515   -0.05201114352552598   -0.01742516028854253
-0.7339181722156515   -0.05201114352552598   -0.01742516028854253
-0.7339181722156515   -0.05201114352552598   -0.01742516028854253
-0.7488346483584803   -0.05741148801965398   0.0017212184219681514
-0.7488346483584803   -0.05741148801965398   0.0017212184219681514
-0.7488346483584803   -0.05741148801965398   0.0017212184219681514
-0.7488346483584803   -0.05741148801965398   0.0017212184219681514
-0.3820235463953161   0.014427966722421845   0.002628193282981462
-0.3820235463953161   0.014427966722421845   0.002628193282981462
-0.3820235463953161   0.014427966722421845   0.002628193282981462
-0.3820235463953161   0.014427966722421845   0.002628193282981462
-0.552597637910523   -0.012863082270529166   -0.004001315487973164
-0.552597637910523   -0.012863082270529166   -0.004001315487973164
-0.552597637910523   -0.012863082270529166   -0.004001315487973164
-0.552597637910523   -0.012863082270529166   -0.004001315487973164
-0.6703388234807818   0.0498057008783131   0.022133247632308076
-0.6703388234807818   0.0498057008783131   0.022133247632308076
-0.6703388234807818   0.0498057008783131   0.022133247632308076
-0.6703388234807818   0.0498057008783131   0.022133247632308076
-1.0260619189148492   -0.047518054361364664   -0.01778657824147494
-1.0260619189148492   -0.047518054361364664   -0.01778657824147494
-1.0260619189148492   -0.047518054361364664   -0.01778657824147494
-1.0260619189148492   -0.047518054361364664   -0.01778657824147494
-1.0398782778526756   -0.021178465796336005   0.018764798626784575
-1.0398782778526756   -0.021178465796336005   0.018764798626784575
-1.0398782778526756   -0.021178465796336005   0.018764798626784575
-1.0398782778526756   -0.021178465796336005   0.018764798626784575
-0.6991999792664697   0.02126788598487006   -0.009858957054353946
-0.6991999792664697   0.02126788598487006   -0.009858957054353946
-0.6991999792664697   0.02126788598487006   -0.009858957054353946
-0.6991999792664697   0.02126788598487006   -0.009858957054353946
-0.8208710474635947   0.010254889322436123   0.018966886627117346
-0.8208710474635947   0.010254889322436123   0.018966886627117346
-0.8208710474635947   0.010254889322436123   0.018966886627117346
-0.8208710474635947   0.010254889322436123   0.018966886627117346
-0.6862155988559413   0.050889397061902875   0.02544143392124449
-0.6862155988559413   0.050889397061902875   0.02544143392124449
-0.6862155988559413   0.050889397061902875   0.02544143392124449
-0.6862155988559413   0.050889397061902875   0.02544143392124449
-1.0520975081709674   -0.05003482678113136   -0.013474991979863522
-1.0520975081709674   -0.05003482678113136   -0.013474991979863522
-1.0520975081709674   -0.05003482678113136   -0.013474991979863522
-1.0520975081709674   -0.05003482678113136   -0.013474991979863522
-1.06516982728625   -0.026074964209322926   0.025912918775552678
-1.06516982728625   -0.026074964209322926   0.025912918775552678
-1.06516982728625   -0.026074964209322926   0.025912918775552678
-1.06516982728625   -0.026074964209322926   0.025912918775552678
-0.7186157282149143   0.01584151516654944   -0.008765598976925339
-0.7186157282149143   0.01584151516654944   -0.008765598976925339
-0.7186157282149143   0.01584151516654944   -0.008765598976925339
-0.7186157282149143   0.01584151516654944   -0.008765598976925339
-0.8558837562551198   0.00508112606253916   0.012306862382860662
-0.8558837562551198   0.00508112606253916   0.012306862382860662
-0.8558837562551198   0.00508112606253916   0.012306862382860662
-0.8558837562551198   0.00508112606253916   0.012306862382860662
-0.704271328505818   0.047234778948894995   0.031563135786210415
-0.704271328505818   0.047234778948894995   0.031563135786210415
-0.704271328505818   0.047234778948894995   0.031563135786210415
-0.704271328505818   0.047234778948894995   0.031563135786210415
-1.0787699741244654   -0.056723975120784614   -0.011438804504044421
-1.0787699741244654   -0.056723975120784614   -0.011438804504044421
-1.0787699741244654   -0.056723975120784614   -0.011438804504044421
-1.0787699741244654   -0.056723975120784614   -0.011438804504044421
-1.0994820343912521   -0.047263644089843654   0.025701383032677008
-1.0994820343912521   -0.047263644089843654   0.025701383032677008
-1.0994820343912521   -0.047263644089843654   0.025701383032677008
-1.0994820343912521   -0.047263644089843654   0.025701383032677008
-0.739461925911503   -0.0005791458668267802   -0.008247511495972401
-0.739461925911503   -0.0005791458668267802   -0.008247511495972401
-0.739461925911503   -0.0005791458668267802   -0.008247511495972401
-0.739461925911503   -0.0005791458668267802   -0.008247511495972401
-0.8657842759289611   -0.0024321770976301893   0.010163752983651034
-0.8657842759289611   -0.0024321770976301893   0.010163752983651034
-0.8657842759289611   -0.0024321770976301893   0.010163752983651034
-0.8657842759289611   -0.0024321770976301893   0.010163752983651034
0.5894587986345299   0.032927099623729056   -0.02774511057281038
0.5894587986345299   0.032927099623729056   -0.02774511057281038
0.5894587986345299   0.032927099623729056   -0.02774511057281038
0.5894587986345299   0.032927099623729056   -0.02774511057281038
0.27990610238381153   0.005243465842499517   0.010489962171643528
0.27990610238381153   0.005243465842499517   0.010489962171643528
0.27990610238381153   0.005243465842499517   0.010489962171643528
0.27990610238381153   0.005243465842499517   0.010489962171643528
0.24912487525016958   -0.04747512400298738   -0.026403475314449407
0.24912487525016958   -0.04747512400298738   -0.026403475314449407
0.24912487525016958   -0.04747512400298738   -0.026403475314449407
0.24912487525016958   -0.04747512400298738   -0.026403475314449407
0.576916591851394   0.05398012191352343   0.0129845532261068
0.576916591851394   0.05398012191352343   0.0129845532261068
0.576916591851394   0.05398012191352343   0.0129845532261068
0.576916591851394   0.05398012191352343   0.0129845532261068
0.40196135617844797   0.005421053811900639   -0.011896288680488767
0.40196135617844797   0.005421053811900639   -0.011896288680488767
0.40196135617844797   0.005421053811900639   -0.011896288680488767
0.40196135617844797   0.005421053811900639   -0.011896288680488767
0.5612679634061749   0.01498207939484203   -0.026260546481307642
0.5612679634061749   0.01498207939484203   -0.026260546481307642
0.5612679634061749   0.01498207939484203   -0.026260546481307642
0.5612679634061749   0.01498207939484203   -0.026260546481307642
0.2644680789578202   -0.008782506221874826   0.011619925442689343
0.2644680789578202   -0.008782506221874826   0.011619925442689343
0.2644680789578202   -0.008782506221874826   0.011619925442689343
0.2644680789578202   -0.008782506221874826   0.011619925442689343
0.23476244103650112   -0.052085471127135415   -0.022545645904271085
0.23476244103650112   -0.052085471127135415   -0.022545645904271085
0.23476244103650112   -0.052085471127135415   -0.022545645904271085
0.23476244103650112   -0.052085471127135415   -0.022545645904271085
0.5545796616819346   0.04737792055066754   0.01712781816610338
0.5545796616819346   0.04737792055066754   0.01712781816610338
0.5545796616819346   0.04737792055066754   0.01712781816610338
0.5545796616819346   0.04737792055066754   0.01712781816610338
0.3892280842513855   -0.002606286901033261   -0.016598175736111977
0.3892280842513855   -0.002606286901033261   -0.016598175736111977
0.3892280842513855   -0.002606286901033261   -0.016598175736111977
0.3892280842513855   -0.002606286901033261   -0.016598175736111977
0.5392864487839849   0.009113662040522677   -0.021073987813495048
0.5392864487839849   0.009113662040522677   -0.021073987813495048
0.5392864487839849   0.009113662040522677   -0.021073987813495048
0.5392864487839849   0.009113662040522677   -0.021073987813495048
0.24966264852927647   -0.01421421802215931   0.014084138454627203
0.24966264852927647   -0.01421421802215931   0.014084138454627203
0.24966264852927647   -0.01421421802215931   0.014084138454627203
0.24966264852927647   -0.01421421802215931   0.014084138454627203
0.22183540410686234   -0.054817198415097135   -0.01878171313920975
0.22183540410686234   -0.054817198415097135   -0.01878171313920975
0.22183540410686234   -0.054817198415097135   -0.01878171313920975
0.22183540410686234   -0.054817198415097135   -0.01878171313920975
0.52937554481048   0.040308438651198944   0.02038963546386245
0.52937554481048   0.040308438651198944   0.02038963546386245
0.52937554481048   0.040308438651198944   0.02038963546386245
0.52937554481048   0.040308438651198944   0.02038963546386245
0.3636799076785719   -0.0086340925501016   -0.02362078190980412
0.3636799076785719   -0.0086340925501016   -0.02362078190980412
0.3636799076785719   -0.0086340925501016   -0.02362078190980412
0.3636799076785719   -0.0086340925501016   -0.02362078190980412
0.2847413880221281   0.041412503470992366   -0.0015026472652615707
0.2847413880221281   0.041412503470992366   -0.0015026472652615707
0.2847413880221281   0.041412503470992366   -0.0015026472652615707
0.2847413880221281   0.041412503470992366   -0.0015026472652615707
-0.019002056269524937   -0.004306338394832395   -0.000251348001056372
-0.019002056269524937   -0.004306338394832395   -0.000251348001056372
-0.019002056269524937   -0.004306338394832395   -0.000251348001056372
-0.019002056269524937   -0.004306338394832395   -0.000251348001056372
-0.040688807634435394   -0.035649907994585915   -0.01684319597891958
-0.040688807634435394   -0.035649907994585915   -0.01684319597891958
-0.040688807634435394   -0.035649907994585915   -0.01684319597891958
-0.040688807634435394   -0.035649907994585915   -0.01684319597891958
0.277480311172897   0.04911872461269802   0.018779855683500324
0.277480311172897   0.04911872461269802   0.018779855683500324
0.277480311172897   0.04911872461269802   0.018779855683500324
0.277480311172897   0.04911872461269802   0.018779855683500324
0.12369121275469565   0.012071562788179665   0.0009099055752880775
0.12369121275469565   0.012071562788179665   0.0009099055752880775
0.12369121275469565   0.012071562788179665   0.0009099055752880775
0.12369121275469565   0.012071562788179665   0.0009099055752880775
0.27010495369348936   0.030068201705507887   0.0009535911936554156
0.27010495369348936   0.030068201705507887   0.0009535911936554156
0.27010495369348936   0.030068201705507887   0.0009535911936554156
0.27010495369348936   0.030068201705507887   0.0009535911936554156
-0.033189152063794136   -0.016475086996166757   0.0014802608758675462
-0.033189152063794136   -0.016475086996166757   0.0014802608758675462
-0.033189152063794136   -0.016475086996166757   0.0014802608758675462
-0.033189152063794136   -0.016475086996166757   0.0014802608758675462
-0.05421329934991266   -0.04435731511473712   -0.01395110585172034
-0.05421329934991266   -0.04435731511473712   -0.01395110585172034
-0.05421329934991266   -0.04435731511473712   -0.01395110585172034
-0.05421329934991266   -0.04435731511473712   -0.01395110585172034
0.2615298639692747   0.03868101161925318   0.020524986013205845
0.2615298639692747   0.03868101161925318   0.020524986013205845
0.2615298639692747   0.03868101161925318   0.020524986013205845
0.2615298639692747   0.03868101161925318   0.020524986013205845
0.10698704364274711   0.001738099041200973   -0.004273884432272525
0.10698704364274711   0.001738099041200973   -0.004273884432272525
0.10698704364274711   0.001738099041200973   -0.004273884432272525
0.10698704364274711   0.001738099041200973   -0.004273884432272525
0.2544013526164323   0.020723770518771542   0.0028396703494779803
0.2544013526164323   0.020723770518771542   0.0028396703494779803
0.2544013526164323   0.020723770518771542   0.0028396703494779803
0.2544013526164323   0.020723770518771542   0.0028396703494779803
-0.047192616610055325   -0.026507902627240128   0.0033028953600693746
-0.047192616610055325   -0.026507902627240128   0.0033028953600693746
-0.047192616610055325   -0.026507902627240128   0.0033028953600693746
-0.047192616610055325   -0.026507902627240128   0.0033028953600693746
-0.06755568914973568   -0.05162993218212196   -0.011234738088628569
-0.06755568914973568   -0.05162993218212196   -0.011234738088628569
-0.06755568914973568   -0.05162993218212196   -0.011234738088628569
-0.06755568914973568   -0.05162993218212196   -0.011234738088628569
0.24680249115433628   0.02906797758249204   0.02216854610056944
0.24680249115433628   0.02906797758249204   0.02216854610056944
0.24680249115433628   0.02906797758249204   0.02216854610056944
0.24680249115433628   0.02906797758249204   0.02216854610056944
0.09423126087496374   -0.006044366610434036   -0.00857562561952831
0.09423126087496374   -0.006044366610434036   -0.00857562561952831
0.09423126087496374   -0.006044366610434036   -0.00857562561952831
0.09423126087496374   -0.006044366610434036   -0.00857562561952831
-0.0068998134692067736   0.04909078596054894   0.006862741645153117
-0.0068998134692067736   0.04909078596054894   0.006862741645153117
-0.0068998134692067736   0.04909078596054894   0.006862741645153117
-0.0068998134692067736   0.04909078596054894   0.006862741645153117
-0.3115708200582489   -0.013772459620195777   -0.010331114538203652
-0.3115708200582489   -0.013772459620195777   -0.010331114538203652
-0.3115708200582489   -0.013772459620195777   -0.010331114538203652
-0.3115708200582489   -0.013772459620195777   -0.010331114538203652
-0.32554299550088855   -0.0249986556107952   -0.008088389607922533
-0.32554299550088855   -0.0249986556107952   -0.008088389607922533
-0.32554299550088855   -0.0249986556107952   -0.008088389607922533
-0.32554299550088855   -0.0249986556107952   -0.008088389607922533
-0.02061404170798322   0.03966100255711396   0.008219723101641433
-0.02061404170798322   0.03966100255711396   0.008219723101641433
-0.02061404170798322   0.03966100255711396   0.008219723101641433
-0.02061404170798322   0.03966100255711396   0.008219723101641433
-0.16576143267243718   0.012566921030563623   0.0032462636733927488
-0.16576143267243718   0.012566921030563623   0.0032462636733927488
-0.16576143267243718   0.012566921030563623   0.0032462636733927488
-0.16576143267243718   0.012566921030563623   0.0032462636733927488
-0.020352808029654   0.03957869884593554   0.009608195204465923
-0.020352808029654   0.03957869884593554   0.009608195204465923
-0.020352808029654   0.03957869884593554   0.009608195204465923
-0.020352808029654   0.03957869884593554   0.009608195204465923
-0.3255453171585144   -0.024657439878908304   -0.00844121362793866
-0.3255453171585144   -0.024657439878908304   -0.00844121362793866
-0.3255453171585144   -0.024657439878908304   -0.00844121362793866
-0.3255453171585144   -0.024657439878908304   -0.00844121362793866
-0.33939754173286113   -0.034420866729419304   -0.005570314381211397
-0.33939754173286113   -0.034420866729419304   -0.005570314381211397
-0.33939754173286113   -0.034420866729419304   -0.005570314381211397
-0.33939754173286113   -0.034420866729419304   -0.005570314381211397
-0.034718191360571186   0.028914707137088644   0.010252411843163218
-0.034718191360571186   0.028914707137088644   0.010252411843163218
-0.034718191360571186   0.028914707137088644   0.010252411843163218
-0.034718191360571186   0.028914707137088644   0.010252411843163218
-0.17975881746096123   0.003250214769322024   -0.0009505128992972865
-0.17975881746096123   0.003250214769322024   -0.0009505128992972865
-0.17975881746096123   0.003250214769322024   -0.0009505128992972865
-0.17975881746096123   0.003250214769322024   -0.0009505128992972865
-0.03417538054315229   0.03009488583186168   0.011786287235484647
-0.03417538054315229   0.03009488583186168   0.011786287235484647
-0.03417538054315229   0.03009488583186168   0.011786287235484647
-0.03417538054315229   0.03009488583186168   0.011786287235484647
-0.3398682866934308   -0.03552897956734305   -0.006815926346135696
-0.3398682866934308   -0.03552897956734305   -0.006815926346135696
-0.3398682866934308   -0.03552897956734305   -0.006815926346135696
-0.3398682866934308   -0.03552897956734305   -0.006815926346135696
-0.3530825187312942   -0.04302470360442145   -0.0030741352495828062
-0.3530825187312942   -0.04302470360442145   -0.0030741352495828062
-0.3530825187312942   -0.04302470360442145   -0.0030741352495828062
-0.3530825187312942   -0.04302470360442145   -0.0030741352495828062
-0.048884385997774754   0.018521436234233864   0.011970409254820288
-0.048884385997774754   0.018521436234233864   0.011970409254820288
-0.048884385997774754   0.018521436234233864   0.011970409254820288
-0.048884385997774754   0.018521436234233864   0.011970409254820288
-0.19440220014011947   -0.006142151942633393   -0.005627944235191215
-0.19440220014011947   -0.006142151942633393   -0.005627944235191215
-0.19440220014011947   -0.006142151942633393   -0.005627944235191215
-0.19440220014011947   -0.006142151942633393   -0.005627944235191215
-0.2925655147470757   0.05618009561038634   0.014742856787076344
-0.2925655147470757   0.05618009561038634   0.014742856787076344
-0.2925655147470757   0.05618009561038634   0.014742856787076344
-0.2925655147470757   0.05618009561038634   0.014742856787076344
-0.5977420154129125   -0.023463055851048964   -0.018565882007765835
-0.5977420154129125   -0.023463055851048964   -0.018565882007765835
-0.5977420154129125   -0.023463055851048964   -0.018565882007765835
-0.5977420154129125   -0.023463055851048964   -0.018565882007765835
-0.6053650319999685   -0.016039939624073976   0.0014464672771574878
-0.6053650319999685   -0.016039939624073976   0.0014464672771574878
-0.6053650319999685   -0.016039939624073976   0.0014464672771574878
-0.6053650319999685   -0.016039939624073976   0.0014464672771574878
-0.3136792969946351   0.02852480442832943   -0.0022933571157758535
-0.3136792969946351   0.02852480442832943   -0.0022933571157758535
-0.3136792969946351   0.02852480442832943   -0.0022933571157758535
-0.3136792969946351   0.02852480442832943   -0.0022933571157758535
-0.44938471397286067   0.01185633828385338   0.005495596883440111
-0.44938471397286067   0.01185633828385338   0.005495596883440111
-0.44938471397286067   0.01185633828385338   0.005495596883440111
-0.44938471397286067   0.01185633828385338   0.005495596883440111
-0.3060458903324592   0.04701190948223004   0.017386571141198855
-0.3060458903324592   0.04701190948223004   0.017386571141198855
-0.3060458903324592   0.04701190948223004   0.017386571141198855
-0.3060458903324592   0.04701190948223004   0.017386571141198855
-0.6129352246030302   -0.034463830618866056   -0.01798060474335828
-0.6129352246030302   -0.034463830618866056   -0.01798060474335828
-0.6129352246030302   -0.034463830618866056   -0.01798060474335828
-0.6129352246030302   -0.034463830618866056   -0.01798060474335828
-0.6215026840831516   -0.025567992164681294   0.0023751083831808524
-0.6215026840831516   -0.025567992164681294   0.0023751083831808524
-0.6215026840831516   -0.025567992164681294   0.0023751083831808524
-0.6215026840831516   -0.025567992164681294   0.0023751083831808524
-0.3277319284525804   0.018569944334789243   -0.0002330590440121523
-0.3277319284525804   0.018569944334789243   -0.0002330590440121523
-0.3277319284525804   0.018569944334789243   -0.0002330590440121523
-0.3277319284525804   0.018569944334789243   -0.0002330590440121523
-0.4611708636333062   0.0035741221107492005   0.0015957090231374371
-0.4611708636333062   0.0035741221107492005   0.0015957090231374371
-0.4611708636333062   0.0035741221107492005   0.0015957090231374371
-0.4611708636333062   0.0035741221107492005   0.0015957090231374371
-0.31977566384724293   0.038271693224458794   0.019846515093003492
-0.31977566384724293   0.038271693224458794   0.019846515093003492
-0.31977566384724293   0.038271693224458794   0.019846515093003492
-0.31977566384724293   0.038271693224458794   0.019846515093003492
-0.6290525476621822   -0.044863340028049495   -0.016078861648604077
-0.6290525476621822   -0.044863340028049495   -0.016078861648604077
-0.6290525476621822   -0.044863340028049495   -0.016078861648604077
-0.6290525476621822   -0.044863340028049495   -0.016078861648604077
-0.6361256258145982   -0.0358447627902876   0.005366625138716195
-0.6361256258145982   -0.0358447627902876   0.005366625138716195
-0.6361256258145982   -0.0358447627902876   0.005366625138716195
-0.6361256258145982   -0.0358447627902876   0.005366625138716195
-0.34218063452791714   0.00715265180204093   0.0012579303608440152
-0.34218063452791714   0.00715265180204093   0.0012579303608440152
-0.34218063452791714   0.00715265180204093   0.0012579303608440152
-0.34218063452791714   0.00715265180204093   0.0012579303608440152
-0.4792571368139424   -0.006873341019467238   -0.003379516391678647
-0.4792571368139424   -0.006873341019467238   -0.003379516391678647
-0.4792571368139424   -0.006873341019467238   -0.003379516391678647
-0.4792571368139424   -0.006873341019467238   -0.003379516391678647
-0.5751016124146479   0.0503882816778935   0.02078479545461471
-0.5751016124146479   0.0503882816778935   0.02078479545461471
-0.5751016124146479   0.0503882816778935   0.02078479545461471
-0.5751016124146479   0.0503882816778935   0.02078479545461471
-0.8704811910256568   -0.04024193484261129   -0.02029219202598232
-0.8704811910256568   -0.04024193484261129   -0.02029219202598232
-0.8704811910256568   -0.04024193484261129   -0.02029219202598232
-0.8704811910256568   -0.04024193484261129   -0.02029219202598232
-0.8799637265225658   -0.009089310243361987   0.019118809060581853
-0.8799637265225658   -0.009089310243361987   0.019118809060581853
-0.8799637265225658   -0.009089310243361987   0.019118809060581853
-0.8799637265225658   -0.009089310243361987   0.019118809060581853
-0.6018825313384648   0.014600337486057463   -0.011781306525454803
-0.6018825313384648   0.014600337486057463   -0.011781306525454803
-0.6018825313384648   0.014600337486057463   -0.011781306525454803
-0.6018825313384648   0.014600337486057463   -0.011781306525454803
-0.6994416493353405   0.011210300067148155   0.017216208224446673
-0.6994416493353405   0.011210300067148155   0.017216208224446673
-0.6994416493353405   0.011210300067148155   0.017216208224446673
-0.6994416493353405   0.011210300067148155   0.017216208224446673
-0.5874767870112647   0.050461555305090555   0.024386197291512597
-0.5874767870112647   0.050461555305090555   0.024386197291512597
-0.5874767870112647   0.050461555305090555   0.024386197291512597
-0.5874767870112647   0.050461555305090555   0.024386197291512597
-0.8941338317993918   -0.044714889012014425   -0.016106138554887232
-0.8941338317993918   -0.044714889012014425   -0.016106138554887232
-0.8941338317993918   -0.044714889012014425   -0.016106138554887232
-0.8941338317993918   -0.044714889012014425   -0.016106138554887232
-0.901107518339687   -0.014122634160933678   0.02390544451043191
-0.901107518339687   -0.014122634160933678   0.02390544451043191
-0.901107518339687   -0.014122634160933678   0.02390544451043191
-0.901107518339687   -0.014122634160933678   0.02390544451043191
-0.6170517086782081   0.009144273898197719   -0.010082280654981117
-0.6170517086782081   0.009144273898197719   -0.010082280654981117
-0.6170517086782081   0.009144273898197719   -0.010082280654981117
-0.6170517086782081   0.009144273898197719   -0.010082280654981117
-0.7291668375328655   0.005607688638253144   0.010574798589836225
-0.7291668375328655   0.005607688638253144   0.010574798589836225
-0.7291668375328655   0.005607688638253144   0.010574798589836225
-0.7291668375328655   0.005607688638253144   0.010574798589836225
-0.6017716516229987   0.0467132549868087   0.028749023532455363
-0.6017716516229987   0.0467132549868087   0.028749023532455363
-0.6017716516229987   0.0467132549868087   0.028749023532455363
-0.6017716516229987   0.0467132549868087   0.028749023532455363
-0.9159904760095255   -0.051294515864172385   -0.013337462135514101
-0.9159904760095255   -0.051294515864172385   -0.013337462135514101
-0.9159904760095255   -0.051294515864172385   -0.013337462135514101
-0.9159904760095255   -0.051294515864172385   -0.013337462135514101
-0.9290185418374625   -0.0321559493305435   0.023425087111403606
-0.9290185418374625   -0.0321559493305435   0.023425087111403606
-0.9290185418374625   -0.0321559493305435   0.023425087111403606
-0.9290185418374625   -0.0321559493305435   0.023425087111403606
-0.6330878442961934   -0.006146647574792191   -0.009142582484754844
-0.6330878442961934   -0.006146647574792191   -0.009142582484754844
-0.6330878442961934   -0.006146647574792191   -0.009142582484754844
-0.6330878442961934   -0.006146647574792191   -0.009142582484754844
-0.7365828544725023   -0.0014083274954119485   0.00840317086884669
-0.7365828544725023   -0.0014083274954119485   0.00840317086884669
-0.7365828544725023   -0.0014083274954119485   0.00840317086884669
-0.7365828544725023   -0.0014083274954119485   0.00840317086884669
0.40733442097188033   0.02321412089508805   -0.027085081153482637
0.40733442097188033   0.02321412089508805   -0.027085081153482637
0.40733442097188033   0.02321412089508805   -0.027085081153482637
0.40733442097188033   0.02321412089508805   -0.027085081153482637
0.17396798060794824   0.010742986184746634   0.011547706383745329
0.17396798060794824   0.010742986184746634   0.011547706383745329
0.17396798060794824   0.010742986184746634   0.011547706383745329
0.17396798060794824   0.010742986184746634   0.011547706383745329
0.1461094357922072   -0.03983524250684453   -0.025285112816546145
0.1461094357922072   -0.03983524250684453   -0.025285112816546145
0.1461094357922072   -0.03983524250684453   -0.025285112816546145
0.1461094357922072   -0.03983524250684453   -0.025285112816546145
0.39798890225633154   0.046017415981850336   0.014039435832042662
0.39798890225633154   0.046017415981850336   0.014039435832042662
0.39798890225633154   0.046017415981850336   0.014039435832042662
0.39798890225633154   0.046017415981850336   0.014039435832042662
0.2664588332564257   0.005887654768826196   -0.007273119937510614
0.2664588332564257   0.005887654768826196   -0.007273119937510614
0.2664588332564257   0.005887654768826196   -0.007273119937510614
0.2664588332564257   0.005887654768826196   -0.007273119937510614
0.38240175616439465   0.007420390334786017   -0.025299268980580904
0.38240175616439465   0.007420390334786017   -0.025299268980580904
0.38240175616439465   0.007420390334786017   -0.025299268980580904
0.38240175616439465   0.007420390334786017   -0.025299268980580904
0.16140310606246858   -0.0015316926814558512   0.012879688709374683
0.16140310606246858   -0.0015316926814558512   0.012879688709374683
0.16140310606246858   -0.0015316926814558512   0.012879688709374683
0.16140310606246858   -0.0015316926814558512   0.012879688709374683
0.13426412253845005   -0.04442044149022081   -0.021548452894853885
0.13426412253845005   -0.04442044149022081   -0.021548452894853885
0.13426412253845005   -0.04442044149022081   -0.021548452894853885
0.13426412253845005   -0.04442044149022081   -0.021548452894853885
0.3784866117927093   0.03950697529137318   0.01813862205772076
0.3784866117927093   0.03950697529137318   0.01813862205772076
0.3784866117927093   0.03950697529137318   0.01813862205772076
0.3784866117927093   0.03950697529137318   0.01813862205772076
0.2543074705660747   -0.0016993014977435272   -0.011749040207911008
0.2543074705660747   -0.0016993014977435272   -0.011749040207911008
0.2543074705660747   -0.0016993014977435272   -0.011749040207911008
0.2543074705660747   -0.0016993014977435272   -0.011749040207911008
0.3631442312900419   0.0015433415051826493   -0.020609646669428428
0.3631442312900419   0.0015433415051826493   -0.020609646669428428
0.3631442312900419   0.0015433415051826493   -0.020609646669428428
0.3631442312900419   0.0015433415051826493   -0.020609646669428428
0.1491687551250231   -0.006894555620124802   0.015448824167917064
0.1491687551250231   -0.006894555620124802   0.015448824167917064
0.1491687551250231   -0.006894555620124802   0.015448824167917064
0.1491687551250231   -0.006894555620124802   0.015448824167917064
0.1236892373353767   -0.04850030205472749   -0.01796776059066639
0.1236892373353767   -0.04850030205472749   -0.01796776059066639
0.1236892373353767   -0.04850030205472749   -0.01796776059066639
0.1236892373353767   -0.04850030205472749   -0.01796776059066639
0.35569629644337264   0.031006675958255882   0.020738196150896837
0.35569629644337264   0.031006675958255882   0.020738196150896837
0.35569629644337264   0.031006675958255882   0.020738196150896837
0.35569629644337264   0.031006675958255882   0.020738196150896837
0.2334720735041711   -0.007891007629115744   -0.017942407095536416
0.2334720735041711   -0.007891007629115744   -0.017942407095536416
0.2334720735041711   -0.007891007629115744   -0.017942407095536416
0.2334720735041711   -0.007891007629115744   -0.017942407095536416
0.17528993315629635   0.03365201679382423   -0.004751561483594555
0.17528993315629635   0.03365201679382423   -0.004751561483594555
0.17528993315629635   0.03365201679382423   -0.004751561483594555
0.17528993315629635   0.03365201679382423   -0.004751561483594555
-0.053357213512449306   0.0026727499137867983   0.0014868708542617338
-0.053357213512449306   0.0026727499137867983   0.0014868708542617338
-0.053357213512449306   0.0026727499137867983   0.0014868708542617338
-0.053357213512449306   0.0026727499137867983   0.0014868708542617338
-0.07240407468660622   -0.02773772968437903   -0.015618029942381761
-0.07240407468660622   -0.02773772968437903   -0.015618029942381761
-0.07240407468660622   -0.02773772968437903   -0.015618029942381761
-0.07240407468660622   -0.02773772968437903   -0.015618029942381761
0.17057607571828778   0.040410096781792665   0.01680274752522245
0.17057607571828778   0.040410096781792665   0.01680274752522245
0.17057607571828778   0.040410096781792665   0.01680274752522245
0.17057607571828778   0.040410096781792665   0.01680274752522245
0.05382349014939066   0.011649855042866539   0.002075892269860232
0.05382349014939066   0.011649855042866539   0.002075892269860232
0.05382349014939066   0.011649855042866539   0.002075892269860232
0.05382349014939066   0.011649855042866539   0.002075892269860232
0.16302320265679424   0.021967522977238786   -0.002519043977693126
0.16302320265679424   0.021967522977238786   -0.002519043977693126
0.16302320265679424   0.021967522977238786   -0.002519043977693126
0.16302320265679424   0.021967522977238786   -0.002519043977693126
-0.06496692743977511   -0.009410881694487564   0.0032408583018842104
-0.06496692743977511   -0.009410881694487564   0.0032408583018842104
-0.06496692743977511   -0.009410881694487564   0.0032408583018842104
-0.06496692743977511   -0.009410881694487564   0.0032408583018842104
-0.08341642005011342   -0.036945080678852306   -0.01265919145793342
-0.08341642005011342   -0.036945080678852306   -0.01265919145793342
-0.08341642005011342   -0.036945080678852306   -0.01265919145793342
-0.08341642005011342   -0.036945080678852306   -0.01265919145793342
0.15706289605585694   0.02975582329801487   0.0182691499039465
0.15706289605585694   0.02975582329801487   0.0182691499039465
0.15706289605585694   0.02975582329801487   0.0182691499039465
0.15706289605585694   0.02975582329801487   0.0182691499039465
0.04021434042854562   0.0011968788412448942   -0.0029448393810253687
0.04021434042854562   0.0011968788412448942   -0.0029448393810253687
0.04021434042854562   0.0011968788412448942   -0.0029448393810253687
0.04021434042854562   0.0011968788412448942   -0.0029448393810253687
0.14974891656606154   0.012092366738804771   -0.0006372909858229732
0.14974891656606154   0.012092366738804771   -0.0006372909858229732
0.14974891656606154   0.012092366738804771   -0.0006372909858229732
0.14974891656606154   0.012092366738804771   -0.0006372909858229732
-0.07639047862919804   -0.019569662188522643   0.005095097156313854
-0.07639047862919804   -0.019569662188522643   0.005095097156313854
-0.07639047862919804   -0.019569662188522643   0.005095097156313854
-0.07639047862919804   -0.019569662188522643   0.005095097156313854
-0.09427850757345622   -0.04556715817147174   -0.009926133941456933
-0.09427850757345622   -0.04556715817147174   -0.009926133941456933
-0.09427850757345622   -0.04556715817147174   -0.009926133941456933
-0.09427850757345622   -0.04556715817147174   -0.009926133941456933
0.14486878109080437   0.019551596372207616   0.019878059759539806
0.14486878109080437   0.019551596372207616   0.019878059759539806
0.14486878109080437   0.019551596372207616   0.019878059759539806
0.14486878109080437   0.019551596372207616   0.019878059759539806
0.02933193777073158   -0.007436371712524222   -0.007366438547327152
0.02933193777073158   -0.007436371712524222   -0.007366438547327152
0.02933193777073158   -0.007436371712524222   -0.007366438547327152
0.02933193777073158   -0.007436371712524222   -0.007366438547327152
-0.04492730345370173   0.04240358401725972   0.0039055870445266917
-0.04492730345370173   0.04240358401725972   0.0039055870445266917
-0.04492730345370173   0.04240358401725972   0.0039055870445266917
-0.04492730345370173   0.04240358401725972   0.0039055870445266917
-0.2772673815360832   -0.00724066158856828   -0.008456483379144867
-0.2772673815360832   -0.00724066158856828   -0.008456483379144867
-0.2772673815360832   -0.00724066158856828   -0.008456483379144867
-0.2772673815360832   -0.00724066158856828   -0.008456483379144867
-0.28814979953534375   -0.01673810138604489   -0.006240038786792258
-0.28814979953534375   -0.01673810138604489   -0.006240038786792258
-0.28814979953534375   -0.01673810138604489   -0.006240038786792258
-0.28814979953534375   -0.01673810138604489   -0.006240038786792258
-0.05626660877093738   0.030800940109814004   0.006530629841769369
-0.05626660877093738   0.030800940109814004   0.006530629841769369
-0.05626660877093738   0.030800940109814004   0.006530629841769369
-0.05626660877093738   0.030800940109814004   0.006530629841769369
-0.16624318277777264   0.012104178452610033   0.003307798476000023
-0.16624318277777264   0.012104178452610033   0.003307798476000023
-0.16624318277777264   0.012104178452610033   0.003307798476000023
-0.16624318277777264   0.012104178452610033   0.003307798476000023
-0.05593853224410393   0.03228879195559304   0.006683160630157546
-0.05593853224410393   0.03228879195559304   0.006683160630157546
-0.05593853224410393   0.03228879195559304   0.006683160630157546
-0.05593853224410393   0.03228879195559304   0.006683160630157546
-0.2885138474825611   -0.018261924652205233   -0.006536455256718449
-0.2885138474825611   -0.018261924652205233   -0.006536455256718449
-0.2885138474825611   -0.018261924652205233   -0.006536455256718449
-0.2885138474825611   -0.018261924652205233   -0.006536455256718449
-0.29927897184166813   -0.026770023589084257   -0.003610461306604397
-0.29927897184166813   -0.026770023589084257   -0.003610461306604397
-0.29927897184166813   -0.026770023589084257   -0.003610461306604397
-0.29927897184166813   -0.026770023589084257   -0.003610461306604397
-0.06782433457540585   0.019837168352580467   0.00851898688417167
-0.06782433457540585   0.019837168352580467   0.00851898688417167
-0.06782433457540585   0.019837168352580467   0.00851898688417167
-0.06782433457540585   0.019837168352580467   0.00851898688417167
-0.17768375798253794   0.0023228250827955765   -0.0010013357956086075
-0.17768375798253794   0.0023228250827955765   -0.0010013357956086075
-0.17768375798253794   0.0023228250827955765   -0.0010013357956086075
-0.17768375798253794   0.0023228250827955765   -0.0010013357956086075
-0.06725872228970178   0.02216080159640365   0.009023415068868841
-0.06725872228970178   0.02216080159640365   0.009023415068868841
-0.06725872228970178   0.02216080159640365   0.009023415068868841
-0.06725872228970178   0.02216080159640365   0.009023415068868841
-0.30002939027476805   -0.029278462980305855   -0.004854114080882415
-0.30002939027476805   -0.029278462980305855   -0.004854114080882415
-0.30002939027476805   -0.029278462980305855   -0.004854114080882415
-0.30002939027476805   -0.029278462980305855   -0.004854114080882415
-0.31021455348498517   -0.03634849570038315   -0.001049082931054406
-0.31021455348498517   -0.03634849570038315   -0.001049082931054406
-0.31021455348498517   -0.03634849570038315   -0.001049082931054406
-0.31021455348498517   -0.03634849570038315   -0.001049082931054406
-0.0792894100489292   0.00918579349969386   0.010266402010010733
-0.0792894100489292   0.00918579349969386   0.010266402010010733
-0.0792894100489292   0.00918579349969386   0.010266402010010733
-0.0792894100489292   0.00918579349969386   0.010266402010010733
-0.1896009844587264   -0.007467219716927875   -0.00567544111610189
-0.1896009844587264   -0.007467219716927875   -0.00567544111610189
-0.1896009844587264   -0.007467219716927875   -0.00567544111610189
-0.1896009844587264   -0.007467219716927875   -0.00567544111610189
-0.2616599292054418   0.04994546760758098   0.012394649077913121
-0.2616599292054418   0.04994546760758098   0.012394649077913121
-0.2616599292054418   0.04994546760758098   0.012394649077913121
-0.2616599292054418   0.04994546760758098   0.012394649077913121
-0.497443406260186   -0.017130658756162376   -0.01713849077191946
-0.497443406260186   -0.017130658756162376   -0.01713849077191946
-0.497443406260186   -0.017130658756162376   -0.01713849077191946
-0.497443406260186   -0.017130658756162376   -0.01713849077191946
-0.501516278618581   -0.007822442884419231   0.003807387944426626
-0.501516278618581   -0.007822442884419231   0.003807387944426626
-0.501516278618581   -0.007822442884419231   0.003807387944426626
-0.501516278618581   -0.007822442884419231   0.003807387944426626
-0.2802519967156602   0.02009679001910146   -0.003585916093526504
-0.2802519967156602   0.02009679001910146   -0.003585916093526504
-0.2802519967156602   0.02009679001910146   -0.003585916093526504
-0.2802519967156602   0.02009679001910146   -0.003585916093526504
-0.38291210894782135   0.01137582315824713   0.004787651821311901
-0.38291210894782135   0.01137582315824713   0.004787651821311901
-0.38291210894782135   0.01137582315824713   0.004787651821311901
-0.38291210894782135   0.01137582315824713   0.004787651821311901
-0.2724716702703188   0.04025625202233784   0.015156254129949889
-0.2724716702703188   0.04025625202233784   0.015156254129949889
-0.2724716702703188   0.04025625202233784   0.015156254129949889
-0.2724716702703188   0.04025625202233784   0.015156254129949889
-0.5096442467063578   -0.028329546530088276   -0.016325348848792855
-0.5096442467063578   -0.028329546530088276   -0.016325348848792855
-0.5096442467063578   -0.028329546530088276   -0.016325348848792855
-0.5096442467063578   -0.028329546530088276   -0.016325348848792855
-0.5146442357549362   -0.017762326548825785   0.005017893840268569
-0.5146442357549362   -0.017762326548825785   0.005017893840268569
-0.5146442357549362   -0.017762326548825785   0.005017893840268569
-0.5146442357549362   -0.017762326548825785   0.005017893840268569
-0.2915021449105656   0.00998781630974871   -0.0014841665499287504
-0.2915021449105656   0.00998781630974871   -0.0014841665499287504
-0.2915021449105656   0.00998781630974871   -0.0014841665499287504
-0.2915021449105656   0.00998781630974871   -0.0014841665499287504
-0.39250663040733585   0.0025273862533857216   0.0004733051920519822
-0.39250663040733585   0.0025273862533857216   0.0004733051920519822
-0.39250663040733585   0.0025273862533857216   0.0004733051920519822
-0.39250663040733585   0.0025273862533857216   0.0004733051920519822
-0.28344028630833185   0.03103122760553329   0.01778171516545955
-0.28344028630833185   0.03103122760553329   0.01778171516545955
-0.28344028630833185   0.03103122760553329   0.01778171516545955
-0.28344028630833185   0.03103122760553329   0.01778171516545955
-0.5227405270864697   -0.03884017057390808   -0.014385718792323976
-0.5227405270864697   -0.03884017057390808   -0.014385718792323976
-0.5227405270864697   -0.03884017057390808   -0.014385718792323976
-0.5227405270864697   -0.03884017057390808   -0.014385718792323976
-0.5263183208453652   -0.028373272072441294   0.00776599730588096
-0.5263183208453652   -0.028373272072441294   0.00776599730588096
-0.5263183208453652   -0.028373272072441294   0.00776599730588096
-0.5263183208453652   -0.028373272072441294   0.00776599730588096
-0.3029519043171146   -0.00125117374899969   0.0001668409569093171
-0.3029519043171146   -0.00125117374899969   0.0001668409569093171
-0.3029519043171146   -0.00125117374899969   0.0001668409569093171
-0.3029519043171146   -0.00125117374899969   0.0001668409569093171
-0.40701211947539995   -0.007791929804466857   -0.004553634745873631
-0.40701211947539995   -0.007791929804466857   -0.004553634745873631
-0.40701211947539995   -0.007791929804466857   -0.004553634745873631
-0.40701211947539995   -0.007791929804466857   -0.004553634745873631
-0.47743623094598214   0.046315700822589706   0.01945102622034798
-0.47743623094598214   0.046315700822589706   0.01945102622034798
-0.47743623094598214   0.046315700822589706   0.01945102622034798
-0.47743623094598214   0.046315700822589706   0.01945102622034798
-0.7051325226706192   -0.032563570957329285   -0.02209082192035007
-0.7051325226706192   -0.032563570957329285   -0.02209082192035007
-0.7051325226706192   -0.032563570957329285   -0.02209082192035007
-0.7051325226706192   -0.032563570957329285   -0.02209082192035007
-0.7117990537116116   -0.00117518875251163   0.019257584654846484
-0.7117990537116116   -0.00117518875251163   0.019257584654846484
-0.7117990537116116   -0.00117518875251163   0.019257584654846484
-0.7117990537116116   -0.00117518875251163   0.019257584654846484
-0.5019432495305486   0.007052015145767476   -0.013201924645606
-0.5019432495305486   0.007052015145767476   -0.013201924645606
-0.5019432495305486   0.007052015145767476   -0.013201924645606
-0.5019432495305486   0.007052015145767476   -0.013201924645606
-0.5726787923601202   0.010624738084290375   0.014577070243723317
-0.5726787923601202   0.010624738084290375   0.014577070243723317
-0.5726787923601202   0.010624738084290375   0.014577070243723317
-0.5726787923601202   0.010624738084290375   0.014577070243723317
-0.48722798865624   0.04447732191827912   0.022949072953428788
-0.48722798865624   0.04447732191827912   0.022949072953428788
-0.48722798865624   0.04447732191827912   0.022949072953428788
-0.48722798865624   0.04447732191827912   0.022949072953428788
-0.7268136256995387   -0.038899806638639914   -0.018090657398652923
-0.7268136256995387   -0.038899806638639914   -0.018090657398652923
-0.7268136256995387   -0.038899806638639914   -0.018090657398652923
-0.7268136256995387   -0.038899806638639914   -0.018090657398652923
-0.7303717367448335   -0.006651483262964275   0.02425896160583426
-0.7303717367448335   -0.006651483262964275   0.02425896160583426
-0.7303717367448335   -0.006651483262964275   0.02425896160583426
-0.7303717367448335   -0.006651483262964275   0.02425896160583426
-0.5140406191081782   0.0015103037903003436   -0.011236653265079215
-0.5140406191081782   0.0015103037903003436   -0.011236653265079215
-0.5140406191081782   0.0015103037903003436   -0.011236653265079215
-0.5140406191081782   0.0015103037903003436   -0.011236653265079215
-0.5978722016474984   0.0043440849732194475   0.00774349775952439
-0.5978722016474984   0.0043440849732194475   0.00774349775952439
-0.5978722016474984   0.0043440849732194475   0.00774349775952439
-0.5978722016474984   0.0043440849732194475   0.00774349775952439
-0.49864055811072816   0.040248126037655485   0.027025829474827727
-0.49864055811072816   0.040248126037655485   0.027025829474827727
-0.49864055811072816   0.040248126037655485   0.027025829474827727
-0.49864055811072816   0.040248126037655485   0.027025829474827727
-0.7459868519360003   -0.04560435970403426   -0.014863737908930162
-0.7459868519360003   -0.04560435970403426   -0.014863737908930162
-0.7459868519360003   -0.04560435970403426   -0.014863737908930162
-0.7459868519360003   -0.04560435970403426   -0.014863737908930162
-0.7552172236336417   -0.02388415483628284   0.024299260545240384
-0.7552172236336417   -0.02388415483628284   0.024299260545240384
-0.7552172236336417   -0.02388415483628284   0.024299260545240384
-0.7552172236336417   -0.02388415483628284   0.024299260545240384
-0.5267111158167185   -0.012632872666455089   -0.009938376956883332
-0.5267111158167185   -0.012632872666455089   -0.009938376956883332
-0.5267111158167185   -0.012632872666455089   -0.009938376956883332
-0.5267111158167185   -0.012632872666455089   -0.009938376956883332
-0.6047983792735974   -0.0028594500717060156   0.004530457676633751
-0.6047983792735974   -0.0028594500717060156   0.004530457676633751
-0.6047983792735974   -0.0028594500717060156   0.004530457676633751
-0.6047983792735974   -0.0028594500717060156   0.004530457676633751
0.22692796883944824   0.013698120567454949   -0.026636609934213077
0.22692796883944824   0.013698120567454949   -0.026636609934213077
0.22692796883944824   0.013698120567454949   -0.026636609934213077
0.22692796883944824   0.013698120567454949   -0.026636609934213077
0.06683858722089273   0.01587104437597924   0.01267103267737801
0.06683858722089273   0.01587104437597924   0.01267103267737801
0.06683858722089273   0.01587104437597924   0.01267103267737801
0.06683858722089273   0.01587104437597924   0.01267103267737801
0.042085750304202516   -0.03267350933101525   -0.023512038780156293
0.042085750304202516   -0.03267350933101525   -0.023512038780156293
0.042085750304202516   -0.03267350933101525   -0.023512038780156293
0.042085750304202516   -0.03267350933101525   -0.023512038780156293
0.22086860196056576   0.03817769984783941   0.015242411036260147
0.22086860196056576   0.03817769984783941   0.015242411036260147
0.22086860196056576   0.03817769984783941   0.015242411036260147
0.22086860196056576   0.03817769984783941   0.015242411036260147
0.13108743847379425   0.006385187402766088   -0.00300550811319107
0.13108743847379425   0.006385187402766088   -0.00300550811319107
0.13108743847379425   0.006385187402766088   -0.00300550811319107
0.13108743847379425   0.006385187402766088   -0.00300550811319107
0.2052472144833513   -0.00023014503295768624   -0.02445668146901723
0.2052472144833513   -0.00023014503295768624   -0.02445668146901723
0.2052472144833513   -0.00023014503295768624   -0.02445668146901723
0.2052472144833513   -0.00023014503295768624   -0.02445668146901723
0.05722012150923462   0.005247319277599239   0.01423898863639045
0.05722012150923462   0.005247319277599239   0.01423898863639045
0.05722012150923462   0.005247319277599239   0.01423898863639045
0.05722012150923462   0.005247319277599239   0.01423898863639045
0.03275125179452522   -0.03726738525145356   -0.019997820658213525
0.03275125179452522   -0.03726738525145356   -0.019997820658213525
0.03275125179452522   -0.03726738525145356   -0.019997820658213525
0.03275125179452522   -0.03726738525145356   -0.019997820658213525
0.2040871911997247   0.0318425059226599   0.01962139411449467
0.2040871911997247   0.0318425059226599   0.01962139411449467
0.2040871911997247   0.0318425059226599   0.01962139411449467
0.2040871911997247   0.0318425059226599   0.01962139411449467
0.11945523563509386   -0.0008071540501813843   -0.007647046261449186
0.11945523563509386   -0.0008071540501813843   -0.007647046261449186
0.11945523563509386   -0.0008071540501813843   -0.007647046261449186
0.11945523563509386   -0.0008071540501813843   -0.007647046261449186
0.18854365971139778   -0.006133409181110654   -0.02012034822337155
0.18854365971139778   -0.006133409181110654   -0.02012034822337155
0.18854365971139778   -0.006133409181110654   -0.02012034822337155
0.18854365971139778   -0.006133409181110654   -0.02012034822337155
0.04763924335430861   5.2989923773220926e-05   0.017121761965477378
0.04763924335430861   5.2989923773220926e-05   0.017121761965477378
0.04763924335430861   5.2989923773220926e-05   0.017121761965477378
0.04763924335430861   5.2989923773220926e-05   0.017121761965477378
0.024413304001089393   -0.042731492444741816   -0.01666965342179308
0.024413304001089393   -0.042731492444741816   -0.01666965342179308
0.024413304001089393   -0.042731492444741816   -0.01666965342179308
0.024413304001089393   -0.042731492444741816   -0.01666965342179308
0.18328445430220078   0.021760138599818853   0.021817692533408546
0.18328445430220078   0.021760138599818853   0.021817692533408546
0.18328445430220078   0.021760138599818853   0.021817692533408546
0.18328445430220078   0.021760138599818853   0.021817692533408546
0.1031726293477822   -0.007179441042125034   -0.013357996788678864
0.1031726293477822   -0.007179441042125034   -0.013357996788678864
0.1031726293477822   -0.007179441042125034   -0.013357996788678864
0.1031726293477822   -0.007179441042125034   -0.013357996788678864
0.06449250519764337   0.02442304406031249   -0.007611377123202477
0.06449250519764337   0.02442304406031249   -0.007611377123202477
0.06449250519764337   0.02442304406031249   -0.007611377123202477
0.06449250519764337   0.02442304406031249   -0.007611377123202477
-0.08995523915559464   0.007646285449081521   0.003019442402924531
-0.08995523915559464   0.007646285449081521   0.003019442402924531
-0.08995523915559464   0.007646285449081521   0.003019442402924531
-0.08995523915559464   0.007646285449081521   0.003019442402924531
-0.10590906677451525   -0.020999053310410624   -0.01375786044299094
-0.10590906677451525   -0.020999053310410624   -0.01375786044299094
-0.10590906677451525   -0.020999053310410624   -0.01375786044299094
-0.10590906677451525   -0.020999053310410624   -0.01375786044299094
0.062308501482792496   0.03028116760601373   0.014647040175765343
0.062308501482792496   0.03028116760601373   0.014647040175765343
0.062308501482792496   0.03028116760601373   0.014647040175765343
0.062308501482792496   0.03028116760601373   0.014647040175765343
-0.017814946286393706   0.009897058568300338   0.002566210076603428
-0.017814946286393706   0.009897058568300338   0.002566210076603428
-0.017814946286393706   0.009897058568300338   0.002566210076603428
-0.017814946286393706   0.009897058568300338   0.002566210076603428
0.054758660520001834   0.01276822069221085   -0.0055892177243853204
0.054758660520001834   0.01276822069221085   -0.0055892177243853204
0.054758660520001834   0.01276822069221085   -0.0055892177243853204
0.054758660520001834   0.01276822069221085   -0.0055892177243853204
-0.09877820223174841   -0.00390508281663415   0.004802491777066836
-0.09877820223174841   -0.00390508281663415   0.004802491777066836
-0.09877820223174841   -0.00390508281663415   0.004802491777066836
-0.09877820223174841   -0.00390508281663415   0.004802491777066836
-0.1142562635484629   -0.03032167199981926   -0.010799166980919685
-0.1142562635484629   -0.03032167199981926   -0.010799166980919685
-0.1142562635484629   -0.03032167199981926   -0.010799166980919685
-0.1142562635484629   -0.03032167199981926   -0.010799166980919685
0.05135762086511392   0.0197913456593585   0.015975293783918643
0.05135762086511392   0.0197913456593585   0.015975293783918643
0.05135762086511392   0.0197913456593585   0.015975293783918643
0.05135762086511392   0.0197913456593585   0.015975293783918643
-0.028145840591238213   -0.00019149282034133883   -0.00227183661813523
-0.028145840591238213   -0.00019149282034133883   -0.00227183661813523
-0.028145840591238213   -0.00019149282034133883   -0.00227183661813523
-0.028145840591238213   -0.00019149282034133883   -0.00227183661813523
0.044027936188563634   0.002765537129895828   -0.0036473210693707967
0.044027936188563634   0.002765537129895828   -0.0036473210693707967
0.044027936188563634   0.002765537129895828   -0.0036473210693707967
0.044027936188563634   0.002765537129895828   -0.0036473210693707967
-0.107469412831276   -0.013838697429720093   0.006652112034915592
-0.107469412831276   -0.013838697429720093   0.006652112034915592
-0.107469412831276   -0.013838697429720093   0.006652112034915592
-0.107469412831276   -0.013838697429720093   0.006652112034915592
-0.12253754189444363   -0.0395305799880793   -0.008126499056646787
-0.12253754189444363   -0.0395305799880793   -0.008126499056646787
-0.12253754189444363   -0.0395305799880793   -0.008126499056646787
-0.12253754189444363   -0.0395305799880793   -0.008126499056646787
0.04176870105532813   0.009532319903110115   0.017843519501549145
0.04176870105532813   0.009532319903110115   0.017843519501549145
0.04176870105532813   0.009532319903110115   0.017843519501549145
0.04176870105532813   0.009532319903110115   0.017843519501549145
-0.037053531174443904   -0.009179320259432706   -0.00682804134944889
-0.037053531174443904   -0.009179320259432706   -0.00682804134944889
-0.037053531174443904   -0.009179320259432706   -0.00682804134944889
-0.037053531174443904   -0.009179320259432706   -0.00682804134944889
-0.08522935109319778   0.03309772900719654   0.0011974391567937982
-0.08522935109319778   0.03309772900719654   0.0011974391567937982
-0.08522935109319778   0.03309772900719654   0.0011974391567937982
-0.08522935109319778   0.03309772900719654   0.0011974391567937982
-0.2445684091378279   -0.00312583459128795   -0.006773532049786332
-0.2445684091378279   -0.00312583459128795   -0.006773532049786332
-0.2445684091378279   -0.00312583459128795   -0.006773532049786332
-0.2445684091378279   -0.00312583459128795   -0.006773532049786332
-0.25210092417441066   -0.010486521726097743   -0.004072363934316056
-0.25210092417441066   -0.010486521726097743   -0.004072363934316056
-0.25210092417441066   -0.010486521726097743   -0.004072363934316056
-0.25210092417441066   -0.010486521726097743   -0.004072363934316056
-0.09403515722598099   0.019948693575197393   0.004663940414070434
-0.09403515722598099   0.019948693575197393   0.004663940414070434
-0.09403515722598099   0.019948693575197393   0.004663940414070434
-0.09403515722598099   0.019948693575197393   0.004663940414070434
-0.16857694628273026   0.009640010305345767   0.0026447902597980816
-0.16857694628273026   0.009640010305345767   0.0026447902597980816
-0.16857694628273026   0.009640010305345767   0.0026447902597980816
-0.16857694628273026   0.009640010305345767   0.0026447902597980816
-0.09360171668637651   0.02281979991319228   0.003960036774099901
-0.09360171668637651   0.02281979991319228   0.003960036774099901
-0.09360171668637651   0.02281979991319228   0.003960036774099901
-0.09360171668637651   0.02281979991319228   0.003960036774099901
-0.2529026979375642   -0.013725961287641676   -0.004841793188541719
-0.2529026979375642   -0.013725961287641676   -0.004841793188541719
-0.2529026979375642   -0.013725961287641676   -0.004841793188541719
-0.2529026979375642   -0.013725961287641676   -0.004841793188541719
-0.2604147054932119   -0.020664116243225658   -0.0013970651770528857
-0.2604147054932119   -0.020664116243225658   -0.0013970651770528857
-0.2604147054932119   -0.020664116243225658   -0.0013970651770528857
-0.2604147054932119   -0.020664116243225658   -0.0013970651770528857
-0.10284368209919992   0.009309713248892165   0.006632355016681794
-0.10284368209919992   0.009309713248892165   0.006632355016681794
-0.10284368209919992   0.009309713248892165   0.006632355016681794
-0.10284368209919992   0.009309713248892165   0.006632355016681794
-0.17724764297612694   -3.462038731179978e-05   -0.0016872750198010534
-0.17724764297612694   -3.462038731179978e-05   -0.0016872750198010534
-0.17724764297612694   -3.462038731179978e-05   -0.0016872750198010534
-0.17724764297612694   -3.462038731179978e-05   -0.0016872750198010534
-0.1022619499440487   0.012513328091903305   0.00633740094942872
-0.1022619499440487   0.012513328091903305   0.00633740094942872
-0.1022619499440487   0.012513328091903305   0.00633740094942872
-0.1022619499440487   0.012513328091903305   0.00633740094942872
-0.2615194695252958   -0.024390762963169776   -0.003194238617532083
-0.2615194695252958   -0.024390762963169776   -0.003194238617532083
-0.2615194695252958   -0.024390762963169776   -0.003194238617532083
-0.2615194695252958   -0.024390762963169776   -0.003194238617532083
-0.2685637675949689   -0.03048272687634219   0.0011981576758701524
-0.2685637675949689   -0.03048272687634219   0.0011981576758701524
-0.2685637675949689   -0.03048272687634219   0.0011981576758701524
-0.2685637675949689   -0.03048272687634219   0.0011981576758701524
-0.11150769399668412   -0.0009333623697553861   0.008425522813826816
-0.11150769399668412   -0.0009333623697553861   0.008425522813826816
-0.11150769399668412   -0.0009333623697553861   0.008425522813826816
-0.11150769399668412   -0.0009333623697553861   0.008425522813826816
-0.18637510728425935   -0.009729508369815884   -0.006393202856407834
-0.18637510728425935   -0.009729508369815884   -0.006393202856407834
-0.18637510728425935   -0.009729508369815884   -0.006393202856407834
-0.18637510728425935   -0.009729508369815884   -0.006393202856407834
-0.23225647148400225   0.04138874223255758   0.010271579395496503
-0.23225647148400225   0.04138874223255758   0.010271579395496503
-0.23225647148400225   0.04138874223255758   0.010271579395496503
-0.23225647148400225   0.04138874223255758   0.010271579395496503
-0.39600343577510916   -0.01202990253587384   -0.015374566017738261
-0.39600343577510916   -0.01202990253587384   -0.015374566017738261
-0.39600343577510916   -0.01202990253587384   -0.015374566017738261
-0.39600343577510916   -0.01202990253587384   -0.015374566017738261
-0.3967415811185254   -0.0012482733762855386   0.006178351332388424
-0.3967415811185254   -0.0012482733762855386   0.006178351332388424
-0.3967415811185254   -0.0012482733762855386   0.006178351332388424
-0.3967415811185254   -0.0012482733762855386   0.006178351332388424
-0.2480916104627059   0.010283906912178759   -0.004796224014068585
-0.2480916104627059   0.010283906912178759   -0.004796224014068585
-0.2480916104627059   0.010283906912178759   -0.004796224014068585
-0.2480916104627059   0.010283906912178759   -0.004796224014068585
-0.31662626188177884   0.00957014665457763   0.0034535253152235615
-0.31662626188177884   0.00957014665457763   0.0034535253152235615
-0.31662626188177884   0.00957014665457763   0.0034535253152235615
-0.31662626188177884   0.00957014665457763   0.0034535253152235615
-0.24029819900503752   0.031413067347687326   0.01304167283876478
-0.24029819900503752   0.031413067347687326   0.01304167283876478
-0.24029819900503752   0.031413067347687326   0.01304167283876478
-0.24029819900503752   0.031413067347687326   0.01304167283876478
-0.40523957850978837   -0.023082019745389926   -0.014477889254829495
-0.40523957850978837   -0.023082019745389926   -0.014477889254829495
-0.40523957850978837   -0.023082019745389926   -0.014477889254829495
-0.40523957850978837   -0.023082019745389926   -0.014477889254829495
-0.4069824287196342   -0.01128835659496391   0.007615252735576748
-0.4069824287196342   -0.01128835659496391   0.007615252735576748
-0.4069824287196342   -0.01128835659496391   0.007615252735576748
-0.4069824287196342   -0.01128835659496391   0.007615252735576748
-0.25644907977190345   0.00047735373678266246   -0.0027104065505248014
-0.25644907977190345   0.00047735373678266246   -0.0027104065505248014
-0.25644907977190345   0.00047735373678266246   -0.0027104065505248014
-0.25644907977190345   0.00047735373678266246   -0.0027104065505248014
-0.32397044958629645   0.0005676858584432593   -0.0010840590653800296
-0.32397044958629645   0.0005676858584432593   -0.0010840590653800296
-0.32397044958629645   0.0005676858584432593   -0.0010840590653800296
-0.32397044958629645   0.0005676858584432593   -0.0010840590653800296
-0.24844926157351202   0.022040361602324136   0.01572567657589479
-0.24844926157351202   0.022040361602324136   0.01572567657589479
-0.24844926157351202   0.022040361602324136   0.01572567657589479
-0.24844926157351202   0.022040361602324136   0.01572567657589479
-0.4154223314977471   -0.03329144904022689   -0.012581168709728936
-0.4154223314977471   -0.03329144904022689   -0.012581168709728936
-0.4154223314977471   -0.03329144904022689   -0.012581168709728936
-0.4154223314977471   -0.03329144904022689   -0.012581168709728936
-0.4158158203964418   -0.02177486856682742   0.010412282947097923
-0.4158158203964418   -0.02177486856682742   0.010412282947097923
-0.4158158203964418   -0.02177486856682742   0.010412282947097923
-0.4158158203964418   -0.02177486856682742   0.010412282947097923
-0.2649142606759609   -0.010034991958670629   -0.00100204264676528
-0.2649142606759609   -0.010034991958670629   -0.00100204264676528
-0.2649142606759609   -0.010034991958670629   -0.00100204264676528
-0.2649142606759609   -0.010034991958670629   -0.00100204264676528
-0.33496633761620853   -0.009282721161256946   -0.00604547031880133
-0.33496633761620853   -0.009282721161256946   -0.00604547031880133
-0.33496633761620853   -0.009282721161256946   -0.00604547031880133
-0.33496633761620853   -0.009282721161256946   -0.00604547031880133
-0.3787313189070383   0.04077171444733907   0.018184401339410766
-0.3787313189070383   0.04077171444733907   0.018184401339410766
-0.3787313189070383   0.04077171444733907   0.018184401339410766
-0.3787313189070383   0.04077171444733907   0.018184401339410766
-0.5341613980077413   -0.024706500049636926   -0.023162143172461645
-0.5341613980077413   -0.024706500049636926   -0.023162143172461645
-0.5341613980077413   -0.024706500049636926   -0.023162143172461645
-0.5341613980077413   -0.024706500049636926   -0.023162143172461645
-0.5380048111362403   0.006301640280571522   0.019107762634105883
-0.5380048111362403   0.006301640280571522   0.019107762634105883
-0.5380048111362403   0.006301640280571522   0.019107762634105883
-0.5380048111362403   0.006301640280571522   0.019107762634105883
-0.40074919378720225   -0.000991873561922138   -0.01411611182536654
-0.40074919378720225   -0.000991873561922138   -0.01411611182536654
-0.40074919378720225   -0.000991873561922138   -0.01411611182536654
-0.40074919378720225   -0.000991873561922138   -0.01411611182536654
-0.4429714753509119   0.00965112180030929   0.010823076718491333
-0.4429714753509119   0.00965112180030929   0.010823076718491333
-0.4429714753509119   0.00965112180030929   0.010823076718491333
-0.4429714753509119   0.00965112180030929   0.010823076718491333
-0.385988868627635   0.03718500361465135   0.02150863679589982
-0.385988868627635   0.03718500361465135   0.02150863679589982
-0.385988868627635   0.03718500361465135   0.02150863679589982
-0.385988868627635   0.03718500361465135   0.02150863679589982
-0.5535172080147457   -0.03262730861493962   -0.01952527286291038
-0.5535172080147457   -0.03262730861493962   -0.01952527286291038
-0.5535172080147457   -0.03262730861493962   -0.01952527286291038
-0.5535172080147457   -0.03262730861493962   -0.01952527286291038
-0.5539785806604105   0.0006471924169301202   0.02438575142028654
-0.5539785806604105   0.0006471924169301202   0.02438575142028654
-0.5539785806604105   0.0006471924169301202   0.02438575142028654
-0.5539785806604105   0.0006471924169301202   0.02438575142028654
-0.4099601352412538   -0.0064633665128705775   -0.012098269954618917
-0.4099601352412538   -0.0064633665128705775   -0.012098269954618917
-0.4099601352412538   -0.0064633665128705775   -0.012098269954618917
-0.4099601352412538   -0.0064633665128705775   -0.012098269954618917
-0.46348867468569976   0.002978536854244304   0.0040313907682332645
-0.46348867468569976   0.002978536854244304   0.0040313907682332645
-0.46348867468569976   0.002978536854244304   0.0040313907682332645
-0.46348867468569976   0.002978536854244304   0.0040313907682332645
-0.3945819591073112   0.03276267940327861   0.025566564798945056
-0.3945819591073112   0.03276267940327861   0.025566564798945056
-0.3945819591073112   0.03276267940327861   0.025566564798945056
-0.3945819591073112   0.03276267940327861   0.025566564798945056
-0.5700642442330057   -0.03928634093787424   -0.01610903308788537
-0.5700642442330057   -0.03928634093787424   -0.01610903308788537
-0.5700642442330057   -0.03928634093787424   -0.01610903308788537
-0.5700642442330057   -0.03928634093787424   -0.01610903308788537
-0.57604789189204   -0.015482882585422825   0.025148349523584197
-0.57604789189204   -0.015482882585422825   0.025148349523584197
-0.57604789189204   -0.015482882585422825   0.025148349523584197
-0.57604789189204   -0.015482882585422825   0.025148349523584197
-0.41947221903567455   -0.019093102005523374   -0.010551476810373724
-0.41947221903567455   -0.019093102005523374   -0.010551476810373724
-0.41947221903567455   -0.019093102005523374   -0.010551476810373724
-0.41947221903567455   -0.019093102005523374   -0.010551476810373724
-0.4700269385831692   -0.004149670721941903   2.46190839287945e-05
-0.4700269385831692   -0.004149670721941903   2.46190839287945e-05
-0.4700269385831692   -0.004149670721941903   2.46190839287945e-05
-0.4700269385831692   -0.004149670721941903   2.46190839287945e-05
0.04553296858253758   0.003732982282343681   -0.026713659152444637
0.04553296858253758   0.003732982282343681   -0.026713659152444637
0.04553296858253758   0.003732982282343681   -0.026713659152444637
0.04553296858253758   0.003732982282343681   -0.026713659152444637
-0.04076043064097233   0.019917629857366136   0.013593697332268454
-0.04076043064097233   0.019917629857366136   0.013593697332268454
-0.04076043064097233   0.019917629857366136   0.013593697332268454
-0.04076043064097233   0.019917629857366136   0.013593697332268454
-0.06253792919010169   -0.025862275505780588   -0.021550934581172358
-0.06253792919010169   -0.025862275505780588   -0.021550934581172358
-0.06253792919010169   -0.025862275505780588   -0.021550934581172358
-0.06253792919010169   -0.025862275505780588   -0.021550934581172358
0.04223421142997854   0.028715527897777454   0.016652956970167946
0.04223421142997854   0.028715527897777454   0.016652956970167946
0.04223421142997854   0.028715527897777454   0.016652956970167946
0.04223421142997854   0.028715527897777454   0.016652956970167946
-0.004988363772055134   0.006308941688764266   0.002294063396866239
-0.004988363772055134   0.006308941688764266   0.002294063396866239
-0.004988363772055134   0.006308941688764266   0.002294063396866239
-0.004988363772055134   0.006308941688764266   0.002294063396866239
0.026675836045569397   -0.008495011627693304   -0.023928380426407037
0.026675836045569397   -0.008495011627693304   -0.023928380426407037
0.026675836045569397   -0.008495011627693304   -0.023928380426407037
0.026675836045569397   -0.008495011627693304   -0.023928380426407037
-0.04788932751258302   0.010438490312799701   0.015391307987840738
-0.04788932751258302   0.010438490312799701   0.015391307987840738
-0.04788932751258302   0.010438490312799701   0.015391307987840738
-0.04788932751258302   0.010438490312799701   0.015391307987840738
-0.06973661914048813   -0.030507187123016977   -0.018303260773676864
-0.06973661914048813   -0.030507187123016977   -0.018303260773676864
-0.06973661914048813   -0.030507187123016977   -0.018303260773676864
-0.06973661914048813   -0.030507187123016977   -0.018303260773676864
0.027469562979076566   0.02242244582564864   0.0228834092529075
0.027469562979076566   0.02242244582564864   0.0228834092529075
0.027469562979076566   0.02242244582564864   0.0228834092529075
0.027469562979076566   0.02242244582564864   0.0228834092529075
-0.01656096142828068   -0.0006559441043680805   -0.0030510259654082123
-0.01656096142828068   -0.0006559441043680805   -0.0030510259654082123
-0.01656096142828068   -0.0006559441043680805   -0.0030510259654082123
-0.01656096142828068   -0.0006559441043680805   -0.0030510259654082123
0.01153975851841249   -0.014549910734542714   -0.01979325649022152
0.01153975851841249   -0.014549910734542714   -0.01979325649022152
0.01153975851841249   -0.014549910734542714   -0.01979325649022152
0.01153975851841249   -0.014549910734542714   -0.01979325649022152
-0.055073841794211556   0.0051981423227893606   0.019305296511899217
-0.055073841794211556   0.0051981423227893606   0.019305296511899217
-0.055073841794211556   0.0051981423227893606   0.019305296511899217
-0.055073841794211556   0.0051981423227893606   0.019305296511899217
-0.07632726734500997   -0.03756476236263865   -0.01519509063166823
-0.07632726734500997   -0.03756476236263865   -0.01519509063166823
-0.07632726734500997   -0.03756476236263865   -0.01519509063166823
-0.07632726734500997   -0.03756476236263865   -0.01519509063166823
0.0069622507255885134   0.009286345715543803   0.02612978537468872
0.0069622507255885134   0.009286345715543803   0.02612978537468872
0.0069622507255885134   0.009286345715543803   0.02612978537468872
0.0069622507255885134   0.009286345715543803   0.02612978537468872
-0.029166333191899013   -0.007633729699215944   -0.009248306243000595
-0.029166333191899013   -0.007633729699215944   -0.009248306243000595
-0.029166333191899013   -0.007633729699215944   -0.009248306243000595
-0.029166333191899013   -0.007633729699215944   -0.009248306243000595
-0.046857842543882595   0.013555608188213062   -0.01053134051312981
-0.046857842543882595   0.013555608188213062   -0.01053134051312981
-0.046857842543882595   0.013555608188213062   -0.01053134051312981
-0.046857842543882595   0.013555608188213062   -0.01053134051312981
-0.12728354457631819   0.005371681952164212   0.0035092273846679956
-0.12728354457631819   0.005371681952164212   0.0035092273846679956
-0.12728354457631819   0.005371681952164212   0.0035092273846679956
-0.12728354457631819   0.005371681952164212   0.0035092273846679956
-0.1385631528247614   -0.015071719557078252   -0.01124574133214068
-0.1385631528247614   -0.015071719557078252   -0.01124574133214068
-0.1385631528247614   -0.015071719557078252   -0.01124574133214068
-0.1385631528247614   -0.015071719557078252   -0.01124574133214068
-0.04825089885926993   0.013258219875058486   0.010763721692147402
-0.04825089885926993   0.013258219875058486   0.010763721692147402
-0.04825089885926993   0.013258219875058486   0.010763721692147402
-0.04825089885926993   0.013258219875058486   0.010763721692147402
-0.0900712388577449   0.004008036902722639   0.002165848701069723
-0.0900712388577449   0.004008036902722639   0.002165848701069723
-0.0900712388577449   0.004008036902722639   0.002165848701069723
-0.0900712388577449   0.004008036902722639   0.002165848701069723
-0.05432933026042175   0.002291791778756016   -0.008662007217308986
-0.05432933026042175   0.002291791778756016   -0.008662007217308986
-0.05432933026042175   0.002291791778756016   -0.008662007217308986
-0.05432933026042175   0.002291791778756016   -0.008662007217308986
-0.13323853220846316   -0.0048591022456293195   0.005164744437901605
-0.13323853220846316   -0.0048591022456293195   0.005164744437901605
-0.13323853220846316   -0.0048591022456293195   0.005164744437901605
-0.13323853220846316   -0.0048591022456293195   0.005164744437901605
-0.1441779183197481   -0.024177195739415507   -0.008331874025089376
-0.1441779183197481   -0.024177195739415507   -0.008331874025089376
-0.1441779183197481   -0.024177195739415507   -0.008331874025089376
-0.1441779183197481   -0.024177195739415507   -0.008331874025089376
-0.05690863721218483   0.0031914281328848104   0.012138033611937398
-0.05690863721218483   0.0031914281328848104   0.012138033611937398
-0.05690863721218483   0.0031914281328848104   0.012138033611937398
-0.05690863721218483   0.0031914281328848104   0.012138033611937398
-0.0971617372833312   -0.0051559115759662565   -0.0024419000925216096
-0.0971617372833312   -0.0051559115759662565   -0.0024419000925216096
-0.0971617372833312   -0.0051559115759662565   -0.0024419000925216096
-0.0971617372833312   -0.0051559115759662565   -0.0024419000925216096
-0.06277501116810749   -0.007525600925858917   -0.006476807108931691
-0.06277501116810749   -0.007525600925858917   -0.006476807108931691
-0.06277501116810749   -0.007525600925858917   -0.006476807108931691
-0.06277501116810749   -0.007525600925858917   -0.006476807108931691
-0.13912222902207266   -0.014270851338921496   0.0070402280627937155
-0.13912222902207266   -0.014270851338921496   0.0070402280627937155
-0.13912222902207266   -0.014270851338921496   0.0070402280627937155
-0.13912222902207266   -0.014270851338921496   0.0070402280627937155
-0.14982963715794861   -0.033506760738281294   -0.005753545492131167
-0.14982963715794861   -0.033506760738281294   -0.005753545492131167
-0.14982963715794861   -0.033506760738281294   -0.005753545492131167
-0.14982963715794861   -0.033506760738281294   -0.005753545492131167
-0.06415574012807462   -0.006959587741832857   0.015057370832202158
-0.06415574012807462   -0.006959587741832857   0.015057370832202158
-0.06415574012807462   -0.006959587741832857   0.015057370832202158
-0.06415574012807462   -0.006959587741832857   0.015057370832202158
-0.10421585600031423   -0.014170295495769356   -0.007114833004722127
-0.10421585600031423   -0.014170295495769356   -0.007114833004722127
-0.10421585600031423   -0.014170295495769356   -0.007114833004722127
-0.10421585600031423   -0.014170295495769356   -0.007114833004722127
-0.12489308860674302   0.02194214480152292   -0.001108955616816865
-0.12489308860674302   0.02194214480152292   -0.001108955616816865
-0.12489308860674302   0.02194214480152292   -0.001108955616816865
-0.12489308860674302   0.02194214480152292   -0.001108955616816865
-0.21284649093213845   -0.00739159044371953   -0.006075137479616986
-0.21284649093213845   -0.00739159044371953   -0.006075137479616986
-0.21284649093213845   -0.00739159044371953   -0.006075137479616986
-0.21284649093213845   -0.00739159044371953   -0.006075137479616986
-0.21512136460964998   -0.005472007530759479   -0.0013533577320449571
-0.21512136460964998   -0.005472007530759479   -0.0013533577320449571
-0.21512136460964998   -0.005472007530759479   -0.0013533577320449571
-0.21512136460964998   -0.005472007530759479   -0.0013533577320449571
-0.13265736336202366   0.0015427993228131383   0.0016686871016566877
-0.13265736336202366   0.0015427993228131383   0.0016686871016566877
-0.13265736336202366   0.0015427993228131383   0.0016686871016566877
-0.13265736336202366   0.0015427993228131383   0.0016686871016566877
-0.17101476989621495   0.002477865263485479   0.0007923126525491032
-0.17101476989621495   0.002477865263485479   0.0007923126525491032
-0.17101476989621495   0.002477865263485479   0.0007923126525491032
-0.17101476989621495   0.002477865263485479   0.0007923126525491032
-0.13056571023981878   0.01203645441392882   0.0016332976215653553
-0.13056571023981878   0.01203645441392882   0.0016332976215653553
-0.13056571023981878   0.01203645441392882   0.0016332976215653553
-0.13056571023981878   0.01203645441392882   0.0016332976215653553
-0.21794058291624616   -0.01669322780626648   -0.004228228989518906
-0.21794058291624616   -0.01669322780626648   -0.004228228989518906
-0.21794058291624616   -0.01669322780626648   -0.004228228989518906
-0.21794058291624616   -0.01669322780626648   -0.004228228989518906
-0.22039181211610823   -0.015255488032469053   0.001354478626783999
-0.22039181211610823   -0.015255488032469053   0.001354478626783999
-0.22039181211610823   -0.015255488032469053   0.001354478626783999
-0.22039181211610823   -0.015255488032469053   0.001354478626783999
-0.13860276057618287   -0.008080833550135256   0.0034475525034564723
-0.13860276057618287   -0.008080833550135256   0.0034475525034564723
-0.13860276057618287   -0.008080833550135256   0.0034475525034564723
-0.13860276057618287   -0.008080833550135256   0.0034475525034564723
-0.17671996003470575   -0.006420412268450769   -0.003437998213440662
-0.17671996003470575   -0.006420412268450769   -0.003437998213440662
-0.17671996003470575   -0.006420412268450769   -0.003437998213440662
-0.17671996003470575   -0.006420412268450769   -0.003437998213440662
-0.13645519575413276   0.0020682067727363466   0.004036336290835531
-0.13645519575413276   0.0020682067727363466   0.004036336290835531
-0.13645519575413276   0.0020682067727363466   0.004036336290835531
-0.13645519575413276   0.0020682067727363466   0.004036336290835531
-0.22341735116510414   -0.026282502582286454   -0.002746202068378249
-0.22341735116510414   -0.026282502582286454   -0.002746202068378249
-0.22341735116510414   -0.026282502582286454   -0.002746202068378249
-0.22341735116510414   -0.026282502582286454   -0.002746202068378249
-0.22552217479571196   -0.024629883862627683   0.003957396148493192
-0.22552217479571196   -0.024629883862627683   0.003957396148493192
-0.22552217479571196   -0.024629883862627683   0.003957396148493192
-0.22552217479571196   -0.024629883862627683   0.003957396148493192
-0.14432184002926596   -0.017146497263448832   0.005425176676449594
-0.14432184002926596   -0.017146497263448832   0.005425176676449594
-0.14432184002926596   -0.017146497263448832   0.005425176676449594
-0.14432184002926596   -0.017146497263448832   0.005425176676449594
-0.18285899254121388   -0.015368413190623122   -0.00803575850767917
-0.18285899254121388   -0.015368413190623122   -0.00803575850767917
-0.18285899254121388   -0.015368413190623122   -0.00803575850767917
-0.18285899254121388   -0.015368413190623122   -0.00803575850767917
-0.2021115463530978   0.03155415628870787   0.00865383868315895
-0.2021115463530978   0.03155415628870787   0.00865383868315895
-0.2021115463530978   0.03155415628870787   0.00865383868315895
-0.2021115463530978   0.03155415628870787   0.00865383868315895
-0.2952131239101695   -0.012389162719119363   -0.013589214891488103
-0.2952131239101695   -0.012389162719119363   -0.013589214891488103
-0.2952131239101695   -0.012389162719119363   -0.013589214891488103
-0.2952131239101695   -0.012389162719119363   -0.013589214891488103
-0.2913423655712946   0.004360131665952727   0.008835654863389959
-0.2913423655712946   0.004360131665952727   0.008835654863389959
-0.2913423655712946   0.004360131665952727   0.008835654863389959
-0.2913423655712946   0.004360131665952727   0.008835654863389959
-0.21577232224085008   -0.004081806471824621   -0.005998346946980329
-0.21577232224085008   -0.004081806471824621   -0.005998346946980329
-0.21577232224085008   -0.004081806471824621   -0.005998346946980329
-0.21577232224085008   -0.004081806471824621   -0.005998346946980329
-0.2502117756388163   0.00488490690537436   0.0012686440740374578
-0.2502117756388163   0.00488490690537436   0.0012686440740374578
-0.2502117756388163   0.00488490690537436   0.0012686440740374578
-0.2502117756388163   0.00488490690537436   0.0012686440740374578
-0.2071332649345342   0.02171487286931805   0.01140026024345622
-0.2071332649345342   0.02171487286931805   0.01140026024345622
-0.2071332649345342   0.02171487286931805   0.01140026024345622
-0.2071332649345342   0.02171487286931805   0.01140026024345622
-0.3010447325354585   -0.022499857333039303   -0.012816190958445307
-0.3010447325354585   -0.022499857333039303   -0.012816190958445307
-0.3010447325354585   -0.022499857333039303   -0.012816190958445307
-0.3010447325354585   -0.022499857333039303   -0.012816190958445307
-0.2983950308566998   -0.005279448255310806   0.010451534573804221
-0.2983950308566998   -0.005279448255310806   0.010451534573804221
-0.2983950308566998   -0.005279448255310806   0.010451534573804221
-0.2983950308566998   -0.005279448255310806   0.010451534573804221
-0.22099614452861033   -0.012851646431214163   -0.004071025036981368
-0.22099614452861033   -0.012851646431214163   -0.004071025036981368
-0.22099614452861033   -0.012851646431214163   -0.004071025036981368
-0.22099614452861033   -0.012851646431214163   -0.004071025036981368
-0.25499539818179384   -0.0036857604901598257   -0.003316171297794303
-0.25499539818179384   -0.0036857604901598257   -0.003316171297794303
-0.25499539818179384   -0.0036857604901598257   -0.003316171297794303
-0.25499539818179384   -0.0036857604901598257   -0.003316171297794303
-0.212263717238459   0.012670333791743163   0.014069131190817857
-0.212263717238459   0.012670333791743163   0.014069131190817857
-0.212263717238459   0.012670333791743163   0.014069131190817857
-0.212263717238459   0.012670333791743163   0.014069131190817857
-0.30796714906656997   -0.03164111939798823   -0.011047385332876717
-0.30796714906656997   -0.03164111939798823   -0.011047385332876717
-0.30796714906656997   -0.03164111939798823   -0.011047385332876717
-0.30796714906656997   -0.03164111939798823   -0.011047385332876717
-0.304124888881283   -0.01500977827714594   0.013334653966180264
-0.304124888881283   -0.01500977827714594   0.013334653966180264
-0.304124888881283   -0.01500977827714594   0.013334653966180264
-0.304124888881283   -0.01500977827714594   0.013334653966180264
-0.22624285047667442   -0.021850887253929734   -0.0024249788650209146
-0.22624285047667442   -0.021850887253929734   -0.0024249788650209146
-0.22624285047667442   -0.021850887253929734   -0.0024249788650209146
-0.22624285047667442   -0.021850887253929734   -0.0024249788650209146
-0.26222165103921435   -0.012460011491470649   -0.008027715725037497
-0.26222165103921435   -0.012460011491470649   -0.008027715725037497
-0.26222165103921435   -0.012460011491470649   -0.008027715725037497
-0.26222165103921435   -0.012460011491470649   -0.008027715725037497
-0.2797443010337028   0.034235412778340274   0.017130323993385828
-0.2797443010337028   0.034235412778340274   0.017130323993385828
-0.2797443010337028   0.034235412778340274   0.017130323993385828
-0.2797443010337028   0.034235412778340274   0.017130323993385828
-0.3616546846531708   -0.01821587799809872   -0.022569927616949998
-0.3616546846531708   -0.01821587799809872   -0.022569927616949998
-0.3616546846531708   -0.01821587799809872   -0.022569927616949998
-0.3616546846531708   -0.01821587799809872   -0.022569927616949998
-0.36198973960038144   0.013360351400315482   0.018885558799000807
-0.36198973960038144   0.013360351400315482   0.018885558799000807
-0.36198973960038144   0.013360351400315482   0.018885558799000807
-0.36198973960038144   0.013360351400315482   0.018885558799000807
-0.298726674856021   -0.00992638946454559   -0.013799370429743739
-0.298726674856021   -0.00992638946454559   -0.013799370429743739
-0.298726674856021   -0.00992638946454559   -0.013799370429743739
-0.298726674856021   -0.00992638946454559   -0.013799370429743739
-0.3123048530769408   0.007997250852851523   0.006162818923877076
-0.3123048530769408   0.007997250852851523   0.006162818923877076
-0.3123048530769408   0.007997250852851523   0.006162818923877076
-0.3123048530769408   0.007997250852851523   0.006162818923877076
-0.28409957598662466   0.02920268271150303   0.020207051741181745
-0.28409957598662466   0.02920268271150303   0.020207051741181745
-0.28409957598662466   0.02920268271150303   0.020207051741181745
-0.28409957598662466   0.02920268271150303   0.020207051741181745
-0.3777260598726193   -0.02687794217857655   -0.01955774898328492
-0.3777260598726193   -0.02687794217857655   -0.01955774898328492
-0.3777260598726193   -0.02687794217857655   -0.01955774898328492
-0.3777260598726193   -0.02687794217857655   -0.01955774898328492
-0.37481213082709053   0.007848051271254666   0.024310814551859333
-0.37481213082709053   0.007848051271254666   0.024310814551859333
-0.37481213082709053   0.007848051271254666   0.024310814551859333
-0.37481213082709053   0.007848051271254666   0.024310814551859333
-0.30483763057654706   -0.014971760983906311   -0.012069151296836526
-0.30483763057654706   -0.014971760983906311   -0.012069151296836526
-0.30483763057654706   -0.014971760983906311   -0.012069151296836526
-0.30483763057654706   -0.014971760983906311   -0.012069151296836526
-0.3276209996397635   0.0013100666178233328   -0.00023444576080476967
-0.3276209996397635   0.0013100666178233328   -0.00023444576080476967
-0.3276209996397635   0.0013100666178233328   -0.00023444576080476967
-0.3276209996397635   0.0013100666178233328   -0.00023444576080476967
-0.28961330293261867   0.024868165939630843   0.024212559999268395
-0.28961330293261867   0.024868165939630843   0.024212559999268395
-0.28961330293261867   0.024868165939630843   0.024212559999268395
-0.28961330293261867   0.024868165939630843   0.024212559999268395
-0.3911606772423584   -0.03311609442361879   -0.016467771829602906
-0.3911606772423584   -0.03311609442361879   -0.016467771829602906
-0.3911606772423584   -0.03311609442361879   -0.016467771829602906
-0.3911606772423584   -0.03311609442361879   -0.016467771829602906
-0.39370032306961744   -0.00669189956642062   0.025682639419082907
-0.39370032306961744   -0.00669189956642062   0.025682639419082907
-0.39370032306961744   -0.00669189956642062   0.025682639419082907
-0.39370032306961744   -0.00669189956642062   0.025682639419082907
-0.3109774554393565   -0.025513945311247427   -0.010424011790085865
-0.3109774554393565   -0.025513945311247427   -0.010424011790085865
-0.3109774554393565   -0.025513945311247427   -0.010424011790085865
-0.3109774554393565   -0.025513945311247427   -0.010424011790085865
-0.33341952605264735   -0.005341345566286473   -0.004748027268614643
-0.33341952605264735   -0.005341345566286473   -0.004748027268614643
-0.33341952605264735   -0.005341345566286473   -0.004748027268614643
-0.33341952605264735   -0.005341345566286473   -0.004748027268614643
-0.14535262455464038   -0.009417762034461905   -0.028491068213203706
-0.14535262455464038   -0.009417762034461905   -0.028491068213203706
-0.14535262455464038   -0.009417762034461905   -0.028491068213203706
-0.14535262455464038   -0.009417762034461905   -0.028491068213203706
-0.14681657655605068   0.021624523105202728   0.012769133828610783
-0.14681657655605068   0.021624523105202728   0.012769133828610783
-0.14681657655605068   0.021624523105202728   0.012769133828610783
-0.14681657655605068   0.021624523105202728   0.012769133828610783
-0.1656948713962353   -0.020079399395364975   -0.01939259666933036
-0.1656948713962353   -0.020079399395364975   -0.01939259666933036
-0.1656948713962353   -0.020079399395364975   -0.01939259666933036
-0.1656948713962353   -0.020079399395364975   -0.01939259666933036
-0.1485703733131029   0.011827248424622197   0.019057049102873647
-0.1485703733131029   0.011827248424622197   0.019057049102873647
-0.1485703733131029   0.011827248424622197   0.019057049102873647
-0.1485703733131029   0.011827248424622197   0.019057049102873647
-0.1439837228697703   0.003768647104557994   0.013030435157230902
-0.1439837228697703   0.003768647104557994   0.013030435157230902
-0.1439837228697703   0.003768647104557994   0.013030435157230902
-0.1439837228697703   0.003768647104557994   0.013030435157230902
-0.16365161932352737   -0.020580513459901993   -0.023941419064723392
-0.16365161932352737   -0.020580513459901993   -0.023941419064723392
-0.16365161932352737   -0.020580513459901993   -0.023941419064723392
-0.16365161932352737   -0.020580513459901993   -0.023941419064723392
-0.15245504912199961   0.010486938752970625   0.01624017655351246
-0.15245504912199961   0.010486938752970625   0.01624017655351246
-0.15245504912199961   0.010486938752970625   0.01624017655351246
-0.15245504912199961   0.010486938752970625   0.01624017655351246
-0.17146042136141976   -0.025231619439509835   -0.016456932732388522
-0.17146042136141976   -0.025231619439509835   -0.016456932732388522
-0.17146042136141976   -0.025231619439509835   -0.016456932732388522
-0.17146042136141976   -0.025231619439509835   -0.016456932732388522
-0.163210168891047   0.004845809342144285   0.03557096704079137
-0.163210168891047   0.004845809342144285   0.03557096704079137
-0.163210168891047   0.004845809342144285   0.03557096704079137
-0.163210168891047   0.004845809342144285   0.03557096704079137
-0.15739169930254693   -0.005069654854158268   0.005266616753793017
-0.15739169930254693   -0.005069654854158268   0.005266616753793017
-0.15739169930254693   -0.005069654854158268   0.005266616753793017
-0.15739169930254693   -0.005069654854158268   0.005266616753793017
-0.18053949422356216   -0.027501681267823583   -0.018728169011814854
-0.18053949422356216   -0.027501681267823583   -0.018728169011814854
-0.18053949422356216   -0.027501681267823583   -0.018728169011814854
-0.18053949422356216   -0.027501681267823583   -0.018728169011814854
-0.15853560513307294   0.002711362066289996   0.02022416690354588
-0.15853560513307294   0.002711362066289996   0.02022416690354588
-0.15853560513307294   0.002711362066289996   0.02022416690354588
-0.15853560513307294   0.002711362066289996   0.02022416690354588
-0.1761981414631788   -0.03517034184837273   -0.012993260256126647
-0.1761981414631788   -0.03517034184837273   -0.012993260256126647
-0.1761981414631788   -0.03517034184837273   -0.012993260256126647
-0.1761981414631788   -0.03517034184837273   -0.012993260256126647
-0.18592565262054153   -0.018227896030563503   0.03326472730300753
-0.18592565262054153   -0.018227896030563503   0.03326472730300753
-0.18592565262054153   -0.018227896030563503   0.03326472730300753
-0.18592565262054153   -0.018227896030563503   0.03326472730300753
-0.1691933600021325   -0.015500557333187562   -0.0071080122694323145
-0.1691933600021325   -0.015500557333187562   -0.0071080122694323145
-0.1691933600021325   -0.015500557333187562   -0.0071080122694323145
-0.1691933600021325   -0.015500557333187562   -0.0071080122694323145
-0.15747011913660147   -0.004285241358842819   -0.014588814610099213
-0.15747011913660147   -0.004285241358842819   -0.014588814610099213
-0.15747011913660147   -0.004285241358842819   -0.014588814610099213
-0.15747011913660147   -0.004285241358842819   -0.014588814610099213
-0.16181203185143572   -0.01997023251473972   -0.0008628682155556958
-0.16181203185143572   -0.01997023251473972   -0.0008628682155556958
-0.16181203185143572   -0.01997023251473972   -0.0008628682155556958
-0.16181203185143572   -0.01997023251473972   -0.0008628682155556958
-0.16314940035439437   -0.01335612582778642   -0.007409505326937325
-0.16314940035439437   -0.01335612582778642   -0.007409505326937325
-0.16314940035439437   -0.01335612582778642   -0.007409505326937325
-0.16314940035439437   -0.01335612582778642   -0.007409505326937325
-0.1631822839970018   -0.026733455656589834   -0.00017560341193795259
-0.1631822839970018   -0.026733455656589834   -0.00017560341193795259
-0.1631822839970018   -0.026733455656589834   -0.00017560341193795259
-0.1631822839970018   -0.026733455656589834   -0.00017560341193795259
-0.1600392199041918   -0.016789315300751152   -0.00043528320302324737
-0.1600392199041918   -0.016789315300751152   -0.00043528320302324737
-0.1600392199041918   -0.016789315300751152   -0.00043528320302324737
-0.1600392199041918   -0.016789315300751152   -0.00043528320302324737
-0.1632124327769185   -0.014415659867105239   -0.0126441431010073
-0.1632124327769185   -0.014415659867105239   -0.0126441431010073
-0.1632124327769185   -0.014415659867105239   -0.0126441431010073
-0.1632124327769185   -0.014415659867105239   -0.0126441431010073
-0.16415879958462248   -0.02671346962741636   0.0009008423215501394
-0.16415879958462248   -0.02671346962741636   0.0009008423215501394
-0.16415879958462248   -0.02671346962741636   0.0009008423215501394
-0.16415879958462248   -0.02671346962741636   0.0009008423215501394
-0.16602403205482788   -0.022024338098413865   -0.004825402701928248
-0.16602403205482788   -0.022024338098413865   -0.004825402701928248
-0.16602403205482788   -0.022024338098413865   -0.004825402701928248
-0.16602403205482788   -0.022024338098413865   -0.004825402701928248
-0.16931239225507053   -0.03476643901371349   0.0038180323735614516
-0.16931239225507053   -0.03476643901371349   0.0038180323735614516
-0.16931239225507053   -0.03476643901371349   0.0038180323735614516
-0.16931239225507053   -0.03476643901371349   0.0038180323735614516
-0.163892130736289   -0.023816396275625477   -0.004482467982679502
-0.163892130736289   -0.023816396275625477   -0.004482467982679502
-0.163892130736289   -0.023816396275625477   -0.004482467982679502
-0.163892130736289   -0.023816396275625477   -0.004482467982679502
-0.16974023845806652   -0.02368335530808527   -0.009404282347046652
-0.16974023845806652   -0.02368335530808527   -0.009404282347046652
-0.16974023845806652   -0.02368335530808527   -0.009404282347046652
-0.16974023845806652   -0.02368335530808527   -0.009404282347046652
-0.1669235849372378   -0.034434820889448   0.003087315677056224
-0.1669235849372378   -0.034434820889448   0.003087315677056224
-0.1669235849372378   -0.034434820889448   0.003087315677056224
-0.1669235849372378   -0.034434820889448   0.003087315677056224
-0.16862427263115234   -0.03131871925743376   -0.002269754242724623
-0.16862427263115234   -0.03131871925743376   -0.002269754242724623
-0.16862427263115234   -0.03131871925743376   -0.002269754242724623
-0.16862427263115234   -0.03131871925743376   -0.002269754242724623
-0.17402403875988348   -0.04489774696079098   0.007604658372767572
-0.17402403875988348   -0.04489774696079098   0.007604658372767572
-0.17402403875988348   -0.04489774696079098   0.007604658372767572
-0.17402403875988348   -0.04489774696079098   0.007604658372767572
-0.16911567100643132   -0.03223855752737486   -0.009600926640788359
-0.16911567100643132   -0.03223855752737486   -0.009600926640788359
-0.16911567100643132   -0.03223855752737486   -0.009600926640788359
-0.16911567100643132   -0.03223855752737486   -0.009600926640788359
-0.15730480879816047   0.004393646988513342   -0.0026906324524305913
-0.15730480879816047   0.004393646988513342   -0.0026906324524305913
-0.15730480879816047   0.004393646988513342   -0.0026906324524305913
-0.15730480879816047   0.004393646988513342   -0.0026906324524305913
-0.17983365947172203   -0.034164644630116314   -0.008668769970592455
-0.17983365947172203   -0.034164644630116314   -0.008668769970592455
-0.17983365947172203   -0.034164644630116314   -0.008668769970592455
-0.17983365947172203   -0.034164644630116314   -0.008668769970592455
-0.17263667918474646   -0.00635184653160591   0.0021747736522842375
-0.17263667918474646   -0.00635184653160591   0.0021747736522842375
-0.17263667918474646   -0.00635184653160591   0.0021747736522842375
-0.17263667918474646   -0.00635184653160591   0.0021747736522842375
-0.16736241824652287   -0.0365431846864525   -0.00528753592891566
-0.16736241824652287   -0.0365431846864525   -0.00528753592891566
-0.16736241824652287   -0.0365431846864525   -0.00528753592891566
-0.16736241824652287   -0.0365431846864525   -0.00528753592891566
-0.1691648225756677   -0.018747409867240782   -0.0037479998143123546
-0.1691648225756677   -0.018747409867240782   -0.0037479998143123546
-0.1691648225756677   -0.018747409867240782   -0.0037479998143123546
-0.1691648225756677   -0.018747409867240782   -0.0037479998143123546
-0.15985008071949688   -0.004236073470880862   -3.2959509355398944e-05
-0.15985008071949688   -0.004236073470880862   -3.2959509355398944e-05
-0.15985008071949688   -0.004236073470880862   -3.2959509355398944e-05
-0.15985008071949688   -0.004236073470880862   -3.2959509355398944e-05
-0.18109590854340854   -0.03960584957880951   -0.006867370093822677
-0.18109590854340854   -0.03960584957880951   -0.006867370093822677
-0.18109590854340854   -0.03960584957880951   -0.006867370093822677
-0.18109590854340854   -0.03960584957880951   -0.006867370093822677
-0.17474176024817412   -0.015050112254328167   0.004740158654483165
-0.17474176024817412   -0.015050112254328167   0.004740158654483165
-0.17474176024817412   -0.015050112254328167   0.004740158654483165
-0.17474176024817412   -0.015050112254328167   0.004740158654483165
-0.1700542681708048   -0.04338780325835297   -0.0036131181218736676
-0.1700542681708048   -0.04338780325835297   -0.0036131181218736676
-0.1700542681708048   -0.04338780325835297   -0.0036131181218736676
-0.1700542681708048   -0.04338780325835297   -0.0036131181218736676
-0.17138627039299673   -0.02536135854397868   -0.007219484410072255
-0.17138627039299673   -0.02536135854397868   -0.007219484410072255
-0.17138627039299673   -0.02536135854397868   -0.007219484410072255
-0.17138627039299673   -0.02536135854397868   -0.007219484410072255
-0.16276313427212086   -0.013092890972812958   0.0025476390860059307
-0.16276313427212086   -0.013092890972812958   0.0025476390860059307
-0.16276313427212086   -0.013092890972812958   0.0025476390860059307
-0.16276313427212086   -0.013092890972812958   0.0025476390860059307
-0.18309082356660425   -0.046402953959613746   -0.00565231623238575
-0.18309082356660425   -0.046402953959613746   -0.00565231623238575
-0.18309082356660425   -0.046402953959613746   -0.00565231623238575
-0.18309082356660425   -0.046402953959613746   -0.00565231623238575
-0.17647957454375138   -0.023211988278297794   0.007255456116690185
-0.17647957454375138   -0.023211988278297794   0.007255456116690185
-0.17647957454375138   -0.023211988278297794   0.007255456116690185
-0.17647957454375138   -0.023211988278297794   0.007255456116690185
-0.17209998238486476   -0.04992168552845081   -0.001045336740269704
-0.17209998238486476   -0.04992168552845081   -0.001045336740269704
-0.17209998238486476   -0.04992168552845081   -0.001045336740269704
-0.17209998238486476   -0.04992168552845081   -0.001045336740269704
-0.17401552790570662   -0.03227216392751848   -0.011031769944867688
-0.17401552790570662   -0.03227216392751848   -0.011031769944867688
-0.17401552790570662   -0.03227216392751848   -0.011031769944867688
-0.17401552790570662   -0.03227216392751848   -0.011031769944867688
-0.16603447843598731   0.017830756224673047   0.008331734353291756
-0.16603447843598731   0.017830756224673047   0.008331734353291756
-0.16603447843598731   0.017830756224673047   0.008331734353291756
-0.16603447843598731   0.017830756224673047   0.008331734353291756
-0.1978642286245615   -0.025707682443911462   -0.012152718736928515
-0.1978642286245615   -0.025707682443911462   -0.012152718736928515
-0.1978642286245615   -0.025707682443911462   -0.012152718736928515
-0.1978642286245615   -0.025707682443911462   -0.012152718736928515
-0.18741611423790625   0.005081987953664477   0.011464417177521322
-0.18741611423790625   0.005081987953664477   0.011464417177521322
-0.18741611423790625   0.005081987953664477   0.011464417177521322
-0.18741611423790625   0.005081987953664477   0.011464417177521322
-0.17891826198506852   -0.028276854444744544   -0.0073081324361874474
-0.17891826198506852   -0.028276854444744544   -0.0073081324361874474
-0.17891826198506852   -0.028276854444744544   -0.0073081324361874474
-0.17891826198506852   -0.028276854444744544   -0.0073081324361874474
-0.18251579884147878   -0.00758360450440277   -0.0022363808530331142
-0.18251579884147878   -0.00758360450440277   -0.0022363808530331142
-0.18251579884147878   -0.00758360450440277   -0.0022363808530331142
-0.18251579884147878   -0.00758360450440277   -0.0022363808530331142
-0.16784283275411208   0.008885160558074236   0.01090699871577596
-0.16784283275411208   0.008885160558074236   0.01090699871577596
-0.16784283275411208   0.008885160558074236   0.01090699871577596
-0.16784283275411208   0.008885160558074236   0.01090699871577596
-0.19975295448281075   -0.033341438063103655   -0.011796358030233088
-0.19975295448281075   -0.033341438063103655   -0.011796358030233088
-0.19975295448281075   -0.033341438063103655   -0.011796358030233088
-0.19975295448281075   -0.033341438063103655   -0.011796358030233088
-0.19097535235953414   -0.003430991334725249   0.013011458276402378
-0.19097535235953414   -0.003430991334725249   0.013011458276402378
-0.19097535235953414   -0.003430991334725249   0.013011458276402378
-0.19097535235953414   -0.003430991334725249   0.013011458276402378
-0.1807669669945058   -0.0346296462193526   -0.005806341112150796
-0.1807669669945058   -0.0346296462193526   -0.005806341112150796
-0.1807669669945058   -0.0346296462193526   -0.005806341112150796
-0.1807669669945058   -0.0346296462193526   -0.005806341112150796
-0.1843600791947317   -0.014764448244327877   -0.006311945496774461
-0.1843600791947317   -0.014764448244327877   -0.006311945496774461
-0.1843600791947317   -0.014764448244327877   -0.006311945496774461
-0.1843600791947317   -0.014764448244327877   -0.006311945496774461
-0.1698232005416165   0.000878096966805339   0.01340474796613768
-0.1698232005416165   0.000878096966805339   0.01340474796613768
-0.1698232005416165   0.000878096966805339   0.01340474796613768
-0.1698232005416165   0.000878096966805339   0.01340474796613768
-0.20301134829261083   -0.040030964001070576   -0.010568548722635678
-0.20301134829261083   -0.040030964001070576   -0.010568548722635678
-0.20301134829261083   -0.040030964001070576   -0.010568548722635678
-0.20301134829261083   -0.040030964001070576   -0.010568548722635678
-0.19336281801480218   -0.011614108372016863   0.015878883082671203
-0.19336281801480218   -0.011614108372016863   0.015878883082671203
-0.19336281801480218   -0.011614108372016863   0.015878883082671203
-0.19336281801480218   -0.011614108372016863   0.015878883082671203
-0.18237825637852131   -0.04101727444384247   -0.0044326668916148575
-0.18237825637852131   -0.04101727444384247   -0.0044326668916148575
-0.18237825637852131   -0.04101727444384247   -0.0044326668916148575
-0.18237825637852131   -0.04101727444384247   -0.0044326668916148575
-0.18752914441546387   -0.021558557801438866   -0.0102705935166803
-0.18752914441546387   -0.021558557801438866   -0.0102705935166803
-0.18752914441546387   -0.021558557801438866   -0.0102705935166803
-0.18752914441546387   -0.021558557801438866   -0.0102705935166803
-0.18183564073979971   0.025598686630466078   0.016683851612502947
-0.18183564073979971   0.025598686630466078   0.016683851612502947
-0.18183564073979971   0.025598686630466078   0.016683851612502947
-0.18183564073979971   0.025598686630466078   0.016683851612502947
-0.19629804002963874   -0.01570794389095115   -0.017547864646328726
-0.19629804002963874   -0.01570794389095115   -0.017547864646328726
-0.19629804002963874   -0.01570794389095115   -0.017547864646328726
-0.19629804002963874   -0.01570794389095115   -0.017547864646328726
-0.19212403204257958   0.017864467588589533   0.01855227202250579
-0.19212403204257958   0.017864467588589533   0.01855227202250579
-0.19212403204257958   0.017864467588589533   0.01855227202250579
-0.19212403204257958   0.017864467588589533   0.01855227202250579
-0.19680274621956825   -0.01965655750831707   -0.010730197268811078
-0.19680274621956825   -0.01965655750831707   -0.010730197268811078
-0.19680274621956825   -0.01965655750831707   -0.010730197268811078
-0.19680274621956825   -0.01965655750831707   -0.010730197268811078
-0.18518024319167853   0.004460973529404326   0.000873350538307725
-0.18518024319167853   0.004460973529404326   0.000873350538307725
-0.18518024319167853   0.004460973529404326   0.000873350538307725
-0.18518024319167853   0.004460973529404326   0.000873350538307725
-0.182897231791308   0.01985628058931696   0.019284536774856045
-0.182897231791308   0.01985628058931696   0.019284536774856045
-0.182897231791308   0.01985628058931696   0.019284536774856045
-0.182897231791308   0.01985628058931696   0.019284536774856045
-0.2070667195411285   -0.02268554357932937   -0.01561115430231997
-0.2070667195411285   -0.02268554357932937   -0.01561115430231997
-0.2070667195411285   -0.02268554357932937   -0.01561115430231997
-0.2070667195411285   -0.02268554357932937   -0.01561115430231997
-0.20057976359804247   0.013065690013160533   0.023860236709977778
-0.20057976359804247   0.013065690013160533   0.023860236709977778
-0.20057976359804247   0.013065690013160533   0.023860236709977778
-0.20057976359804247   0.013065690013160533   0.023860236709977778
-0.19952617917745163   -0.023409126492811294   -0.009764540655102835
-0.19952617917745163   -0.023409126492811294   -0.009764540655102835
-0.19952617917745163   -0.023409126492811294   -0.009764540655102835
-0.19952617917745163   -0.023409126492811294   -0.009764540655102835
-0.19431093942398395   -0.0013393725067577036   -0.003979769441907874
-0.19431093942398395   -0.0013393725067577036   -0.003979769441907874
-0.19431093942398395   -0.0013393725067577036   -0.003979769441907874
-0.19431093942398395   -0.0013393725067577036   -0.003979769441907874
-0.18507831090018695   0.016005890048679715   0.02305978418973348
-0.18507831090018695   0.016005890048679715   0.02305978418973348
-0.18507831090018695   0.016005890048679715   0.02305978418973348
-0.18507831090018695   0.016005890048679715   0.02305978418973348
-0.2163675826506825   -0.02768927730370772   -0.014323891236346396
-0.2163675826506825   -0.02768927730370772   -0.014323891236346396
-0.2163675826506825   -0.02768927730370772   -0.014323891236346396
-0.2163675826506825   -0.02768927730370772   -0.014323891236346396
-0.2153312499605716   0.0007962131716867521   0.02548057514581547
-0.2153312499605716   0.0007962131716867521   0.02548057514581547
-0.2153312499605716   0.0007962131716867521   0.02548057514581547
-0.2153312499605716   0.0007962131716867521   0.02548057514581547
-0.20202487258142984   -0.030567031118585407   -0.008478467003902448
-0.20202487258142984   -0.030567031118585407   -0.008478467003902448
-0.20202487258142984   -0.030567031118585407   -0.008478467003902448
-0.20202487258142984   -0.030567031118585407   -0.008478467003902448
-0.19862989895692879   -0.006702438092213117   -0.008328085861256664
-0.19862989895692879   -0.006702438092213117   -0.008328085861256664
-0.19862989895692879   -0.006702438092213117   -0.008328085861256664
-0.19862989895692879   -0.006702438092213117   -0.008328085861256664
-0.37976262944692885   -0.03482071312547737   -0.03651099443391151
-0.37976262944692885   -0.03482071312547737   -0.03651099443391151
-0.37976262944692885   -0.03482071312547737   -0.03651099443391151
-0.37976262944692885   -0.03482071312547737   -0.03651099443391151
-0.24237822093432537   0.02013480519474134   0.00856094079519737
-0.24237822093432537   0.02013480519474134   0.00856094079519737
-0.24237822093432537   0.02013480519474134   0.00856094079519737
-0.24237822093432537   0.02013480519474134   0.00856094079519737
-0.25467655772332143   -0.01649057466997189   -0.016425881959878284
-0.25467655772332143   -0.01649057466997189   -0.016425881959878284
-0.25467655772332143   -0.01649057466997189   -0.016425881959878284
-0.25467655772332143   -0.01649057466997189   -0.016425881959878284
-0.40450957487023037   -0.04635528528412319   0.040585661983432775
-0.40450957487023037   -0.04635528528412319   0.040585661983432775
-0.40450957487023037   -0.04635528528412319   0.040585661983432775
-0.40450957487023037   -0.04635528528412319   0.040585661983432775
-0.29430424358725193   -0.011467554783113072   0.039531567384963696
-0.29430424358725193   -0.011467554783113072   0.039531567384963696
-0.29430424358725193   -0.011467554783113072   0.039531567384963696
-0.29430424358725193   -0.011467554783113072   0.039531567384963696
-0.41901356906198056   -0.0514422661646785   -0.02684732809475985
-0.41901356906198056   -0.0514422661646785   -0.02684732809475985
-0.41901356906198056   -0.0514422661646785   -0.02684732809475985
-0.41901356906198056   -0.0514422661646785   -0.02684732809475985
-0.25039444682401957   -0.021625477081863135   0.010119574948522295
-0.25039444682401957   -0.021625477081863135   0.010119574948522295
-0.25039444682401957   -0.021625477081863135   0.010119574948522295
-0.25039444682401957   -0.021625477081863135   0.010119574948522295
-0.25885060241122193   -0.023774724105243943   -0.011891266675974836
-0.25885060241122193   -0.023774724105243943   -0.011891266675974836
-0.25885060241122193   -0.023774724105243943   -0.011891266675974836
-0.25885060241122193   -0.023774724105243943   -0.011891266675974836
-0.4177674308904802   -0.06466774137162165   0.0007941368418107834
-0.4177674308904802   -0.06466774137162165   0.0007941368418107834
-0.4177674308904802   -0.06466774137162165   0.0007941368418107834
-0.4177674308904802   -0.06466774137162165   0.0007941368418107834
-0.326381600244567   -0.039012595507359915   0.009207697982244623
-0.326381600244567   -0.039012595507359915   0.009207697982244623
-0.326381600244567   -0.039012595507359915   0.009207697982244623
-0.326381600244567   -0.039012595507359915   0.009207697982244623
-0.420972709220181   -0.05816740947291907   -0.02173258670539139
-0.420972709220181   -0.05816740947291907   -0.02173258670539139
-0.420972709220181   -0.05816740947291907   -0.02173258670539139
-0.420972709220181   -0.05816740947291907   -0.02173258670539139
-0.2587155069682112   -0.03334523889063625   -0.00164527467553118
-0.2587155069682112   -0.03334523889063625   -0.00164527467553118
-0.2587155069682112   -0.03334523889063625   -0.00164527467553118
-0.2587155069682112   -0.03334523889063625   -0.00164527467553118
-0.25927037038264517   -0.04129457995365732   -0.00872397455035793
-0.25927037038264517   -0.04129457995365732   -0.00872397455035793
-0.25927037038264517   -0.04129457995365732   -0.00872397455035793
-0.25927037038264517   -0.04129457995365732   -0.00872397455035793
-0.4282340429589825   -0.09858338868916806   0.006167673303409058
-0.4282340429589825   -0.09858338868916806   0.006167673303409058
-0.4282340429589825   -0.09858338868916806   0.006167673303409058
-0.4282340429589825   -0.09858338868916806   0.006167673303409058
-0.3263302466679975   -0.05356505197850604   0.0007811482072879973
-0.3263302466679975   -0.05356505197850604   0.0007811482072879973
-0.3263302466679975   -0.05356505197850604   0.0007811482072879973
-0.3263302466679975   -0.05356505197850604   0.0007811482072879973
-0.2616936634755037   -0.04445856544969241   -0.02342290126625879
-0.2616936634755037   -0.04445856544969241   -0.02342290126625879
-0.2616936634755037   -0.04445856544969241   -0.02342290126625879
-0.2616936634755037   -0.04445856544969241   -0.02342290126625879
-0.18098698296996688   -0.11832309521043102   -0.022118735350006215
-0.18098698296996688   -0.11832309521043102   -0.022118735350006215
-0.18098698296996688   -0.11832309521043102   -0.022118735350006215
-0.18098698296996688   -0.11832309521043102   -0.022118735350006215
-0.1588941227701179   -0.02614349032093316   -0.0015139379605307967
-0.1588941227701179   -0.02614349032093316   -0.0015139379605307967
-0.1588941227701179   -0.02614349032093316   -0.0015139379605307967
-0.1588941227701179   -0.02614349032093316   -0.0015139379605307967
-0.27867035975193677   -0.12513418230471135   -0.02775128446821544
-0.27867035975193677   -0.12513418230471135   -0.02775128446821544
-0.27867035975193677   -0.12513418230471135   -0.02775128446821544
-0.27867035975193677   -0.12513418230471135   -0.02775128446821544
-0.2175372068205605   -0.08325245505898965   -0.006376769632965384
-0.2175372068205605   -0.08325245505898965   -0.006376769632965384
-0.2175372068205605   -0.08325245505898965   -0.006376769632965384
-0.2175372068205605   -0.08325245505898965   -0.006376769632965384
-0.26161142920469205   -0.04991860568590193   -0.017672208350800463
-0.26161142920469205   -0.04991860568590193   -0.017672208350800463
-0.26161142920469205   -0.04991860568590193   -0.017672208350800463
-0.26161142920469205   -0.04991860568590193   -0.017672208350800463
-0.17700725863963518   -0.10241327226201499   -0.015809835367035285
-0.17700725863963518   -0.10241327226201499   -0.015809835367035285
-0.17700725863963518   -0.10241327226201499   -0.015809835367035285
-0.17700725863963518   -0.10241327226201499   -0.015809835367035285
-0.16092574278892668   -0.03382779799371095   0.00012458800743035675
-0.16092574278892668   -0.03382779799371095   0.00012458800743035675
-0.16092574278892668   -0.03382779799371095   0.00012458800743035675
-0.16092574278892668   -0.03382779799371095   0.00012458800743035675
-0.27988006513891533   -0.12446737593466971   -0.016345928485018178
-0.27988006513891533   -0.12446737593466971   -0.016345928485018178
-0.27988006513891533   -0.12446737593466971   -0.016345928485018178
-0.27988006513891533   -0.12446737593466971   -0.016345928485018178
-0.2152738941396324   -0.07803170021968192   -0.006777525709008506
-0.2152738941396324   -0.07803170021968192   -0.006777525709008506
-0.2152738941396324   -0.07803170021968192   -0.006777525709008506
-0.2152738941396324   -0.07803170021968192   -0.006777525709008506
-0.2658744912612283   -0.0574996269132562   -0.013285808117994333
-0.2658744912612283   -0.0574996269132562   -0.013285808117994333
-0.2658744912612283   -0.0574996269132562   -0.013285808117994333
-0.2658744912612283   -0.0574996269132562   -0.013285808117994333
-0.1771360032331431   -0.10300023358165379   -0.011754278625710827
-0.1771360032331431   -0.10300023358165379   -0.011754278625710827
-0.1771360032331431   -0.10300023358165379   -0.011754278625710827
-0.1771360032331431   -0.10300023358165379   -0.011754278625710827
-0.1611197639685843   -0.04334459882015557   0.002466124284645438
-0.1611197639685843   -0.04334459882015557   0.002466124284645438
-0.1611197639685843   -0.04334459882015557   0.002466124284645438
-0.1611197639685843   -0.04334459882015557   0.002466124284645438
-0.2794173666656563   -0.12636411423515118   -0.024389421683923176
-0.2794173666656563   -0.12636411423515118   -0.024389421683923176
-0.2794173666656563   -0.12636411423515118   -0.024389421683923176
-0.2794173666656563   -0.12636411423515118   -0.024389421683923176
-0.21876829817504256   -0.08388266397563213   -0.012615035087033391
-0.21876829817504256   -0.08388266397563213   -0.012615035087033391
-0.21876829817504256   -0.08388266397563213   -0.012615035087033391
-0.21876829817504256   -0.08388266397563213   -0.012615035087033391
-0.15904584486541434   -0.028683796435226006   -0.002052343602448584
-0.15904584486541434   -0.028683796435226006   -0.002052343602448584
-0.15904584486541434   -0.028683796435226006   -0.002052343602448584
-0.15904584486541434   -0.028683796435226006   -0.002052343602448584
-0.134593229482508   -0.09077734374081281   -0.01566762268969645
-0.134593229482508   -0.09077734374081281   -0.01566762268969645
-0.134593229482508   -0.09077734374081281   -0.01566762268969645
-0.134593229482508   -0.09077734374081281   -0.01566762268969645
-0.11604608897321203   -0.023997996911438193   0.006122073672845069
-0.11604608897321203   -0.023997996911438193   0.006122073672845069
-0.11604608897321203   -0.023997996911438193   0.006122073672845069
-0.11604608897321203   -0.023997996911438193   0.006122073672845069
-0.17648542281931567   -0.09838343687471905   -0.017230491652733687
-0.17648542281931567   -0.09838343687471905   -0.017230491652733687
-0.17648542281931567   -0.09838343687471905   -0.017230491652733687
-0.17648542281931567   -0.09838343687471905   -0.017230491652733687
-0.14591305075326333   -0.061263946899195544   -0.007206927399477408
-0.14591305075326333   -0.061263946899195544   -0.007206927399477408
-0.14591305075326333   -0.061263946899195544   -0.007206927399477408
-0.14591305075326333   -0.061263946899195544   -0.007206927399477408
-0.1601079017063076   -0.03398336565425734   0.0002570426918448957
-0.1601079017063076   -0.03398336565425734   0.0002570426918448957
-0.1601079017063076   -0.03398336565425734   0.0002570426918448957
-0.1601079017063076   -0.03398336565425734   0.0002570426918448957
-0.13336674911677235   -0.0893412071624528   -0.015138016793941882
-0.13336674911677235   -0.0893412071624528   -0.015138016793941882
-0.13336674911677235   -0.0893412071624528   -0.015138016793941882
-0.13336674911677235   -0.0893412071624528   -0.015138016793941882
-0.11629083902524268   -0.03032242818724096   0.007950328088124249
-0.11629083902524268   -0.03032242818724096   0.007950328088124249
-0.11629083902524268   -0.03032242818724096   0.007950328088124249
-0.11629083902524268   -0.03032242818724096   0.007950328088124249
-0.17724548493237252   -0.09993924544194326   -0.01536267526156845
-0.17724548493237252   -0.09993924544194326   -0.01536267526156845
-0.17724548493237252   -0.09993924544194326   -0.01536267526156845
-0.17724548493237252   -0.09993924544194326   -0.01536267526156845
-0.1458264194978049   -0.06361488117962008   -0.009357438259464347
-0.1458264194978049   -0.06361488117962008   -0.009357438259464347
-0.1458264194978049   -0.06361488117962008   -0.009357438259464347
-0.1458264194978049   -0.06361488117962008   -0.009357438259464347
-0.16167659231225087   -0.04040094665237215   0.002943489049468823
-0.16167659231225087   -0.04040094665237215   0.002943489049468823
-0.16167659231225087   -0.04040094665237215   0.002943489049468823
-0.16167659231225087   -0.04040094665237215   0.002943489049468823
-0.13238151796414593   -0.09038251329559299   -0.012442981498039931
-0.13238151796414593   -0.09038251329559299   -0.012442981498039931
-0.13238151796414593   -0.09038251329559299   -0.012442981498039931
-0.13238151796414593   -0.09038251329559299   -0.012442981498039931
-0.11515204574530036   -0.03633315086221295   0.009949399951355183
-0.11515204574530036   -0.03633315086221295   0.009949399951355183
-0.11515204574530036   -0.03633315086221295   0.009949399951355183
-0.11515204574530036   -0.03633315086221295   0.009949399951355183
-0.17537981895215274   -0.1011464620001419   -0.011032287453210405
-0.17537981895215274   -0.1011464620001419   -0.011032287453210405
-0.17537981895215274   -0.1011464620001419   -0.011032287453210405
-0.17537981895215274   -0.1011464620001419   -0.011032287453210405
-0.1456173923471352   -0.06674688489469106   -0.01088124894615183
-0.1456173923471352   -0.06674688489469106   -0.01088124894615183
-0.1456173923471352   -0.06674688489469106   -0.01088124894615183
-0.1456173923471352   -0.06674688489469106   -0.01088124894615183
-0.11188620747429522   -0.003886254786967986   0.010976398397522572
-0.11188620747429522   -0.003886254786967986   0.010976398397522572
-0.11188620747429522   -0.003886254786967986   0.010976398397522572
-0.11188620747429522   -0.003886254786967986   0.010976398397522572
-0.10698473767100346   -0.04829473944209498   -0.009488559105732073
-0.10698473767100346   -0.04829473944209498   -0.009488559105732073
-0.10698473767100346   -0.04829473944209498   -0.009488559105732073
-0.10698473767100346   -0.04829473944209498   -0.009488559105732073
-0.09244660437439192   -0.0069858624114523   0.012675170119597188
-0.09244660437439192   -0.0069858624114523   0.012675170119597188
-0.09244660437439192   -0.0069858624114523   0.012675170119597188
-0.09244660437439192   -0.0069858624114523   0.012675170119597188
-0.12490691379515385   -0.05550429712019925   -0.006675750228103008
-0.12490691379515385   -0.05550429712019925   -0.006675750228103008
-0.12490691379515385   -0.05550429712019925   -0.006675750228103008
-0.12490691379515385   -0.05550429712019925   -0.006675750228103008
-0.10941053212081302   -0.028383323792306046   -0.0039221051739225755
-0.10941053212081302   -0.028383323792306046   -0.0039221051739225755
-0.10941053212081302   -0.028383323792306046   -0.0039221051739225755
-0.10941053212081302   -0.028383323792306046   -0.0039221051739225755
-0.11212283648106834   -0.010923395843568303   0.012663735065693604
-0.11212283648106834   -0.010923395843568303   0.012663735065693604
-0.11212283648106834   -0.010923395843568303   0.012663735065693604
-0.11212283648106834   -0.010923395843568303   0.012663735065693604
-0.10624674689575857   -0.052582828895364385   -0.010728576003324
-0.10624674689575857   -0.052582828895364385   -0.010728576003324
-0.10624674689575857   -0.052582828895364385   -0.010728576003324
-0.10624674689575857   -0.052582828895364385   -0.010728576003324
-0.09277422048014419   -0.013141972309860344   0.013639281920948886
-0.09277422048014419   -0.013141972309860344   0.013639281920948886
-0.09277422048014419   -0.013141972309860344   0.013639281920948886
-0.09277422048014419   -0.013141972309860344   0.013639281920948886
-0.12507511203294677   -0.05890168099412578   -0.007391784143511411
-0.12507511203294677   -0.05890168099412578   -0.007391784143511411
-0.12507511203294677   -0.05890168099412578   -0.007391784143511411
-0.12507511203294677   -0.05890168099412578   -0.007391784143511411
-0.10911140425534303   -0.03330827665826209   -0.006676187547125947
-0.10911140425534303   -0.03330827665826209   -0.006676187547125947
-0.10911140425534303   -0.03330827665826209   -0.006676187547125947
-0.10911140425534303   -0.03330827665826209   -0.006676187547125947
-0.11231506148523271   -0.016897199479068294   0.014403987079997647
-0.11231506148523271   -0.016897199479068294   0.014403987079997647
-0.11231506148523271   -0.016897199479068294   0.014403987079997647
-0.11231506148523271   -0.016897199479068294   0.014403987079997647
-0.10615052097684416   -0.055762703773903716   -0.010621489098503701
-0.10615052097684416   -0.055762703773903716   -0.010621489098503701
-0.10615052097684416   -0.055762703773903716   -0.010621489098503701
-0.10615052097684416   -0.055762703773903716   -0.010621489098503701
-0.09219175343438782   -0.01893034152796688   0.01581549474362962
-0.09219175343438782   -0.01893034152796688   0.01581549474362962
-0.09219175343438782   -0.01893034152796688   0.01581549474362962
-0.09219175343438782   -0.01893034152796688   0.01581549474362962
-0.12333446261278927   -0.06228230623304351   -0.005013529015258804
-0.12333446261278927   -0.06228230623304351   -0.005013529015258804
-0.12333446261278927   -0.06228230623304351   -0.005013529015258804
-0.12333446261278927   -0.06228230623304351   -0.005013529015258804
-0.10900600601741468   -0.03758086149392336   -0.008618874774847126
-0.10900600601741468   -0.03758086149392336   -0.008618874774847126
-0.10900600601741468   -0.03758086149392336   -0.008618874774847126
-0.10900600601741468   -0.03758086149392336   -0.008618874774847126
-0.08946928092353994   0.012605148247860378   0.01718883694163012
-0.08946928092353994   0.012605148247860378   0.01718883694163012
-0.08946928092353994   0.012605148247860378   0.01718883694163012
-0.08946928092353994   0.012605148247860378   0.01718883694163012
-0.06107292447494941   -0.016062032542726118   -0.005915852030253145
-0.06107292447494941   -0.016062032542726118   -0.005915852030253145
-0.06107292447494941   -0.016062032542726118   -0.005915852030253145
-0.06107292447494941   -0.016062032542726118   -0.005915852030253145
-0.05375837475767049   0.014498632994872146   0.01700138378522958
-0.05375837475767049   0.014498632994872146   0.01700138378522958
-0.05375837475767049   0.014498632994872146   0.01700138378522958
-0.05375837475767049   0.014498632994872146   0.01700138378522958
-0.09903916480446562   -0.024194164831848372   -0.00307932961037523
-0.09903916480446562   -0.024194164831848372   -0.00307932961037523
-0.09903916480446562   -0.024194164831848372   -0.00307932961037523
-0.09903916480446562   -0.024194164831848372   -0.00307932961037523
-0.07472720480224322   -0.001603357895939652   -0.0030116698671592435
-0.07472720480224322   -0.001603357895939652   -0.0030116698671592435
-0.07472720480224322   -0.001603357895939652   -0.0030116698671592435
-0.07472720480224322   -0.001603357895939652   -0.0030116698671592435
-0.08824036444326998   0.007955049811212454   0.018765457552538285
-0.08824036444326998   0.007955049811212454   0.018765457552538285
-0.08824036444326998   0.007955049811212454   0.018765457552538285
-0.08824036444326998   0.007955049811212454   0.018765457552538285
-0.0646759726227345   -0.017769379152057695   -0.005318593393152946
-0.0646759726227345   -0.017769379152057695   -0.005318593393152946
-0.0646759726227345   -0.017769379152057695   -0.005318593393152946
-0.0646759726227345   -0.017769379152057695   -0.005318593393152946
-0.05629224713705051   0.011465351901210204   0.021373919274603546
-0.05629224713705051   0.011465351901210204   0.021373919274603546
-0.05629224713705051   0.011465351901210204   0.021373919274603546
-0.05629224713705051   0.011465351901210204   0.021373919274603546
-0.0988074469709668   -0.025787227169776352   -0.003881595673248134
-0.0988074469709668   -0.025787227169776352   -0.003881595673248134
-0.0988074469709668   -0.025787227169776352   -0.003881595673248134
-0.0988074469709668   -0.025787227169776352   -0.003881595673248134
-0.07717733269149797   -0.004909912478779921   -0.004376841868538964
-0.07717733269149797   -0.004909912478779921   -0.004376841868538964
-0.07717733269149797   -0.004909912478779921   -0.004376841868538964
-0.07717733269149797   -0.004909912478779921   -0.004376841868538964
-0.08750161066656917   0.005267305896814144   0.021593052782149555
-0.08750161066656917   0.005267305896814144   0.021593052782149555
-0.08750161066656917   0.005267305896814144   0.021593052782149555
-0.08750161066656917   0.005267305896814144   0.021593052782149555
-0.06837236639698552   -0.02036346412092084   -0.007197861002948024
-0.06837236639698552   -0.02036346412092084   -0.007197861002948024
-0.06837236639698552   -0.02036346412092084   -0.007197861002948024
-0.06837236639698552   -0.02036346412092084   -0.007197861002948024
-0.06432880855898758   0.0031168946825316252   0.02224509797924046
-0.06432880855898758   0.0031168946825316252   0.02224509797924046
-0.06432880855898758   0.0031168946825316252   0.02224509797924046
-0.06432880855898758   0.0031168946825316252   0.02224509797924046
-0.09767249336634719   -0.027287669685425356   -0.003230876758708729
-0.09767249336634719   -0.027287669685425356   -0.003230876758708729
-0.09767249336634719   -0.027287669685425356   -0.003230876758708729
-0.09767249336634719   -0.027287669685425356   -0.003230876758708729
-0.07844160907280565   -0.007343526315487337   -0.00651012923211118
-0.07844160907280565   -0.007343526315487337   -0.00651012923211118
-0.07844160907280565   -0.007343526315487337   -0.00651012923211118
-0.07844160907280565   -0.007343526315487337   -0.00651012923211118
-0.9048104672954749   -0.12927554596404817   -0.07605856863760067
-0.9048104672954749   -0.12927554596404817   -0.07605856863760067
-0.9048104672954749   -0.12927554596404817   -0.07605856863760067
-0.9048104672954749   -0.12927554596404817   -0.07605856863760067
-0.3154660649329535   -0.5077961721190329   -0.05931011747680856
-0.3154660649329535   -0.5077961721190329   -0.05931011747680856
-0.3154660649329535   -0.5077961721190329   -0.05931011747680856
-0.3154660649329535   -0.5077961721190329   -0.05931011747680856
-0.2422018494813273   -0.021976064368395196   0.00017404117316972053
-0.2422018494813273   -0.021976064368395196   0.00017404117316972053
-0.2422018494813273   -0.021976064368395196   0.00017404117316972053
-0.2422018494813273   -0.021976064368395196   0.00017404117316972053
-0.9691992119676064   -0.5944373356147882   -0.3127273095164789
-0.9691992119676064   -0.5944373356147882   -0.3127273095164789
-0.9691992119676064   -0.5944373356147882   -0.3127273095164789
-0.9691992119676064   -0.5944373356147882   -0.3127273095164789
-0.5926654713065719   -0.29537694743835885   -0.04308500636884103
-0.5926654713065719   -0.29537694743835885   -0.04308500636884103
-0.5926654713065719   -0.29537694743835885   -0.04308500636884103
-0.5926654713065719   -0.29537694743835885   -0.04308500636884103
-0.8409317953272052   -0.16243531179838194   -0.10339225013088608
-0.8409317953272052   -0.16243531179838194   -0.10339225013088608
-0.8409317953272052   -0.16243531179838194   -0.10339225013088608
-0.8409317953272052   -0.16243531179838194   -0.10339225013088608
-0.34114158556876667   -0.42465040763184037   -0.09185029600057944
-0.34114158556876667   -0.42465040763184037   -0.09185029600057944
-0.34114158556876667   -0.42465040763184037   -0.09185029600057944
-0.34114158556876667   -0.42465040763184037   -0.09185029600057944
-0.2475033357956217   -0.028926220007183773   0.009237648569137794
-0.2475033357956217   -0.028926220007183773   0.009237648569137794
-0.2475033357956217   -0.028926220007183773   0.009237648569137794
-0.2475033357956217   -0.028926220007183773   0.009237648569137794
-0.9072269139125068   -0.5315926559867533   -0.287763913979852
-0.9072269139125068   -0.5315926559867533   -0.287763913979852
-0.9072269139125068   -0.5315926559867533   -0.287763913979852
-0.9072269139125068   -0.5315926559867533   -0.287763913979852
-0.5584475494653213   -0.2667863466188024   0.022266523158649874
-0.5584475494653213   -0.2667863466188024   0.022266523158649874
-0.5584475494653213   -0.2667863466188024   0.022266523158649874
-0.5584475494653213   -0.2667863466188024   0.022266523158649874
-0.7897678673904404   -0.15469910292602582   -0.07736223443025382
-0.7897678673904404   -0.15469910292602582   -0.07736223443025382
-0.7897678673904404   -0.15469910292602582   -0.07736223443025382
-0.7897678673904404   -0.15469910292602582   -0.07736223443025382
-0.3323305233921256   -0.3731879141423495   -0.07063659527821402
-0.3323305233921256   -0.3731879141423495   -0.07063659527821402
-0.3323305233921256   -0.3731879141423495   -0.07063659527821402
-0.3323305233921256   -0.3731879141423495   -0.07063659527821402
-0.28539570129869485   -0.074283029344263   -0.015168871632353201
-0.28539570129869485   -0.074283029344263   -0.015168871632353201
-0.28539570129869485   -0.074283029344263   -0.015168871632353201
-0.28539570129869485   -0.074283029344263   -0.015168871632353201
-0.8270382463554593   -0.4485179049070597   -0.2551112302525038
-0.8270382463554593   -0.4485179049070597   -0.2551112302525038
-0.8270382463554593   -0.4485179049070597   -0.2551112302525038
-0.8270382463554593   -0.4485179049070597   -0.2551112302525038
-0.5175512122866273   -0.23162299636180067   0.09621580671179975
-0.5175512122866273   -0.23162299636180067   0.09621580671179975
-0.5175512122866273   -0.23162299636180067   0.09621580671179975
-0.5175512122866273   -0.23162299636180067   0.09621580671179975
-0.23135320990512828   -0.12773416368233786   -0.01880785077437901
-0.23135320990512828   -0.12773416368233786   -0.01880785077437901
-0.23135320990512828   -0.12773416368233786   -0.01880785077437901
-0.23135320990512828   -0.12773416368233786   -0.01880785077437901
-0.10828291315208777   -0.16417499613562134   -0.02681719885129617
-0.10828291315208777   -0.16417499613562134   -0.02681719885129617
-0.10828291315208777   -0.16417499613562134   -0.02681719885129617
-0.10828291315208777   -0.16417499613562134   -0.02681719885129617
-0.09469475492045808   -0.08232076935872519   0.0023401754302366205
-0.09469475492045808   -0.08232076935872519   0.0023401754302366205
-0.09469475492045808   -0.08232076935872519   0.0023401754302366205
-0.09469475492045808   -0.08232076935872519   0.0023401754302366205
-0.2851733515052298   -0.23747266078939863   0.0008131274746630279
-0.2851733515052298   -0.23747266078939863   0.0008131274746630279
-0.2851733515052298   -0.23747266078939863   0.0008131274746630279
-0.2851733515052298   -0.23747266078939863   0.0008131274746630279
-0.15258010057917773   -0.11481782946866838   0.04935303571691243
-0.15258010057917773   -0.11481782946866838   0.04935303571691243
-0.15258010057917773   -0.11481782946866838   0.04935303571691243
-0.15258010057917773   -0.11481782946866838   0.04935303571691243
-0.2640811314166973   -0.11908813859869632   -0.01211029427337984
-0.2640811314166973   -0.11908813859869632   -0.01211029427337984
-0.2640811314166973   -0.11908813859869632   -0.01211029427337984
-0.2640811314166973   -0.11908813859869632   -0.01211029427337984
-0.12398102774756017   -0.20889934428799728   -0.017512613775999858
-0.12398102774756017   -0.20889934428799728   -0.017512613775999858
-0.12398102774756017   -0.20889934428799728   -0.017512613775999858
-0.12398102774756017   -0.20889934428799728   -0.017512613775999858
-0.10266340551062225   -0.08525681288518143   0.0024902271341340036
-0.10266340551062225   -0.08525681288518143   0.0024902271341340036
-0.10266340551062225   -0.08525681288518143   0.0024902271341340036
-0.10266340551062225   -0.08525681288518143   0.0024902271341340036
-0.29967110372618605   -0.23491774415430883   -0.04560966693655693
-0.29967110372618605   -0.23491774415430883   -0.04560966693655693
-0.29967110372618605   -0.23491774415430883   -0.04560966693655693
-0.29967110372618605   -0.23491774415430883   -0.04560966693655693
-0.18268087745696254   -0.14684380353022855   0.022178390599617813
-0.18268087745696254   -0.14684380353022855   0.022178390599617813
-0.18268087745696254   -0.14684380353022855   0.022178390599617813
-0.18268087745696254   -0.14684380353022855   0.022178390599617813
-0.2729771635404709   -0.12435762662536368   -0.02270008353692855
-0.2729771635404709   -0.12435762662536368   -0.02270008353692855
-0.2729771635404709   -0.12435762662536368   -0.02270008353692855
-0.2729771635404709   -0.12435762662536368   -0.02270008353692855
-0.1286128572093908   -0.19507244192718004   -0.01744140231770825
-0.1286128572093908   -0.19507244192718004   -0.01744140231770825
-0.1286128572093908   -0.19507244192718004   -0.01744140231770825
-0.1286128572093908   -0.19507244192718004   -0.01744140231770825
-0.1150740329929517   -0.08788117785009787   0.0036819265686387215
-0.1150740329929517   -0.08788117785009787   0.0036819265686387215
-0.1150740329929517   -0.08788117785009787   0.0036819265686387215
-0.1150740329929517   -0.08788117785009787   0.0036819265686387215
-0.32112395732549914   -0.22861290156184833   -0.03948027954878837
-0.32112395732549914   -0.22861290156184833   -0.03948027954878837
-0.32112395732549914   -0.22861290156184833   -0.03948027954878837
-0.32112395732549914   -0.22861290156184833   -0.03948027954878837
-0.1916606788002507   -0.13848396881193034   0.02339447655112364
-0.1916606788002507   -0.13848396881193034   0.02339447655112364
-0.1916606788002507   -0.13848396881193034   0.02339447655112364
-0.1916606788002507   -0.13848396881193034   0.02339447655112364
-0.08425549712197658   -0.0764560797483663   0.005600964912004788
-0.08425549712197658   -0.0764560797483663   0.005600964912004788
-0.08425549712197658   -0.0764560797483663   0.005600964912004788
-0.08425549712197658   -0.0764560797483663   0.005600964912004788
-0.05255296247552644   -0.053149621670348104   -0.013189829920474664
-0.05255296247552644   -0.053149621670348104   -0.013189829920474664
-0.05255296247552644   -0.053149621670348104   -0.013189829920474664
-0.05255296247552644   -0.053149621670348104   -0.013189829920474664
-0.05059018609214154   -0.06864645859523998   0.00555916301749141
-0.05059018609214154   -0.06864645859523998   0.00555916301749141
-0.05059018609214154   -0.06864645859523998   0.00555916301749141
-0.05059018609214154   -0.06864645859523998   0.00555916301749141
-0.09414649151210991   -0.07173696799214131   -0.005502308894604542
-0.09414649151210991   -0.07173696799214131   -0.005502308894604542
-0.09414649151210991   -0.07173696799214131   -0.005502308894604542
-0.09414649151210991   -0.07173696799214131   -0.005502308894604542
-0.059313571768922324   -0.05683203318802779   0.024834373363723954
-0.059313571768922324   -0.05683203318802779   0.024834373363723954
-0.059313571768922324   -0.05683203318802779   0.024834373363723954
-0.059313571768922324   -0.05683203318802779   0.024834373363723954
-0.09287792436279291   -0.0769959392340839   0.006099498093919308
-0.09287792436279291   -0.0769959392340839   0.006099498093919308
-0.09287792436279291   -0.0769959392340839   0.006099498093919308
-0.09287792436279291   -0.0769959392340839   0.006099498093919308
-0.052752324484230846   -0.06428105859606967   -0.009616928942125432
-0.052752324484230846   -0.06428105859606967   -0.009616928942125432
-0.052752324484230846   -0.06428105859606967   -0.009616928942125432
-0.052752324484230846   -0.06428105859606967   -0.009616928942125432
-0.05140322047085198   -0.07070174106643715   0.004982582154445345
-0.05140322047085198   -0.07070174106643715   0.004982582154445345
-0.05140322047085198   -0.07070174106643715   0.004982582154445345
-0.05140322047085198   -0.07070174106643715   0.004982582154445345
-0.10034531419349361   -0.08347543913151285   0.012299309966110419
-0.10034531419349361   -0.08347543913151285   0.012299309966110419
-0.10034531419349361   -0.08347543913151285   0.012299309966110419
-0.10034531419349361   -0.08347543913151285   0.012299309966110419
-0.06490609761924408   -0.06340792281285723   0.020792262031701765
-0.06490609761924408   -0.06340792281285723   0.020792262031701765
-0.06490609761924408   -0.06340792281285723   0.020792262031701765
-0.06490609761924408   -0.06340792281285723   0.020792262031701765
-0.10044027725209932   -0.0798632147877179   0.008212270329285103
-0.10044027725209932   -0.0798632147877179   0.008212270329285103
-0.10044027725209932   -0.0798632147877179   0.008212270329285103
-0.10044027725209932   -0.0798632147877179   0.008212270329285103
-0.05573781528588463   -0.07874352328387012   -0.00864860970328492
-0.05573781528588463   -0.07874352328387012   -0.00864860970328492
-0.05573781528588463   -0.07874352328387012   -0.00864860970328492
-0.05573781528588463   -0.07874352328387012   -0.00864860970328492
-0.052423937547916716   -0.07294147997894554   0.007036741248535389
-0.052423937547916716   -0.07294147997894554   0.007036741248535389
-0.052423937547916716   -0.07294147997894554   0.007036741248535389
-0.052423937547916716   -0.07294147997894554   0.007036741248535389
-0.11800972501546278   -0.10214285325043843   0.003265141856425763
-0.11800972501546278   -0.10214285325043843   0.003265141856425763
-0.11800972501546278   -0.10214285325043843   0.003265141856425763
-0.11800972501546278   -0.10214285325043843   0.003265141856425763
-0.07290964184457965   -0.0720898663886306   0.00948196029892991
-0.07290964184457965   -0.0720898663886306   0.00948196029892991
-0.07290964184457965   -0.0720898663886306   0.00948196029892991
-0.07290964184457965   -0.0720898663886306   0.00948196029892991
-0.04242607687811903   -0.030521916819274665   0.01481689321548895
-0.04242607687811903   -0.030521916819274665   0.01481689321548895
-0.04242607687811903   -0.030521916819274665   0.01481689321548895
-0.04242607687811903   -0.030521916819274665   0.01481689321548895
-0.030547651862961964   -0.0017499687534603611   -0.0030125205525912083
-0.030547651862961964   -0.0017499687534603611   -0.0030125205525912083
-0.030547651862961964   -0.0017499687534603611   -0.0030125205525912083
-0.030547651862961964   -0.0017499687534603611   -0.0030125205525912083
-0.028933114506349084   -0.03314400472259806   0.009151912471098136
-0.028933114506349084   -0.03314400472259806   0.009151912471098136
-0.028933114506349084   -0.03314400472259806   0.009151912471098136
-0.028933114506349084   -0.03314400472259806   0.009151912471098136
-0.0398222179735794   -0.007694748582435214   -0.0015527064025026645
-0.0398222179735794   -0.007694748582435214   -0.0015527064025026645
-0.0398222179735794   -0.007694748582435214   -0.0015527064025026645
-0.0398222179735794   -0.007694748582435214   -0.0015527064025026645
-0.03272089135785058   -0.017400572630713516   0.007345312295495936
-0.03272089135785058   -0.017400572630713516   0.007345312295495936
-0.03272089135785058   -0.017400572630713516   0.007345312295495936
-0.03272089135785058   -0.017400572630713516   0.007345312295495936
-0.042131971600003336   -0.034811169382466714   0.014014946265409134
-0.042131971600003336   -0.034811169382466714   0.014014946265409134
-0.042131971600003336   -0.034811169382466714   0.014014946265409134
-0.042131971600003336   -0.034811169382466714   0.014014946265409134
-0.025922287407248938   -0.005326510449890352   -0.003611446306108821
-0.025922287407248938   -0.005326510449890352   -0.003611446306108821
-0.025922287407248938   -0.005326510449890352   -0.003611446306108821
-0.025922287407248938   -0.005326510449890352   -0.003611446306108821
-0.026735569995107893   -0.03605976117362414   0.008478272921154136
-0.026735569995107893   -0.03605976117362414   0.008478272921154136
-0.026735569995107893   -0.03605976117362414   0.008478272921154136
-0.026735569995107893   -0.03605976117362414   0.008478272921154136
-0.040398784066701485   -0.013672473126528098   0.002975496235288767
-0.040398784066701485   -0.013672473126528098   0.002975496235288767
-0.040398784066701485   -0.013672473126528098   0.002975496235288767
-0.040398784066701485   -0.013672473126528098   0.002975496235288767
-0.030297020024676706   -0.02000574199310942   0.008570984940468734
-0.030297020024676706   -0.02000574199310942   0.008570984940468734
-0.030297020024676706   -0.02000574199310942   0.008570984940468734
-0.030297020024676706   -0.02000574199310942   0.008570984940468734
-0.04259334215520472   -0.03771743638052183   0.01604766904676249
-0.04259334215520472   -0.03771743638052183   0.01604766904676249
-0.04259334215520472   -0.03771743638052183   0.01604766904676249
-0.04259334215520472   -0.03771743638052183   0.01604766904676249
-0.024828901296583224   -0.012302687309609605   -0.005745457450237037
-0.024828901296583224   -0.012302687309609605   -0.005745457450237037
-0.024828901296583224   -0.012302687309609605   -0.005745457450237037
-0.024828901296583224   -0.012302687309609605   -0.005745457450237037
-0.02274657253612364   -0.03929130640184833   0.009353580064051431
-0.02274657253612364   -0.03929130640184833   0.009353580064051431
-0.02274657253612364   -0.03929130640184833   0.009353580064051431
-0.02274657253612364   -0.03929130640184833   0.009353580064051431
-0.04405267223198246   -0.027904613095840386   0.0038562009451014734
-0.04405267223198246   -0.027904613095840386   0.0038562009451014734
-0.04405267223198246   -0.027904613095840386   0.0038562009451014734
-0.04405267223198246   -0.027904613095840386   0.0038562009451014734
-0.029490493186452138   -0.02513651244993019   0.007187935314786556
-0.029490493186452138   -0.02513651244993019   0.007187935314786556
-0.029490493186452138   -0.02513651244993019   0.007187935314786556
-0.029490493186452138   -0.02513651244993019   0.007187935314786556
-0.027632654703279056   -0.005190257403224019   0.015002753895587
-0.027632654703279056   -0.005190257403224019   0.015002753895587
-0.027632654703279056   -0.005190257403224019   0.015002753895587
-0.027632654703279056   -0.005190257403224019   0.015002753895587
-0.005429543165397591   0.0029116460844216072   -0.0003034775264257616
-0.005429543165397591   0.0029116460844216072   -0.0003034775264257616
-0.005429543165397591   0.0029116460844216072   -0.0003034775264257616
-0.005429543165397591   0.0029116460844216072   -0.0003034775264257616
0.0009217734426158317   -0.0017156379666617128   0.009352366468472786
0.0009217734426158317   -0.0017156379666617128   0.009352366468472786
0.0009217734426158317   -0.0017156379666617128   0.009352366468472786
0.0009217734426158317   -0.0017156379666617128   0.009352366468472786
-0.023928267991166242   0.0019756586266285797   -0.0009435183022142748
-0.023928267991166242   0.0019756586266285797   -0.0009435183022142748
-0.023928267991166242   0.0019756586266285797   -0.0009435183022142748
-0.023928267991166242   0.0019756586266285797   -0.0009435183022142748
-0.014220236822085612   -0.001133638957334798   -0.0010992669471652072
-0.014220236822085612   -0.001133638957334798   -0.0010992669471652072
-0.014220236822085612   -0.001133638957334798   -0.0010992669471652072
-0.014220236822085612   -0.001133638957334798   -0.0010992669471652072
-0.022019975282826683   -0.005049783526852604   0.015623387392964682
-0.022019975282826683   -0.005049783526852604   0.015623387392964682
-0.022019975282826683   -0.005049783526852604   0.015623387392964682
-0.022019975282826683   -0.005049783526852604   0.015623387392964682
-0.00017539801231361476   0.006120925440228939   -0.003970054213065099
-0.00017539801231361476   0.006120925440228939   -0.003970054213065099
-0.00017539801231361476   0.006120925440228939   -0.003970054213065099
-0.00017539801231361476   0.006120925440228939   -0.003970054213065099
0.003988991337713957   -0.002143713882834299   0.011539532452781377
0.003988991337713957   -0.002143713882834299   0.011539532452781377
0.003988991337713957   -0.002143713882834299   0.011539532452781377
0.003988991337713957   -0.002143713882834299   0.011539532452781377
-0.02124620875816751   0.0012302053487886428   -0.0013648874165567125
-0.02124620875816751   0.0012302053487886428   -0.0013648874165567125
-0.02124620875816751   0.0012302053487886428   -0.0013648874165567125
-0.02124620875816751   0.0012302053487886428   -0.0013648874165567125
-0.009663760994898208   -0.00040470861627007267   0.0014178325426237987
-0.009663760994898208   -0.00040470861627007267   0.0014178325426237987
-0.009663760994898208   -0.00040470861627007267   0.0014178325426237987
-0.009663760994898208   -0.00040470861627007267   0.0014178325426237987
-0.018990375602151065   -0.0056821641824179306   0.016826647894732073
-0.018990375602151065   -0.0056821641824179306   0.016826647894732073
-0.018990375602151065   -0.0056821641824179306   0.016826647894732073
-0.018990375602151065   -0.0056821641824179306   0.016826647894732073
0.00243753405975454   0.005473031526428661   -0.003834499346278669
0.00243753405975454   0.005473031526428661   -0.003834499346278669
0.00243753405975454   0.005473031526428661   -0.003834499346278669
0.00243753405975454   0.005473031526428661   -0.003834499346278669
0.006992793935250728   -0.0034571500998201625   0.011256433867719311
0.006992793935250728   -0.0034571500998201625   0.011256433867719311
0.006992793935250728   -0.0034571500998201625   0.011256433867719311
0.006992793935250728   -0.0034571500998201625   0.011256433867719311
-0.01688934848810752   0.0008711694407530918   -0.0015227755384693811
-0.01688934848810752   0.0008711694407530918   -0.0015227755384693811
-0.01688934848810752   0.0008711694407530918   -0.0015227755384693811
-0.01688934848810752   0.0008711694407530918   -0.0015227755384693811
-0.00564518321483069   -4.022364758048824e-05   0.0035623216728782135
-0.00564518321483069   -4.022364758048824e-05   0.0035623216728782135
-0.00564518321483069   -4.022364758048824e-05   0.0035623216728782135
-0.00564518321483069   -4.022364758048824e-05   0.0035623216728782135
              </DataArray>   
             <DataArray type="Float64" NumberOfComponents="3" Name="Displacements" format="ascii">   
0.0   0.0   0.0
-0.002528156914613625   -0.0016653255186623852   -0.0008473179693583802
0.0   0.0   0.0
0.0   0.0   0.0
-0.002528156914613625   -0.0016653255186623852   -0.0008473179693583802
-0.0016081126455709744   -0.0014977677157710604   -0.0006226061546235998
0.0   0.0   0.0
-0.0015758971088988508   -0.0015725410470573188   -0.0005217457529463629
0.0   0.0   0.0
0.0   0.0   0.0
-0.0015758971088988508   -0.0015725410470573188   -0.0005217457529463629
0.0   0.0   0.0
0.0   0.0   0.0
-0.0015758971088988508   -0.0015725410470573188   -0.0005217457529463629
-0.00264532604161872   -0.0017738503369522727   -0.0006804811528009165
-0.002528156914613625   -0.0016653255186623852   -0.0008473179693583802
0.0   0.0   0.0
-0.0015758971088988508   -0.0015725410470573188   -0.0005217457529463629
-0.002528156914613625   -0.0016653255186623852   -0.0008473179693583802
0.0   0.0   0.0
0.0   0.0   0.0
-0.00264532604161872   -0.0017738503369522727   -0.0006804811528009165
0.0   0.0   0.0
0.0   0.0   0.0
-0.00264532604161872   -0.0017738503369522727   -0.0006804811528009165
-0.0015758971088988508   -0.0015725410470573188   -0.0005217457529463629
0.0   0.0   0.0
-0.0015798956155889676   -0.0016109113337669128   -0.0004210814650068729
0.0   0.0   0.0
0.0   0.0   0.0
-0.0015798956155889676   -0.0016109113337669128   -0.0004210814650068729
0.0   0.0   0.0
0.0   0.0   0.0
-0.0015798956155889676   -0.0016109113337669128   -0.0004210814650068729
-0.0027274081126094814   -0.0018266469161085817   -0.0005207220105191894
-0.00264532604161872   -0.0017738503369522727   -0.0006804811528009165
0.0   0.0   0.0
-0.0015798956155889676   -0.0016109113337669128   -0.0004210814650068729
-0.00264532604161872   -0.0017738503369522727   -0.0006804811528009165
0.0   0.0   0.0
0.0   0.0   0.0
-0.0027274081126094814   -0.0018266469161085817   -0.0005207220105191894
0.0   0.0   0.0
0.0   0.0   0.0
-0.0027274081126094814   -0.0018266469161085817   -0.0005207220105191894
-0.0015798956155889676   -0.0016109113337669128   -0.0004210814650068729
0.0   0.0   0.0
-0.0015785626441709435   -0.0016208412654448293   -0.0003170566368041779
0.0   0.0   0.0
0.0   0.0   0.0
-0.0015785626441709435   -0.0016208412654448293   -0.0003170566368041779
0.0   0.0   0.0
0.0   0.0   0.0
-0.0015785626441709435   -0.0016208412654448293   -0.0003170566368041779
-0.00290467791633413   -0.0018668050992630464   -0.00033544144285335914
-0.0027274081126094814   -0.0018266469161085817   -0.0005207220105191894
0.0   0.0   0.0
-0.0015785626441709435   -0.0016208412654448293   -0.0003170566368041779
-0.0027274081126094814   -0.0018266469161085817   -0.0005207220105191894
0.0   0.0   0.0
0.0   0.0   0.0
-0.0016081126455709744   -0.0014977677157710604   -0.0006226061546235998
0.0   0.0   0.0
0.0   0.0   0.0
-0.0016081126455709744   -0.0014977677157710604   -0.0006226061546235998
-0.0007328587323345811   -0.0014364076758936542   -0.0004737582894255694
0.0   0.0   0.0
-0.0007044186650819663   -0.0014850235922017315   -0.0004260893949902063
0.0   0.0   0.0
0.0   0.0   0.0
-0.0007044186650819663   -0.0014850235922017315   -0.0004260893949902063
0.0   0.0   0.0
0.0   0.0   0.0
-0.0007044186650819663   -0.0014850235922017315   -0.0004260893949902063
-0.0015758971088988508   -0.0015725410470573188   -0.0005217457529463629
-0.0016081126455709744   -0.0014977677157710604   -0.0006226061546235998
0.0   0.0   0.0
-0.0007044186650819663   -0.0014850235922017315   -0.0004260893949902063
-0.0016081126455709744   -0.0014977677157710604   -0.0006226061546235998
0.0   0.0   0.0
0.0   0.0   0.0
-0.0015758971088988508   -0.0015725410470573188   -0.0005217457529463629
0.0   0.0   0.0
0.0   0.0   0.0
-0.0015758971088988508   -0.0015725410470573188   -0.0005217457529463629
-0.0007044186650819663   -0.0014850235922017315   -0.0004260893949902063
0.0   0.0   0.0
-0.0006882636149995057   -0.0015035724521109501   -0.0003797154171222245
0.0   0.0   0.0
0.0   0.0   0.0
-0.0006882636149995057   -0.0015035724521109501   -0.0003797154171222245
0.0   0.0   0.0
0.0   0.0   0.0
-0.0006882636149995057   -0.0015035724521109501   -0.0003797154171222245
-0.0015798956155889676   -0.0016109113337669128   -0.0004210814650068729
-0.0015758971088988508   -0.0015725410470573188   -0.0005217457529463629
0.0   0.0   0.0
-0.0006882636149995057   -0.0015035724521109501   -0.0003797154171222245
-0.0015758971088988508   -0.0015725410470573188   -0.0005217457529463629
0.0   0.0   0.0
0.0   0.0   0.0
-0.0015798956155889676   -0.0016109113337669128   -0.0004210814650068729
0.0   0.0   0.0
0.0   0.0   0.0
-0.0015798956155889676   -0.0016109113337669128   -0.0004210814650068729
-0.0006882636149995057   -0.0015035724521109501   -0.0003797154171222245
0.0   0.0   0.0
-0.0006734795325166963   -0.0014958765028532841   -0.00033182536058265743
0.0   0.0   0.0
0.0   0.0   0.0
-0.0006734795325166963   -0.0014958765028532841   -0.00033182536058265743
0.0   0.0   0.0
0.0   0.0   0.0
-0.0006734795325166963   -0.0014958765028532841   -0.00033182536058265743
-0.0015785626441709435   -0.0016208412654448293   -0.0003170566368041779
-0.0015798956155889676   -0.0016109113337669128   -0.0004210814650068729
0.0   0.0   0.0
-0.0006734795325166963   -0.0014958765028532841   -0.00033182536058265743
-0.0015798956155889676   -0.0016109113337669128   -0.0004210814650068729
0.0   0.0   0.0
0.0   0.0   0.0
-0.0007328587323345811   -0.0014364076758936542   -0.0004737582894255694
0.0   0.0   0.0
0.0   0.0   0.0
-0.0007328587323345811   -0.0014364076758936542   -0.0004737582894255694
9.371079704778427e-05   -0.001444339226762745   -0.00037904218890156313
0.0   0.0   0.0
0.00011207069924294972   -0.0014694770814254279   -0.00038550949814308036
0.0   0.0   0.0
0.0   0.0   0.0
0.00011207069924294972   -0.0014694770814254279   -0.00038550949814308036
0.0   0.0   0.0
0.0   0.0   0.0
0.00011207069924294972   -0.0014694770814254279   -0.00038550949814308036
-0.0007044186650819663   -0.0014850235922017315   -0.0004260893949902063
-0.0007328587323345811   -0.0014364076758936542   -0.0004737582894255694
0.0   0.0   0.0
0.00011207069924294972   -0.0014694770814254279   -0.00038550949814308036
-0.0007328587323345811   -0.0014364076758936542   -0.0004737582894255694
0.0   0.0   0.0
0.0   0.0   0.0
-0.0007044186650819663   -0.0014850235922017315   -0.0004260893949902063
0.0   0.0   0.0
0.0   0.0   0.0
-0.0007044186650819663   -0.0014850235922017315   -0.0004260893949902063
0.00011207069924294972   -0.0014694770814254279   -0.00038550949814308036
0.0   0.0   0.0
0.00012662042144776173   -0.0014673405382050855   -0.000391394548575164
0.0   0.0   0.0
0.0   0.0   0.0
0.00012662042144776173   -0.0014673405382050855   -0.000391394548575164
0.0   0.0   0.0
0.0   0.0   0.0
0.00012662042144776173   -0.0014673405382050855   -0.000391394548575164
-0.0006882636149995057   -0.0015035724521109501   -0.0003797154171222245
-0.0007044186650819663   -0.0014850235922017315   -0.0004260893949902063
0.0   0.0   0.0
0.00012662042144776173   -0.0014673405382050855   -0.000391394548575164
-0.0007044186650819663   -0.0014850235922017315   -0.0004260893949902063
0.0   0.0   0.0
0.0   0.0   0.0
-0.0006882636149995057   -0.0015035724521109501   -0.0003797154171222245
0.0   0.0   0.0
0.0   0.0   0.0
-0.0006882636149995057   -0.0015035724521109501   -0.0003797154171222245
0.00012662042144776173   -0.0014673405382050855   -0.000391394548575164
0.0   0.0   0.0
0.00014604915548680178   -0.001435701523702189   -0.00039749525641066797
0.0   0.0   0.0
0.0   0.0   0.0
0.00014604915548680178   -0.001435701523702189   -0.00039749525641066797
0.0   0.0   0.0
0.0   0.0   0.0
0.00014604915548680178   -0.001435701523702189   -0.00039749525641066797
-0.0006734795325166963   -0.0014958765028532841   -0.00033182536058265743
-0.0006882636149995057   -0.0015035724521109501   -0.0003797154171222245
0.0   0.0   0.0
0.00014604915548680178   -0.001435701523702189   -0.00039749525641066797
-0.0006882636149995057   -0.0015035724521109501   -0.0003797154171222245
0.0   0.0   0.0
0.0   0.0   0.0
9.371079704778427e-05   -0.001444339226762745   -0.00037904218890156313
0.0   0.0   0.0
0.0   0.0   0.0
9.371079704778427e-05   -0.001444339226762745   -0.00037904218890156313
0.0009913187918663508   -0.0015141035774446049   -0.0003323780749544306
0.0   0.0   0.0
0.0009936263860794094   -0.001521994774574788   -0.0003958128512952211
0.0   0.0   0.0
0.0   0.0   0.0
0.0009936263860794094   -0.001521994774574788   -0.0003958128512952211
0.0   0.0   0.0
0.0   0.0   0.0
0.0009936263860794094   -0.001521994774574788   -0.0003958128512952211
0.00011207069924294972   -0.0014694770814254279   -0.00038550949814308036
9.371079704778427e-05   -0.001444339226762745   -0.00037904218890156313
0.0   0.0   0.0
0.0009936263860794094   -0.001521994774574788   -0.0003958128512952211
9.371079704778427e-05   -0.001444339226762745   -0.00037904218890156313
0.0   0.0   0.0
0.0   0.0   0.0
0.00011207069924294972   -0.0014694770814254279   -0.00038550949814308036
0.0   0.0   0.0
0.0   0.0   0.0
0.00011207069924294972   -0.0014694770814254279   -0.00038550949814308036
0.0009936263860794094   -0.001521994774574788   -0.0003958128512952211
0.0   0.0   0.0
0.0009898403806235117   -0.001500265167319169   -0.0004567313341031795
0.0   0.0   0.0
0.0   0.0   0.0
0.0009898403806235117   -0.001500265167319169   -0.0004567313341031795
0.0   0.0   0.0
0.0   0.0   0.0
0.0009898403806235117   -0.001500265167319169   -0.0004567313341031795
0.00012662042144776173   -0.0014673405382050855   -0.000391394548575164
0.00011207069924294972   -0.0014694770814254279   -0.00038550949814308036
0.0   0.0   0.0
0.0009898403806235117   -0.001500265167319169   -0.0004567313341031795
0.00011207069924294972   -0.0014694770814254279   -0.00038550949814308036
0.0   0.0   0.0
0.0   0.0   0.0
0.00012662042144776173   -0.0014673405382050855   -0.000391394548575164
0.0   0.0   0.0
0.0   0.0   0.0
0.00012662042144776173   -0.0014673405382050855   -0.000391394548575164
0.0009898403806235117   -0.001500265167319169   -0.0004567313341031795
0.0   0.0   0.0
0.0010094617876915415   -0.0014423146177797597   -0.0005165407122861127
0.0   0.0   0.0
0.0   0.0   0.0
0.0010094617876915415   -0.0014423146177797597   -0.0005165407122861127
0.0   0.0   0.0
0.0   0.0   0.0
0.0010094617876915415   -0.0014423146177797597   -0.0005165407122861127
0.00014604915548680178   -0.001435701523702189   -0.00039749525641066797
0.00012662042144776173   -0.0014673405382050855   -0.000391394548575164
0.0   0.0   0.0
0.0010094617876915415   -0.0014423146177797597   -0.0005165407122861127
0.00012662042144776173   -0.0014673405382050855   -0.000391394548575164
0.0   0.0   0.0
0.0   0.0   0.0
0.0009913187918663508   -0.0015141035774446049   -0.0003323780749544306
0.0   0.0   0.0
0.0   0.0   0.0
0.0009913187918663508   -0.0015141035774446049   -0.0003323780749544306
0.00224092463080352   -0.0016911758143843695   -0.0003140666209258484
0.0   0.0   0.0
0.002105297602468075   -0.0016724824019062603   -0.0004580663714582576
0.0   0.0   0.0
0.0   0.0   0.0
0.002105297602468075   -0.0016724824019062603   -0.0004580663714582576
0.0   0.0   0.0
0.0   0.0   0.0
0.002105297602468075   -0.0016724824019062603   -0.0004580663714582576
0.0009936263860794094   -0.001521994774574788   -0.0003958128512952211
0.0009913187918663508   -0.0015141035774446049   -0.0003323780749544306
0.0   0.0   0.0
0.002105297602468075   -0.0016724824019062603   -0.0004580663714582576
0.0009913187918663508   -0.0015141035774446049   -0.0003323780749544306
0.0   0.0   0.0
0.0   0.0   0.0
0.0009936263860794094   -0.001521994774574788   -0.0003958128512952211
0.0   0.0   0.0
0.0   0.0   0.0
0.0009936263860794094   -0.001521994774574788   -0.0003958128512952211
0.002105297602468075   -0.0016724824019062603   -0.0004580663714582576
0.0   0.0   0.0
0.0020429666487256524   -0.0016377157247215797   -0.0005798875390154271
0.0   0.0   0.0
0.0   0.0   0.0
0.0020429666487256524   -0.0016377157247215797   -0.0005798875390154271
0.0   0.0   0.0
0.0   0.0   0.0
0.0020429666487256524   -0.0016377157247215797   -0.0005798875390154271
0.0009898403806235117   -0.001500265167319169   -0.0004567313341031795
0.0009936263860794094   -0.001521994774574788   -0.0003958128512952211
0.0   0.0   0.0
0.0020429666487256524   -0.0016377157247215797   -0.0005798875390154271
0.0009936263860794094   -0.001521994774574788   -0.0003958128512952211
0.0   0.0   0.0
0.0   0.0   0.0
0.0009898403806235117   -0.001500265167319169   -0.0004567313341031795
0.0   0.0   0.0
0.0   0.0   0.0
0.0009898403806235117   -0.001500265167319169   -0.0004567313341031795
0.0020429666487256524   -0.0016377157247215797   -0.0005798875390154271
0.0   0.0   0.0
0.0019498452005631457   -0.0015489415480139284   -0.0007089133551913963
0.0   0.0   0.0
0.0   0.0   0.0
0.0019498452005631457   -0.0015489415480139284   -0.0007089133551913963
0.0   0.0   0.0
0.0   0.0   0.0
0.0019498452005631457   -0.0015489415480139284   -0.0007089133551913963
0.0010094617876915415   -0.0014423146177797597   -0.0005165407122861127
0.0009898403806235117   -0.001500265167319169   -0.0004567313341031795
0.0   0.0   0.0
0.0019498452005631457   -0.0015489415480139284   -0.0007089133551913963
0.0009898403806235117   -0.001500265167319169   -0.0004567313341031795
0.0   0.0   0.0
-0.002528156914613625   -0.0016653255186623852   -0.0008473179693583802
-0.004717182652574397   -0.004639067517264391   -0.0011417977170617253
-0.0016081126455709744   -0.0014977677157710604   -0.0006226061546235998
-0.00264532604161872   -0.0017738503369522727   -0.0006804811528009165
-0.004717182652574397   -0.004639067517264391   -0.0011417977170617253
-0.003010571273144368   -0.004488549481333666   -0.0009403341884781735
-0.0016081126455709744   -0.0014977677157710604   -0.0006226061546235998
-0.003013406427058424   -0.004564957055491816   -0.0008471780216451978
-0.00264532604161872   -0.0017738503369522727   -0.0006804811528009165
-0.0015758971088988508   -0.0015725410470573188   -0.0005217457529463629
-0.003013406427058424   -0.004564957055491816   -0.0008471780216451978
-0.0016081126455709744   -0.0014977677157710604   -0.0006226061546235998
-0.00264532604161872   -0.0017738503369522727   -0.0006804811528009165
-0.003013406427058424   -0.004564957055491816   -0.0008471780216451978
-0.004857554458818783   -0.004745761981856476   -0.0009906356425588166
-0.004717182652574397   -0.004639067517264391   -0.0011417977170617253
-0.00264532604161872   -0.0017738503369522727   -0.0006804811528009165
-0.003013406427058424   -0.004564957055491816   -0.0008471780216451978
-0.004717182652574397   -0.004639067517264391   -0.0011417977170617253
-0.0016081126455709744   -0.0014977677157710604   -0.0006226061546235998
-0.00264532604161872   -0.0017738503369522727   -0.0006804811528009165
-0.004857554458818783   -0.004745761981856476   -0.0009906356425588166
-0.0015758971088988508   -0.0015725410470573188   -0.0005217457529463629
-0.0027274081126094814   -0.0018266469161085817   -0.0005207220105191894
-0.004857554458818783   -0.004745761981856476   -0.0009906356425588166
-0.003013406427058424   -0.004564957055491816   -0.0008471780216451978
-0.0015758971088988508   -0.0015725410470573188   -0.0005217457529463629
-0.0030244989290950934   -0.004611602140774748   -0.0007577058199372543
-0.0027274081126094814   -0.0018266469161085817   -0.0005207220105191894
-0.0015798956155889676   -0.0016109113337669128   -0.0004210814650068729
-0.0030244989290950934   -0.004611602140774748   -0.0007577058199372543
-0.0015758971088988508   -0.0015725410470573188   -0.0005217457529463629
-0.0027274081126094814   -0.0018266469161085817   -0.0005207220105191894
-0.0030244989290950934   -0.004611602140774748   -0.0007577058199372543
-0.004954779204614038   -0.0048060821384691066   -0.0008426871504402846
-0.004857554458818783   -0.004745761981856476   -0.0009906356425588166
-0.0027274081126094814   -0.0018266469161085817   -0.0005207220105191894
-0.0030244989290950934   -0.004611602140774748   -0.0007577058199372543
-0.004857554458818783   -0.004745761981856476   -0.0009906356425588166
-0.0015758971088988508   -0.0015725410470573188   -0.0005217457529463629
-0.0027274081126094814   -0.0018266469161085817   -0.0005207220105191894
-0.004954779204614038   -0.0048060821384691066   -0.0008426871504402846
-0.0015798956155889676   -0.0016109113337669128   -0.0004210814650068729
-0.00290467791633413   -0.0018668050992630464   -0.00033544144285335914
-0.004954779204614038   -0.0048060821384691066   -0.0008426871504402846
-0.0030244989290950934   -0.004611602140774748   -0.0007577058199372543
-0.0015798956155889676   -0.0016109113337669128   -0.0004210814650068729
-0.0030146836582181174   -0.004635918184435051   -0.0006740037876734169
-0.00290467791633413   -0.0018668050992630464   -0.00033544144285335914
-0.0015785626441709435   -0.0016208412654448293   -0.0003170566368041779
-0.0030146836582181174   -0.004635918184435051   -0.0006740037876734169
-0.0015798956155889676   -0.0016109113337669128   -0.0004210814650068729
-0.00290467791633413   -0.0018668050992630464   -0.00033544144285335914
-0.0030146836582181174   -0.004635918184435051   -0.0006740037876734169
-0.005069661919225114   -0.0048413522011158385   -0.0007081859155368939
-0.004954779204614038   -0.0048060821384691066   -0.0008426871504402846
-0.00290467791633413   -0.0018668050992630464   -0.00033544144285335914
-0.0030146836582181174   -0.004635918184435051   -0.0006740037876734169
-0.004954779204614038   -0.0048060821384691066   -0.0008426871504402846
-0.0015798956155889676   -0.0016109113337669128   -0.0004210814650068729
-0.0016081126455709744   -0.0014977677157710604   -0.0006226061546235998
-0.003010571273144368   -0.004488549481333666   -0.0009403341884781735
-0.0007328587323345811   -0.0014364076758936542   -0.0004737582894255694
-0.0015758971088988508   -0.0015725410470573188   -0.0005217457529463629
-0.003010571273144368   -0.004488549481333666   -0.0009403341884781735
-0.0013981467999039936   -0.004418505979808739   -0.0008028777407333626
-0.0007328587323345811   -0.0014364076758936542   -0.0004737582894255694
-0.0013853505972087764   -0.004467066297956965   -0.0007550722642929609
-0.0015758971088988508   -0.0015725410470573188   -0.0005217457529463629
-0.0007044186650819663   -0.0014850235922017315   -0.0004260893949902063
-0.0013853505972087764   -0.004467066297956965   -0.0007550722642929609
-0.0007328587323345811   -0.0014364076758936542   -0.0004737582894255694
-0.0015758971088988508   -0.0015725410470573188   -0.0005217457529463629
-0.0013853505972087764   -0.004467066297956965   -0.0007550722642929609
-0.003013406427058424   -0.004564957055491816   -0.0008471780216451978
-0.003010571273144368   -0.004488549481333666   -0.0009403341884781735
-0.0015758971088988508   -0.0015725410470573188   -0.0005217457529463629
-0.0013853505972087764   -0.004467066297956965   -0.0007550722642929609
-0.003010571273144368   -0.004488549481333666   -0.0009403341884781735
-0.0007328587323345811   -0.0014364076758936542   -0.0004737582894255694
-0.0015758971088988508   -0.0015725410470573188   -0.0005217457529463629
-0.003013406427058424   -0.004564957055491816   -0.0008471780216451978
-0.0007044186650819663   -0.0014850235922017315   -0.0004260893949902063
-0.0015798956155889676   -0.0016109113337669128   -0.0004210814650068729
-0.003013406427058424   -0.004564957055491816   -0.0008471780216451978
-0.0013853505972087764   -0.004467066297956965   -0.0007550722642929609
-0.0007044186650819663   -0.0014850235922017315   -0.0004260893949902063
-0.001373928427050338   -0.0044906432209051465   -0.0007117672044323124
-0.0015798956155889676   -0.0016109113337669128   -0.0004210814650068729
-0.0006882636149995057   -0.0015035724521109501   -0.0003797154171222245
-0.001373928427050338   -0.0044906432209051465   -0.0007117672044323124
-0.0007044186650819663   -0.0014850235922017315   -0.0004260893949902063
-0.0015798956155889676   -0.0016109113337669128   -0.0004210814650068729
-0.001373928427050338   -0.0044906432209051465   -0.0007117672044323124
-0.0030244989290950934   -0.004611602140774748   -0.0007577058199372543
-0.003013406427058424   -0.004564957055491816   -0.0008471780216451978
-0.0015798956155889676   -0.0016109113337669128   -0.0004210814650068729
-0.001373928427050338   -0.0044906432209051465   -0.0007117672044323124
-0.003013406427058424   -0.004564957055491816   -0.0008471780216451978
-0.0007044186650819663   -0.0014850235922017315   -0.0004260893949902063
-0.0015798956155889676   -0.0016109113337669128   -0.0004210814650068729
-0.0030244989290950934   -0.004611602140774748   -0.0007577058199372543
-0.0006882636149995057   -0.0015035724521109501   -0.0003797154171222245
-0.0015785626441709435   -0.0016208412654448293   -0.0003170566368041779
-0.0030244989290950934   -0.004611602140774748   -0.0007577058199372543
-0.001373928427050338   -0.0044906432209051465   -0.0007117672044323124
-0.0006882636149995057   -0.0015035724521109501   -0.0003797154171222245
-0.0013572255202926064   -0.004490123605170954   -0.0006741024311860696
-0.0015785626441709435   -0.0016208412654448293   -0.0003170566368041779
-0.0006734795325166963   -0.0014958765028532841   -0.00033182536058265743
-0.0013572255202926064   -0.004490123605170954   -0.0006741024311860696
-0.0006882636149995057   -0.0015035724521109501   -0.0003797154171222245
-0.0015785626441709435   -0.0016208412654448293   -0.0003170566368041779
-0.0013572255202926064   -0.004490123605170954   -0.0006741024311860696
-0.0030146836582181174   -0.004635918184435051   -0.0006740037876734169
-0.0030244989290950934   -0.004611602140774748   -0.0007577058199372543
-0.0015785626441709435   -0.0016208412654448293   -0.0003170566368041779
-0.0013572255202926064   -0.004490123605170954   -0.0006741024311860696
-0.0030244989290950934   -0.004611602140774748   -0.0007577058199372543
-0.0006882636149995057   -0.0015035724521109501   -0.0003797154171222245
-0.0007328587323345811   -0.0014364076758936542   -0.0004737582894255694
-0.0013981467999039936   -0.004418505979808739   -0.0008028777407333626
9.371079704778427e-05   -0.001444339226762745   -0.00037904218890156313
-0.0007044186650819663   -0.0014850235922017315   -0.0004260893949902063
-0.0013981467999039936   -0.004418505979808739   -0.0008028777407333626
0.0001562513757306017   -0.0044206354701267474   -0.0007161450548673582
9.371079704778427e-05   -0.001444339226762745   -0.00037904218890156313
0.00017185206793708508   -0.004443530254372482   -0.0007128438700138936
-0.0007044186650819663   -0.0014850235922017315   -0.0004260893949902063
0.00011207069924294972   -0.0014694770814254279   -0.00038550949814308036
0.00017185206793708508   -0.004443530254372482   -0.0007128438700138936
9.371079704778427e-05   -0.001444339226762745   -0.00037904218890156313
-0.0007044186650819663   -0.0014850235922017315   -0.0004260893949902063
0.00017185206793708508   -0.004443530254372482   -0.0007128438700138936
-0.0013853505972087764   -0.004467066297956965   -0.0007550722642929609
-0.0013981467999039936   -0.004418505979808739   -0.0008028777407333626
-0.0007044186650819663   -0.0014850235922017315   -0.0004260893949902063
0.00017185206793708508   -0.004443530254372482   -0.0007128438700138936
-0.0013981467999039936   -0.004418505979808739   -0.0008028777407333626
9.371079704778427e-05   -0.001444339226762745   -0.00037904218890156313
-0.0007044186650819663   -0.0014850235922017315   -0.0004260893949902063
-0.0013853505972087764   -0.004467066297956965   -0.0007550722642929609
0.00011207069924294972   -0.0014694770814254279   -0.00038550949814308036
-0.0006882636149995057   -0.0015035724521109501   -0.0003797154171222245
-0.0013853505972087764   -0.004467066297956965   -0.0007550722642929609
0.00017185206793708508   -0.004443530254372482   -0.0007128438700138936
0.00011207069924294972   -0.0014694770814254279   -0.00038550949814308036
0.00018258207859943255   -0.004442024746681841   -0.0007146477909748023
-0.0006882636149995057   -0.0015035724521109501   -0.0003797154171222245
0.00012662042144776173   -0.0014673405382050855   -0.000391394548575164
0.00018258207859943255   -0.004442024746681841   -0.0007146477909748023
0.00011207069924294972   -0.0014694770814254279   -0.00038550949814308036
-0.0006882636149995057   -0.0015035724521109501   -0.0003797154171222245
0.00018258207859943255   -0.004442024746681841   -0.0007146477909748023
-0.001373928427050338   -0.0044906432209051465   -0.0007117672044323124
-0.0013853505972087764   -0.004467066297956965   -0.0007550722642929609
-0.0006882636149995057   -0.0015035724521109501   -0.0003797154171222245
0.00018258207859943255   -0.004442024746681841   -0.0007146477909748023
-0.0013853505972087764   -0.004467066297956965   -0.0007550722642929609
0.00011207069924294972   -0.0014694770814254279   -0.00038550949814308036
-0.0006882636149995057   -0.0015035724521109501   -0.0003797154171222245
-0.001373928427050338   -0.0044906432209051465   -0.0007117672044323124
0.00012662042144776173   -0.0014673405382050855   -0.000391394548575164
-0.0006734795325166963   -0.0014958765028532841   -0.00033182536058265743
-0.001373928427050338   -0.0044906432209051465   -0.0007117672044323124
0.00018258207859943255   -0.004442024746681841   -0.0007146477909748023
0.00012662042144776173   -0.0014673405382050855   -0.000391394548575164
0.00019403909034944832   -0.00441537794585043   -0.0007216366157648688
-0.0006734795325166963   -0.0014958765028532841   -0.00033182536058265743
0.00014604915548680178   -0.001435701523702189   -0.00039749525641066797
0.00019403909034944832   -0.00441537794585043   -0.0007216366157648688
0.00012662042144776173   -0.0014673405382050855   -0.000391394548575164
-0.0006734795325166963   -0.0014958765028532841   -0.00033182536058265743
0.00019403909034944832   -0.00441537794585043   -0.0007216366157648688
-0.0013572255202926064   -0.004490123605170954   -0.0006741024311860696
-0.001373928427050338   -0.0044906432209051465   -0.0007117672044323124
-0.0006734795325166963   -0.0014958765028532841   -0.00033182536058265743
0.00019403909034944832   -0.00441537794585043   -0.0007216366157648688
-0.001373928427050338   -0.0044906432209051465   -0.0007117672044323124
0.00012662042144776173   -0.0014673405382050855   -0.000391394548575164
9.371079704778427e-05   -0.001444339226762745   -0.00037904218890156313
0.0001562513757306017   -0.0044206354701267474   -0.0007161450548673582
0.0009913187918663508   -0.0015141035774446049   -0.0003323780749544306
0.00011207069924294972   -0.0014694770814254279   -0.00038550949814308036
0.0001562513757306017   -0.0044206354701267474   -0.0007161450548673582
0.0018038859216354104   -0.004492347145028228   -0.0006759595581123444
0.0009913187918663508   -0.0015141035774446049   -0.0003323780749544306
0.0018131385408113152   -0.004491891829924485   -0.0007186007566920663
0.00011207069924294972   -0.0014694770814254279   -0.00038550949814308036
0.0009936263860794094   -0.001521994774574788   -0.0003958128512952211
0.0018131385408113152   -0.004491891829924485   -0.0007186007566920663
0.0009913187918663508   -0.0015141035774446049   -0.0003323780749544306
0.00011207069924294972   -0.0014694770814254279   -0.00038550949814308036
0.0018131385408113152   -0.004491891829924485   -0.0007186007566920663
0.00017185206793708508   -0.004443530254372482   -0.0007128438700138936
0.0001562513757306017   -0.0044206354701267474   -0.0007161450548673582
0.00011207069924294972   -0.0014694770814254279   -0.00038550949814308036
0.0018131385408113152   -0.004491891829924485   -0.0007186007566920663
0.0001562513757306017   -0.0044206354701267474   -0.0007161450548673582
0.0009913187918663508   -0.0015141035774446049   -0.0003323780749544306
0.00011207069924294972   -0.0014694770814254279   -0.00038550949814308036
0.00017185206793708508   -0.004443530254372482   -0.0007128438700138936
0.0009936263860794094   -0.001521994774574788   -0.0003958128512952211
0.00012662042144776173   -0.0014673405382050855   -0.000391394548575164
0.00017185206793708508   -0.004443530254372482   -0.0007128438700138936
0.0018131385408113152   -0.004491891829924485   -0.0007186007566920663
0.0009936263860794094   -0.001521994774574788   -0.0003958128512952211
0.0018056000436344568   -0.004467532767174237   -0.0007670171972748896
0.00012662042144776173   -0.0014673405382050855   -0.000391394548575164
0.0009898403806235117   -0.001500265167319169   -0.0004567313341031795
0.0018056000436344568   -0.004467532767174237   -0.0007670171972748896
0.0009936263860794094   -0.001521994774574788   -0.0003958128512952211
0.00012662042144776173   -0.0014673405382050855   -0.000391394548575164
0.0018056000436344568   -0.004467532767174237   -0.0007670171972748896
0.00018258207859943255   -0.004442024746681841   -0.0007146477909748023
0.00017185206793708508   -0.004443530254372482   -0.0007128438700138936
0.00012662042144776173   -0.0014673405382050855   -0.000391394548575164
0.0018056000436344568   -0.004467532767174237   -0.0007670171972748896
0.00017185206793708508   -0.004443530254372482   -0.0007128438700138936
0.0009936263860794094   -0.001521994774574788   -0.0003958128512952211
0.00012662042144776173   -0.0014673405382050855   -0.000391394548575164
0.00018258207859943255   -0.004442024746681841   -0.0007146477909748023
0.0009898403806235117   -0.001500265167319169   -0.0004567313341031795
0.00014604915548680178   -0.001435701523702189   -0.00039749525641066797
0.00018258207859943255   -0.004442024746681841   -0.0007146477909748023
0.0018056000436344568   -0.004467532767174237   -0.0007670171972748896
0.0009898403806235117   -0.001500265167319169   -0.0004567313341031795
0.001801584693419105   -0.004412642683198613   -0.0008194146765002467
0.00014604915548680178   -0.001435701523702189   -0.00039749525641066797
0.0010094617876915415   -0.0014423146177797597   -0.0005165407122861127
0.001801584693419105   -0.004412642683198613   -0.0008194146765002467
0.0009898403806235117   -0.001500265167319169   -0.0004567313341031795
0.00014604915548680178   -0.001435701523702189   -0.00039749525641066797
0.001801584693419105   -0.004412642683198613   -0.0008194146765002467
0.00019403909034944832   -0.00441537794585043   -0.0007216366157648688
0.00018258207859943255   -0.004442024746681841   -0.0007146477909748023
0.00014604915548680178   -0.001435701523702189   -0.00039749525641066797
0.001801584693419105   -0.004412642683198613   -0.0008194146765002467
0.00018258207859943255   -0.004442024746681841   -0.0007146477909748023
0.0009898403806235117   -0.001500265167319169   -0.0004567313341031795
0.0009913187918663508   -0.0015141035774446049   -0.0003323780749544306
0.0018038859216354104   -0.004492347145028228   -0.0006759595581123444
0.00224092463080352   -0.0016911758143843695   -0.0003140666209258484
0.0009936263860794094   -0.001521994774574788   -0.0003958128512952211
0.0018038859216354104   -0.004492347145028228   -0.0006759595581123444
0.0037932011643058514   -0.004625492671392737   -0.000665704828215211
0.00224092463080352   -0.0016911758143843695   -0.0003140666209258484
0.0037172769989976652   -0.004612540026510642   -0.000761750196125703
0.0009936263860794094   -0.001521994774574788   -0.0003958128512952211
0.002105297602468075   -0.0016724824019062603   -0.0004580663714582576
0.0037172769989976652   -0.004612540026510642   -0.000761750196125703
0.00224092463080352   -0.0016911758143843695   -0.0003140666209258484
0.0009936263860794094   -0.001521994774574788   -0.0003958128512952211
0.0037172769989976652   -0.004612540026510642   -0.000761750196125703
0.0018131385408113152   -0.004491891829924485   -0.0007186007566920663
0.0018038859216354104   -0.004492347145028228   -0.0006759595581123444
0.0009936263860794094   -0.001521994774574788   -0.0003958128512952211
0.0037172769989976652   -0.004612540026510642   -0.000761750196125703
0.0018038859216354104   -0.004492347145028228   -0.0006759595581123444
0.00224092463080352   -0.0016911758143843695   -0.0003140666209258484
0.0009936263860794094   -0.001521994774574788   -0.0003958128512952211
0.0018131385408113152   -0.004491891829924485   -0.0007186007566920663
0.002105297602468075   -0.0016724824019062603   -0.0004580663714582576
0.0009898403806235117   -0.001500265167319169   -0.0004567313341031795
0.0018131385408113152   -0.004491891829924485   -0.0007186007566920663
0.0037172769989976652   -0.004612540026510642   -0.000761750196125703
0.002105297602468075   -0.0016724824019062603   -0.0004580663714582576
0.003649318472791714   -0.004575033199841867   -0.000869937031003783
0.0009898403806235117   -0.001500265167319169   -0.0004567313341031795
0.0020429666487256524   -0.0016377157247215797   -0.0005798875390154271
0.003649318472791714   -0.004575033199841867   -0.000869937031003783
0.002105297602468075   -0.0016724824019062603   -0.0004580663714582576
0.0009898403806235117   -0.001500265167319169   -0.0004567313341031795
0.003649318472791714   -0.004575033199841867   -0.000869937031003783
0.0018056000436344568   -0.004467532767174237   -0.0007670171972748896
0.0018131385408113152   -0.004491891829924485   -0.0007186007566920663
0.0009898403806235117   -0.001500265167319169   -0.0004567313341031795
0.003649318472791714   -0.004575033199841867   -0.000869937031003783
0.0018131385408113152   -0.004491891829924485   -0.0007186007566920663
0.002105297602468075   -0.0016724824019062603   -0.0004580663714582576
0.0009898403806235117   -0.001500265167319169   -0.0004567313341031795
0.0018056000436344568   -0.004467532767174237   -0.0007670171972748896
0.0020429666487256524   -0.0016377157247215797   -0.0005798875390154271
0.0010094617876915415   -0.0014423146177797597   -0.0005165407122861127
0.0018056000436344568   -0.004467532767174237   -0.0007670171972748896
0.003649318472791714   -0.004575033199841867   -0.000869937031003783
0.0020429666487256524   -0.0016377157247215797   -0.0005798875390154271
0.003546954485608739   -0.00449186248720002   -0.0009826394206202186
0.0010094617876915415   -0.0014423146177797597   -0.0005165407122861127
0.0019498452005631457   -0.0015489415480139284   -0.0007089133551913963
0.003546954485608739   -0.00449186248720002   -0.0009826394206202186
0.0020429666487256524   -0.0016377157247215797   -0.0005798875390154271
0.0010094617876915415   -0.0014423146177797597   -0.0005165407122861127
0.003546954485608739   -0.00449186248720002   -0.0009826394206202186
0.001801584693419105   -0.004412642683198613   -0.0008194146765002467
0.0018056000436344568   -0.004467532767174237   -0.0007670171972748896
0.0010094617876915415   -0.0014423146177797597   -0.0005165407122861127
0.003546954485608739   -0.00449186248720002   -0.0009826394206202186
0.0018056000436344568   -0.004467532767174237   -0.0007670171972748896
0.0020429666487256524   -0.0016377157247215797   -0.0005798875390154271
-0.004717182652574397   -0.004639067517264391   -0.0011417977170617253
-0.006457230371150094   -0.008687240428877111   -0.0013012248865919987
-0.003010571273144368   -0.004488549481333666   -0.0009403341884781735
-0.004857554458818783   -0.004745761981856476   -0.0009906356425588166
-0.006457230371150094   -0.008687240428877111   -0.0013012248865919987
-0.004152227419721944   -0.008572422695231473   -0.0011382040278025175
-0.003010571273144368   -0.004488549481333666   -0.0009403341884781735
-0.00416044500586997   -0.008638238795669172   -0.0010660547901430364
-0.004857554458818783   -0.004745761981856476   -0.0009906356425588166
-0.003013406427058424   -0.004564957055491816   -0.0008471780216451978
-0.00416044500586997   -0.008638238795669172   -0.0010660547901430364
-0.003010571273144368   -0.004488549481333666   -0.0009403341884781735
-0.004857554458818783   -0.004745761981856476   -0.0009906356425588166
-0.00416044500586997   -0.008638238795669172   -0.0010660547901430364
-0.006570835551676851   -0.008777240001829998   -0.0011887772447210978
-0.006457230371150094   -0.008687240428877111   -0.0013012248865919987
-0.004857554458818783   -0.004745761981856476   -0.0009906356425588166
-0.00416044500586997   -0.008638238795669172   -0.0010660547901430364
-0.006457230371150094   -0.008687240428877111   -0.0013012248865919987
-0.003010571273144368   -0.004488549481333666   -0.0009403341884781735
-0.004857554458818783   -0.004745761981856476   -0.0009906356425588166
-0.006570835551676851   -0.008777240001829998   -0.0011887772447210978
-0.003013406427058424   -0.004564957055491816   -0.0008471780216451978
-0.004954779204614038   -0.0048060821384691066   -0.0008426871504402846
-0.006570835551676851   -0.008777240001829998   -0.0011887772447210978
-0.00416044500586997   -0.008638238795669172   -0.0010660547901430364
-0.003013406427058424   -0.004564957055491816   -0.0008471780216451978
-0.004170229972973695   -0.008684115503129345   -0.0009991593110461857
-0.004954779204614038   -0.0048060821384691066   -0.0008426871504402846
-0.0030244989290950934   -0.004611602140774748   -0.0007577058199372543
-0.004170229972973695   -0.008684115503129345   -0.0009991593110461857
-0.003013406427058424   -0.004564957055491816   -0.0008471780216451978
-0.004954779204614038   -0.0048060821384691066   -0.0008426871504402846
-0.004170229972973695   -0.008684115503129345   -0.0009991593110461857
-0.006642046919392708   -0.008833760202054005   -0.0010840277243278752
-0.006570835551676851   -0.008777240001829998   -0.0011887772447210978
-0.004954779204614038   -0.0048060821384691066   -0.0008426871504402846
-0.004170229972973695   -0.008684115503129345   -0.0009991593110461857
-0.006570835551676851   -0.008777240001829998   -0.0011887772447210978
-0.003013406427058424   -0.004564957055491816   -0.0008471780216451978
-0.004954779204614038   -0.0048060821384691066   -0.0008426871504402846
-0.006642046919392708   -0.008833760202054005   -0.0010840277243278752
-0.0030244989290950934   -0.004611602140774748   -0.0007577058199372543
-0.005069661919225114   -0.0048413522011158385   -0.0007081859155368939
-0.006642046919392708   -0.008833760202054005   -0.0010840277243278752
-0.004170229972973695   -0.008684115503129345   -0.0009991593110461857
-0.0030244989290950934   -0.004611602140774748   -0.0007577058199372543
-0.004161475005475974   -0.008714412317946106   -0.0009363961068419161
-0.005069661919225114   -0.0048413522011158385   -0.0007081859155368939
-0.0030146836582181174   -0.004635918184435051   -0.0006740037876734169
-0.004161475005475974   -0.008714412317946106   -0.0009363961068419161
-0.0030244989290950934   -0.004611602140774748   -0.0007577058199372543
-0.005069661919225114   -0.0048413522011158385   -0.0007081859155368939
-0.004161475005475974   -0.008714412317946106   -0.0009363961068419161
-0.006723070317088846   -0.008874593575947744   -0.0009876970350967964
-0.006642046919392708   -0.008833760202054005   -0.0010840277243278752
-0.005069661919225114   -0.0048413522011158385   -0.0007081859155368939
-0.004161475005475974   -0.008714412317946106   -0.0009363961068419161
-0.006642046919392708   -0.008833760202054005   -0.0010840277243278752
-0.0030244989290950934   -0.004611602140774748   -0.0007577058199372543
-0.003010571273144368   -0.004488549481333666   -0.0009403341884781735
-0.004152227419721944   -0.008572422695231473   -0.0011382040278025175
-0.0013981467999039936   -0.004418505979808739   -0.0008028777407333626
-0.003013406427058424   -0.004564957055491816   -0.0008471780216451978
-0.004152227419721944   -0.008572422695231473   -0.0011382040278025175
-0.0019801825400904377   -0.008515097950910447   -0.0010249844080976454
-0.0013981467999039936   -0.004418505979808739   -0.0008028777407333626
-0.00197434415637312   -0.00855711422487396   -0.0009841219667846774
-0.003013406427058424   -0.004564957055491816   -0.0008471780216451978
-0.0013853505972087764   -0.004467066297956965   -0.0007550722642929609
-0.00197434415637312   -0.00855711422487396   -0.0009841219667846774
-0.0013981467999039936   -0.004418505979808739   -0.0008028777407333626
-0.003013406427058424   -0.004564957055491816   -0.0008471780216451978
-0.00197434415637312   -0.00855711422487396   -0.0009841219667846774
-0.00416044500586997   -0.008638238795669172   -0.0010660547901430364
-0.004152227419721944   -0.008572422695231473   -0.0011382040278025175
-0.003013406427058424   -0.004564957055491816   -0.0008471780216451978
-0.00197434415637312   -0.00855711422487396   -0.0009841219667846774
-0.004152227419721944   -0.008572422695231473   -0.0011382040278025175
-0.0013981467999039936   -0.004418505979808739   -0.0008028777407333626
-0.003013406427058424   -0.004564957055491816   -0.0008471780216451978
-0.00416044500586997   -0.008638238795669172   -0.0010660547901430364
-0.0013853505972087764   -0.004467066297956965   -0.0007550722642929609
-0.0030244989290950934   -0.004611602140774748   -0.0007577058199372543
-0.00416044500586997   -0.008638238795669172   -0.0010660547901430364
-0.00197434415637312   -0.00855711422487396   -0.0009841219667846774
-0.0013853505972087764   -0.004467066297956965   -0.0007550722642929609
-0.001967395560904981   -0.008581823558554837   -0.0009482567866410723
-0.0030244989290950934   -0.004611602140774748   -0.0007577058199372543
-0.001373928427050338   -0.0044906432209051465   -0.0007117672044323124
-0.001967395560904981   -0.008581823558554837   -0.0009482567866410723
-0.0013853505972087764   -0.004467066297956965   -0.0007550722642929609
-0.0030244989290950934   -0.004611602140774748   -0.0007577058199372543
-0.001967395560904981   -0.008581823558554837   -0.0009482567866410723
-0.004170229972973695   -0.008684115503129345   -0.0009991593110461857
-0.00416044500586997   -0.008638238795669172   -0.0010660547901430364
-0.0030244989290950934   -0.004611602140774748   -0.0007577058199372543
-0.001967395560904981   -0.008581823558554837   -0.0009482567866410723
-0.00416044500586997   -0.008638238795669172   -0.0010660547901430364
-0.0013853505972087764   -0.004467066297956965   -0.0007550722642929609
-0.0030244989290950934   -0.004611602140774748   -0.0007577058199372543
-0.004170229972973695   -0.008684115503129345   -0.0009991593110461857
-0.001373928427050338   -0.0044906432209051465   -0.0007117672044323124
-0.0030146836582181174   -0.004635918184435051   -0.0006740037876734169
-0.004170229972973695   -0.008684115503129345   -0.0009991593110461857
-0.001967395560904981   -0.008581823558554837   -0.0009482567866410723
-0.001373928427050338   -0.0044906432209051465   -0.0007117672044323124
-0.00195652275001535   -0.008589579005386542   -0.0009173765573409272
-0.0030146836582181174   -0.004635918184435051   -0.0006740037876734169
-0.0013572255202926064   -0.004490123605170954   -0.0006741024311860696
-0.00195652275001535   -0.008589579005386542   -0.0009173765573409272
-0.001373928427050338   -0.0044906432209051465   -0.0007117672044323124
-0.0030146836582181174   -0.004635918184435051   -0.0006740037876734169
-0.00195652275001535   -0.008589579005386542   -0.0009173765573409272
-0.004161475005475974   -0.008714412317946106   -0.0009363961068419161
-0.004170229972973695   -0.008684115503129345   -0.0009991593110461857
-0.0030146836582181174   -0.004635918184435051   -0.0006740037876734169
-0.00195652275001535   -0.008589579005386542   -0.0009173765573409272
-0.004170229972973695   -0.008684115503129345   -0.0009991593110461857
-0.001373928427050338   -0.0044906432209051465   -0.0007117672044323124
-0.0013981467999039936   -0.004418505979808739   -0.0008028777407333626
-0.0019801825400904377   -0.008515097950910447   -0.0010249844080976454
0.0001562513757306017   -0.0044206354701267474   -0.0007161450548673582
-0.0013853505972087764   -0.004467066297956965   -0.0007550722642929609
-0.0019801825400904377   -0.008515097950910447   -0.0010249844080976454
0.00012769512927326198   -0.008512031639411662   -0.0009549705364120112
0.0001562513757306017   -0.0044206354701267474   -0.0007161450548673582
0.00013772718099942433   -0.00853059914577029   -0.0009452329781821935
-0.0013853505972087764   -0.004467066297956965   -0.0007550722642929609
0.00017185206793708508   -0.004443530254372482   -0.0007128438700138936
0.00013772718099942433   -0.00853059914577029   -0.0009452329781821935
0.0001562513757306017   -0.0044206354701267474   -0.0007161450548673582
-0.0013853505972087764   -0.004467066297956965   -0.0007550722642929609
0.00013772718099942433   -0.00853059914577029   -0.0009452329781821935
-0.00197434415637312   -0.00855711422487396   -0.0009841219667846774
-0.0019801825400904377   -0.008515097950910447   -0.0010249844080976454
-0.0013853505972087764   -0.004467066297956965   -0.0007550722642929609
0.00013772718099942433   -0.00853059914577029   -0.0009452329781821935
-0.0019801825400904377   -0.008515097950910447   -0.0010249844080976454
0.0001562513757306017   -0.0044206354701267474   -0.0007161450548673582
-0.0013853505972087764   -0.004467066297956965   -0.0007550722642929609
-0.00197434415637312   -0.00855711422487396   -0.0009841219667846774
0.00017185206793708508   -0.004443530254372482   -0.0007128438700138936
-0.001373928427050338   -0.0044906432209051465   -0.0007117672044323124
-0.00197434415637312   -0.00855711422487396   -0.0009841219667846774
0.00013772718099942433   -0.00853059914577029   -0.0009452329781821935
0.00017185206793708508   -0.004443530254372482   -0.0007128438700138936
0.00014447215126339404   -0.008531927410399317   -0.0009403651524379925
-0.001373928427050338   -0.0044906432209051465   -0.0007117672044323124
0.00018258207859943255   -0.004442024746681841   -0.0007146477909748023
0.00014447215126339404   -0.008531927410399317   -0.0009403651524379925
0.00017185206793708508   -0.004443530254372482   -0.0007128438700138936
-0.001373928427050338   -0.0044906432209051465   -0.0007117672044323124
0.00014447215126339404   -0.008531927410399317   -0.0009403651524379925
-0.001967395560904981   -0.008581823558554837   -0.0009482567866410723
-0.00197434415637312   -0.00855711422487396   -0.0009841219667846774
-0.001373928427050338   -0.0044906432209051465   -0.0007117672044323124
0.00014447215126339404   -0.008531927410399317   -0.0009403651524379925
-0.00197434415637312   -0.00855711422487396   -0.0009841219667846774
0.00017185206793708508   -0.004443530254372482   -0.0007128438700138936
-0.001373928427050338   -0.0044906432209051465   -0.0007117672044323124
-0.001967395560904981   -0.008581823558554837   -0.0009482567866410723
0.00018258207859943255   -0.004442024746681841   -0.0007146477909748023
-0.0013572255202926064   -0.004490123605170954   -0.0006741024311860696
-0.001967395560904981   -0.008581823558554837   -0.0009482567866410723
0.00014447215126339404   -0.008531927410399317   -0.0009403651524379925
0.00018258207859943255   -0.004442024746681841   -0.0007146477909748023
0.00014960435258312748   -0.008515760613764687   -0.0009406596303656134
-0.0013572255202926064   -0.004490123605170954   -0.0006741024311860696
0.00019403909034944832   -0.00441537794585043   -0.0007216366157648688
0.00014960435258312748   -0.008515760613764687   -0.0009406596303656134
0.00018258207859943255   -0.004442024746681841   -0.0007146477909748023
-0.0013572255202926064   -0.004490123605170954   -0.0006741024311860696
0.00014960435258312748   -0.008515760613764687   -0.0009406596303656134
-0.00195652275001535   -0.008589579005386542   -0.0009173765573409272
-0.001967395560904981   -0.008581823558554837   -0.0009482567866410723
-0.0013572255202926064   -0.004490123605170954   -0.0006741024311860696
0.00014960435258312748   -0.008515760613764687   -0.0009406596303656134
-0.001967395560904981   -0.008581823558554837   -0.0009482567866410723
0.00018258207859943255   -0.004442024746681841   -0.0007146477909748023
0.0001562513757306017   -0.0044206354701267474   -0.0007161450548673582
0.00012769512927326198   -0.008512031639411662   -0.0009549705364120112
0.0018038859216354104   -0.004492347145028228   -0.0006759595581123444
0.00017185206793708508   -0.004443530254372482   -0.0007128438700138936
0.00012769512927326198   -0.008512031639411662   -0.0009549705364120112
0.0023257880694625465   -0.008559990565602714   -0.0009269921440673461
0.0018038859216354104   -0.004492347145028228   -0.0006759595581123444
0.002334751052323228   -0.008557033910486535   -0.0009490186580328016
0.00017185206793708508   -0.004443530254372482   -0.0007128438700138936
0.0018131385408113152   -0.004491891829924485   -0.0007186007566920663
0.002334751052323228   -0.008557033910486535   -0.0009490186580328016
0.0018038859216354104   -0.004492347145028228   -0.0006759595581123444
0.00017185206793708508   -0.004443530254372482   -0.0007128438700138936
0.002334751052323228   -0.008557033910486535   -0.0009490186580328016
0.00013772718099942433   -0.00853059914577029   -0.0009452329781821935
0.00012769512927326198   -0.008512031639411662   -0.0009549705364120112
0.00017185206793708508   -0.004443530254372482   -0.0007128438700138936
0.002334751052323228   -0.008557033910486535   -0.0009490186580328016
0.00012769512927326198   -0.008512031639411662   -0.0009549705364120112
0.0018038859216354104   -0.004492347145028228   -0.0006759595581123444
0.00017185206793708508   -0.004443530254372482   -0.0007128438700138936
0.00013772718099942433   -0.00853059914577029   -0.0009452329781821935
0.0018131385408113152   -0.004491891829924485   -0.0007186007566920663
0.00018258207859943255   -0.004442024746681841   -0.0007146477909748023
0.00013772718099942433   -0.00853059914577029   -0.0009452329781821935
0.002334751052323228   -0.008557033910486535   -0.0009490186580328016
0.0018131385408113152   -0.004491891829924485   -0.0007186007566920663
0.002329845708438807   -0.00853723793159194   -0.0009755570921132755
0.00018258207859943255   -0.004442024746681841   -0.0007146477909748023
0.0018056000436344568   -0.004467532767174237   -0.0007670171972748896
0.002329845708438807   -0.00853723793159194   -0.0009755570921132755
0.0018131385408113152   -0.004491891829924485   -0.0007186007566920663
0.00018258207859943255   -0.004442024746681841   -0.0007146477909748023
0.002329845708438807   -0.00853723793159194   -0.0009755570921132755
0.00014447215126339404   -0.008531927410399317   -0.0009403651524379925
0.00013772718099942433   -0.00853059914577029   -0.0009452329781821935
0.00018258207859943255   -0.004442024746681841   -0.0007146477909748023
0.002329845708438807   -0.00853723793159194   -0.0009755570921132755
0.00013772718099942433   -0.00853059914577029   -0.0009452329781821935
0.0018131385408113152   -0.004491891829924485   -0.0007186007566920663
0.00018258207859943255   -0.004442024746681841   -0.0007146477909748023
0.00014447215126339404   -0.008531927410399317   -0.0009403651524379925
0.0018056000436344568   -0.004467532767174237   -0.0007670171972748896
0.00019403909034944832   -0.00441537794585043   -0.0007216366157648688
0.00014447215126339404   -0.008531927410399317   -0.0009403651524379925
0.002329845708438807   -0.00853723793159194   -0.0009755570921132755
0.0018056000436344568   -0.004467532767174237   -0.0007670171972748896
0.002321932394182292   -0.008496399351897888   -0.0010071447187572054
0.00019403909034944832   -0.00441537794585043   -0.0007216366157648688
0.001801584693419105   -0.004412642683198613   -0.0008194146765002467
0.002321932394182292   -0.008496399351897888   -0.0010071447187572054
0.0018056000436344568   -0.004467532767174237   -0.0007670171972748896
0.00019403909034944832   -0.00441537794585043   -0.0007216366157648688
0.002321932394182292   -0.008496399351897888   -0.0010071447187572054
0.00014960435258312748   -0.008515760613764687   -0.0009406596303656134
0.00014447215126339404   -0.008531927410399317   -0.0009403651524379925
0.00019403909034944832   -0.00441537794585043   -0.0007216366157648688
0.002321932394182292   -0.008496399351897888   -0.0010071447187572054
0.00014447215126339404   -0.008531927410399317   -0.0009403651524379925
0.0018056000436344568   -0.004467532767174237   -0.0007670171972748896
0.0018038859216354104   -0.004492347145028228   -0.0006759595581123444
0.0023257880694625465   -0.008559990565602714   -0.0009269921440673461
0.0037932011643058514   -0.004625492671392737   -0.000665704828215211
0.0018131385408113152   -0.004491891829924485   -0.0007186007566920663
0.0023257880694625465   -0.008559990565602714   -0.0009269921440673461
0.004829609772668262   -0.00864677776928914   -0.0009282853443087464
0.0037932011643058514   -0.004625492671392737   -0.000665704828215211
0.0047890816369384305   -0.008631369605213724   -0.0009860656764335745
0.0018131385408113152   -0.004491891829924485   -0.0007186007566920663
0.0037172769989976652   -0.004612540026510642   -0.000761750196125703
0.0047890816369384305   -0.008631369605213724   -0.0009860656764335745
0.0037932011643058514   -0.004625492671392737   -0.000665704828215211
0.0018131385408113152   -0.004491891829924485   -0.0007186007566920663
0.0047890816369384305   -0.008631369605213724   -0.0009860656764335745
0.002334751052323228   -0.008557033910486535   -0.0009490186580328016
0.0023257880694625465   -0.008559990565602714   -0.0009269921440673461
0.0018131385408113152   -0.004491891829924485   -0.0007186007566920663
0.0047890816369384305   -0.008631369605213724   -0.0009860656764335745
0.0023257880694625465   -0.008559990565602714   -0.0009269921440673461
0.0037932011643058514   -0.004625492671392737   -0.000665704828215211
0.0018131385408113152   -0.004491891829924485   -0.0007186007566920663
0.002334751052323228   -0.008557033910486535   -0.0009490186580328016
0.0037172769989976652   -0.004612540026510642   -0.000761750196125703
0.0018056000436344568   -0.004467532767174237   -0.0007670171972748896
0.002334751052323228   -0.008557033910486535   -0.0009490186580328016
0.0047890816369384305   -0.008631369605213724   -0.0009860656764335745
0.0037172769989976652   -0.004612540026510642   -0.000761750196125703
0.004748417185480415   -0.008600950013917714   -0.001051982909522149
0.0018056000436344568   -0.004467532767174237   -0.0007670171972748896
0.003649318472791714   -0.004575033199841867   -0.000869937031003783
0.004748417185480415   -0.008600950013917714   -0.001051982909522149
0.0037172769989976652   -0.004612540026510642   -0.000761750196125703
0.0018056000436344568   -0.004467532767174237   -0.0007670171972748896
0.004748417185480415   -0.008600950013917714   -0.001051982909522149
0.002329845708438807   -0.00853723793159194   -0.0009755570921132755
0.002334751052323228   -0.008557033910486535   -0.0009490186580328016
0.0018056000436344568   -0.004467532767174237   -0.0007670171972748896
0.004748417185480415   -0.008600950013917714   -0.001051982909522149
0.002334751052323228   -0.008557033910486535   -0.0009490186580328016
0.0037172769989976652   -0.004612540026510642   -0.000761750196125703
0.0018056000436344568   -0.004467532767174237   -0.0007670171972748896
0.002329845708438807   -0.00853723793159194   -0.0009755570921132755
0.003649318472791714   -0.004575033199841867   -0.000869937031003783
0.001801584693419105   -0.004412642683198613   -0.0008194146765002467
0.002329845708438807   -0.00853723793159194   -0.0009755570921132755
0.004748417185480415   -0.008600950013917714   -0.001051982909522149
0.003649318472791714   -0.004575033199841867   -0.000869937031003783
0.004675213921951444   -0.008537462522677583   -0.0011260460596694709
0.001801584693419105   -0.004412642683198613   -0.0008194146765002467
0.003546954485608739   -0.00449186248720002   -0.0009826394206202186
0.004675213921951444   -0.008537462522677583   -0.0011260460596694709
0.003649318472791714   -0.004575033199841867   -0.000869937031003783
0.001801584693419105   -0.004412642683198613   -0.0008194146765002467
0.004675213921951444   -0.008537462522677583   -0.0011260460596694709
0.002321932394182292   -0.008496399351897888   -0.0010071447187572054
0.002329845708438807   -0.00853723793159194   -0.0009755570921132755
0.001801584693419105   -0.004412642683198613   -0.0008194146765002467
0.004675213921951444   -0.008537462522677583   -0.0011260460596694709
0.002329845708438807   -0.00853723793159194   -0.0009755570921132755
0.003649318472791714   -0.004575033199841867   -0.000869937031003783
-0.006457230371150094   -0.008687240428877111   -0.0013012248865919987
-0.007704459026254288   -0.013479873608595016   -0.001388719153300395
-0.004152227419721944   -0.008572422695231473   -0.0011382040278025175
-0.006570835551676851   -0.008777240001829998   -0.0011887772447210978
-0.007704459026254288   -0.013479873608595016   -0.001388719153300395
-0.005002711362830093   -0.013407017265547251   -0.0012561431230697843
-0.004152227419721944   -0.008572422695231473   -0.0011382040278025175
-0.00500780854063333   -0.013463497713607943   -0.0012045996872370403
-0.006570835551676851   -0.008777240001829998   -0.0011887772447210978
-0.00416044500586997   -0.008638238795669172   -0.0010660547901430364
-0.00500780854063333   -0.013463497713607943   -0.0012045996872370403
-0.004152227419721944   -0.008572422695231473   -0.0011382040278025175
-0.006570835551676851   -0.008777240001829998   -0.0011887772447210978
-0.00500780854063333   -0.013463497713607943   -0.0012045996872370403
-0.007780461533518459   -0.013556329938171269   -0.0013142899126270028
-0.007704459026254288   -0.013479873608595016   -0.001388719153300395
-0.006570835551676851   -0.008777240001829998   -0.0011887772447210978
-0.00500780854063333   -0.013463497713607943   -0.0012045996872370403
-0.007704459026254288   -0.013479873608595016   -0.001388719153300395
-0.004152227419721944   -0.008572422695231473   -0.0011382040278025175
-0.006570835551676851   -0.008777240001829998   -0.0011887772447210978
-0.007780461533518459   -0.013556329938171269   -0.0013142899126270028
-0.00416044500586997   -0.008638238795669172   -0.0010660547901430364
-0.006642046919392708   -0.008833760202054005   -0.0010840277243278752
-0.007780461533518459   -0.013556329938171269   -0.0013142899126270028
-0.00500780854063333   -0.013463497713607943   -0.0012045996872370403
-0.00416044500586997   -0.008638238795669172   -0.0010660547901430364
-0.005011150681362355   -0.01350835440080542   -0.0011582087722780744
-0.006642046919392708   -0.008833760202054005   -0.0010840277243278752
-0.004170229972973695   -0.008684115503129345   -0.0009991593110461857
-0.005011150681362355   -0.01350835440080542   -0.0011582087722780744
-0.00416044500586997   -0.008638238795669172   -0.0010660547901430364
-0.006642046919392708   -0.008833760202054005   -0.0010840277243278752
-0.005011150681362355   -0.01350835440080542   -0.0011582087722780744
-0.007823616647376156   -0.013610520107296843   -0.0012470420974184347
-0.007780461533518459   -0.013556329938171269   -0.0013142899126270028
-0.006642046919392708   -0.008833760202054005   -0.0010840277243278752
-0.005011150681362355   -0.01350835440080542   -0.0011582087722780744
-0.007780461533518459   -0.013556329938171269   -0.0013142899126270028
-0.00416044500586997   -0.008638238795669172   -0.0010660547901430364
-0.006642046919392708   -0.008833760202054005   -0.0010840277243278752
-0.007823616647376156   -0.013610520107296843   -0.0012470420974184347
-0.004170229972973695   -0.008684115503129345   -0.0009991593110461857
-0.006723070317088846   -0.008874593575947744   -0.0009876970350967964
-0.007823616647376156   -0.013610520107296843   -0.0012470420974184347
-0.005011150681362355   -0.01350835440080542   -0.0011582087722780744
-0.004170229972973695   -0.008684115503129345   -0.0009991593110461857
-0.004999851081473963   -0.013545315971497267   -0.0011162796255313316
-0.006723070317088846   -0.008874593575947744   -0.0009876970350967964
-0.004161475005475974   -0.008714412317946106   -0.0009363961068419161
-0.004999851081473963   -0.013545315971497267   -0.0011162796255313316
-0.004170229972973695   -0.008684115503129345   -0.0009991593110461857
-0.006723070317088846   -0.008874593575947744   -0.0009876970350967964
-0.004999851081473963   -0.013545315971497267   -0.0011162796255313316
-0.007867992087709693   -0.013659258639928305   -0.0011878346877084208
-0.007823616647376156   -0.013610520107296843   -0.0012470420974184347
-0.006723070317088846   -0.008874593575947744   -0.0009876970350967964
-0.004999851081473963   -0.013545315971497267   -0.0011162796255313316
-0.007823616647376156   -0.013610520107296843   -0.0012470420974184347
-0.004170229972973695   -0.008684115503129345   -0.0009991593110461857
-0.004152227419721944   -0.008572422695231473   -0.0011382040278025175
-0.005002711362830093   -0.013407017265547251   -0.0012561431230697843
-0.0019801825400904377   -0.008515097950910447   -0.0010249844080976454
-0.00416044500586997   -0.008638238795669172   -0.0010660547901430364
-0.005002711362830093   -0.013407017265547251   -0.0012561431230697843
-0.0024706652182175074   -0.013369226924156295   -0.0011643711120630368
-0.0019801825400904377   -0.008515097950910447   -0.0010249844080976454
-0.0024650771573597884   -0.013404600272273371   -0.0011302345645157724
-0.00416044500586997   -0.008638238795669172   -0.0010660547901430364
-0.00197434415637312   -0.00855711422487396   -0.0009841219667846774
-0.0024650771573597884   -0.013404600272273371   -0.0011302345645157724
-0.0019801825400904377   -0.008515097950910447   -0.0010249844080976454
-0.00416044500586997   -0.008638238795669172   -0.0010660547901430364
-0.0024650771573597884   -0.013404600272273371   -0.0011302345645157724
-0.00500780854063333   -0.013463497713607943   -0.0012045996872370403
-0.005002711362830093   -0.013407017265547251   -0.0012561431230697843
-0.00416044500586997   -0.008638238795669172   -0.0010660547901430364
-0.0024650771573597884   -0.013404600272273371   -0.0011302345645157724
-0.005002711362830093   -0.013407017265547251   -0.0012561431230697843
-0.0019801825400904377   -0.008515097950910447   -0.0010249844080976454
-0.00416044500586997   -0.008638238795669172   -0.0010660547901430364
-0.00500780854063333   -0.013463497713607943   -0.0012045996872370403
-0.00197434415637312   -0.00855711422487396   -0.0009841219667846774
-0.004170229972973695   -0.008684115503129345   -0.0009991593110461857
-0.00500780854063333   -0.013463497713607943   -0.0012045996872370403
-0.0024650771573597884   -0.013404600272273371   -0.0011302345645157724
-0.00197434415637312   -0.00855711422487396   -0.0009841219667846774
-0.0024577831368527104   -0.013430224728930072   -0.0011011684285559009
-0.004170229972973695   -0.008684115503129345   -0.0009991593110461857
-0.001967395560904981   -0.008581823558554837   -0.0009482567866410723
-0.0024577831368527104   -0.013430224728930072   -0.0011011684285559009
-0.00197434415637312   -0.00855711422487396   -0.0009841219667846774
-0.004170229972973695   -0.008684115503129345   -0.0009991593110461857
-0.0024577831368527104   -0.013430224728930072   -0.0011011684285559009
-0.005011150681362355   -0.01350835440080542   -0.0011582087722780744
-0.00500780854063333   -0.013463497713607943   -0.0012045996872370403
-0.004170229972973695   -0.008684115503129345   -0.0009991593110461857
-0.0024577831368527104   -0.013430224728930072   -0.0011011684285559009
-0.00500780854063333   -0.013463497713607943   -0.0012045996872370403
-0.00197434415637312   -0.00855711422487396   -0.0009841219667846774
-0.004170229972973695   -0.008684115503129345   -0.0009991593110461857
-0.005011150681362355   -0.01350835440080542   -0.0011582087722780744
-0.001967395560904981   -0.008581823558554837   -0.0009482567866410723
-0.004161475005475974   -0.008714412317946106   -0.0009363961068419161
-0.005011150681362355   -0.01350835440080542   -0.0011582087722780744
-0.0024577831368527104   -0.013430224728930072   -0.0011011684285559009
-0.001967395560904981   -0.008581823558554837   -0.0009482567866410723
-0.0024473284164091376   -0.013446269243265693   -0.0010772601100447505
-0.004161475005475974   -0.008714412317946106   -0.0009363961068419161
-0.00195652275001535   -0.008589579005386542   -0.0009173765573409272
-0.0024473284164091376   -0.013446269243265693   -0.0010772601100447505
-0.001967395560904981   -0.008581823558554837   -0.0009482567866410723
-0.004161475005475974   -0.008714412317946106   -0.0009363961068419161
-0.0024473284164091376   -0.013446269243265693   -0.0010772601100447505
-0.004999851081473963   -0.013545315971497267   -0.0011162796255313316
-0.005011150681362355   -0.01350835440080542   -0.0011582087722780744
-0.004161475005475974   -0.008714412317946106   -0.0009363961068419161
-0.0024473284164091376   -0.013446269243265693   -0.0010772601100447505
-0.005011150681362355   -0.01350835440080542   -0.0011582087722780744
-0.001967395560904981   -0.008581823558554837   -0.0009482567866410723
-0.0019801825400904377   -0.008515097950910447   -0.0010249844080976454
-0.0024706652182175074   -0.013369226924156295   -0.0011643711120630368
0.00012769512927326198   -0.008512031639411662   -0.0009549705364120112
-0.00197434415637312   -0.00855711422487396   -0.0009841219667846774
-0.0024706652182175074   -0.013369226924156295   -0.0011643711120630368
-7.5993555611777555e-06   -0.013362643861078835   -0.0011111183267900034
0.00012769512927326198   -0.008512031639411662   -0.0009549705364120112
2.1554665040989453e-06   -0.013376768203026348   -0.0010945349892877633
-0.00197434415637312   -0.00855711422487396   -0.0009841219667846774
0.00013772718099942433   -0.00853059914577029   -0.0009452329781821935
2.1554665040989453e-06   -0.013376768203026348   -0.0010945349892877633
0.00012769512927326198   -0.008512031639411662   -0.0009549705364120112
-0.00197434415637312   -0.00855711422487396   -0.0009841219667846774
2.1554665040989453e-06   -0.013376768203026348   -0.0010945349892877633
-0.0024650771573597884   -0.013404600272273371   -0.0011302345645157724
-0.0024706652182175074   -0.013369226924156295   -0.0011643711120630368
-0.00197434415637312   -0.00855711422487396   -0.0009841219667846774
2.1554665040989453e-06   -0.013376768203026348   -0.0010945349892877633
-0.0024706652182175074   -0.013369226924156295   -0.0011643711120630368
0.00012769512927326198   -0.008512031639411662   -0.0009549705364120112
-0.00197434415637312   -0.00855711422487396   -0.0009841219667846774
-0.0024650771573597884   -0.013404600272273371   -0.0011302345645157724
0.00013772718099942433   -0.00853059914577029   -0.0009452329781821935
-0.001967395560904981   -0.008581823558554837   -0.0009482567866410723
-0.0024650771573597884   -0.013404600272273371   -0.0011302345645157724
2.1554665040989453e-06   -0.013376768203026348   -0.0010945349892877633
0.00013772718099942433   -0.00853059914577029   -0.0009452329781821935
9.355332139262068e-06   -0.01338107529233623   -0.0010829610442914998
-0.001967395560904981   -0.008581823558554837   -0.0009482567866410723
0.00014447215126339404   -0.008531927410399317   -0.0009403651524379925
9.355332139262068e-06   -0.01338107529233623   -0.0010829610442914998
0.00013772718099942433   -0.00853059914577029   -0.0009452329781821935
-0.001967395560904981   -0.008581823558554837   -0.0009482567866410723
9.355332139262068e-06   -0.01338107529233623   -0.0010829610442914998
-0.0024577831368527104   -0.013430224728930072   -0.0011011684285559009
-0.0024650771573597884   -0.013404600272273371   -0.0011302345645157724
-0.001967395560904981   -0.008581823558554837   -0.0009482567866410723
9.355332139262068e-06   -0.01338107529233623   -0.0010829610442914998
-0.0024650771573597884   -0.013404600272273371   -0.0011302345645157724
0.00013772718099942433   -0.00853059914577029   -0.0009452329781821935
-0.001967395560904981   -0.008581823558554837   -0.0009482567866410723
-0.0024577831368527104   -0.013430224728930072   -0.0011011684285559009
0.00014447215126339404   -0.008531927410399317   -0.0009403651524379925
-0.00195652275001535   -0.008589579005386542   -0.0009173765573409272
-0.0024577831368527104   -0.013430224728930072   -0.0011011684285559009
9.355332139262068e-06   -0.01338107529233623   -0.0010829610442914998
0.00014447215126339404   -0.008531927410399317   -0.0009403651524379925
1.4268551879014521e-05   -0.01337542974192644   -0.0010766154283119625
-0.00195652275001535   -0.008589579005386542   -0.0009173765573409272
0.00014960435258312748   -0.008515760613764687   -0.0009406596303656134
1.4268551879014521e-05   -0.01337542974192644   -0.0010766154283119625
0.00014447215126339404   -0.008531927410399317   -0.0009403651524379925
-0.00195652275001535   -0.008589579005386542   -0.0009173765573409272
1.4268551879014521e-05   -0.01337542974192644   -0.0010766154283119625
-0.0024473284164091376   -0.013446269243265693   -0.0010772601100447505
-0.0024577831368527104   -0.013430224728930072   -0.0011011684285559009
-0.00195652275001535   -0.008589579005386542   -0.0009173765573409272
1.4268551879014521e-05   -0.01337542974192644   -0.0010766154283119625
-0.0024577831368527104   -0.013430224728930072   -0.0011011684285559009
0.00014447215126339404   -0.008531927410399317   -0.0009403651524379925
0.00012769512927326198   -0.008512031639411662   -0.0009549705364120112
-7.5993555611777555e-06   -0.013362643861078835   -0.0011111183267900034
0.0023257880694625465   -0.008559990565602714   -0.0009269921440673461
0.00013772718099942433   -0.00853059914577029   -0.0009452329781821935
-7.5993555611777555e-06   -0.013362643861078835   -0.0011111183267900034
0.002540218930021648   -0.013384579683815822   -0.0010962037503627372
0.0023257880694625465   -0.008559990565602714   -0.0009269921440673461
0.0025520268549415305   -0.013378661942892367   -0.0010975364205746965
0.00013772718099942433   -0.00853059914577029   -0.0009452329781821935
0.002334751052323228   -0.008557033910486535   -0.0009490186580328016
0.0025520268549415305   -0.013378661942892367   -0.0010975364205746965
0.0023257880694625465   -0.008559990565602714   -0.0009269921440673461
0.00013772718099942433   -0.00853059914577029   -0.0009452329781821935
0.0025520268549415305   -0.013378661942892367   -0.0010975364205746965
2.1554665040989453e-06   -0.013376768203026348   -0.0010945349892877633
-7.5993555611777555e-06   -0.013362643861078835   -0.0011111183267900034
0.00013772718099942433   -0.00853059914577029   -0.0009452329781821935
0.0025520268549415305   -0.013378661942892367   -0.0010975364205746965
-7.5993555611777555e-06   -0.013362643861078835   -0.0011111183267900034
0.0023257880694625465   -0.008559990565602714   -0.0009269921440673461
0.00013772718099942433   -0.00853059914577029   -0.0009452329781821935
2.1554665040989453e-06   -0.013376768203026348   -0.0010945349892877633
0.002334751052323228   -0.008557033910486535   -0.0009490186580328016
0.00014447215126339404   -0.008531927410399317   -0.0009403651524379925
2.1554665040989453e-06   -0.013376768203026348   -0.0010945349892877633
0.0025520268549415305   -0.013378661942892367   -0.0010975364205746965
0.002334751052323228   -0.008557033910486535   -0.0009490186580328016
0.00255390063079368   -0.013363713423416024   -0.0011036063921830888
0.00014447215126339404   -0.008531927410399317   -0.0009403651524379925
0.002329845708438807   -0.00853723793159194   -0.0009755570921132755
0.00255390063079368   -0.013363713423416024   -0.0011036063921830888
0.002334751052323228   -0.008557033910486535   -0.0009490186580328016
0.00014447215126339404   -0.008531927410399317   -0.0009403651524379925
0.00255390063079368   -0.013363713423416024   -0.0011036063921830888
9.355332139262068e-06   -0.01338107529233623   -0.0010829610442914998
2.1554665040989453e-06   -0.013376768203026348   -0.0010945349892877633
0.00014447215126339404   -0.008531927410399317   -0.0009403651524379925
0.00255390063079368   -0.013363713423416024   -0.0011036063921830888
2.1554665040989453e-06   -0.013376768203026348   -0.0010945349892877633
0.002334751052323228   -0.008557033910486535   -0.0009490186580328016
0.00014447215126339404   -0.008531927410399317   -0.0009403651524379925
9.355332139262068e-06   -0.01338107529233623   -0.0010829610442914998
0.002329845708438807   -0.00853723793159194   -0.0009755570921132755
0.00014960435258312748   -0.008515760613764687   -0.0009406596303656134
9.355332139262068e-06   -0.01338107529233623   -0.0010829610442914998
0.00255390063079368   -0.013363713423416024   -0.0011036063921830888
0.002329845708438807   -0.00853723793159194   -0.0009755570921132755
0.0025493239801086805   -0.013336026868436362   -0.0011145972813779582
0.00014960435258312748   -0.008515760613764687   -0.0009406596303656134
0.002321932394182292   -0.008496399351897888   -0.0010071447187572054
0.0025493239801086805   -0.013336026868436362   -0.0011145972813779582
0.002329845708438807   -0.00853723793159194   -0.0009755570921132755
0.00014960435258312748   -0.008515760613764687   -0.0009406596303656134
0.0025493239801086805   -0.013336026868436362   -0.0011145972813779582
1.4268551879014521e-05   -0.01337542974192644   -0.0010766154283119625
9.355332139262068e-06   -0.01338107529233623   -0.0010829610442914998
0.00014960435258312748   -0.008515760613764687   -0.0009406596303656134
0.0025493239801086805   -0.013336026868436362   -0.0011145972813779582
9.355332139262068e-06   -0.01338107529233623   -0.0010829610442914998
0.002329845708438807   -0.00853723793159194   -0.0009755570921132755
0.0023257880694625465   -0.008559990565602714   -0.0009269921440673461
0.002540218930021648   -0.013384579683815822   -0.0010962037503627372
0.004829609772668262   -0.00864677776928914   -0.0009282853443087464
0.002334751052323228   -0.008557033910486535   -0.0009490186580328016
0.002540218930021648   -0.013384579683815822   -0.0010962037503627372
0.005353542024224488   -0.013424730090627654   -0.0011114202410315225
0.004829609772668262   -0.00864677776928914   -0.0009282853443087464
0.005350168610804328   -0.01340520166863578   -0.0011319784485418992
0.002334751052323228   -0.008557033910486535   -0.0009490186580328016
0.0047890816369384305   -0.008631369605213724   -0.0009860656764335745
0.005350168610804328   -0.01340520166863578   -0.0011319784485418992
0.004829609772668262   -0.00864677776928914   -0.0009282853443087464
0.002334751052323228   -0.008557033910486535   -0.0009490186580328016
0.005350168610804328   -0.01340520166863578   -0.0011319784485418992
0.0025520268549415305   -0.013378661942892367   -0.0010975364205746965
0.002540218930021648   -0.013384579683815822   -0.0010962037503627372
0.002334751052323228   -0.008557033910486535   -0.0009490186580328016
0.005350168610804328   -0.01340520166863578   -0.0011319784485418992
0.002540218930021648   -0.013384579683815822   -0.0010962037503627372
0.004829609772668262   -0.00864677776928914   -0.0009282853443087464
0.002334751052323228   -0.008557033910486535   -0.0009490186580328016
0.0025520268549415305   -0.013378661942892367   -0.0010975364205746965
0.0047890816369384305   -0.008631369605213724   -0.0009860656764335745
0.002329845708438807   -0.00853723793159194   -0.0009755570921132755
0.0025520268549415305   -0.013378661942892367   -0.0010975364205746965
0.005350168610804328   -0.01340520166863578   -0.0011319784485418992
0.0047890816369384305   -0.008631369605213724   -0.0009860656764335745
0.005338151100504608   -0.013380888625061598   -0.0011602291723982474
0.002329845708438807   -0.00853723793159194   -0.0009755570921132755
0.004748417185480415   -0.008600950013917714   -0.001051982909522149
0.005338151100504608   -0.013380888625061598   -0.0011602291723982474
0.0047890816369384305   -0.008631369605213724   -0.0009860656764335745
0.002329845708438807   -0.00853723793159194   -0.0009755570921132755
0.005338151100504608   -0.013380888625061598   -0.0011602291723982474
0.00255390063079368   -0.013363713423416024   -0.0011036063921830888
0.0025520268549415305   -0.013378661942892367   -0.0010975364205746965
0.002329845708438807   -0.00853723793159194   -0.0009755570921132755
0.005338151100504608   -0.013380888625061598   -0.0011602291723982474
0.0025520268549415305   -0.013378661942892367   -0.0010975364205746965
0.0047890816369384305   -0.008631369605213724   -0.0009860656764335745
0.002329845708438807   -0.00853723793159194   -0.0009755570921132755
0.00255390063079368   -0.013363713423416024   -0.0011036063921830888
0.004748417185480415   -0.008600950013917714   -0.001051982909522149
0.002321932394182292   -0.008496399351897888   -0.0010071447187572054
0.00255390063079368   -0.013363713423416024   -0.0011036063921830888
0.005338151100504608   -0.013380888625061598   -0.0011602291723982474
0.004748417185480415   -0.008600950013917714   -0.001051982909522149
0.005303086608327589   -0.013334853177040858   -0.0011961164934901237
0.002321932394182292   -0.008496399351897888   -0.0010071447187572054
0.004675213921951444   -0.008537462522677583   -0.0011260460596694709
0.005303086608327589   -0.013334853177040858   -0.0011961164934901237
0.004748417185480415   -0.008600950013917714   -0.001051982909522149
0.002321932394182292   -0.008496399351897888   -0.0010071447187572054
0.005303086608327589   -0.013334853177040858   -0.0011961164934901237
0.0025493239801086805   -0.013336026868436362   -0.0011145972813779582
0.00255390063079368   -0.013363713423416024   -0.0011036063921830888
0.002321932394182292   -0.008496399351897888   -0.0010071447187572054
0.005303086608327589   -0.013334853177040858   -0.0011961164934901237
0.00255390063079368   -0.013363713423416024   -0.0011036063921830888
0.004748417185480415   -0.008600950013917714   -0.001051982909522149
-0.007704459026254288   -0.013479873608595016   -0.001388719153300395
-0.008456579094800735   -0.018689558140831425   -0.0014152472442109042
-0.005002711362830093   -0.013407017265547251   -0.0012561431230697843
-0.007780461533518459   -0.013556329938171269   -0.0013142899126270028
-0.008456579094800735   -0.018689558140831425   -0.0014152472442109042
-0.005559772191759963   -0.018660045604230263   -0.001309946198745951
-0.005002711362830093   -0.013407017265547251   -0.0012561431230697843
-0.005556771099726553   -0.018708097510682857   -0.001278401412172281
-0.007780461533518459   -0.013556329938171269   -0.0013142899126270028
-0.00500780854063333   -0.013463497713607943   -0.0012045996872370403
-0.005556771099726553   -0.018708097510682857   -0.001278401412172281
-0.005002711362830093   -0.013407017265547251   -0.0012561431230697843
-0.007780461533518459   -0.013556329938171269   -0.0013142899126270028
-0.005556771099726553   -0.018708097510682857   -0.001278401412172281
-0.008491502458271303   -0.01875419531843046   -0.001377083552843856
-0.008456579094800735   -0.018689558140831425   -0.0014152472442109042
-0.007780461533518459   -0.013556329938171269   -0.0013142899126270028
-0.005556771099726553   -0.018708097510682857   -0.001278401412172281
-0.008456579094800735   -0.018689558140831425   -0.0014152472442109042
-0.005002711362830093   -0.013407017265547251   -0.0012561431230697843
-0.007780461533518459   -0.013556329938171269   -0.0013142899126270028
-0.008491502458271303   -0.01875419531843046   -0.001377083552843856
-0.00500780854063333   -0.013463497713607943   -0.0012045996872370403
-0.007823616647376156   -0.013610520107296843   -0.0012470420974184347
-0.008491502458271303   -0.01875419531843046   -0.001377083552843856
-0.005556771099726553   -0.018708097510682857   -0.001278401412172281
-0.00500780854063333   -0.013463497713607943   -0.0012045996872370403
-0.0055485259334355184   -0.01875251956552783   -0.0012520974742521106
-0.007823616647376156   -0.013610520107296843   -0.0012470420974184347
-0.005011150681362355   -0.01350835440080542   -0.0011582087722780744
-0.0055485259334355184   -0.01875251956552783   -0.0012520974742521106
-0.00500780854063333   -0.013463497713607943   -0.0012045996872370403
-0.007823616647376156   -0.013610520107296843   -0.0012470420974184347
-0.0055485259334355184   -0.01875251956552783   -0.0012520974742521106
-0.008501975395115265   -0.018807029285903866   -0.0013464603162422531
-0.008491502458271303   -0.01875419531843046   -0.001377083552843856
-0.007823616647376156   -0.013610520107296843   -0.0012470420974184347
-0.0055485259334355184   -0.01875251956552783   -0.0012520974742521106
-0.008491502458271303   -0.01875419531843046   -0.001377083552843856
-0.00500780854063333   -0.013463497713607943   -0.0012045996872370403
-0.007823616647376156   -0.013610520107296843   -0.0012470420974184347
-0.008501975395115265   -0.018807029285903866   -0.0013464603162422531
-0.005011150681362355   -0.01350835440080542   -0.0011582087722780744
-0.007867992087709693   -0.013659258639928305   -0.0011878346877084208
-0.008501975395115265   -0.018807029285903866   -0.0013464603162422531
-0.0055485259334355184   -0.01875251956552783   -0.0012520974742521106
-0.005011150681362355   -0.01350835440080542   -0.0011582087722780744
-0.005529408595328962   -0.018796706733524477   -0.0012306591008642638
-0.007867992087709693   -0.013659258639928305   -0.0011878346877084208
-0.004999851081473963   -0.013545315971497267   -0.0011162796255313316
-0.005529408595328962   -0.018796706733524477   -0.0012306591008642638
-0.005011150681362355   -0.01350835440080542   -0.0011582087722780744
-0.007867992087709693   -0.013659258639928305   -0.0011878346877084208
-0.005529408595328962   -0.018796706733524477   -0.0012306591008642638
-0.008504755560983795   -0.018864557142541826   -0.0013240342148945995
-0.008501975395115265   -0.018807029285903866   -0.0013464603162422531
-0.007867992087709693   -0.013659258639928305   -0.0011878346877084208
-0.005529408595328962   -0.018796706733524477   -0.0012306591008642638
-0.008501975395115265   -0.018807029285903866   -0.0013464603162422531
-0.005011150681362355   -0.01350835440080542   -0.0011582087722780744
-0.005002711362830093   -0.013407017265547251   -0.0012561431230697843
-0.005559772191759963   -0.018660045604230263   -0.001309946198745951
-0.0024706652182175074   -0.013369226924156295   -0.0011643711120630368
-0.00500780854063333   -0.013463497713607943   -0.0012045996872370403
-0.005559772191759963   -0.018660045604230263   -0.001309946198745951
-0.002869027471125298   -0.018642928219286956   -0.0012382857256366916
-0.0024706652182175074   -0.013369226924156295   -0.0011643711120630368
-0.0028582024856274616   -0.018671944939897798   -0.0012106542174810985
-0.00500780854063333   -0.013463497713607943   -0.0012045996872370403
-0.0024650771573597884   -0.013404600272273371   -0.0011302345645157724
-0.0028582024856274616   -0.018671944939897798   -0.0012106542174810985
-0.0024706652182175074   -0.013369226924156295   -0.0011643711120630368
-0.00500780854063333   -0.013463497713607943   -0.0012045996872370403
-0.0028582024856274616   -0.018671944939897798   -0.0012106542174810985
-0.005556771099726553   -0.018708097510682857   -0.001278401412172281
-0.005559772191759963   -0.018660045604230263   -0.001309946198745951
-0.00500780854063333   -0.013463497713607943   -0.0012045996872370403
-0.0028582024856274616   -0.018671944939897798   -0.0012106542174810985
-0.005559772191759963   -0.018660045604230263   -0.001309946198745951
-0.0024706652182175074   -0.013369226924156295   -0.0011643711120630368
-0.00500780854063333   -0.013463497713607943   -0.0012045996872370403
-0.005556771099726553   -0.018708097510682857   -0.001278401412172281
-0.0024650771573597884   -0.013404600272273371   -0.0011302345645157724
-0.005011150681362355   -0.01350835440080542   -0.0011582087722780744
-0.005556771099726553   -0.018708097510682857   -0.001278401412172281
-0.0028582024856274616   -0.018671944939897798   -0.0012106542174810985
-0.0024650771573597884   -0.013404600272273371   -0.0011302345645157724
-0.0028451158013759266   -0.018698640219834927   -0.0011882636024728127
-0.005011150681362355   -0.01350835440080542   -0.0011582087722780744
-0.0024577831368527104   -0.013430224728930072   -0.0011011684285559009
-0.0028451158013759266   -0.018698640219834927   -0.0011882636024728127
-0.0024650771573597884   -0.013404600272273371   -0.0011302345645157724
-0.005011150681362355   -0.01350835440080542   -0.0011582087722780744
-0.0028451158013759266   -0.018698640219834927   -0.0011882636024728127
-0.0055485259334355184   -0.01875251956552783   -0.0012520974742521106
-0.005556771099726553   -0.018708097510682857   -0.001278401412172281
-0.005011150681362355   -0.01350835440080542   -0.0011582087722780744
-0.0028451158013759266   -0.018698640219834927   -0.0011882636024728127
-0.005556771099726553   -0.018708097510682857   -0.001278401412172281
-0.0024650771573597884   -0.013404600272273371   -0.0011302345645157724
-0.005011150681362355   -0.01350835440080542   -0.0011582087722780744
-0.0055485259334355184   -0.01875251956552783   -0.0012520974742521106
-0.0024577831368527104   -0.013430224728930072   -0.0011011684285559009
-0.004999851081473963   -0.013545315971497267   -0.0011162796255313316
-0.0055485259334355184   -0.01875251956552783   -0.0012520974742521106
-0.0028451158013759266   -0.018698640219834927   -0.0011882636024728127
-0.0024577831368527104   -0.013430224728930072   -0.0011011684285559009
-0.002829535097920083   -0.0187231034241233   -0.0011712439572280874
-0.004999851081473963   -0.013545315971497267   -0.0011162796255313316
-0.0024473284164091376   -0.013446269243265693   -0.0010772601100447505
-0.002829535097920083   -0.0187231034241233   -0.0011712439572280874
-0.0024577831368527104   -0.013430224728930072   -0.0011011684285559009
-0.004999851081473963   -0.013545315971497267   -0.0011162796255313316
-0.002829535097920083   -0.0187231034241233   -0.0011712439572280874
-0.005529408595328962   -0.018796706733524477   -0.0012306591008642638
-0.0055485259334355184   -0.01875251956552783   -0.0012520974742521106
-0.004999851081473963   -0.013545315971497267   -0.0011162796255313316
-0.002829535097920083   -0.0187231034241233   -0.0011712439572280874
-0.0055485259334355184   -0.01875251956552783   -0.0012520974742521106
-0.0024577831368527104   -0.013430224728930072   -0.0011011684285559009
-0.0024706652182175074   -0.013369226924156295   -0.0011643711120630368
-0.002869027471125298   -0.018642928219286956   -0.0012382857256366916
-7.5993555611777555e-06   -0.013362643861078835   -0.0011111183267900034
-0.0024650771573597884   -0.013404600272273371   -0.0011302345645157724
-0.002869027471125298   -0.018642928219286956   -0.0012382857256366916
-0.00025113838999751966   -0.018633002701876632   -0.0012014345662196568
-7.5993555611777555e-06   -0.013362643861078835   -0.0011111183267900034
-0.00023629549725182243   -0.01864260138538262   -0.0011780020744205683
-0.0024650771573597884   -0.013404600272273371   -0.0011302345645157724
2.1554665040989453e-06   -0.013376768203026348   -0.0010945349892877633
-0.00023629549725182243   -0.01864260138538262   -0.0011780020744205683
-7.5993555611777555e-06   -0.013362643861078835   -0.0011111183267900034
-0.0024650771573597884   -0.013404600272273371   -0.0011302345645157724
-0.00023629549725182243   -0.01864260138538262   -0.0011780020744205683
-0.0028582024856274616   -0.018671944939897798   -0.0012106542174810985
-0.002869027471125298   -0.018642928219286956   -0.0012382857256366916
-0.0024650771573597884   -0.013404600272273371   -0.0011302345645157724
-0.00023629549725182243   -0.01864260138538262   -0.0011780020744205683
-0.002869027471125298   -0.018642928219286956   -0.0012382857256366916
-7.5993555611777555e-06   -0.013362643861078835   -0.0011111183267900034
-0.0024650771573597884   -0.013404600272273371   -0.0011302345645157724
-0.0028582024856274616   -0.018671944939897798   -0.0012106542174810985
2.1554665040989453e-06   -0.013376768203026348   -0.0010945349892877633
-0.0024577831368527104   -0.013430224728930072   -0.0011011684285559009
-0.0028582024856274616   -0.018671944939897798   -0.0012106542174810985
-0.00023629549725182243   -0.01864260138538262   -0.0011780020744205683
2.1554665040989453e-06   -0.013376768203026348   -0.0010945349892877633
-0.00022334256110923386   -0.018649709906427125   -0.001159768770033502
-0.0024577831368527104   -0.013430224728930072   -0.0011011684285559009
9.355332139262068e-06   -0.01338107529233623   -0.0010829610442914998
-0.00022334256110923386   -0.018649709906427125   -0.001159768770033502
2.1554665040989453e-06   -0.013376768203026348   -0.0010945349892877633
-0.0024577831368527104   -0.013430224728930072   -0.0011011684285559009
-0.00022334256110923386   -0.018649709906427125   -0.001159768770033502
-0.0028451158013759266   -0.018698640219834927   -0.0011882636024728127
-0.0028582024856274616   -0.018671944939897798   -0.0012106542174810985
-0.0024577831368527104   -0.013430224728930072   -0.0011011684285559009
-0.00022334256110923386   -0.018649709906427125   -0.001159768770033502
-0.0028582024856274616   -0.018671944939897798   -0.0012106542174810985
2.1554665040989453e-06   -0.013376768203026348   -0.0010945349892877633
-0.0024577831368527104   -0.013430224728930072   -0.0011011684285559009
-0.0028451158013759266   -0.018698640219834927   -0.0011882636024728127
9.355332139262068e-06   -0.01338107529233623   -0.0010829610442914998
-0.0024473284164091376   -0.013446269243265693   -0.0010772601100447505
-0.0028451158013759266   -0.018698640219834927   -0.0011882636024728127
-0.00022334256110923386   -0.018649709906427125   -0.001159768770033502
9.355332139262068e-06   -0.01338107529233623   -0.0010829610442914998
-0.00021326889231909537   -0.018654289145236574   -0.0011469219839210655
-0.0024473284164091376   -0.013446269243265693   -0.0010772601100447505
1.4268551879014521e-05   -0.01337542974192644   -0.0010766154283119625
-0.00021326889231909537   -0.018654289145236574   -0.0011469219839210655
9.355332139262068e-06   -0.01338107529233623   -0.0010829610442914998
-0.0024473284164091376   -0.013446269243265693   -0.0010772601100447505
-0.00021326889231909537   -0.018654289145236574   -0.0011469219839210655
-0.002829535097920083   -0.0187231034241233   -0.0011712439572280874
-0.0028451158013759266   -0.018698640219834927   -0.0011882636024728127
-0.0024473284164091376   -0.013446269243265693   -0.0010772601100447505
-0.00021326889231909537   -0.018654289145236574   -0.0011469219839210655
-0.0028451158013759266   -0.018698640219834927   -0.0011882636024728127
9.355332139262068e-06   -0.01338107529233623   -0.0010829610442914998
-7.5993555611777555e-06   -0.013362643861078835   -0.0011111183267900034
-0.00025113838999751966   -0.018633002701876632   -0.0012014345662196568
0.002540218930021648   -0.013384579683815822   -0.0010962037503627372
2.1554665040989453e-06   -0.013376768203026348   -0.0010945349892877633
-0.00025113838999751966   -0.018633002701876632   -0.0012014345662196568
0.0024464781636347886   -0.01862855287423391   -0.0011997516309688952
0.002540218930021648   -0.013384579683815822   -0.0010962037503627372
0.0024659570144105513   -0.018619318545828045   -0.0011807246701053347
2.1554665040989453e-06   -0.013376768203026348   -0.0010945349892877633
0.0025520268549415305   -0.013378661942892367   -0.0010975364205746965
0.0024659570144105513   -0.018619318545828045   -0.0011807246701053347
0.002540218930021648   -0.013384579683815822   -0.0010962037503627372
2.1554665040989453e-06   -0.013376768203026348   -0.0010945349892877633
0.0024659570144105513   -0.018619318545828045   -0.0011807246701053347
-0.00023629549725182243   -0.01864260138538262   -0.0011780020744205683
-0.00025113838999751966   -0.018633002701876632   -0.0012014345662196568
2.1554665040989453e-06   -0.013376768203026348   -0.0010945349892877633
0.0024659570144105513   -0.018619318545828045   -0.0011807246701053347
-0.00025113838999751966   -0.018633002701876632   -0.0012014345662196568
0.002540218930021648   -0.013384579683815822   -0.0010962037503627372
2.1554665040989453e-06   -0.013376768203026348   -0.0010945349892877633
-0.00023629549725182243   -0.01864260138538262   -0.0011780020744205683
0.0025520268549415305   -0.013378661942892367   -0.0010975364205746965
9.355332139262068e-06   -0.01338107529233623   -0.0010829610442914998
-0.00023629549725182243   -0.01864260138538262   -0.0011780020744205683
0.0024659570144105513   -0.018619318545828045   -0.0011807246701053347
0.0025520268549415305   -0.013378661942892367   -0.0010975364205746965
0.0024793314023369797   -0.018608703014685944   -0.0011667451327438997
9.355332139262068e-06   -0.01338107529233623   -0.0010829610442914998
0.00255390063079368   -0.013363713423416024   -0.0011036063921830888
0.0024793314023369797   -0.018608703014685944   -0.0011667451327438997
0.0025520268549415305   -0.013378661942892367   -0.0010975364205746965
9.355332139262068e-06   -0.01338107529233623   -0.0010829610442914998
0.0024793314023369797   -0.018608703014685944   -0.0011667451327438997
-0.00022334256110923386   -0.018649709906427125   -0.001159768770033502
-0.00023629549725182243   -0.01864260138538262   -0.0011780020744205683
9.355332139262068e-06   -0.01338107529233623   -0.0010829610442914998
0.0024793314023369797   -0.018608703014685944   -0.0011667451327438997
-0.00023629549725182243   -0.01864260138538262   -0.0011780020744205683
0.0025520268549415305   -0.013378661942892367   -0.0010975364205746965
9.355332139262068e-06   -0.01338107529233623   -0.0010829610442914998
-0.00022334256110923386   -0.018649709906427125   -0.001159768770033502
0.00255390063079368   -0.013363713423416024   -0.0011036063921830888
1.4268551879014521e-05   -0.01337542974192644   -0.0010766154283119625
-0.00022334256110923386   -0.018649709906427125   -0.001159768770033502
0.0024793314023369797   -0.018608703014685944   -0.0011667451327438997
0.00255390063079368   -0.013363713423416024   -0.0011036063921830888
0.0024827655395854653   -0.018593270666614266   -0.0011577115494297715
1.4268551879014521e-05   -0.01337542974192644   -0.0010766154283119625
0.0025493239801086805   -0.013336026868436362   -0.0011145972813779582
0.0024827655395854653   -0.018593270666614266   -0.0011577115494297715
0.00255390063079368   -0.013363713423416024   -0.0011036063921830888
1.4268551879014521e-05   -0.01337542974192644   -0.0010766154283119625
0.0024827655395854653   -0.018593270666614266   -0.0011577115494297715
-0.00021326889231909537   -0.018654289145236574   -0.0011469219839210655
-0.00022334256110923386   -0.018649709906427125   -0.001159768770033502
1.4268551879014521e-05   -0.01337542974192644   -0.0010766154283119625
0.0024827655395854653   -0.018593270666614266   -0.0011577115494297715
-0.00022334256110923386   -0.018649709906427125   -0.001159768770033502
0.00255390063079368   -0.013363713423416024   -0.0011036063921830888
0.002540218930021648   -0.013384579683815822   -0.0010962037503627372
0.0024464781636347886   -0.01862855287423391   -0.0011997516309688952
0.005353542024224488   -0.013424730090627654   -0.0011114202410315225
0.0025520268549415305   -0.013378661942892367   -0.0010975364205746965
0.0024464781636347886   -0.01862855287423391   -0.0011997516309688952
0.005369175933167278   -0.018622150828612342   -0.0012298486666119106
0.005353542024224488   -0.013424730090627654   -0.0011114202410315225
0.005407001187432722   -0.018598001882557013   -0.001213942028220859
0.0025520268549415305   -0.013378661942892367   -0.0010975364205746965
0.005350168610804328   -0.01340520166863578   -0.0011319784485418992
0.005407001187432722   -0.018598001882557013   -0.001213942028220859
0.005353542024224488   -0.013424730090627654   -0.0011114202410315225
0.0025520268549415305   -0.013378661942892367   -0.0010975364205746965
0.005407001187432722   -0.018598001882557013   -0.001213942028220859
0.0024659570144105513   -0.018619318545828045   -0.0011807246701053347
0.0024464781636347886   -0.01862855287423391   -0.0011997516309688952
0.0025520268549415305   -0.013378661942892367   -0.0010975364205746965
0.005407001187432722   -0.018598001882557013   -0.001213942028220859
0.0024464781636347886   -0.01862855287423391   -0.0011997516309688952
0.005353542024224488   -0.013424730090627654   -0.0011114202410315225
0.0025520268549415305   -0.013378661942892367   -0.0010975364205746965
0.0024659570144105513   -0.018619318545828045   -0.0011807246701053347
0.005350168610804328   -0.01340520166863578   -0.0011319784485418992
0.00255390063079368   -0.013363713423416024   -0.0011036063921830888
0.0024659570144105513   -0.018619318545828045   -0.0011807246701053347
0.005407001187432722   -0.018598001882557013   -0.001213942028220859
0.005350168610804328   -0.01340520166863578   -0.0011319784485418992
0.005427530732481237   -0.018579013453918315   -0.0012057142741767437
0.00255390063079368   -0.013363713423416024   -0.0011036063921830888
0.005338151100504608   -0.013380888625061598   -0.0011602291723982474
0.005427530732481237   -0.018579013453918315   -0.0012057142741767437
0.005350168610804328   -0.01340520166863578   -0.0011319784485418992
0.00255390063079368   -0.013363713423416024   -0.0011036063921830888
0.005427530732481237   -0.018579013453918315   -0.0012057142741767437
0.0024793314023369797   -0.018608703014685944   -0.0011667451327438997
0.0024659570144105513   -0.018619318545828045   -0.0011807246701053347
0.00255390063079368   -0.013363713423416024   -0.0011036063921830888
0.005427530732481237   -0.018579013453918315   -0.0012057142741767437
0.0024659570144105513   -0.018619318545828045   -0.0011807246701053347
0.005350168610804328   -0.01340520166863578   -0.0011319784485418992
0.00255390063079368   -0.013363713423416024   -0.0011036063921830888
0.0024793314023369797   -0.018608703014685944   -0.0011667451327438997
0.005338151100504608   -0.013380888625061598   -0.0011602291723982474
0.0025493239801086805   -0.013336026868436362   -0.0011145972813779582
0.0024793314023369797   -0.018608703014685944   -0.0011667451327438997
0.005427530732481237   -0.018579013453918315   -0.0012057142741767437
0.005338151100504608   -0.013380888625061598   -0.0011602291723982474
0.0054336361419675   -0.018548803116737834   -0.001205296675591064
0.0025493239801086805   -0.013336026868436362   -0.0011145972813779582
0.005303086608327589   -0.013334853177040858   -0.0011961164934901237
0.0054336361419675   -0.018548803116737834   -0.001205296675591064
0.005338151100504608   -0.013380888625061598   -0.0011602291723982474
0.0025493239801086805   -0.013336026868436362   -0.0011145972813779582
0.0054336361419675   -0.018548803116737834   -0.001205296675591064
0.0024827655395854653   -0.018593270666614266   -0.0011577115494297715
0.0024793314023369797   -0.018608703014685944   -0.0011667451327438997
0.0025493239801086805   -0.013336026868436362   -0.0011145972813779582
0.0054336361419675   -0.018548803116737834   -0.001205296675591064
0.0024793314023369797   -0.018608703014685944   -0.0011667451327438997
0.005338151100504608   -0.013380888625061598   -0.0011602291723982474
-0.008456579094800735   -0.018689558140831425   -0.0014152472442109042
-0.008715515727461208   -0.02398631071197495   -0.0013923904756815693
-0.005559772191759963   -0.018660045604230263   -0.001309946198745951
-0.008491502458271303   -0.01875419531843046   -0.001377083552843856
-0.008715515727461208   -0.02398631071197495   -0.0013923904756815693
-0.005825162866939913   -0.024000308338826628   -0.0013147876910088326
-0.005559772191759963   -0.018660045604230263   -0.001309946198745951
-0.005809041887916882   -0.024039805912549606   -0.0013028697142837926
-0.008491502458271303   -0.01875419531843046   -0.001377083552843856
-0.005556771099726553   -0.018708097510682857   -0.001278401412172281
-0.005809041887916882   -0.024039805912549606   -0.0013028697142837926
-0.005559772191759963   -0.018660045604230263   -0.001309946198745951
-0.008491502458271303   -0.01875419531843046   -0.001377083552843856
-0.005809041887916882   -0.024039805912549606   -0.0013028697142837926
-0.008704680288727673   -0.024039190039739356   -0.001390209121525647
-0.008715515727461208   -0.02398631071197495   -0.0013923904756815693
-0.008491502458271303   -0.01875419531843046   -0.001377083552843856
-0.005809041887916882   -0.024039805912549606   -0.0013028697142837926
-0.008715515727461208   -0.02398631071197495   -0.0013923904756815693
-0.005559772191759963   -0.018660045604230263   -0.001309946198745951
-0.008491502458271303   -0.01875419531843046   -0.001377083552843856
-0.008704680288727673   -0.024039190039739356   -0.001390209121525647
-0.005556771099726553   -0.018708097510682857   -0.001278401412172281
-0.008501975395115265   -0.018807029285903866   -0.0013464603162422531
-0.008704680288727673   -0.024039190039739356   -0.001390209121525647
-0.005809041887916882   -0.024039805912549606   -0.0013028697142837926
-0.005556771099726553   -0.018708097510682857   -0.001278401412172281
-0.005784210811655865   -0.024083685564109603   -0.0012963293390695697
-0.008501975395115265   -0.018807029285903866   -0.0013464603162422531
-0.0055485259334355184   -0.01875251956552783   -0.0012520974742521106
-0.005784210811655865   -0.024083685564109603   -0.0012963293390695697
-0.005556771099726553   -0.018708097510682857   -0.001278401412172281
-0.008501975395115265   -0.018807029285903866   -0.0013464603162422531
-0.005784210811655865   -0.024083685564109603   -0.0012963293390695697
-0.008677413761051729   -0.024090676685481725   -0.0013960611029801065
-0.008704680288727673   -0.024039190039739356   -0.001390209121525647
-0.008501975395115265   -0.018807029285903866   -0.0013464603162422531
-0.005784210811655865   -0.024083685564109603   -0.0012963293390695697
-0.008704680288727673   -0.024039190039739356   -0.001390209121525647
-0.005556771099726553   -0.018708097510682857   -0.001278401412172281
-0.008501975395115265   -0.018807029285903866   -0.0013464603162422531
-0.008677413761051729   -0.024090676685481725   -0.0013960611029801065
-0.0055485259334355184   -0.01875251956552783   -0.0012520974742521106
-0.008504755560983795   -0.018864557142541826   -0.0013240342148945995
-0.008677413761051729   -0.024090676685481725   -0.0013960611029801065
-0.005784210811655865   -0.024083685564109603   -0.0012963293390695697
-0.0055485259334355184   -0.01875251956552783   -0.0012520974742521106
-0.0057522404888774355   -0.024134976941513956   -0.0012950707950271827
-0.008504755560983795   -0.018864557142541826   -0.0013240342148945995
-0.005529408595328962   -0.018796706733524477   -0.0012306591008642638
-0.0057522404888774355   -0.024134976941513956   -0.0012950707950271827
-0.0055485259334355184   -0.01875251956552783   -0.0012520974742521106
-0.008504755560983795   -0.018864557142541826   -0.0013240342148945995
-0.0057522404888774355   -0.024134976941513956   -0.0012950707950271827
-0.008633597673626904   -0.024157126842745333   -0.0014103633771361886
-0.008677413761051729   -0.024090676685481725   -0.0013960611029801065
-0.008504755560983795   -0.018864557142541826   -0.0013240342148945995
-0.0057522404888774355   -0.024134976941513956   -0.0012950707950271827
-0.008677413761051729   -0.024090676685481725   -0.0013960611029801065
-0.0055485259334355184   -0.01875251956552783   -0.0012520974742521106
-0.005559772191759963   -0.018660045604230263   -0.001309946198745951
-0.005825162866939913   -0.024000308338826628   -0.0013147876910088326
-0.002869027471125298   -0.018642928219286956   -0.0012382857256366916
-0.005556771099726553   -0.018708097510682857   -0.001278401412172281
-0.005825162866939913   -0.024000308338826628   -0.0013147876910088326
-0.003177114799319081   -0.02400321937220519   -0.0012632402183770702
-0.002869027471125298   -0.018642928219286956   -0.0012382857256366916
-0.0031557558428431725   -0.02402580840624312   -0.0012419043620182871
-0.005556771099726553   -0.018708097510682857   -0.001278401412172281
-0.0028582024856274616   -0.018671944939897798   -0.0012106542174810985
-0.0031557558428431725   -0.02402580840624312   -0.0012419043620182871
-0.002869027471125298   -0.018642928219286956   -0.0012382857256366916
-0.005556771099726553   -0.018708097510682857   -0.001278401412172281
-0.0031557558428431725   -0.02402580840624312   -0.0012419043620182871
-0.005809041887916882   -0.024039805912549606   -0.0013028697142837926
-0.005825162866939913   -0.024000308338826628   -0.0013147876910088326
-0.005556771099726553   -0.018708097510682857   -0.001278401412172281
-0.0031557558428431725   -0.02402580840624312   -0.0012419043620182871
-0.005825162866939913   -0.024000308338826628   -0.0013147876910088326
-0.002869027471125298   -0.018642928219286956   -0.0012382857256366916
-0.005556771099726553   -0.018708097510682857   -0.001278401412172281
-0.005809041887916882   -0.024039805912549606   -0.0013028697142837926
-0.0028582024856274616   -0.018671944939897798   -0.0012106542174810985
-0.0055485259334355184   -0.01875251956552783   -0.0012520974742521106
-0.005809041887916882   -0.024039805912549606   -0.0013028697142837926
-0.0031557558428431725   -0.02402580840624312   -0.0012419043620182871
-0.0028582024856274616   -0.018671944939897798   -0.0012106542174810985
-0.003131707472067974   -0.02405338443326301   -0.0012259631796248472
-0.0055485259334355184   -0.01875251956552783   -0.0012520974742521106
-0.0028451158013759266   -0.018698640219834927   -0.0011882636024728127
-0.003131707472067974   -0.02405338443326301   -0.0012259631796248472
-0.0028582024856274616   -0.018671944939897798   -0.0012106542174810985
-0.0055485259334355184   -0.01875251956552783   -0.0012520974742521106
-0.003131707472067974   -0.02405338443326301   -0.0012259631796248472
-0.005784210811655865   -0.024083685564109603   -0.0012963293390695697
-0.005809041887916882   -0.024039805912549606   -0.0013028697142837926
-0.0055485259334355184   -0.01875251956552783   -0.0012520974742521106
-0.003131707472067974   -0.02405338443326301   -0.0012259631796248472
-0.005809041887916882   -0.024039805912549606   -0.0013028697142837926
-0.0028582024856274616   -0.018671944939897798   -0.0012106542174810985
-0.0055485259334355184   -0.01875251956552783   -0.0012520974742521106
-0.005784210811655865   -0.024083685564109603   -0.0012963293390695697
-0.0028451158013759266   -0.018698640219834927   -0.0011882636024728127
-0.005529408595328962   -0.018796706733524477   -0.0012306591008642638
-0.005784210811655865   -0.024083685564109603   -0.0012963293390695697
-0.003131707472067974   -0.02405338443326301   -0.0012259631796248472
-0.0028451158013759266   -0.018698640219834927   -0.0011882636024728127
-0.0031058261272383565   -0.02408603367584622   -0.0012155961252366299
-0.005529408595328962   -0.018796706733524477   -0.0012306591008642638
-0.002829535097920083   -0.0187231034241233   -0.0011712439572280874
-0.0031058261272383565   -0.02408603367584622   -0.0012155961252366299
-0.0028451158013759266   -0.018698640219834927   -0.0011882636024728127
-0.005529408595328962   -0.018796706733524477   -0.0012306591008642638
-0.0031058261272383565   -0.02408603367584622   -0.0012155961252366299
-0.0057522404888774355   -0.024134976941513956   -0.0012950707950271827
-0.005784210811655865   -0.024083685564109603   -0.0012963293390695697
-0.005529408595328962   -0.018796706733524477   -0.0012306591008642638
-0.0031058261272383565   -0.02408603367584622   -0.0012155961252366299
-0.005784210811655865   -0.024083685564109603   -0.0012963293390695697
-0.0028451158013759266   -0.018698640219834927   -0.0011882636024728127
-0.002869027471125298   -0.018642928219286956   -0.0012382857256366916
-0.003177114799319081   -0.02400321937220519   -0.0012632402183770702
-0.00025113838999751966   -0.018633002701876632   -0.0012014345662196568
-0.0028582024856274616   -0.018671944939897798   -0.0012106542174810985
-0.003177114799319081   -0.02400321937220519   -0.0012632402183770702
-0.0006038716493854467   -0.023989029073964052   -0.0012424181101978289
-0.00025113838999751966   -0.018633002701876632   -0.0012014345662196568
-0.000578692121328641   -0.023994110150462437   -0.0012121347164313289
-0.0028582024856274616   -0.018671944939897798   -0.0012106542174810985
-0.00023629549725182243   -0.01864260138538262   -0.0011780020744205683
-0.000578692121328641   -0.023994110150462437   -0.0012121347164313289
-0.00025113838999751966   -0.018633002701876632   -0.0012014345662196568
-0.0028582024856274616   -0.018671944939897798   -0.0012106542174810985
-0.000578692121328641   -0.023994110150462437   -0.0012121347164313289
-0.0031557558428431725   -0.02402580840624312   -0.0012419043620182871
-0.003177114799319081   -0.02400321937220519   -0.0012632402183770702
-0.0028582024856274616   -0.018671944939897798   -0.0012106542174810985
-0.000578692121328641   -0.023994110150462437   -0.0012121347164313289
-0.003177114799319081   -0.02400321937220519   -0.0012632402183770702
-0.00025113838999751966   -0.018633002701876632   -0.0012014345662196568
-0.0028582024856274616   -0.018671944939897798   -0.0012106542174810985
-0.0031557558428431725   -0.02402580840624312   -0.0012419043620182871
-0.00023629549725182243   -0.01864260138538262   -0.0011780020744205683
-0.0028451158013759266   -0.018698640219834927   -0.0011882636024728127
-0.0031557558428431725   -0.02402580840624312   -0.0012419043620182871
-0.000578692121328641   -0.023994110150462437   -0.0012121347164313289
-0.00023629549725182243   -0.01864260138538262   -0.0011780020744205683
-0.0005548435616301539   -0.02400379834738931   -0.0011872115779133707
-0.0028451158013759266   -0.018698640219834927   -0.0011882636024728127
-0.00022334256110923386   -0.018649709906427125   -0.001159768770033502
-0.0005548435616301539   -0.02400379834738931   -0.0011872115779133707
-0.00023629549725182243   -0.01864260138538262   -0.0011780020744205683
-0.0028451158013759266   -0.018698640219834927   -0.0011882636024728127
-0.0005548435616301539   -0.02400379834738931   -0.0011872115779133707
-0.003131707472067974   -0.02405338443326301   -0.0012259631796248472
-0.0031557558428431725   -0.02402580840624312   -0.0012419043620182871
-0.0028451158013759266   -0.018698640219834927   -0.0011882636024728127
-0.0005548435616301539   -0.02400379834738931   -0.0011872115779133707
-0.0031557558428431725   -0.02402580840624312   -0.0012419043620182871
-0.00023629549725182243   -0.01864260138538262   -0.0011780020744205683
-0.0028451158013759266   -0.018698640219834927   -0.0011882636024728127
-0.003131707472067974   -0.02405338443326301   -0.0012259631796248472
-0.00022334256110923386   -0.018649709906427125   -0.001159768770033502
-0.002829535097920083   -0.0187231034241233   -0.0011712439572280874
-0.003131707472067974   -0.02405338443326301   -0.0012259631796248472
-0.0005548435616301539   -0.02400379834738931   -0.0011872115779133707
-0.00022334256110923386   -0.018649709906427125   -0.001159768770033502
-0.0005345000584369992   -0.024018309771763054   -0.0011678338746574466
-0.002829535097920083   -0.0187231034241233   -0.0011712439572280874
-0.00021326889231909537   -0.018654289145236574   -0.0011469219839210655
-0.0005345000584369992   -0.024018309771763054   -0.0011678338746574466
-0.00022334256110923386   -0.018649709906427125   -0.001159768770033502
-0.002829535097920083   -0.0187231034241233   -0.0011712439572280874
-0.0005345000584369992   -0.024018309771763054   -0.0011678338746574466
-0.0031058261272383565   -0.02408603367584622   -0.0012155961252366299
-0.003131707472067974   -0.02405338443326301   -0.0012259631796248472
-0.002829535097920083   -0.0187231034241233   -0.0011712439572280874
-0.0005345000584369992   -0.024018309771763054   -0.0011678338746574466
-0.003131707472067974   -0.02405338443326301   -0.0012259631796248472
-0.00022334256110923386   -0.018649709906427125   -0.001159768770033502
-0.00025113838999751966   -0.018633002701876632   -0.0012014345662196568
-0.0006038716493854467   -0.023989029073964052   -0.0012424181101978289
0.0024464781636347886   -0.01862855287423391   -0.0011997516309688952
-0.00023629549725182243   -0.01864260138538262   -0.0011780020744205683
-0.0006038716493854467   -0.023989029073964052   -0.0012424181101978289
0.002046379539907555   -0.02395755692266405   -0.0012533550563426695
0.0024464781636347886   -0.01862855287423391   -0.0011997516309688952
0.002078412197438309   -0.02394505423200673   -0.0012142679291780485
-0.00023629549725182243   -0.01864260138538262   -0.0011780020744205683
0.0024659570144105513   -0.018619318545828045   -0.0011807246701053347
0.002078412197438309   -0.02394505423200673   -0.0012142679291780485
0.0024464781636347886   -0.01862855287423391   -0.0011997516309688952
-0.00023629549725182243   -0.01864260138538262   -0.0011780020744205683
0.002078412197438309   -0.02394505423200673   -0.0012142679291780485
-0.000578692121328641   -0.023994110150462437   -0.0012121347164313289
-0.0006038716493854467   -0.023989029073964052   -0.0012424181101978289
-0.00023629549725182243   -0.01864260138538262   -0.0011780020744205683
0.002078412197438309   -0.02394505423200673   -0.0012142679291780485
-0.0006038716493854467   -0.023989029073964052   -0.0012424181101978289
0.0024464781636347886   -0.01862855287423391   -0.0011997516309688952
-0.00023629549725182243   -0.01864260138538262   -0.0011780020744205683
-0.000578692121328641   -0.023994110150462437   -0.0012121347164313289
0.0024659570144105513   -0.018619318545828045   -0.0011807246701053347
-0.00022334256110923386   -0.018649709906427125   -0.001159768770033502
-0.000578692121328641   -0.023994110150462437   -0.0012121347164313289
0.002078412197438309   -0.02394505423200673   -0.0012142679291780485
0.0024659570144105513   -0.018619318545828045   -0.0011807246701053347
0.002108117252751402   -0.023938541347697694   -0.0011805226344083005
-0.00022334256110923386   -0.018649709906427125   -0.001159768770033502
0.0024793314023369797   -0.018608703014685944   -0.0011667451327438997
0.002108117252751402   -0.023938541347697694   -0.0011805226344083005
0.0024659570144105513   -0.018619318545828045   -0.0011807246701053347
-0.00022334256110923386   -0.018649709906427125   -0.001159768770033502
0.002108117252751402   -0.023938541347697694   -0.0011805226344083005
-0.0005548435616301539   -0.02400379834738931   -0.0011872115779133707
-0.000578692121328641   -0.023994110150462437   -0.0012121347164313289
-0.00022334256110923386   -0.018649709906427125   -0.001159768770033502
0.002108117252751402   -0.023938541347697694   -0.0011805226344083005
-0.000578692121328641   -0.023994110150462437   -0.0012121347164313289
0.0024659570144105513   -0.018619318545828045   -0.0011807246701053347
-0.00022334256110923386   -0.018649709906427125   -0.001159768770033502
-0.0005548435616301539   -0.02400379834738931   -0.0011872115779133707
0.0024793314023369797   -0.018608703014685944   -0.0011667451327438997
-0.00021326889231909537   -0.018654289145236574   -0.0011469219839210655
-0.0005548435616301539   -0.02400379834738931   -0.0011872115779133707
0.002108117252751402   -0.023938541347697694   -0.0011805226344083005
0.0024793314023369797   -0.018608703014685944   -0.0011667451327438997
0.0021243534599873454   -0.023934928132240012   -0.0011517703823392868
-0.00021326889231909537   -0.018654289145236574   -0.0011469219839210655
0.0024827655395854653   -0.018593270666614266   -0.0011577115494297715
0.0021243534599873454   -0.023934928132240012   -0.0011517703823392868
0.0024793314023369797   -0.018608703014685944   -0.0011667451327438997
-0.00021326889231909537   -0.018654289145236574   -0.0011469219839210655
0.0021243534599873454   -0.023934928132240012   -0.0011517703823392868
-0.0005345000584369992   -0.024018309771763054   -0.0011678338746574466
-0.0005548435616301539   -0.02400379834738931   -0.0011872115779133707
-0.00021326889231909537   -0.018654289145236574   -0.0011469219839210655
0.0021243534599873454   -0.023934928132240012   -0.0011517703823392868
-0.0005548435616301539   -0.02400379834738931   -0.0011872115779133707
0.0024793314023369797   -0.018608703014685944   -0.0011667451327438997
0.0024464781636347886   -0.01862855287423391   -0.0011997516309688952
0.002046379539907555   -0.02395755692266405   -0.0012533550563426695
0.005369175933167278   -0.018622150828612342   -0.0012298486666119106
0.0024659570144105513   -0.018619318545828045   -0.0011807246701053347
0.002046379539907555   -0.02395755692266405   -0.0012533550563426695
0.004882613778394712   -0.02390454538838414   -0.0012978118444412375
0.005369175933167278   -0.018622150828612342   -0.0012298486666119106
0.0049657163414200635   -0.02387607335146609   -0.0012463604333613823
0.0024659570144105513   -0.018619318545828045   -0.0011807246701053347
0.005407001187432722   -0.018598001882557013   -0.001213942028220859
0.0049657163414200635   -0.02387607335146609   -0.0012463604333613823
0.005369175933167278   -0.018622150828612342   -0.0012298486666119106
0.0024659570144105513   -0.018619318545828045   -0.0011807246701053347
0.0049657163414200635   -0.02387607335146609   -0.0012463604333613823
0.002078412197438309   -0.02394505423200673   -0.0012142679291780485
0.002046379539907555   -0.02395755692266405   -0.0012533550563426695
0.0024659570144105513   -0.018619318545828045   -0.0011807246701053347
0.0049657163414200635   -0.02387607335146609   -0.0012463604333613823
0.002046379539907555   -0.02395755692266405   -0.0012533550563426695
0.005369175933167278   -0.018622150828612342   -0.0012298486666119106
0.0024659570144105513   -0.018619318545828045   -0.0011807246701053347
0.002078412197438309   -0.02394505423200673   -0.0012142679291780485
0.005407001187432722   -0.018598001882557013   -0.001213942028220859
0.0024793314023369797   -0.018608703014685944   -0.0011667451327438997
0.002078412197438309   -0.02394505423200673   -0.0012142679291780485
0.0049657163414200635   -0.02387607335146609   -0.0012463604333613823
0.005407001187432722   -0.018598001882557013   -0.001213942028220859
0.005023072567844492   -0.02386225111902146   -0.0012025270373529659
0.0024793314023369797   -0.018608703014685944   -0.0011667451327438997
0.005427530732481237   -0.018579013453918315   -0.0012057142741767437
0.005023072567844492   -0.02386225111902146   -0.0012025270373529659
0.005407001187432722   -0.018598001882557013   -0.001213942028220859
0.0024793314023369797   -0.018608703014685944   -0.0011667451327438997
0.005023072567844492   -0.02386225111902146   -0.0012025270373529659
0.002108117252751402   -0.023938541347697694   -0.0011805226344083005
0.002078412197438309   -0.02394505423200673   -0.0012142679291780485
0.0024793314023369797   -0.018608703014685944   -0.0011667451327438997
0.005023072567844492   -0.02386225111902146   -0.0012025270373529659
0.002078412197438309   -0.02394505423200673   -0.0012142679291780485
0.005407001187432722   -0.018598001882557013   -0.001213942028220859
0.0024793314023369797   -0.018608703014685944   -0.0011667451327438997
0.002108117252751402   -0.023938541347697694   -0.0011805226344083005
0.005427530732481237   -0.018579013453918315   -0.0012057142741767437
0.0024827655395854653   -0.018593270666614266   -0.0011577115494297715
0.002108117252751402   -0.023938541347697694   -0.0011805226344083005
0.005023072567844492   -0.02386225111902146   -0.0012025270373529659
0.005427530732481237   -0.018579013453918315   -0.0012057142741767437
0.005074335347152708   -0.02384738959010209   -0.0011666305104593275
0.0024827655395854653   -0.018593270666614266   -0.0011577115494297715
0.0054336361419675   -0.018548803116737834   -0.001205296675591064
0.005074335347152708   -0.02384738959010209   -0.0011666305104593275
0.005427530732481237   -0.018579013453918315   -0.0012057142741767437
0.0024827655395854653   -0.018593270666614266   -0.0011577115494297715
0.005074335347152708   -0.02384738959010209   -0.0011666305104593275
0.0021243534599873454   -0.023934928132240012   -0.0011517703823392868
0.002108117252751402   -0.023938541347697694   -0.0011805226344083005
0.0024827655395854653   -0.018593270666614266   -0.0011577115494297715
0.005074335347152708   -0.02384738959010209   -0.0011666305104593275
0.002108117252751402   -0.023938541347697694   -0.0011805226344083005
0.005427530732481237   -0.018579013453918315   -0.0012057142741767437
-0.008715515727461208   -0.02398631071197495   -0.0013923904756815693
-0.008479067626404373   -0.02903813075657535   -0.0013321297966164838
-0.005825162866939913   -0.024000308338826628   -0.0013147876910088326
-0.008704680288727673   -0.024039190039739356   -0.001390209121525647
-0.008479067626404373   -0.02903813075657535   -0.0013321297966164838
-0.005800354106203529   -0.029096249226892697   -0.001285586009221043
-0.005825162866939913   -0.024000308338826628   -0.0013147876910088326
-0.005766287349359002   -0.029125667067322156   -0.0012927130077920856
-0.008704680288727673   -0.024039190039739356   -0.001390209121525647
-0.005809041887916882   -0.024039805912549606   -0.0013028697142837926
-0.005766287349359002   -0.029125667067322156   -0.0012927130077920856
-0.005825162866939913   -0.024000308338826628   -0.0013147876910088326
-0.008704680288727673   -0.024039190039739356   -0.001390209121525647
-0.005766287349359002   -0.029125667067322156   -0.0012927130077920856
-0.008417532812284523   -0.02907786222398536   -0.0013658751786534279
-0.008479067626404373   -0.02903813075657535   -0.0013321297966164838
-0.008704680288727673   -0.024039190039739356   -0.001390209121525647
-0.005766287349359002   -0.029125667067322156   -0.0012927130077920856
-0.008479067626404373   -0.02903813075657535   -0.0013321297966164838
-0.005825162866939913   -0.024000308338826628   -0.0013147876910088326
-0.008704680288727673   -0.024039190039739356   -0.001390209121525647
-0.008417532812284523   -0.02907786222398536   -0.0013658751786534279
-0.005809041887916882   -0.024039805912549606   -0.0013028697142837926
-0.008677413761051729   -0.024090676685481725   -0.0013960611029801065
-0.008417532812284523   -0.02907786222398536   -0.0013658751786534279
-0.005766287349359002   -0.029125667067322156   -0.0012927130077920856
-0.005809041887916882   -0.024039805912549606   -0.0013028697142837926
-0.005720269311464636   -0.029167695715584713   -0.001305331517271506
-0.008677413761051729   -0.024090676685481725   -0.0013960611029801065
-0.005784210811655865   -0.024083685564109603   -0.0012963293390695697
-0.005720269311464636   -0.029167695715584713   -0.001305331517271506
-0.005809041887916882   -0.024039805912549606   -0.0013028697142837926
-0.008677413761051729   -0.024090676685481725   -0.0013960611029801065
-0.005720269311464636   -0.029167695715584713   -0.001305331517271506
-0.008347518445535733   -0.029126809765382965   -0.0014082532822616003
-0.008417532812284523   -0.02907786222398536   -0.0013658751786534279
-0.008677413761051729   -0.024090676685481725   -0.0013960611029801065
-0.005720269311464636   -0.029167695715584713   -0.001305331517271506
-0.008417532812284523   -0.02907786222398536   -0.0013658751786534279
-0.005809041887916882   -0.024039805912549606   -0.0013028697142837926
-0.008677413761051729   -0.024090676685481725   -0.0013960611029801065
-0.008347518445535733   -0.029126809765382965   -0.0014082532822616003
-0.005784210811655865   -0.024083685564109603   -0.0012963293390695697
-0.008633597673626904   -0.024157126842745333   -0.0014103633771361886
-0.008347518445535733   -0.029126809765382965   -0.0014082532822616003
-0.005720269311464636   -0.029167695715584713   -0.001305331517271506
-0.005784210811655865   -0.024083685564109603   -0.0012963293390695697
-0.005670939920081856   -0.029224906107840447   -0.0013235961222636914
-0.008633597673626904   -0.024157126842745333   -0.0014103633771361886
-0.0057522404888774355   -0.024134976941513956   -0.0012950707950271827
-0.005670939920081856   -0.029224906107840447   -0.0013235961222636914
-0.005784210811655865   -0.024083685564109603   -0.0012963293390695697
-0.008633597673626904   -0.024157126842745333   -0.0014103633771361886
-0.005670939920081856   -0.029224906107840447   -0.0013235961222636914
-0.008252342267678587   -0.029201412088986644   -0.0014594347799582223
-0.008347518445535733   -0.029126809765382965   -0.0014082532822616003
-0.008633597673626904   -0.024157126842745333   -0.0014103633771361886
-0.005670939920081856   -0.029224906107840447   -0.0013235961222636914
-0.008347518445535733   -0.029126809765382965   -0.0014082532822616003
-0.005784210811655865   -0.024083685564109603   -0.0012963293390695697
-0.005825162866939913   -0.024000308338826628   -0.0013147876910088326
-0.005800354106203529   -0.029096249226892697   -0.001285586009221043
-0.003177114799319081   -0.02400321937220519   -0.0012632402183770702
-0.005809041887916882   -0.024039805912549606   -0.0013028697142837926
-0.005800354106203529   -0.029096249226892697   -0.001285586009221043
-0.0033979624770296506   -0.02911906123227745   -0.0012558415407958894
-0.003177114799319081   -0.02400321937220519   -0.0012632402183770702
-0.0033609236060834816   -0.02913429193757576   -0.0012402973398792385
-0.005809041887916882   -0.024039805912549606   -0.0013028697142837926
-0.0031557558428431725   -0.02402580840624312   -0.0012419043620182871
-0.0033609236060834816   -0.02913429193757576   -0.0012402973398792385
-0.003177114799319081   -0.02400321937220519   -0.0012632402183770702
-0.005809041887916882   -0.024039805912549606   -0.0013028697142837926
-0.0033609236060834816   -0.02913429193757576   -0.0012402973398792385
-0.005766287349359002   -0.029125667067322156   -0.0012927130077920856
-0.005800354106203529   -0.029096249226892697   -0.001285586009221043
-0.005809041887916882   -0.024039805912549606   -0.0013028697142837926
-0.0033609236060834816   -0.02913429193757576   -0.0012402973398792385
-0.005800354106203529   -0.029096249226892697   -0.001285586009221043
-0.003177114799319081   -0.02400321937220519   -0.0012632402183770702
-0.005809041887916882   -0.024039805912549606   -0.0013028697142837926
-0.005766287349359002   -0.029125667067322156   -0.0012927130077920856
-0.0031557558428431725   -0.02402580840624312   -0.0012419043620182871
-0.005784210811655865   -0.024083685564109603   -0.0012963293390695697
-0.005766287349359002   -0.029125667067322156   -0.0012927130077920856
-0.0033609236060834816   -0.02913429193757576   -0.0012402973398792385
-0.0031557558428431725   -0.02402580840624312   -0.0012419043620182871
-0.003321103297754953   -0.029161635668870384   -0.0012301763503922297
-0.005784210811655865   -0.024083685564109603   -0.0012963293390695697
-0.003131707472067974   -0.02405338443326301   -0.0012259631796248472
-0.003321103297754953   -0.029161635668870384   -0.0012301763503922297
-0.0031557558428431725   -0.02402580840624312   -0.0012419043620182871
-0.005784210811655865   -0.024083685564109603   -0.0012963293390695697
-0.003321103297754953   -0.029161635668870384   -0.0012301763503922297
-0.005720269311464636   -0.029167695715584713   -0.001305331517271506
-0.005766287349359002   -0.029125667067322156   -0.0012927130077920856
-0.005784210811655865   -0.024083685564109603   -0.0012963293390695697
-0.003321103297754953   -0.029161635668870384   -0.0012301763503922297
-0.005766287349359002   -0.029125667067322156   -0.0012927130077920856
-0.0031557558428431725   -0.02402580840624312   -0.0012419043620182871
-0.005784210811655865   -0.024083685564109603   -0.0012963293390695697
-0.005720269311464636   -0.029167695715584713   -0.001305331517271506
-0.003131707472067974   -0.02405338443326301   -0.0012259631796248472
-0.0057522404888774355   -0.024134976941513956   -0.0012950707950271827
-0.005720269311464636   -0.029167695715584713   -0.001305331517271506
-0.003321103297754953   -0.029161635668870384   -0.0012301763503922297
-0.003131707472067974   -0.02405338443326301   -0.0012259631796248472
-0.003280173951683697   -0.029201432163501052   -0.0012257485060821408
-0.0057522404888774355   -0.024134976941513956   -0.0012950707950271827
-0.0031058261272383565   -0.02408603367584622   -0.0012155961252366299
-0.003280173951683697   -0.029201432163501052   -0.0012257485060821408
-0.003131707472067974   -0.02405338443326301   -0.0012259631796248472
-0.0057522404888774355   -0.024134976941513956   -0.0012950707950271827
-0.003280173951683697   -0.029201432163501052   -0.0012257485060821408
-0.005670939920081856   -0.029224906107840447   -0.0013235961222636914
-0.005720269311464636   -0.029167695715584713   -0.001305331517271506
-0.0057522404888774355   -0.024134976941513956   -0.0012950707950271827
-0.003280173951683697   -0.029201432163501052   -0.0012257485060821408
-0.005720269311464636   -0.029167695715584713   -0.001305331517271506
-0.003131707472067974   -0.02405338443326301   -0.0012259631796248472
-0.003177114799319081   -0.02400321937220519   -0.0012632402183770702
-0.0033979624770296506   -0.02911906123227745   -0.0012558415407958894
-0.0006038716493854467   -0.023989029073964052   -0.0012424181101978289
-0.0031557558428431725   -0.02402580840624312   -0.0012419043620182871
-0.0033979624770296506   -0.02911906123227745   -0.0012558415407958894
-0.0010681289240082126   -0.02910118413860411   -0.0012512380821983048
-0.0006038716493854467   -0.023989029073964052   -0.0012424181101978289
-0.001027171944272878   -0.029101374346338523   -0.0012138003046709017
-0.0031557558428431725   -0.02402580840624312   -0.0012419043620182871
-0.000578692121328641   -0.023994110150462437   -0.0012121347164313289
-0.001027171944272878   -0.029101374346338523   -0.0012138003046709017
-0.0006038716493854467   -0.023989029073964052   -0.0012424181101978289
-0.0031557558428431725   -0.02402580840624312   -0.0012419043620182871
-0.001027171944272878   -0.029101374346338523   -0.0012138003046709017
-0.0033609236060834816   -0.02913429193757576   -0.0012402973398792385
-0.0033979624770296506   -0.02911906123227745   -0.0012558415407958894
-0.0031557558428431725   -0.02402580840624312   -0.0012419043620182871
-0.001027171944272878   -0.029101374346338523   -0.0012138003046709017
-0.0033979624770296506   -0.02911906123227745   -0.0012558415407958894
-0.0006038716493854467   -0.023989029073964052   -0.0012424181101978289
-0.0031557558428431725   -0.02402580840624312   -0.0012419043620182871
-0.0033609236060834816   -0.02913429193757576   -0.0012402973398792385
-0.000578692121328641   -0.023994110150462437   -0.0012121347164313289
-0.003131707472067974   -0.02405338443326301   -0.0012259631796248472
-0.0033609236060834816   -0.02913429193757576   -0.0012402973398792385
-0.001027171944272878   -0.029101374346338523   -0.0012138003046709017
-0.000578692121328641   -0.023994110150462437   -0.0012121347164313289
-0.0009872726907312912   -0.029112808110392772   -0.001181802335390088
-0.003131707472067974   -0.02405338443326301   -0.0012259631796248472
-0.0005548435616301539   -0.02400379834738931   -0.0011872115779133707
-0.0009872726907312912   -0.029112808110392772   -0.001181802335390088
-0.000578692121328641   -0.023994110150462437   -0.0012121347164313289
-0.003131707472067974   -0.02405338443326301   -0.0012259631796248472
-0.0009872726907312912   -0.029112808110392772   -0.001181802335390088
-0.003321103297754953   -0.029161635668870384   -0.0012301763503922297
-0.0033609236060834816   -0.02913429193757576   -0.0012402973398792385
-0.003131707472067974   -0.02405338443326301   -0.0012259631796248472
-0.0009872726907312912   -0.029112808110392772   -0.001181802335390088
-0.0033609236060834816   -0.02913429193757576   -0.0012402973398792385
-0.000578692121328641   -0.023994110150462437   -0.0012121347164313289
-0.003131707472067974   -0.02405338443326301   -0.0012259631796248472
-0.003321103297754953   -0.029161635668870384   -0.0012301763503922297
-0.0005548435616301539   -0.02400379834738931   -0.0011872115779133707
-0.0031058261272383565   -0.02408603367584622   -0.0012155961252366299
-0.003321103297754953   -0.029161635668870384   -0.0012301763503922297
-0.0009872726907312912   -0.029112808110392772   -0.001181802335390088
-0.0005548435616301539   -0.02400379834738931   -0.0011872115779133707
-0.0009516276569505437   -0.029136418097083283   -0.0011554318431446914
-0.0031058261272383565   -0.02408603367584622   -0.0012155961252366299
-0.0005345000584369992   -0.024018309771763054   -0.0011678338746574466
-0.0009516276569505437   -0.029136418097083283   -0.0011554318431446914
-0.0005548435616301539   -0.02400379834738931   -0.0011872115779133707
-0.0031058261272383565   -0.02408603367584622   -0.0012155961252366299
-0.0009516276569505437   -0.029136418097083283   -0.0011554318431446914
-0.003280173951683697   -0.029201432163501052   -0.0012257485060821408
-0.003321103297754953   -0.029161635668870384   -0.0012301763503922297
-0.0031058261272383565   -0.02408603367584622   -0.0012155961252366299
-0.0009516276569505437   -0.029136418097083283   -0.0011554318431446914
-0.003321103297754953   -0.029161635668870384   -0.0012301763503922297
-0.0005548435616301539   -0.02400379834738931   -0.0011872115779133707
-0.0006038716493854467   -0.023989029073964052   -0.0012424181101978289
-0.0010681289240082126   -0.02910118413860411   -0.0012512380821983048
0.002046379539907555   -0.02395755692266405   -0.0012533550563426695
-0.000578692121328641   -0.023994110150462437   -0.0012121347164313289
-0.0010681289240082126   -0.02910118413860411   -0.0012512380821983048
0.0013411681921556948   -0.029043737899528625   -0.0012737431474305265
0.002046379539907555   -0.02395755692266405   -0.0012533550563426695
0.0013912628724247493   -0.029027871423422093   -0.0012146016592519805
-0.000578692121328641   -0.023994110150462437   -0.0012121347164313289
0.002078412197438309   -0.02394505423200673   -0.0012142679291780485
0.0013912628724247493   -0.029027871423422093   -0.0012146016592519805
0.002046379539907555   -0.02395755692266405   -0.0012533550563426695
-0.000578692121328641   -0.023994110150462437   -0.0012121347164313289
0.0013912628724247493   -0.029027871423422093   -0.0012146016592519805
-0.001027171944272878   -0.029101374346338523   -0.0012138003046709017
-0.0010681289240082126   -0.02910118413860411   -0.0012512380821983048
-0.000578692121328641   -0.023994110150462437   -0.0012121347164313289
0.0013912628724247493   -0.029027871423422093   -0.0012146016592519805
-0.0010681289240082126   -0.02910118413860411   -0.0012512380821983048
0.002046379539907555   -0.02395755692266405   -0.0012533550563426695
-0.000578692121328641   -0.023994110150462437   -0.0012121347164313289
-0.001027171944272878   -0.029101374346338523   -0.0012138003046709017
0.002078412197438309   -0.02394505423200673   -0.0012142679291780485
-0.0005548435616301539   -0.02400379834738931   -0.0011872115779133707
-0.001027171944272878   -0.029101374346338523   -0.0012138003046709017
0.0013912628724247493   -0.029027871423422093   -0.0012146016592519805
0.002078412197438309   -0.02394505423200673   -0.0012142679291780485
0.0014426909838130384   -0.029024858302598187   -0.0011612440527959814
-0.0005548435616301539   -0.02400379834738931   -0.0011872115779133707
0.002108117252751402   -0.023938541347697694   -0.0011805226344083005
0.0014426909838130384   -0.029024858302598187   -0.0011612440527959814
0.002078412197438309   -0.02394505423200673   -0.0012142679291780485
-0.0005548435616301539   -0.02400379834738931   -0.0011872115779133707
0.0014426909838130384   -0.029024858302598187   -0.0011612440527959814
-0.0009872726907312912   -0.029112808110392772   -0.001181802335390088
-0.001027171944272878   -0.029101374346338523   -0.0012138003046709017
-0.0005548435616301539   -0.02400379834738931   -0.0011872115779133707
0.0014426909838130384   -0.029024858302598187   -0.0011612440527959814
-0.001027171944272878   -0.029101374346338523   -0.0012138003046709017
0.002078412197438309   -0.02394505423200673   -0.0012142679291780485
-0.0005548435616301539   -0.02400379834738931   -0.0011872115779133707
-0.0009872726907312912   -0.029112808110392772   -0.001181802335390088
0.002108117252751402   -0.023938541347697694   -0.0011805226344083005
-0.0005345000584369992   -0.024018309771763054   -0.0011678338746574466
-0.0009872726907312912   -0.029112808110392772   -0.001181802335390088
0.0014426909838130384   -0.029024858302598187   -0.0011612440527959814
0.002108117252751402   -0.023938541347697694   -0.0011805226344083005
0.0014770002097797073   -0.029032339880222826   -0.0011129062362199296
-0.0005345000584369992   -0.024018309771763054   -0.0011678338746574466
0.0021243534599873454   -0.023934928132240012   -0.0011517703823392868
0.0014770002097797073   -0.029032339880222826   -0.0011129062362199296
0.002108117252751402   -0.023938541347697694   -0.0011805226344083005
-0.0005345000584369992   -0.024018309771763054   -0.0011678338746574466
0.0014770002097797073   -0.029032339880222826   -0.0011129062362199296
-0.0009516276569505437   -0.029136418097083283   -0.0011554318431446914
-0.0009872726907312912   -0.029112808110392772   -0.001181802335390088
-0.0005345000584369992   -0.024018309771763054   -0.0011678338746574466
0.0014770002097797073   -0.029032339880222826   -0.0011129062362199296
-0.0009872726907312912   -0.029112808110392772   -0.001181802335390088
0.002108117252751402   -0.023938541347697694   -0.0011805226344083005
0.002046379539907555   -0.02395755692266405   -0.0012533550563426695
0.0013411681921556948   -0.029043737899528625   -0.0012737431474305265
0.004882613778394712   -0.02390454538838414   -0.0012978118444412375
0.002078412197438309   -0.02394505423200673   -0.0012142679291780485
0.0013411681921556948   -0.029043737899528625   -0.0012737431474305265
0.0039023063938058203   -0.028944923265551196   -0.001331254862681797
0.004882613778394712   -0.02390454538838414   -0.0012978118444412375
0.004035653628047839   -0.02891235762868681   -0.001245105500598723
0.002078412197438309   -0.02394505423200673   -0.0012142679291780485
0.0049657163414200635   -0.02387607335146609   -0.0012463604333613823
0.004035653628047839   -0.02891235762868681   -0.001245105500598723
0.004882613778394712   -0.02390454538838414   -0.0012978118444412375
0.002078412197438309   -0.02394505423200673   -0.0012142679291780485
0.004035653628047839   -0.02891235762868681   -0.001245105500598723
0.0013912628724247493   -0.029027871423422093   -0.0012146016592519805
0.0013411681921556948   -0.029043737899528625   -0.0012737431474305265
0.002078412197438309   -0.02394505423200673   -0.0012142679291780485
0.004035653628047839   -0.02891235762868681   -0.001245105500598723
0.0013411681921556948   -0.029043737899528625   -0.0012737431474305265
0.004882613778394712   -0.02390454538838414   -0.0012978118444412375
0.002078412197438309   -0.02394505423200673   -0.0012142679291780485
0.0013912628724247493   -0.029027871423422093   -0.0012146016592519805
0.0049657163414200635   -0.02387607335146609   -0.0012463604333613823
0.002108117252751402   -0.023938541347697694   -0.0011805226344083005
0.0013912628724247493   -0.029027871423422093   -0.0012146016592519805
0.004035653628047839   -0.02891235762868681   -0.001245105500598723
0.0049657163414200635   -0.02387607335146609   -0.0012463604333613823
0.004134533487823583   -0.028903351504508314   -0.0011666572085599993
0.002108117252751402   -0.023938541347697694   -0.0011805226344083005
0.005023072567844492   -0.02386225111902146   -0.0012025270373529659
0.004134533487823583   -0.028903351504508314   -0.0011666572085599993
0.0049657163414200635   -0.02387607335146609   -0.0012463604333613823
0.002108117252751402   -0.023938541347697694   -0.0011805226344083005
0.004134533487823583   -0.028903351504508314   -0.0011666572085599993
0.0014426909838130384   -0.029024858302598187   -0.0011612440527959814
0.0013912628724247493   -0.029027871423422093   -0.0012146016592519805
0.002108117252751402   -0.023938541347697694   -0.0011805226344083005
0.004134533487823583   -0.028903351504508314   -0.0011666572085599993
0.0013912628724247493   -0.029027871423422093   -0.0012146016592519805
0.0049657163414200635   -0.02387607335146609   -0.0012463604333613823
0.002108117252751402   -0.023938541347697694   -0.0011805226344083005
0.0014426909838130384   -0.029024858302598187   -0.0011612440527959814
0.005023072567844492   -0.02386225111902146   -0.0012025270373529659
0.0021243534599873454   -0.023934928132240012   -0.0011517703823392868
0.0014426909838130384   -0.029024858302598187   -0.0011612440527959814
0.004134533487823583   -0.028903351504508314   -0.0011666572085599993
0.005023072567844492   -0.02386225111902146   -0.0012025270373529659
0.004235028377403255   -0.028903316843780544   -0.001096267726629006
0.0021243534599873454   -0.023934928132240012   -0.0011517703823392868
0.005074335347152708   -0.02384738959010209   -0.0011666305104593275
0.004235028377403255   -0.028903316843780544   -0.001096267726629006
0.005023072567844492   -0.02386225111902146   -0.0012025270373529659
0.0021243534599873454   -0.023934928132240012   -0.0011517703823392868
0.004235028377403255   -0.028903316843780544   -0.001096267726629006
0.0014770002097797073   -0.029032339880222826   -0.0011129062362199296
0.0014426909838130384   -0.029024858302598187   -0.0011612440527959814
0.0021243534599873454   -0.023934928132240012   -0.0011517703823392868
0.004235028377403255   -0.028903316843780544   -0.001096267726629006
0.0014426909838130384   -0.029024858302598187   -0.0011612440527959814
0.005023072567844492   -0.02386225111902146   -0.0012025270373529659
-0.008479067626404373   -0.02903813075657535   -0.0013321297966164838
-0.00773913680626083   -0.03350351221843885   -0.0012429205183434764
-0.005800354106203529   -0.029096249226892697   -0.001285586009221043
-0.008417532812284523   -0.02907786222398536   -0.0013658751786534279
-0.00773913680626083   -0.03350351221843885   -0.0012429205183434764
-0.005485832977103916   -0.03360797386786155   -0.0012355540886527195
-0.005800354106203529   -0.029096249226892697   -0.001285586009221043
-0.005429908282188937   -0.033623057407430684   -0.001260311085557312
-0.008417532812284523   -0.02907786222398536   -0.0013658751786534279
-0.005766287349359002   -0.029125667067322156   -0.0012927130077920856
-0.005429908282188937   -0.033623057407430684   -0.001260311085557312
-0.005800354106203529   -0.029096249226892697   -0.001285586009221043
-0.008417532812284523   -0.02907786222398536   -0.0013658751786534279
-0.005429908282188937   -0.033623057407430684   -0.001260311085557312
-0.007622364727093417   -0.03352586439265621   -0.0013123617523116773
-0.00773913680626083   -0.03350351221843885   -0.0012429205183434764
-0.008417532812284523   -0.02907786222398536   -0.0013658751786534279
-0.005429908282188937   -0.033623057407430684   -0.001260311085557312
-0.00773913680626083   -0.03350351221843885   -0.0012429205183434764
-0.005800354106203529   -0.029096249226892697   -0.001285586009221043
-0.008417532812284523   -0.02907786222398536   -0.0013658751786534279
-0.007622364727093417   -0.03352586439265621   -0.0013123617523116773
-0.005766287349359002   -0.029125667067322156   -0.0012927130077920856
-0.008347518445535733   -0.029126809765382965   -0.0014082532822616003
-0.007622364727093417   -0.03352586439265621   -0.0013123617523116773
-0.005429908282188937   -0.033623057407430684   -0.001260311085557312
-0.005766287349359002   -0.029125667067322156   -0.0012927130077920856
-0.005359653235591469   -0.033659323397786274   -0.001290620007201562
-0.008347518445535733   -0.029126809765382965   -0.0014082532822616003
-0.005720269311464636   -0.029167695715584713   -0.001305331517271506
-0.005359653235591469   -0.033659323397786274   -0.001290620007201562
-0.005766287349359002   -0.029125667067322156   -0.0012927130077920856
-0.008347518445535733   -0.029126809765382965   -0.0014082532822616003
-0.005359653235591469   -0.033659323397786274   -0.001290620007201562
-0.007506041368901517   -0.033568430756278723   -0.001390841255288004
-0.007622364727093417   -0.03352586439265621   -0.0013123617523116773
-0.008347518445535733   -0.029126809765382965   -0.0014082532822616003
-0.005359653235591469   -0.033659323397786274   -0.001290620007201562
-0.007622364727093417   -0.03352586439265621   -0.0013123617523116773
-0.005766287349359002   -0.029125667067322156   -0.0012927130077920856
-0.008347518445535733   -0.029126809765382965   -0.0014082532822616003
-0.007506041368901517   -0.033568430756278723   -0.001390841255288004
-0.005720269311464636   -0.029167695715584713   -0.001305331517271506
-0.008252342267678587   -0.029201412088986644   -0.0014594347799582223
-0.007506041368901517   -0.033568430756278723   -0.001390841255288004
-0.005359653235591469   -0.033659323397786274   -0.001290620007201562
-0.005720269311464636   -0.029167695715584713   -0.001305331517271506
-0.005290362858727007   -0.033718834323802294   -0.0013264282688701615
-0.008252342267678587   -0.029201412088986644   -0.0014594347799582223
-0.005670939920081856   -0.029224906107840447   -0.0013235961222636914
-0.005290362858727007   -0.033718834323802294   -0.0013264282688701615
-0.005720269311464636   -0.029167695715584713   -0.001305331517271506
-0.008252342267678587   -0.029201412088986644   -0.0014594347799582223
-0.005290362858727007   -0.033718834323802294   -0.0013264282688701615
-0.00735708199385901   -0.033647805776361055   -0.0014782045017450597
-0.007506041368901517   -0.033568430756278723   -0.001390841255288004
-0.008252342267678587   -0.029201412088986644   -0.0014594347799582223
-0.005290362858727007   -0.033718834323802294   -0.0013264282688701615
-0.007506041368901517   -0.033568430756278723   -0.001390841255288004
-0.005720269311464636   -0.029167695715584713   -0.001305331517271506
-0.005800354106203529   -0.029096249226892697   -0.001285586009221043
-0.005485832977103916   -0.03360797386786155   -0.0012355540886527195
-0.0033979624770296506   -0.02911906123227745   -0.0012558415407958894
-0.005766287349359002   -0.029125667067322156   -0.0012927130077920856
-0.005485832977103916   -0.03360797386786155   -0.0012355540886527195
-0.0035328779308482004   -0.03365661536850339   -0.0012327198015641126
-0.0033979624770296506   -0.02911906123227745   -0.0012558415407958894
-0.003475554322419181   -0.03366151672480381   -0.0012215698774268532
-0.005766287349359002   -0.029125667067322156   -0.0012927130077920856
-0.0033609236060834816   -0.02913429193757576   -0.0012402973398792385
-0.003475554322419181   -0.03366151672480381   -0.0012215698774268532
-0.0033979624770296506   -0.02911906123227745   -0.0012558415407958894
-0.005766287349359002   -0.029125667067322156   -0.0012927130077920856
-0.003475554322419181   -0.03366151672480381   -0.0012215698774268532
-0.005429908282188937   -0.033623057407430684   -0.001260311085557312
-0.005485832977103916   -0.03360797386786155   -0.0012355540886527195
-0.005766287349359002   -0.029125667067322156   -0.0012927130077920856
-0.003475554322419181   -0.03366151672480381   -0.0012215698774268532
-0.005485832977103916   -0.03360797386786155   -0.0012355540886527195
-0.0033979624770296506   -0.02911906123227745   -0.0012558415407958894
-0.005766287349359002   -0.029125667067322156   -0.0012927130077920856
-0.005429908282188937   -0.033623057407430684   -0.001260311085557312
-0.0033609236060834816   -0.02913429193757576   -0.0012402973398792385
-0.005720269311464636   -0.029167695715584713   -0.001305331517271506
-0.005429908282188937   -0.033623057407430684   -0.001260311085557312
-0.003475554322419181   -0.03366151672480381   -0.0012215698774268532
-0.0033609236060834816   -0.02913429193757576   -0.0012402973398792385
-0.0034163681748619356   -0.03368534444037134   -0.001215807195756615
-0.005720269311464636   -0.029167695715584713   -0.001305331517271506
-0.003321103297754953   -0.029161635668870384   -0.0012301763503922297
-0.0034163681748619356   -0.03368534444037134   -0.001215807195756615
-0.0033609236060834816   -0.02913429193757576   -0.0012402973398792385
-0.005720269311464636   -0.029167695715584713   -0.001305331517271506
-0.0034163681748619356   -0.03368534444037134   -0.001215807195756615
-0.005359653235591469   -0.033659323397786274   -0.001290620007201562
-0.005429908282188937   -0.033623057407430684   -0.001260311085557312
-0.005720269311464636   -0.029167695715584713   -0.001305331517271506
-0.0034163681748619356   -0.03368534444037134   -0.001215807195756615
-0.005429908282188937   -0.033623057407430684   -0.001260311085557312
-0.0033609236060834816   -0.02913429193757576   -0.0012402973398792385
-0.005720269311464636   -0.029167695715584713   -0.001305331517271506
-0.005359653235591469   -0.033659323397786274   -0.001290620007201562
-0.003321103297754953   -0.029161635668870384   -0.0012301763503922297
-0.005670939920081856   -0.029224906107840447   -0.0013235961222636914
-0.005359653235591469   -0.033659323397786274   -0.001290620007201562
-0.0034163681748619356   -0.03368534444037134   -0.001215807195756615
-0.003321103297754953   -0.029161635668870384   -0.0012301763503922297
-0.00335726743945856   -0.033729186603179286   -0.0012153714449561663
-0.005670939920081856   -0.029224906107840447   -0.0013235961222636914
-0.003280173951683697   -0.029201432163501052   -0.0012257485060821408
-0.00335726743945856   -0.033729186603179286   -0.0012153714449561663
-0.003321103297754953   -0.029161635668870384   -0.0012301763503922297
-0.005670939920081856   -0.029224906107840447   -0.0013235961222636914
-0.00335726743945856   -0.033729186603179286   -0.0012153714449561663
-0.005290362858727007   -0.033718834323802294   -0.0013264282688701615
-0.005359653235591469   -0.033659323397786274   -0.001290620007201562
-0.005670939920081856   -0.029224906107840447   -0.0013235961222636914
-0.00335726743945856   -0.033729186603179286   -0.0012153714449561663
-0.005359653235591469   -0.033659323397786274   -0.001290620007201562
-0.003321103297754953   -0.029161635668870384   -0.0012301763503922297
-0.0033979624770296506   -0.02911906123227745   -0.0012558415407958894
-0.0035328779308482004   -0.03365661536850339   -0.0012327198015641126
-0.0010681289240082126   -0.02910118413860411   -0.0012512380821983048
-0.0033609236060834816   -0.02913429193757576   -0.0012402973398792385
-0.0035328779308482004   -0.03365661536850339   -0.0012327198015641126
-0.00164456109524775   -0.03364721154254134   -0.0012469584618099946
-0.0010681289240082126   -0.02910118413860411   -0.0012512380821983048
-0.0015817774739995526   -0.033640655675788264   -0.0012011555745171426
-0.0033609236060834816   -0.02913429193757576   -0.0012402973398792385
-0.001027171944272878   -0.029101374346338523   -0.0012138003046709017
-0.0015817774739995526   -0.033640655675788264   -0.0012011555745171426
-0.0010681289240082126   -0.02910118413860411   -0.0012512380821983048
-0.0033609236060834816   -0.02913429193757576   -0.0012402973398792385
-0.0015817774739995526   -0.033640655675788264   -0.0012011555745171426
-0.003475554322419181   -0.03366151672480381   -0.0012215698774268532
-0.0035328779308482004   -0.03365661536850339   -0.0012327198015641126
-0.0033609236060834816   -0.02913429193757576   -0.0012402973398792385
-0.0015817774739995526   -0.033640655675788264   -0.0012011555745171426
-0.0035328779308482004   -0.03365661536850339   -0.0012327198015641126
-0.0010681289240082126   -0.02910118413860411   -0.0012512380821983048
-0.0033609236060834816   -0.02913429193757576   -0.0012402973398792385
-0.003475554322419181   -0.03366151672480381   -0.0012215698774268532
-0.001027171944272878   -0.029101374346338523   -0.0012138003046709017
-0.003321103297754953   -0.029161635668870384   -0.0012301763503922297
-0.003475554322419181   -0.03366151672480381   -0.0012215698774268532
-0.0015817774739995526   -0.033640655675788264   -0.0012011555745171426
-0.001027171944272878   -0.029101374346338523   -0.0012138003046709017
-0.0015208138197230416   -0.03365124651884679   -0.001161096484777525
-0.003321103297754953   -0.029161635668870384   -0.0012301763503922297
-0.0009872726907312912   -0.029112808110392772   -0.001181802335390088
-0.0015208138197230416   -0.03365124651884679   -0.001161096484777525
-0.001027171944272878   -0.029101374346338523   -0.0012138003046709017
-0.003321103297754953   -0.029161635668870384   -0.0012301763503922297
-0.0015208138197230416   -0.03365124651884679   -0.001161096484777525
-0.0034163681748619356   -0.03368534444037134   -0.001215807195756615
-0.003475554322419181   -0.03366151672480381   -0.0012215698774268532
-0.003321103297754953   -0.029161635668870384   -0.0012301763503922297
-0.0015208138197230416   -0.03365124651884679   -0.001161096484777525
-0.003475554322419181   -0.03366151672480381   -0.0012215698774268532
-0.001027171944272878   -0.029101374346338523   -0.0012138003046709017
-0.003321103297754953   -0.029161635668870384   -0.0012301763503922297
-0.0034163681748619356   -0.03368534444037134   -0.001215807195756615
-0.0009872726907312912   -0.029112808110392772   -0.001181802335390088
-0.003280173951683697   -0.029201432163501052   -0.0012257485060821408
-0.0034163681748619356   -0.03368534444037134   -0.001215807195756615
-0.0015208138197230416   -0.03365124651884679   -0.001161096484777525
-0.0009872726907312912   -0.029112808110392772   -0.001181802335390088
-0.0014657062396882885   -0.03368141464881681   -0.0011262883954620926
-0.003280173951683697   -0.029201432163501052   -0.0012257485060821408
-0.0009516276569505437   -0.029136418097083283   -0.0011554318431446914
-0.0014657062396882885   -0.03368141464881681   -0.0011262883954620926
-0.0009872726907312912   -0.029112808110392772   -0.001181802335390088
-0.003280173951683697   -0.029201432163501052   -0.0012257485060821408
-0.0014657062396882885   -0.03368141464881681   -0.0011262883954620926
-0.00335726743945856   -0.033729186603179286   -0.0012153714449561663
-0.0034163681748619356   -0.03368534444037134   -0.001215807195756615
-0.003280173951683697   -0.029201432163501052   -0.0012257485060821408
-0.0014657062396882885   -0.03368141464881681   -0.0011262883954620926
-0.0034163681748619356   -0.03368534444037134   -0.001215807195756615
-0.0009872726907312912   -0.029112808110392772   -0.001181802335390088
-0.0010681289240082126   -0.02910118413860411   -0.0012512380821983048
-0.00164456109524775   -0.03364721154254134   -0.0012469584618099946
0.0013411681921556948   -0.029043737899528625   -0.0012737431474305265
-0.001027171944272878   -0.029101374346338523   -0.0012138003046709017
-0.00164456109524775   -0.03364721154254134   -0.0012469584618099946
0.00033086751318936003   -0.03357767440632605   -0.001281306468357809
0.0013411681921556948   -0.029043737899528625   -0.0012737431474305265
0.0004073036614332231   -0.033556607760710955   -0.0012009525441081098
-0.001027171944272878   -0.029101374346338523   -0.0012138003046709017
0.0013912628724247493   -0.029027871423422093   -0.0012146016592519805
0.0004073036614332231   -0.033556607760710955   -0.0012009525441081098
0.0013411681921556948   -0.029043737899528625   -0.0012737431474305265
-0.001027171944272878   -0.029101374346338523   -0.0012138003046709017
0.0004073036614332231   -0.033556607760710955   -0.0012009525441081098
-0.0015817774739995526   -0.033640655675788264   -0.0012011555745171426
-0.00164456109524775   -0.03364721154254134   -0.0012469584618099946
-0.001027171944272878   -0.029101374346338523   -0.0012138003046709017
0.0004073036614332231   -0.033556607760710955   -0.0012009525441081098
-0.00164456109524775   -0.03364721154254134   -0.0012469584618099946
0.0013411681921556948   -0.029043737899528625   -0.0012737431474305265
-0.001027171944272878   -0.029101374346338523   -0.0012138003046709017
-0.0015817774739995526   -0.033640655675788264   -0.0012011555745171426
0.0013912628724247493   -0.029027871423422093   -0.0012146016592519805
-0.0009872726907312912   -0.029112808110392772   -0.001181802335390088
-0.0015817774739995526   -0.033640655675788264   -0.0012011555745171426
0.0004073036614332231   -0.033556607760710955   -0.0012009525441081098
0.0013912628724247493   -0.029027871423422093   -0.0012146016592519805
0.00048795380939360656   -0.03355470779839506   -0.0011278715279420877
-0.0009872726907312912   -0.029112808110392772   -0.001181802335390088
0.0014426909838130384   -0.029024858302598187   -0.0011612440527959814
0.00048795380939360656   -0.03355470779839506   -0.0011278715279420877
0.0013912628724247493   -0.029027871423422093   -0.0012146016592519805
-0.0009872726907312912   -0.029112808110392772   -0.001181802335390088
0.00048795380939360656   -0.03355470779839506   -0.0011278715279420877
-0.0015208138197230416   -0.03365124651884679   -0.001161096484777525
-0.0015817774739995526   -0.033640655675788264   -0.0012011555745171426
-0.0009872726907312912   -0.029112808110392772   -0.001181802335390088
0.00048795380939360656   -0.03355470779839506   -0.0011278715279420877
-0.0015817774739995526   -0.033640655675788264   -0.0012011555745171426
0.0013912628724247493   -0.029027871423422093   -0.0012146016592519805
-0.0009872726907312912   -0.029112808110392772   -0.001181802335390088
-0.0015208138197230416   -0.03365124651884679   -0.001161096484777525
0.0014426909838130384   -0.029024858302598187   -0.0011612440527959814
-0.0009516276569505437   -0.029136418097083283   -0.0011554318431446914
-0.0015208138197230416   -0.03365124651884679   -0.001161096484777525
0.00048795380939360656   -0.03355470779839506   -0.0011278715279420877
0.0014426909838130384   -0.029024858302598187   -0.0011612440527959814
0.0005469361555713019   -0.033571088115821456   -0.0010597945180280208
-0.0009516276569505437   -0.029136418097083283   -0.0011554318431446914
0.0014770002097797073   -0.029032339880222826   -0.0011129062362199296
0.0005469361555713019   -0.033571088115821456   -0.0010597945180280208
0.0014426909838130384   -0.029024858302598187   -0.0011612440527959814
-0.0009516276569505437   -0.029136418097083283   -0.0011554318431446914
0.0005469361555713019   -0.033571088115821456   -0.0010597945180280208
-0.0014657062396882885   -0.03368141464881681   -0.0011262883954620926
-0.0015208138197230416   -0.03365124651884679   -0.001161096484777525
-0.0009516276569505437   -0.029136418097083283   -0.0011554318431446914
0.0005469361555713019   -0.033571088115821456   -0.0010597945180280208
-0.0015208138197230416   -0.03365124651884679   -0.001161096484777525
0.0014426909838130384   -0.029024858302598187   -0.0011612440527959814
0.0013411681921556948   -0.029043737899528625   -0.0012737431474305265
0.00033086751318936003   -0.03357767440632605   -0.001281306468357809
0.0039023063938058203   -0.028944923265551196   -0.001331254862681797
0.0013912628724247493   -0.029027871423422093   -0.0012146016592519805
0.00033086751318936003   -0.03357767440632605   -0.001281306468357809
0.002434278319009608   -0.033441452418030364   -0.0013542720524007212
0.0039023063938058203   -0.028944923265551196   -0.001331254862681797
0.002628645846166074   -0.03340109986110856   -0.0012312484293730138
0.0013912628724247493   -0.029027871423422093   -0.0012146016592519805
0.004035653628047839   -0.02891235762868681   -0.001245105500598723
0.002628645846166074   -0.03340109986110856   -0.0012312484293730138
0.0039023063938058203   -0.028944923265551196   -0.001331254862681797
0.0013912628724247493   -0.029027871423422093   -0.0012146016592519805
0.002628645846166074   -0.03340109986110856   -0.0012312484293730138
0.0004073036614332231   -0.033556607760710955   -0.0012009525441081098
0.00033086751318936003   -0.03357767440632605   -0.001281306468357809
0.0013912628724247493   -0.029027871423422093   -0.0012146016592519805
0.002628645846166074   -0.03340109986110856   -0.0012312484293730138
0.00033086751318936003   -0.03357767440632605   -0.001281306468357809
0.0039023063938058203   -0.028944923265551196   -0.001331254862681797
0.0013912628724247493   -0.029027871423422093   -0.0012146016592519805
0.0004073036614332231   -0.033556607760710955   -0.0012009525441081098
0.004035653628047839   -0.02891235762868681   -0.001245105500598723
0.0014426909838130384   -0.029024858302598187   -0.0011612440527959814
0.0004073036614332231   -0.033556607760710955   -0.0012009525441081098
0.002628645846166074   -0.03340109986110856   -0.0012312484293730138
0.004035653628047839   -0.02891235762868681   -0.001245105500598723
0.002777728389532083   -0.03339410954894641   -0.0011172470899423784
0.0014426909838130384   -0.029024858302598187   -0.0011612440527959814
0.004134533487823583   -0.028903351504508314   -0.0011666572085599993
0.002777728389532083   -0.03339410954894641   -0.0011172470899423784
0.004035653628047839   -0.02891235762868681   -0.001245105500598723
0.0014426909838130384   -0.029024858302598187   -0.0011612440527959814
0.002777728389532083   -0.03339410954894641   -0.0011172470899423784
0.00048795380939360656   -0.03355470779839506   -0.0011278715279420877
0.0004073036614332231   -0.033556607760710955   -0.0012009525441081098
0.0014426909838130384   -0.029024858302598187   -0.0011612440527959814
0.002777728389532083   -0.03339410954894641   -0.0011172470899423784
0.0004073036614332231   -0.033556607760710955   -0.0012009525441081098
0.004035653628047839   -0.02891235762868681   -0.001245105500598723
0.0014426909838130384   -0.029024858302598187   -0.0011612440527959814
0.00048795380939360656   -0.03355470779839506   -0.0011278715279420877
0.004134533487823583   -0.028903351504508314   -0.0011666572085599993
0.0014770002097797073   -0.029032339880222826   -0.0011129062362199296
0.00048795380939360656   -0.03355470779839506   -0.0011278715279420877
0.002777728389532083   -0.03339410954894641   -0.0011172470899423784
0.004134533487823583   -0.028903351504508314   -0.0011666572085599993
0.0029325145219617245   -0.03340619907095264   -0.0010131935165547492
0.0014770002097797073   -0.029032339880222826   -0.0011129062362199296
0.004235028377403255   -0.028903316843780544   -0.001096267726629006
0.0029325145219617245   -0.03340619907095264   -0.0010131935165547492
0.004134533487823583   -0.028903351504508314   -0.0011666572085599993
0.0014770002097797073   -0.029032339880222826   -0.0011129062362199296
0.0029325145219617245   -0.03340619907095264   -0.0010131935165547492
0.0005469361555713019   -0.033571088115821456   -0.0010597945180280208
0.00048795380939360656   -0.03355470779839506   -0.0011278715279420877
0.0014770002097797073   -0.029032339880222826   -0.0011129062362199296
0.0029325145219617245   -0.03340619907095264   -0.0010131935165547492
0.00048795380939360656   -0.03355470779839506   -0.0011278715279420877
0.004134533487823583   -0.028903351504508314   -0.0011666572085599993
-0.00773913680626083   -0.03350351221843885   -0.0012429205183434764
-0.006488624769746455   -0.03700645043313628   -0.0011282400639689458
-0.005485832977103916   -0.03360797386786155   -0.0012355540886527195
-0.007622364727093417   -0.03352586439265621   -0.0013123617523116773
-0.006488624769746455   -0.03700645043313628   -0.0011282400639689458
-0.004884232502953326   -0.03716070592454713   -0.0011744172895627862
-0.005485832977103916   -0.03360797386786155   -0.0012355540886527195
-0.004804112391085564   -0.0371529072423932   -0.0012124940466696525
-0.007622364727093417   -0.03352586439265621   -0.0013123617523116773
-0.005429908282188937   -0.033623057407430684   -0.001260311085557312
-0.004804112391085564   -0.0371529072423932   -0.0012124940466696525
-0.005485832977103916   -0.03360797386786155   -0.0012355540886527195
-0.007622364727093417   -0.03352586439265621   -0.0013123617523116773
-0.004804112391085564   -0.0371529072423932   -0.0012124940466696525
-0.00631527011083916   -0.037002204499811585   -0.001230876532620293
-0.006488624769746455   -0.03700645043313628   -0.0011282400639689458
-0.007622364727093417   -0.03352586439265621   -0.0013123617523116773
-0.004804112391085564   -0.0371529072423932   -0.0012124940466696525
-0.006488624769746455   -0.03700645043313628   -0.0011282400639689458
-0.005485832977103916   -0.03360797386786155   -0.0012355540886527195
-0.007622364727093417   -0.03352586439265621   -0.0013123617523116773
-0.00631527011083916   -0.037002204499811585   -0.001230876532620293
-0.005429908282188937   -0.033623057407430684   -0.001260311085557312
-0.007506041368901517   -0.033568430756278723   -0.001390841255288004
-0.00631527011083916   -0.037002204499811585   -0.001230876532620293
-0.004804112391085564   -0.0371529072423932   -0.0012124940466696525
-0.005429908282188937   -0.033623057407430684   -0.001260311085557312
-0.0047097769658098225   -0.03717536767201856   -0.0012562240659558263
-0.007506041368901517   -0.033568430756278723   -0.001390841255288004
-0.005359653235591469   -0.033659323397786274   -0.001290620007201562
-0.0047097769658098225   -0.03717536767201856   -0.0012562240659558263
-0.005429908282188937   -0.033623057407430684   -0.001260311085557312
-0.007506041368901517   -0.033568430756278723   -0.001390841255288004
-0.0047097769658098225   -0.03717536767201856   -0.0012562240659558263
-0.006155578291940654   -0.03702991362182882   -0.0013414823459466823
-0.00631527011083916   -0.037002204499811585   -0.001230876532620293
-0.007506041368901517   -0.033568430756278723   -0.001390841255288004
-0.0047097769658098225   -0.03717536767201856   -0.0012562240659558263
-0.00631527011083916   -0.037002204499811585   -0.001230876532620293
-0.005429908282188937   -0.033623057407430684   -0.001260311085557312
-0.007506041368901517   -0.033568430756278723   -0.001390841255288004
-0.006155578291940654   -0.03702991362182882   -0.0013414823459466823
-0.005359653235591469   -0.033659323397786274   -0.001290620007201562
-0.00735708199385901   -0.033647805776361055   -0.0014782045017450597
-0.006155578291940654   -0.03702991362182882   -0.0013414823459466823
-0.0047097769658098225   -0.03717536767201856   -0.0012562240659558263
-0.005359653235591469   -0.033659323397786274   -0.001290620007201562
-0.004624201839460265   -0.03722861438105799   -0.0013052478767752059
-0.00735708199385901   -0.033647805776361055   -0.0014782045017450597
-0.005290362858727007   -0.033718834323802294   -0.0013264282688701615
-0.004624201839460265   -0.03722861438105799   -0.0013052478767752059
-0.005359653235591469   -0.033659323397786274   -0.001290620007201562
-0.00735708199385901   -0.033647805776361055   -0.0014782045017450597
-0.004624201839460265   -0.03722861438105799   -0.0013052478767752059
-0.005960736314151918   -0.037103572038597696   -0.0014595997058217142
-0.006155578291940654   -0.03702991362182882   -0.0013414823459466823
-0.00735708199385901   -0.033647805776361055   -0.0014782045017450597
-0.004624201839460265   -0.03722861438105799   -0.0013052478767752059
-0.006155578291940654   -0.03702991362182882   -0.0013414823459466823
-0.005359653235591469   -0.033659323397786274   -0.001290620007201562
-0.005485832977103916   -0.03360797386786155   -0.0012355540886527195
-0.004884232502953326   -0.03716070592454713   -0.0011744172895627862
-0.0035328779308482004   -0.03365661536850339   -0.0012327198015641126
-0.005429908282188937   -0.033623057407430684   -0.001260311085557312
-0.004884232502953326   -0.03716070592454713   -0.0011744172895627862
-0.0035711457104470263   -0.037260001844351374   -0.0012105791553837886
-0.0035328779308482004   -0.03365661536850339   -0.0012327198015641126
-0.0034890261616782347   -0.037247356441544074   -0.0011989488445933714
-0.005429908282188937   -0.033623057407430684   -0.001260311085557312
-0.003475554322419181   -0.03366151672480381   -0.0012215698774268532
-0.0034890261616782347   -0.037247356441544074   -0.0011989488445933714
-0.0035328779308482004   -0.03365661536850339   -0.0012327198015641126
-0.005429908282188937   -0.033623057407430684   -0.001260311085557312
-0.0034890261616782347   -0.037247356441544074   -0.0011989488445933714
-0.004804112391085564   -0.0371529072423932   -0.0012124940466696525
-0.004884232502953326   -0.03716070592454713   -0.0011744172895627862
-0.005429908282188937   -0.033623057407430684   -0.001260311085557312
-0.0034890261616782347   -0.037247356441544074   -0.0011989488445933714
-0.004884232502953326   -0.03716070592454713   -0.0011744172895627862
-0.0035328779308482004   -0.03365661536850339   -0.0012327198015641126
-0.005429908282188937   -0.033623057407430684   -0.001260311085557312
-0.004804112391085564   -0.0371529072423932   -0.0012124940466696525
-0.003475554322419181   -0.03366151672480381   -0.0012215698774268532
-0.005359653235591469   -0.033659323397786274   -0.001290620007201562
-0.004804112391085564   -0.0371529072423932   -0.0012124940466696525
-0.0034890261616782347   -0.037247356441544074   -0.0011989488445933714
-0.003475554322419181   -0.03366151672480381   -0.0012215698774268532
-0.0034080032874971773   -0.03726086160271945   -0.0011928163304870925
-0.005359653235591469   -0.033659323397786274   -0.001290620007201562
-0.0034163681748619356   -0.03368534444037134   -0.001215807195756615
-0.0034080032874971773   -0.03726086160271945   -0.0011928163304870925
-0.003475554322419181   -0.03366151672480381   -0.0012215698774268532
-0.005359653235591469   -0.033659323397786274   -0.001290620007201562
-0.0034080032874971773   -0.03726086160271945   -0.0011928163304870925
-0.0047097769658098225   -0.03717536767201856   -0.0012562240659558263
-0.004804112391085564   -0.0371529072423932   -0.0012124940466696525
-0.005359653235591469   -0.033659323397786274   -0.001290620007201562
-0.0034080032874971773   -0.03726086160271945   -0.0011928163304870925
-0.004804112391085564   -0.0371529072423932   -0.0012124940466696525
-0.003475554322419181   -0.03366151672480381   -0.0012215698774268532
-0.005359653235591469   -0.033659323397786274   -0.001290620007201562
-0.0047097769658098225   -0.03717536767201856   -0.0012562240659558263
-0.0034163681748619356   -0.03368534444037134   -0.001215807195756615
-0.005290362858727007   -0.033718834323802294   -0.0013264282688701615
-0.0047097769658098225   -0.03717536767201856   -0.0012562240659558263
-0.0034080032874971773   -0.03726086160271945   -0.0011928163304870925
-0.0034163681748619356   -0.03368534444037134   -0.001215807195756615
-0.0033333901695239095   -0.03730136168689069   -0.0011933230100042399
-0.005290362858727007   -0.033718834323802294   -0.0013264282688701615
-0.00335726743945856   -0.033729186603179286   -0.0012153714449561663
-0.0033333901695239095   -0.03730136168689069   -0.0011933230100042399
-0.0034163681748619356   -0.03368534444037134   -0.001215807195756615
-0.005290362858727007   -0.033718834323802294   -0.0013264282688701615
-0.0033333901695239095   -0.03730136168689069   -0.0011933230100042399
-0.004624201839460265   -0.03722861438105799   -0.0013052478767752059
-0.0047097769658098225   -0.03717536767201856   -0.0012562240659558263
-0.005290362858727007   -0.033718834323802294   -0.0013264282688701615
-0.0033333901695239095   -0.03730136168689069   -0.0011933230100042399
-0.0047097769658098225   -0.03717536767201856   -0.0012562240659558263
-0.0034163681748619356   -0.03368534444037134   -0.001215807195756615
-0.0035328779308482004   -0.03365661536850339   -0.0012327198015641126
-0.0035711457104470263   -0.037260001844351374   -0.0012105791553837886
-0.00164456109524775   -0.03364721154254134   -0.0012469584618099946
-0.003475554322419181   -0.03366151672480381   -0.0012215698774268532
-0.0035711457104470263   -0.037260001844351374   -0.0012105791553837886
-0.002313250195432367   -0.03731110633604447   -0.0012535449909145504
-0.00164456109524775   -0.03364721154254134   -0.0012469584618099946
-0.002220701064838335   -0.037292721153724416   -0.001194996431945462
-0.003475554322419181   -0.03366151672480381   -0.0012215698774268532
-0.0015817774739995526   -0.033640655675788264   -0.0012011555745171426
-0.002220701064838335   -0.037292721153724416   -0.001194996431945462
-0.00164456109524775   -0.03364721154254134   -0.0012469584618099946
-0.003475554322419181   -0.03366151672480381   -0.0012215698774268532
-0.002220701064838335   -0.037292721153724416   -0.001194996431945462
-0.0034890261616782347   -0.037247356441544074   -0.0011989488445933714
-0.0035711457104470263   -0.037260001844351374   -0.0012105791553837886
-0.003475554322419181   -0.03366151672480381   -0.0012215698774268532
-0.002220701064838335   -0.037292721153724416   -0.001194996431945462
-0.0035711457104470263   -0.037260001844351374   -0.0012105791553837886
-0.00164456109524775   -0.03364721154254134   -0.0012469584618099946
-0.003475554322419181   -0.03366151672480381   -0.0012215698774268532
-0.0034890261616782347   -0.037247356441544074   -0.0011989488445933714
-0.0015817774739995526   -0.033640655675788264   -0.0012011555745171426
-0.0034163681748619356   -0.03368534444037134   -0.001215807195756615
-0.0034890261616782347   -0.037247356441544074   -0.0011989488445933714
-0.002220701064838335   -0.037292721153724416   -0.001194996431945462
-0.0015817774739995526   -0.033640655675788264   -0.0012011555745171426
-0.0021324308988376547   -0.03729738912202345   -0.0011413325374557382
-0.0034163681748619356   -0.03368534444037134   -0.001215807195756615
-0.0015208138197230416   -0.03365124651884679   -0.001161096484777525
-0.0021324308988376547   -0.03729738912202345   -0.0011413325374557382
-0.0015817774739995526   -0.033640655675788264   -0.0012011555745171426
-0.0034163681748619356   -0.03368534444037134   -0.001215807195756615
-0.0021324308988376547   -0.03729738912202345   -0.0011413325374557382
-0.0034080032874971773   -0.03726086160271945   -0.0011928163304870925
-0.0034890261616782347   -0.037247356441544074   -0.0011989488445933714
-0.0034163681748619356   -0.03368534444037134   -0.001215807195756615
-0.0021324308988376547   -0.03729738912202345   -0.0011413325374557382
-0.0034890261616782347   -0.037247356441544074   -0.0011989488445933714
-0.0015817774739995526   -0.033640655675788264   -0.0012011555745171426
-0.0034163681748619356   -0.03368534444037134   -0.001215807195756615
-0.0034080032874971773   -0.03726086160271945   -0.0011928163304870925
-0.0015208138197230416   -0.03365124651884679   -0.001161096484777525
-0.00335726743945856   -0.033729186603179286   -0.0012153714449561663
-0.0034080032874971773   -0.03726086160271945   -0.0011928163304870925
-0.0021324308988376547   -0.03729738912202345   -0.0011413325374557382
-0.0015208138197230416   -0.03365124651884679   -0.001161096484777525
-0.002058925637061076   -0.0373294951000545   -0.0010955478233033754
-0.00335726743945856   -0.033729186603179286   -0.0012153714449561663
-0.0014657062396882885   -0.03368141464881681   -0.0011262883954620926
-0.002058925637061076   -0.0373294951000545   -0.0010955478233033754
-0.0015208138197230416   -0.03365124651884679   -0.001161096484777525
-0.00335726743945856   -0.033729186603179286   -0.0012153714449561663
-0.002058925637061076   -0.0373294951000545   -0.0010955478233033754
-0.0033333901695239095   -0.03730136168689069   -0.0011933230100042399
-0.0034080032874971773   -0.03726086160271945   -0.0011928163304870925
-0.00335726743945856   -0.033729186603179286   -0.0012153714449561663
-0.002058925637061076   -0.0373294951000545   -0.0010955478233033754
-0.0034080032874971773   -0.03726086160271945   -0.0011928163304870925
-0.0015208138197230416   -0.03365124651884679   -0.001161096484777525
-0.00164456109524775   -0.03364721154254134   -0.0012469584618099946
-0.002313250195432367   -0.03731110633604447   -0.0012535449909145504
0.00033086751318936003   -0.03357767440632605   -0.001281306468357809
-0.0015817774739995526   -0.033640655675788264   -0.0012011555745171426
-0.002313250195432367   -0.03731110633604447   -0.0012535449909145504
-0.0009772612576291239   -0.03729591397514883   -0.0013043545773984322
0.00033086751318936003   -0.03357767440632605   -0.001281306468357809
-0.0008584322219638803   -0.037267052977093484   -0.0012008623567650544
-0.0015817774739995526   -0.033640655675788264   -0.0012011555745171426
0.0004073036614332231   -0.033556607760710955   -0.0012009525441081098
-0.0008584322219638803   -0.037267052977093484   -0.0012008623567650544
0.00033086751318936003   -0.03357767440632605   -0.001281306468357809
-0.0015817774739995526   -0.033640655675788264   -0.0012011555745171426
-0.0008584322219638803   -0.037267052977093484   -0.0012008623567650544
-0.002220701064838335   -0.037292721153724416   -0.001194996431945462
-0.002313250195432367   -0.03731110633604447   -0.0012535449909145504
-0.0015817774739995526   -0.033640655675788264   -0.0012011555745171426
-0.0008584322219638803   -0.037267052977093484   -0.0012008623567650544
-0.002313250195432367   -0.03731110633604447   -0.0012535449909145504
0.00033086751318936003   -0.03357767440632605   -0.001281306468357809
-0.0015817774739995526   -0.033640655675788264   -0.0012011555745171426
-0.002220701064838335   -0.037292721153724416   -0.001194996431945462
0.0004073036614332231   -0.033556607760710955   -0.0012009525441081098
-0.0015208138197230416   -0.03365124651884679   -0.001161096484777525
-0.002220701064838335   -0.037292721153724416   -0.001194996431945462
-0.0008584322219638803   -0.037267052977093484   -0.0012008623567650544
0.0004073036614332231   -0.033556607760710955   -0.0012009525441081098
-0.0007367238706344173   -0.03726209165131309   -0.001102580705630206
-0.0015208138197230416   -0.03365124651884679   -0.001161096484777525
0.00048795380939360656   -0.03355470779839506   -0.0011278715279420877
-0.0007367238706344173   -0.03726209165131309   -0.001102580705630206
0.0004073036614332231   -0.033556607760710955   -0.0012009525441081098
-0.0015208138197230416   -0.03365124651884679   -0.001161096484777525
-0.0007367238706344173   -0.03726209165131309   -0.001102580705630206
-0.0021324308988376547   -0.03729738912202345   -0.0011413325374557382
-0.002220701064838335   -0.037292721153724416   -0.001194996431945462
-0.0015208138197230416   -0.03365124651884679   -0.001161096484777525
-0.0007367238706344173   -0.03726209165131309   -0.001102580705630206
-0.002220701064838335   -0.037292721153724416   -0.001194996431945462
0.0004073036614332231   -0.033556607760710955   -0.0012009525441081098
-0.0015208138197230416   -0.03365124651884679   -0.001161096484777525
-0.0021324308988376547   -0.03729738912202345   -0.0011413325374557382
0.00048795380939360656   -0.03355470779839506   -0.0011278715279420877
-0.0014657062396882885   -0.03368141464881681   -0.0011262883954620926
-0.0021324308988376547   -0.03729738912202345   -0.0011413325374557382
-0.0007367238706344173   -0.03726209165131309   -0.001102580705630206
0.00048795380939360656   -0.03355470779839506   -0.0011278715279420877
-0.0006467082987605406   -0.03728608301967698   -0.0010132080313896717
-0.0014657062396882885   -0.03368141464881681   -0.0011262883954620926
0.0005469361555713019   -0.033571088115821456   -0.0010597945180280208
-0.0006467082987605406   -0.03728608301967698   -0.0010132080313896717
0.00048795380939360656   -0.03355470779839506   -0.0011278715279420877
-0.0014657062396882885   -0.03368141464881681   -0.0011262883954620926
-0.0006467082987605406   -0.03728608301967698   -0.0010132080313896717
-0.002058925637061076   -0.0373294951000545   -0.0010955478233033754
-0.0021324308988376547   -0.03729738912202345   -0.0011413325374557382
-0.0014657062396882885   -0.03368141464881681   -0.0011262883954620926
-0.0006467082987605406   -0.03728608301967698   -0.0010132080313896717
-0.0021324308988376547   -0.03729738912202345   -0.0011413325374557382
0.00048795380939360656   -0.03355470779839506   -0.0011278715279420877
0.00033086751318936003   -0.03357767440632605   -0.001281306468357809
-0.0009772612576291239   -0.03729591397514883   -0.0013043545773984322
0.002434278319009608   -0.033441452418030364   -0.0013542720524007212
0.0004073036614332231   -0.033556607760710955   -0.0012009525441081098
-0.0009772612576291239   -0.03729591397514883   -0.0013043545773984322
0.00045740509753111836   -0.037166878614348635   -0.001407791250948212
0.002434278319009608   -0.033441452418030364   -0.0013542720524007212
0.0007360206482361053   -0.03710429403596948   -0.001238616348470352
0.0004073036614332231   -0.033556607760710955   -0.0012009525441081098
0.002628645846166074   -0.03340109986110856   -0.0012312484293730138
0.0007360206482361053   -0.03710429403596948   -0.001238616348470352
0.002434278319009608   -0.033441452418030364   -0.0013542720524007212
0.0004073036614332231   -0.033556607760710955   -0.0012009525441081098
0.0007360206482361053   -0.03710429403596948   -0.001238616348470352
-0.0008584322219638803   -0.037267052977093484   -0.0012008623567650544
-0.0009772612576291239   -0.03729591397514883   -0.0013043545773984322
0.0004073036614332231   -0.033556607760710955   -0.0012009525441081098
0.0007360206482361053   -0.03710429403596948   -0.001238616348470352
-0.0009772612576291239   -0.03729591397514883   -0.0013043545773984322
0.002434278319009608   -0.033441452418030364   -0.0013542720524007212
0.0004073036614332231   -0.033556607760710955   -0.0012009525441081098
-0.0008584322219638803   -0.037267052977093484   -0.0012008623567650544
0.002628645846166074   -0.03340109986110856   -0.0012312484293730138
0.00048795380939360656   -0.03355470779839506   -0.0011278715279420877
-0.0008584322219638803   -0.037267052977093484   -0.0012008623567650544
0.0007360206482361053   -0.03710429403596948   -0.001238616348470352
0.002628645846166074   -0.03340109986110856   -0.0012312484293730138
0.0009548846260856129   -0.03709172691109028   -0.001079631610366257
0.00048795380939360656   -0.03355470779839506   -0.0011278715279420877
0.002777728389532083   -0.03339410954894641   -0.0011172470899423784
0.0009548846260856129   -0.03709172691109028   -0.001079631610366257
0.002628645846166074   -0.03340109986110856   -0.0012312484293730138
0.00048795380939360656   -0.03355470779839506   -0.0011278715279420877
0.0009548846260856129   -0.03709172691109028   -0.001079631610366257
-0.0007367238706344173   -0.03726209165131309   -0.001102580705630206
-0.0008584322219638803   -0.037267052977093484   -0.0012008623567650544
0.00048795380939360656   -0.03355470779839506   -0.0011278715279420877
0.0009548846260856129   -0.03709172691109028   -0.001079631610366257
-0.0008584322219638803   -0.037267052977093484   -0.0012008623567650544
0.002628645846166074   -0.03340109986110856   -0.0012312484293730138
0.00048795380939360656   -0.03355470779839506   -0.0011278715279420877
-0.0007367238706344173   -0.03726209165131309   -0.001102580705630206
0.002777728389532083   -0.03339410954894641   -0.0011172470899423784
0.0005469361555713019   -0.033571088115821456   -0.0010597945180280208
-0.0007367238706344173   -0.03726209165131309   -0.001102580705630206
0.0009548846260856129   -0.03709172691109028   -0.001079631610366257
0.002777728389532083   -0.03339410954894641   -0.0011172470899423784
0.0011827511912946744   -0.03710283276189283   -0.0009342657379280413
0.0005469361555713019   -0.033571088115821456   -0.0010597945180280208
0.0029325145219617245   -0.03340619907095264   -0.0010131935165547492
0.0011827511912946744   -0.03710283276189283   -0.0009342657379280413
0.002777728389532083   -0.03339410954894641   -0.0011172470899423784
0.0005469361555713019   -0.033571088115821456   -0.0010597945180280208
0.0011827511912946744   -0.03710283276189283   -0.0009342657379280413
-0.0006467082987605406   -0.03728608301967698   -0.0010132080313896717
-0.0007367238706344173   -0.03726209165131309   -0.001102580705630206
0.0005469361555713019   -0.033571088115821456   -0.0010597945180280208
0.0011827511912946744   -0.03710283276189283   -0.0009342657379280413
-0.0007367238706344173   -0.03726209165131309   -0.001102580705630206
0.002777728389532083   -0.03339410954894641   -0.0011172470899423784
-0.006488624769746455   -0.03700645043313628   -0.0011282400639689458
-0.004773503062621996   -0.03909165653720584   -0.0009933497154036772
-0.004884232502953326   -0.03716070592454713   -0.0011744172895627862
-0.00631527011083916   -0.037002204499811585   -0.001230876532620293
-0.004773503062621996   -0.03909165653720584   -0.0009933497154036772
-0.0040232216890497005   -0.03928640833637121   -0.001109909684455831
-0.004884232502953326   -0.03716070592454713   -0.0011744172895627862
-0.003922434220175091   -0.03924826867698004   -0.0011505458687374062
-0.00631527011083916   -0.037002204499811585   -0.001230876532620293
-0.004804112391085564   -0.0371529072423932   -0.0012124940466696525
-0.003922434220175091   -0.03924826867698004   -0.0011505458687374062
-0.004884232502953326   -0.03716070592454713   -0.0011744172895627862
-0.00631527011083916   -0.037002204499811585   -0.001230876532620293
-0.003922434220175091   -0.03924826867698004   -0.0011505458687374062
-0.004557888944250093   -0.03904864268536899   -0.0011164013281755002
-0.004773503062621996   -0.03909165653720584   -0.0009933497154036772
-0.00631527011083916   -0.037002204499811585   -0.001230876532620293
-0.003922434220175091   -0.03924826867698004   -0.0011505458687374062
-0.004773503062621996   -0.03909165653720584   -0.0009933497154036772
-0.004884232502953326   -0.03716070592454713   -0.0011744172895627862
-0.00631527011083916   -0.037002204499811585   -0.001230876532620293
-0.004557888944250093   -0.03904864268536899   -0.0011164013281755002
-0.004804112391085564   -0.0371529072423932   -0.0012124940466696525
-0.006155578291940654   -0.03702991362182882   -0.0013414823459466823
-0.004557888944250093   -0.03904864268536899   -0.0011164013281755002
-0.003922434220175091   -0.03924826867698004   -0.0011505458687374062
-0.004804112391085564   -0.0371529072423932   -0.0012124940466696525
-0.0038106384603286535   -0.039250609328788516   -0.0011916018165050448
-0.006155578291940654   -0.03702991362182882   -0.0013414823459466823
-0.0047097769658098225   -0.03717536767201856   -0.0012562240659558263
-0.0038106384603286535   -0.039250609328788516   -0.0011916018165050448
-0.004804112391085564   -0.0371529072423932   -0.0012124940466696525
-0.006155578291940654   -0.03702991362182882   -0.0013414823459466823
-0.0038106384603286535   -0.039250609328788516   -0.0011916018165050448
-0.004371898233484735   -0.03905283511496852   -0.0012390192149039697
-0.004557888944250093   -0.03904864268536899   -0.0011164013281755002
-0.006155578291940654   -0.03702991362182882   -0.0013414823459466823
-0.0038106384603286535   -0.039250609328788516   -0.0011916018165050448
-0.004557888944250093   -0.03904864268536899   -0.0011164013281755002
-0.004804112391085564   -0.0371529072423932   -0.0012124940466696525
-0.006155578291940654   -0.03702991362182882   -0.0013414823459466823
-0.004371898233484735   -0.03905283511496852   -0.0012390192149039697
-0.0047097769658098225   -0.03717536767201856   -0.0012562240659558263
-0.005960736314151918   -0.037103572038597696   -0.0014595997058217142
-0.004371898233484735   -0.03905283511496852   -0.0012390192149039697
-0.0038106384603286535   -0.039250609328788516   -0.0011916018165050448
-0.0047097769658098225   -0.03717536767201856   -0.0012562240659558263
-0.003706875640898432   -0.039293639616630315   -0.0012332483551223976
-0.005960736314151918   -0.037103572038597696   -0.0014595997058217142
-0.004624201839460265   -0.03722861438105799   -0.0013052478767752059
-0.003706875640898432   -0.039293639616630315   -0.0012332483551223976
-0.0047097769658098225   -0.03717536767201856   -0.0012562240659558263
-0.005960736314151918   -0.037103572038597696   -0.0014595997058217142
-0.003706875640898432   -0.039293639616630315   -0.0012332483551223976
-0.004151156466581329   -0.03910699354402918   -0.00136426547613352
-0.004371898233484735   -0.03905283511496852   -0.0012390192149039697
-0.005960736314151918   -0.037103572038597696   -0.0014595997058217142
-0.003706875640898432   -0.039293639616630315   -0.0012332483551223976
-0.004371898233484735   -0.03905283511496852   -0.0012390192149039697
-0.0047097769658098225   -0.03717536767201856   -0.0012562240659558263
-0.004884232502953326   -0.03716070592454713   -0.0011744172895627862
-0.0040232216890497005   -0.03928640833637121   -0.001109909684455831
-0.0035711457104470263   -0.037260001844351374   -0.0012105791553837886
-0.004804112391085564   -0.0371529072423932   -0.0012124940466696525
-0.0040232216890497005   -0.03928640833637121   -0.001109909684455831
-0.0034719599389433195   -0.039480192968982836   -0.0012128091364581207
-0.0035711457104470263   -0.037260001844351374   -0.0012105791553837886
-0.003365787927413858   -0.039440971667682366   -0.0011848209434622105
-0.004804112391085564   -0.0371529072423932   -0.0012124940466696525
-0.0034890261616782347   -0.037247356441544074   -0.0011989488445933714
-0.003365787927413858   -0.039440971667682366   -0.0011848209434622105
-0.0035711457104470263   -0.037260001844351374   -0.0012105791553837886
-0.004804112391085564   -0.0371529072423932   -0.0012124940466696525
-0.003365787927413858   -0.039440971667682366   -0.0011848209434622105
-0.003922434220175091   -0.03924826867698004   -0.0011505458687374062
-0.0040232216890497005   -0.03928640833637121   -0.001109909684455831
-0.004804112391085564   -0.0371529072423932   -0.0012124940466696525
-0.003365787927413858   -0.039440971667682366   -0.0011848209434622105
-0.0040232216890497005   -0.03928640833637121   -0.001109909684455831
-0.0035711457104470263   -0.037260001844351374   -0.0012105791553837886
-0.004804112391085564   -0.0371529072423932   -0.0012124940466696525
-0.003922434220175091   -0.03924826867698004   -0.0011505458687374062
-0.0034890261616782347   -0.037247356441544074   -0.0011989488445933714
-0.0047097769658098225   -0.03717536767201856   -0.0012562240659558263
-0.003922434220175091   -0.03924826867698004   -0.0011505458687374062
-0.003365787927413858   -0.039440971667682366   -0.0011848209434622105
-0.0034890261616782347   -0.037247356441544074   -0.0011989488445933714
-0.003263058174291136   -0.03944060772565306   -0.0011564963972376758
-0.0047097769658098225   -0.03717536767201856   -0.0012562240659558263
-0.0034080032874971773   -0.03726086160271945   -0.0011928163304870925
-0.003263058174291136   -0.03944060772565306   -0.0011564963972376758
-0.0034890261616782347   -0.037247356441544074   -0.0011989488445933714
-0.0047097769658098225   -0.03717536767201856   -0.0012562240659558263
-0.003263058174291136   -0.03944060772565306   -0.0011564963972376758
-0.0038106384603286535   -0.039250609328788516   -0.0011916018165050448
-0.003922434220175091   -0.03924826867698004   -0.0011505458687374062
-0.0047097769658098225   -0.03717536767201856   -0.0012562240659558263
-0.003263058174291136   -0.03944060772565306   -0.0011564963972376758
-0.003922434220175091   -0.03924826867698004   -0.0011505458687374062
-0.0034890261616782347   -0.037247356441544074   -0.0011989488445933714
-0.0047097769658098225   -0.03717536767201856   -0.0012562240659558263
-0.0038106384603286535   -0.039250609328788516   -0.0011916018165050448
-0.0034080032874971773   -0.03726086160271945   -0.0011928163304870925
-0.004624201839460265   -0.03722861438105799   -0.0013052478767752059
-0.0038106384603286535   -0.039250609328788516   -0.0011916018165050448
-0.003263058174291136   -0.03944060772565306   -0.0011564963972376758
-0.0034080032874971773   -0.03726086160271945   -0.0011928163304870925
-0.0031560183024000417   -0.03947831109495756   -0.001129319085467473
-0.004624201839460265   -0.03722861438105799   -0.0013052478767752059
-0.0033333901695239095   -0.03730136168689069   -0.0011933230100042399
-0.0031560183024000417   -0.03947831109495756   -0.001129319085467473
-0.0034080032874971773   -0.03726086160271945   -0.0011928163304870925
-0.004624201839460265   -0.03722861438105799   -0.0013052478767752059
-0.0031560183024000417   -0.03947831109495756   -0.001129319085467473
-0.003706875640898432   -0.039293639616630315   -0.0012332483551223976
-0.0038106384603286535   -0.039250609328788516   -0.0011916018165050448
-0.004624201839460265   -0.03722861438105799   -0.0013052478767752059
-0.0031560183024000417   -0.03947831109495756   -0.001129319085467473
-0.0038106384603286535   -0.039250609328788516   -0.0011916018165050448
-0.0034080032874971773   -0.03726086160271945   -0.0011928163304870925
-0.0035711457104470263   -0.037260001844351374   -0.0012105791553837886
-0.0034719599389433195   -0.039480192968982836   -0.0012128091364581207
-0.002313250195432367   -0.03731110633604447   -0.0012535449909145504
-0.0034890261616782347   -0.037247356441544074   -0.0011989488445933714
-0.0034719599389433195   -0.039480192968982836   -0.0012128091364581207
-0.0029678883072837303   -0.03971227629198974   -0.0013263646401677931
-0.002313250195432367   -0.03731110633604447   -0.0012535449909145504
-0.0028378404890295737   -0.039678054419143335   -0.0012259384746412217
-0.0034890261616782347   -0.037247356441544074   -0.0011989488445933714
-0.002220701064838335   -0.037292721153724416   -0.001194996431945462
-0.0028378404890295737   -0.039678054419143335   -0.0012259384746412217
-0.002313250195432367   -0.03731110633604447   -0.0012535449909145504
-0.0034890261616782347   -0.037247356441544074   -0.0011989488445933714
-0.0028378404890295737   -0.039678054419143335   -0.0012259384746412217
-0.003365787927413858   -0.039440971667682366   -0.0011848209434622105
-0.0034719599389433195   -0.039480192968982836   -0.0012128091364581207
-0.0034890261616782347   -0.037247356441544074   -0.0011989488445933714
-0.0028378404890295737   -0.039678054419143335   -0.0012259384746412217
-0.0034719599389433195   -0.039480192968982836   -0.0012128091364581207
-0.002313250195432367   -0.03731110633604447   -0.0012535449909145504
-0.0034890261616782347   -0.037247356441544074   -0.0011989488445933714
-0.003365787927413858   -0.039440971667682366   -0.0011848209434622105
-0.002220701064838335   -0.037292721153724416   -0.001194996431945462
-0.0034080032874971773   -0.03726086160271945   -0.0011928163304870925
-0.003365787927413858   -0.039440971667682366   -0.0011848209434622105
-0.0028378404890295737   -0.039678054419143335   -0.0012259384746412217
-0.002220701064838335   -0.037292721153724416   -0.001194996431945462
-0.0027172197282621085   -0.039676420708582065   -0.0011257799974043754
-0.0034080032874971773   -0.03726086160271945   -0.0011928163304870925
-0.0021324308988376547   -0.03729738912202345   -0.0011413325374557382
-0.0027172197282621085   -0.039676420708582065   -0.0011257799974043754
-0.002220701064838335   -0.037292721153724416   -0.001194996431945462
-0.0034080032874971773   -0.03726086160271945   -0.0011928163304870925
-0.0027172197282621085   -0.039676420708582065   -0.0011257799974043754
-0.003263058174291136   -0.03944060772565306   -0.0011564963972376758
-0.003365787927413858   -0.039440971667682366   -0.0011848209434622105
-0.0034080032874971773   -0.03726086160271945   -0.0011928163304870925
-0.0027172197282621085   -0.039676420708582065   -0.0011257799974043754
-0.003365787927413858   -0.039440971667682366   -0.0011848209434622105
-0.002220701064838335   -0.037292721153724416   -0.001194996431945462
-0.0034080032874971773   -0.03726086160271945   -0.0011928163304870925
-0.003263058174291136   -0.03944060772565306   -0.0011564963972376758
-0.0021324308988376547   -0.03729738912202345   -0.0011413325374557382
-0.0033333901695239095   -0.03730136168689069   -0.0011933230100042399
-0.003263058174291136   -0.03944060772565306   -0.0011564963972376758
-0.0027172197282621085   -0.039676420708582065   -0.0011257799974043754
-0.0021324308988376547   -0.03729738912202345   -0.0011413325374557382
-0.0025878745656221706   -0.03970566705414093   -0.0010255200626353394
-0.0033333901695239095   -0.03730136168689069   -0.0011933230100042399
-0.002058925637061076   -0.0373294951000545   -0.0010955478233033754
-0.0025878745656221706   -0.03970566705414093   -0.0010255200626353394
-0.0021324308988376547   -0.03729738912202345   -0.0011413325374557382
-0.0033333901695239095   -0.03730136168689069   -0.0011933230100042399
-0.0025878745656221706   -0.03970566705414093   -0.0010255200626353394
-0.0031560183024000417   -0.03947831109495756   -0.001129319085467473
-0.003263058174291136   -0.03944060772565306   -0.0011564963972376758
-0.0033333901695239095   -0.03730136168689069   -0.0011933230100042399
-0.0025878745656221706   -0.03970566705414093   -0.0010255200626353394
-0.003263058174291136   -0.03944060772565306   -0.0011564963972376758
-0.0021324308988376547   -0.03729738912202345   -0.0011413325374557382
-0.002313250195432367   -0.03731110633604447   -0.0012535449909145504
-0.0029678883072837303   -0.03971227629198974   -0.0013263646401677931
-0.0009772612576291239   -0.03729591397514883   -0.0013043545773984322
-0.002220701064838335   -0.037292721153724416   -0.001194996431945462
-0.0029678883072837303   -0.03971227629198974   -0.0013263646401677931
-0.0024717890103574916   -0.04   -0.0014145299323243396
-0.0009772612576291239   -0.03729591397514883   -0.0013043545773984322
-0.0023079598335164864   -0.04   -0.0012612690285657563
-0.002220701064838335   -0.037292721153724416   -0.001194996431945462
-0.0008584322219638803   -0.037267052977093484   -0.0012008623567650544
-0.0023079598335164864   -0.04   -0.0012612690285657563
-0.0009772612576291239   -0.03729591397514883   -0.0013043545773984322
-0.002220701064838335   -0.037292721153724416   -0.001194996431945462
-0.0023079598335164864   -0.04   -0.0012612690285657563
-0.0028378404890295737   -0.039678054419143335   -0.0012259384746412217
-0.0029678883072837303   -0.03971227629198974   -0.0013263646401677931
-0.002220701064838335   -0.037292721153724416   -0.001194996431945462
-0.0023079598335164864   -0.04   -0.0012612690285657563
-0.0029678883072837303   -0.03971227629198974   -0.0013263646401677931
-0.0009772612576291239   -0.03729591397514883   -0.0013043545773984322
-0.002220701064838335   -0.037292721153724416   -0.001194996431945462
-0.0028378404890295737   -0.039678054419143335   -0.0012259384746412217
-0.0008584322219638803   -0.037267052977093484   -0.0012008623567650544
-0.0021324308988376547   -0.03729738912202345   -0.0011413325374557382
-0.0028378404890295737   -0.039678054419143335   -0.0012259384746412217
-0.0023079598335164864   -0.04   -0.0012612690285657563
-0.0008584322219638803   -0.037267052977093484   -0.0012008623567650544
-0.002143138952250304   -0.04   -0.0011061978151219553
-0.0021324308988376547   -0.03729738912202345   -0.0011413325374557382
-0.0007367238706344173   -0.03726209165131309   -0.001102580705630206
-0.002143138952250304   -0.04   -0.0011061978151219553
-0.0008584322219638803   -0.037267052977093484   -0.0012008623567650544
-0.0021324308988376547   -0.03729738912202345   -0.0011413325374557382
-0.002143138952250304   -0.04   -0.0011061978151219553
-0.0027172197282621085   -0.039676420708582065   -0.0011257799974043754
-0.0028378404890295737   -0.039678054419143335   -0.0012259384746412217
-0.0021324308988376547   -0.03729738912202345   -0.0011413325374557382
-0.002143138952250304   -0.04   -0.0011061978151219553
-0.0028378404890295737   -0.039678054419143335   -0.0012259384746412217
-0.0008584322219638803   -0.037267052977093484   -0.0012008623567650544
-0.0021324308988376547   -0.03729738912202345   -0.0011413325374557382
-0.0027172197282621085   -0.039676420708582065   -0.0011257799974043754
-0.0007367238706344173   -0.03726209165131309   -0.001102580705630206
-0.002058925637061076   -0.0373294951000545   -0.0010955478233033754
-0.0027172197282621085   -0.039676420708582065   -0.0011257799974043754
-0.002143138952250304   -0.04   -0.0011061978151219553
-0.0007367238706344173   -0.03726209165131309   -0.001102580705630206
-0.001982289801117069   -0.04   -0.0009531950346515117
-0.002058925637061076   -0.0373294951000545   -0.0010955478233033754
-0.0006467082987605406   -0.03728608301967698   -0.0010132080313896717
-0.001982289801117069   -0.04   -0.0009531950346515117
-0.0007367238706344173   -0.03726209165131309   -0.001102580705630206
-0.002058925637061076   -0.0373294951000545   -0.0010955478233033754
-0.001982289801117069   -0.04   -0.0009531950346515117
-0.0025878745656221706   -0.03970566705414093   -0.0010255200626353394
-0.0027172197282621085   -0.039676420708582065   -0.0011257799974043754
-0.002058925637061076   -0.0373294951000545   -0.0010955478233033754
-0.001982289801117069   -0.04   -0.0009531950346515117
-0.0027172197282621085   -0.039676420708582065   -0.0011257799974043754
-0.0007367238706344173   -0.03726209165131309   -0.001102580705630206
-0.0009772612576291239   -0.03729591397514883   -0.0013043545773984322
-0.0024717890103574916   -0.04   -0.0014145299323243396
0.00045740509753111836   -0.037166878614348635   -0.001407791250948212
-0.0008584322219638803   -0.037267052977093484   -0.0012008623567650544
-0.0024717890103574916   -0.04   -0.0014145299323243396
-0.00210959979975464   -0.04   -0.0015213001254385202
0.00045740509753111836   -0.037166878614348635   -0.001407791250948212
-0.0017653413461092738   -0.04   -0.0012991933307126434
-0.0008584322219638803   -0.037267052977093484   -0.0012008623567650544
0.0007360206482361053   -0.03710429403596948   -0.001238616348470352
-0.0017653413461092738   -0.04   -0.0012991933307126434
0.00045740509753111836   -0.037166878614348635   -0.001407791250948212
-0.0008584322219638803   -0.037267052977093484   -0.0012008623567650544
-0.0017653413461092738   -0.04   -0.0012991933307126434
-0.0023079598335164864   -0.04   -0.0012612690285657563
-0.0024717890103574916   -0.04   -0.0014145299323243396
-0.0008584322219638803   -0.037267052977093484   -0.0012008623567650544
-0.0017653413461092738   -0.04   -0.0012991933307126434
-0.0024717890103574916   -0.04   -0.0014145299323243396
0.00045740509753111836   -0.037166878614348635   -0.001407791250948212
-0.0008584322219638803   -0.037267052977093484   -0.0012008623567650544
-0.0023079598335164864   -0.04   -0.0012612690285657563
0.0007360206482361053   -0.03710429403596948   -0.001238616348470352
-0.0007367238706344173   -0.03726209165131309   -0.001102580705630206
-0.0023079598335164864   -0.04   -0.0012612690285657563
-0.0017653413461092738   -0.04   -0.0012991933307126434
0.0007360206482361053   -0.03710429403596948   -0.001238616348470352
-0.0014908176816016598   -0.04   -0.0010867421710121822
-0.0007367238706344173   -0.03726209165131309   -0.001102580705630206
0.0009548846260856129   -0.03709172691109028   -0.001079631610366257
-0.0014908176816016598   -0.04   -0.0010867421710121822
0.0007360206482361053   -0.03710429403596948   -0.001238616348470352
-0.0007367238706344173   -0.03726209165131309   -0.001102580705630206
-0.0014908176816016598   -0.04   -0.0010867421710121822
-0.002143138952250304   -0.04   -0.0011061978151219553
-0.0023079598335164864   -0.04   -0.0012612690285657563
-0.0007367238706344173   -0.03726209165131309   -0.001102580705630206
-0.0014908176816016598   -0.04   -0.0010867421710121822
-0.0023079598335164864   -0.04   -0.0012612690285657563
0.0007360206482361053   -0.03710429403596948   -0.001238616348470352
-0.0007367238706344173   -0.03726209165131309   -0.001102580705630206
-0.002143138952250304   -0.04   -0.0011061978151219553
0.0009548846260856129   -0.03709172691109028   -0.001079631610366257
-0.0006467082987605406   -0.03728608301967698   -0.0010132080313896717
-0.002143138952250304   -0.04   -0.0011061978151219553
-0.0014908176816016598   -0.04   -0.0010867421710121822
0.0009548846260856129   -0.03709172691109028   -0.001079631610366257
-0.0011517669610124333   -0.04   -0.00086617515923795
-0.0006467082987605406   -0.03728608301967698   -0.0010132080313896717
0.0011827511912946744   -0.03710283276189283   -0.0009342657379280413
-0.0011517669610124333   -0.04   -0.00086617515923795
0.0009548846260856129   -0.03709172691109028   -0.001079631610366257
-0.0006467082987605406   -0.03728608301967698   -0.0010132080313896717
-0.0011517669610124333   -0.04   -0.00086617515923795
-0.001982289801117069   -0.04   -0.0009531950346515117
-0.002143138952250304   -0.04   -0.0011061978151219553
-0.0006467082987605406   -0.03728608301967698   -0.0010132080313896717
-0.0011517669610124333   -0.04   -0.00086617515923795
-0.002143138952250304   -0.04   -0.0011061978151219553
0.0009548846260856129   -0.03709172691109028   -0.001079631610366257
-0.004773503062621996   -0.03909165653720584   -0.0009933497154036772
-0.002876090403697293   -0.03921177010370864   -0.000850543686082693
-0.0040232216890497005   -0.03928640833637121   -0.001109909684455831
-0.004557888944250093   -0.03904864268536899   -0.0011164013281755002
-0.002876090403697293   -0.03921177010370864   -0.000850543686082693
-0.0030402269509428605   -0.03936251343388368   -0.001000670521380332
-0.0040232216890497005   -0.03928640833637121   -0.001109909684455831
-0.0029638738942127573   -0.03931035233339936   -0.001055883995055608
-0.004557888944250093   -0.03904864268536899   -0.0011164013281755002
-0.003922434220175091   -0.03924826867698004   -0.0011505458687374062
-0.0029638738942127573   -0.03931035233339936   -0.001055883995055608
-0.0040232216890497005   -0.03928640833637121   -0.001109909684455831
-0.004557888944250093   -0.03904864268536899   -0.0011164013281755002
-0.0029638738942127573   -0.03931035233339936   -0.001055883995055608
-0.002680360531850041   -0.03914474116687053   -0.0009798784475381287
-0.002876090403697293   -0.03921177010370864   -0.000850543686082693
-0.004557888944250093   -0.03904864268536899   -0.0011164013281755002
-0.0029638738942127573   -0.03931035233339936   -0.001055883995055608
-0.002876090403697293   -0.03921177010370864   -0.000850543686082693
-0.0040232216890497005   -0.03928640833637121   -0.001109909684455831
-0.004557888944250093   -0.03904864268536899   -0.0011164013281755002
-0.002680360531850041   -0.03914474116687053   -0.0009798784475381287
-0.003922434220175091   -0.03924826867698004   -0.0011505458687374062
-0.004371898233484735   -0.03905283511496852   -0.0012390192149039697
-0.002680360531850041   -0.03914474116687053   -0.0009798784475381287
-0.0029638738942127573   -0.03931035233339936   -0.001055883995055608
-0.003922434220175091   -0.03924826867698004   -0.0011505458687374062
-0.002874209816216056   -0.03929155792826503   -0.0011068972200766422
-0.004371898233484735   -0.03905283511496852   -0.0012390192149039697
-0.0038106384603286535   -0.039250609328788516   -0.0011916018165050448
-0.002874209816216056   -0.03929155792826503   -0.0011068972200766422
-0.003922434220175091   -0.03924826867698004   -0.0011505458687374062
-0.004371898233484735   -0.03905283511496852   -0.0012390192149039697
-0.002874209816216056   -0.03929155792826503   -0.0011068972200766422
-0.0025174730797374928   -0.039124629804964575   -0.0011040050678066988
-0.002680360531850041   -0.03914474116687053   -0.0009798784475381287
-0.004371898233484735   -0.03905283511496852   -0.0012390192149039697
-0.002874209816216056   -0.03929155792826503   -0.0011068972200766422
-0.002680360531850041   -0.03914474116687053   -0.0009798784475381287
-0.003922434220175091   -0.03924826867698004   -0.0011505458687374062
-0.004371898233484735   -0.03905283511496852   -0.0012390192149039697
-0.0025174730797374928   -0.039124629804964575   -0.0011040050678066988
-0.0038106384603286535   -0.039250609328788516   -0.0011916018165050448
-0.004151156466581329   -0.03910699354402918   -0.00136426547613352
-0.0025174730797374928   -0.039124629804964575   -0.0011040050678066988
-0.002874209816216056   -0.03929155792826503   -0.0011068972200766422
-0.0038106384603286535   -0.039250609328788516   -0.0011916018165050448
-0.002797463219156891   -0.03930642282703035   -0.0011534510835027618
-0.004151156466581329   -0.03910699354402918   -0.00136426547613352
-0.003706875640898432   -0.039293639616630315   -0.0012332483551223976
-0.002797463219156891   -0.03930642282703035   -0.0011534510835027618
-0.0038106384603286535   -0.039250609328788516   -0.0011916018165050448
-0.004151156466581329   -0.03910699354402918   -0.00136426547613352
-0.002797463219156891   -0.03930642282703035   -0.0011534510835027618
-0.0023329398288662196   -0.039143151698479636   -0.0012223878621800345
-0.0025174730797374928   -0.039124629804964575   -0.0011040050678066988
-0.004151156466581329   -0.03910699354402918   -0.00136426547613352
-0.002797463219156891   -0.03930642282703035   -0.0011534510835027618
-0.0025174730797374928   -0.039124629804964575   -0.0011040050678066988
-0.0038106384603286535   -0.039250609328788516   -0.0011916018165050448
-0.0040232216890497005   -0.03928640833637121   -0.001109909684455831
-0.0030402269509428605   -0.03936251343388368   -0.001000670521380332
-0.0034719599389433195   -0.039480192968982836   -0.0012128091364581207
-0.003922434220175091   -0.03924826867698004   -0.0011505458687374062
-0.0030402269509428605   -0.03936251343388368   -0.001000670521380332
-0.003266673674016446   -0.03945495104421077   -0.0011205903381355982
-0.0034719599389433195   -0.039480192968982836   -0.0012128091364581207
-0.0031991658614767987   -0.03940834166019298   -0.001121929064266918
-0.003922434220175091   -0.03924826867698004   -0.0011505458687374062
-0.003365787927413858   -0.039440971667682366   -0.0011848209434622105
-0.0031991658614767987   -0.03940834166019298   -0.001121929064266918
-0.0034719599389433195   -0.039480192968982836   -0.0012128091364581207
-0.003922434220175091   -0.03924826867698004   -0.0011505458687374062
-0.0031991658614767987   -0.03940834166019298   -0.001121929064266918
-0.0029638738942127573   -0.03931035233339936   -0.001055883995055608
-0.0030402269509428605   -0.03936251343388368   -0.001000670521380332
-0.003922434220175091   -0.03924826867698004   -0.0011505458687374062
-0.0031991658614767987   -0.03940834166019298   -0.001121929064266918
-0.0030402269509428605   -0.03936251343388368   -0.001000670521380332
-0.0034719599389433195   -0.039480192968982836   -0.0012128091364581207
-0.003922434220175091   -0.03924826867698004   -0.0011505458687374062
-0.0029638738942127573   -0.03931035233339936   -0.001055883995055608
-0.003365787927413858   -0.039440971667682366   -0.0011848209434622105
-0.0038106384603286535   -0.039250609328788516   -0.0011916018165050448
-0.0029638738942127573   -0.03931035233339936   -0.001055883995055608
-0.0031991658614767987   -0.03940834166019298   -0.001121929064266918
-0.003365787927413858   -0.039440971667682366   -0.0011848209434622105
-0.0031240531498559804   -0.03939194749834595   -0.0011178232593938237
-0.0038106384603286535   -0.039250609328788516   -0.0011916018165050448
-0.003263058174291136   -0.03944060772565306   -0.0011564963972376758
-0.0031240531498559804   -0.03939194749834595   -0.0011178232593938237
-0.003365787927413858   -0.039440971667682366   -0.0011848209434622105
-0.0038106384603286535   -0.039250609328788516   -0.0011916018165050448
-0.0031240531498559804   -0.03939194749834595   -0.0011178232593938237
-0.002874209816216056   -0.03929155792826503   -0.0011068972200766422
-0.0029638738942127573   -0.03931035233339936   -0.001055883995055608
-0.0038106384603286535   -0.039250609328788516   -0.0011916018165050448
-0.0031240531498559804   -0.03939194749834595   -0.0011178232593938237
-0.0029638738942127573   -0.03931035233339936   -0.001055883995055608
-0.003365787927413858   -0.039440971667682366   -0.0011848209434622105
-0.0038106384603286535   -0.039250609328788516   -0.0011916018165050448
-0.002874209816216056   -0.03929155792826503   -0.0011068972200766422
-0.003263058174291136   -0.03944060772565306   -0.0011564963972376758
-0.003706875640898432   -0.039293639616630315   -0.0012332483551223976
-0.002874209816216056   -0.03929155792826503   -0.0011068972200766422
-0.0031240531498559804   -0.03939194749834595   -0.0011178232593938237
-0.003263058174291136   -0.03944060772565306   -0.0011564963972376758
-0.003047715960846248   -0.03940442694144234   -0.001109443455022674
-0.003706875640898432   -0.039293639616630315   -0.0012332483551223976
-0.0031560183024000417   -0.03947831109495756   -0.001129319085467473
-0.003047715960846248   -0.03940442694144234   -0.001109443455022674
-0.003263058174291136   -0.03944060772565306   -0.0011564963972376758
-0.003706875640898432   -0.039293639616630315   -0.0012332483551223976
-0.003047715960846248   -0.03940442694144234   -0.001109443455022674
-0.002797463219156891   -0.03930642282703035   -0.0011534510835027618
-0.002874209816216056   -0.03929155792826503   -0.0011068972200766422
-0.003706875640898432   -0.039293639616630315   -0.0012332483551223976
-0.003047715960846248   -0.03940442694144234   -0.001109443455022674
-0.002874209816216056   -0.03929155792826503   -0.0011068972200766422
-0.003263058174291136   -0.03944060772565306   -0.0011564963972376758
-0.0034719599389433195   -0.039480192968982836   -0.0012128091364581207
-0.003266673674016446   -0.03945495104421077   -0.0011205903381355982
-0.0029678883072837303   -0.03971227629198974   -0.0013263646401677931
-0.003365787927413858   -0.039440971667682366   -0.0011848209434622105
-0.003266673674016446   -0.03945495104421077   -0.0011205903381355982
-0.0035099825155925435   -0.039492632044648444   -0.0012387409373834934
-0.0029678883072837303   -0.03971227629198974   -0.0013263646401677931
-0.003440047435095407   -0.03944809295786208   -0.001188265342679294
-0.003365787927413858   -0.039440971667682366   -0.0011848209434622105
-0.0028378404890295737   -0.039678054419143335   -0.0012259384746412217
-0.003440047435095407   -0.03944809295786208   -0.001188265342679294
-0.0029678883072837303   -0.03971227629198974   -0.0013263646401677931
-0.003365787927413858   -0.039440971667682366   -0.0011848209434622105
-0.003440047435095407   -0.03944809295786208   -0.001188265342679294
-0.0031991658614767987   -0.03940834166019298   -0.001121929064266918
-0.003266673674016446   -0.03945495104421077   -0.0011205903381355982
-0.003365787927413858   -0.039440971667682366   -0.0011848209434622105
-0.003440047435095407   -0.03944809295786208   -0.001188265342679294
-0.003266673674016446   -0.03945495104421077   -0.0011205903381355982
-0.0029678883072837303   -0.03971227629198974   -0.0013263646401677931
-0.003365787927413858   -0.039440971667682366   -0.0011848209434622105
-0.0031991658614767987   -0.03940834166019298   -0.001121929064266918
-0.0028378404890295737   -0.039678054419143335   -0.0012259384746412217
-0.003263058174291136   -0.03944060772565306   -0.0011564963972376758
-0.0031991658614767987   -0.03940834166019298   -0.001121929064266918
-0.003440047435095407   -0.03944809295786208   -0.001188265342679294
-0.0028378404890295737   -0.039678054419143335   -0.0012259384746412217
-0.0033562430160551395   -0.039434252995321314   -0.0011311561134574664
-0.003263058174291136   -0.03944060772565306   -0.0011564963972376758
-0.0027172197282621085   -0.039676420708582065   -0.0011257799974043754
-0.0033562430160551395   -0.039434252995321314   -0.0011311561134574664
-0.0028378404890295737   -0.039678054419143335   -0.0012259384746412217
-0.003263058174291136   -0.03944060772565306   -0.0011564963972376758
-0.0033562430160551395   -0.039434252995321314   -0.0011311561134574664
-0.0031240531498559804   -0.03939194749834595   -0.0011178232593938237
-0.0031991658614767987   -0.03940834166019298   -0.001121929064266918
-0.003263058174291136   -0.03944060772565306   -0.0011564963972376758
-0.0033562430160551395   -0.039434252995321314   -0.0011311561134574664
-0.0031991658614767987   -0.03940834166019298   -0.001121929064266918
-0.0028378404890295737   -0.039678054419143335   -0.0012259384746412217
-0.003263058174291136   -0.03944060772565306   -0.0011564963972376758
-0.0031240531498559804   -0.03939194749834595   -0.0011178232593938237
-0.0027172197282621085   -0.039676420708582065   -0.0011257799974043754
-0.0031560183024000417   -0.03947831109495756   -0.001129319085467473
-0.0031240531498559804   -0.03939194749834595   -0.0011178232593938237
-0.0033562430160551395   -0.039434252995321314   -0.0011311561134574664
-0.0027172197282621085   -0.039676420708582065   -0.0011257799974043754
-0.0032701098112137483   -0.0394463848695477   -0.0010703762924687116
-0.0031560183024000417   -0.03947831109495756   -0.001129319085467473
-0.0025878745656221706   -0.03970566705414093   -0.0010255200626353394
-0.0032701098112137483   -0.0394463848695477   -0.0010703762924687116
-0.0027172197282621085   -0.039676420708582065   -0.0011257799974043754
-0.0031560183024000417   -0.03947831109495756   -0.001129319085467473
-0.0032701098112137483   -0.0394463848695477   -0.0010703762924687116
-0.003047715960846248   -0.03940442694144234   -0.001109443455022674
-0.0031240531498559804   -0.03939194749834595   -0.0011178232593938237
-0.0031560183024000417   -0.03947831109495756   -0.001129319085467473
-0.0032701098112137483   -0.0394463848695477   -0.0010703762924687116
-0.0031240531498559804   -0.03939194749834595   -0.0011178232593938237
-0.0027172197282621085   -0.039676420708582065   -0.0011257799974043754
-0.0029678883072837303   -0.03971227629198974   -0.0013263646401677931
-0.0035099825155925435   -0.039492632044648444   -0.0012387409373834934
-0.0024717890103574916   -0.04   -0.0014145299323243396
-0.0028378404890295737   -0.039678054419143335   -0.0012259384746412217
-0.0035099825155925435   -0.039492632044648444   -0.0012387409373834934
-0.0038627230387102075   -0.039448712717380575   -0.0013513136890727427
-0.0024717890103574916   -0.04   -0.0014145299323243396
-0.0037714101627980535   -0.039406487108522056   -0.0012514333786002843
-0.0028378404890295737   -0.039678054419143335   -0.0012259384746412217
-0.0023079598335164864   -0.04   -0.0012612690285657563
-0.0037714101627980535   -0.039406487108522056   -0.0012514333786002843
-0.0024717890103574916   -0.04   -0.0014145299323243396
-0.0028378404890295737   -0.039678054419143335   -0.0012259384746412217
-0.0037714101627980535   -0.039406487108522056   -0.0012514333786002843
-0.003440047435095407   -0.03944809295786208   -0.001188265342679294
-0.0035099825155925435   -0.039492632044648444   -0.0012387409373834934
-0.0028378404890295737   -0.039678054419143335   -0.0012259384746412217
-0.0037714101627980535   -0.039406487108522056   -0.0012514333786002843
-0.0035099825155925435   -0.039492632044648444   -0.0012387409373834934
-0.0024717890103574916   -0.04   -0.0014145299323243396
-0.0028378404890295737   -0.039678054419143335   -0.0012259384746412217
-0.003440047435095407   -0.03944809295786208   -0.001188265342679294
-0.0023079598335164864   -0.04   -0.0012612690285657563
-0.0027172197282621085   -0.039676420708582065   -0.0011257799974043754
-0.003440047435095407   -0.03944809295786208   -0.001188265342679294
-0.0037714101627980535   -0.039406487108522056   -0.0012514333786002843
-0.0023079598335164864   -0.04   -0.0012612690285657563
-0.0036507330893511022   -0.03939712591224295   -0.0011441365362490211
-0.0027172197282621085   -0.039676420708582065   -0.0011257799974043754
-0.002143138952250304   -0.04   -0.0011061978151219553
-0.0036507330893511022   -0.03939712591224295   -0.0011441365362490211
-0.0023079598335164864   -0.04   -0.0012612690285657563
-0.0027172197282621085   -0.039676420708582065   -0.0011257799974043754
-0.0036507330893511022   -0.03939712591224295   -0.0011441365362490211
-0.0033562430160551395   -0.039434252995321314   -0.0011311561134574664
-0.003440047435095407   -0.03944809295786208   -0.001188265342679294
-0.0027172197282621085   -0.039676420708582065   -0.0011257799974043754
-0.0036507330893511022   -0.03939712591224295   -0.0011441365362490211
-0.003440047435095407   -0.03944809295786208   -0.001188265342679294
-0.0023079598335164864   -0.04   -0.0012612690285657563
-0.0027172197282621085   -0.039676420708582065   -0.0011257799974043754
-0.0033562430160551395   -0.039434252995321314   -0.0011311561134574664
-0.002143138952250304   -0.04   -0.0011061978151219553
-0.0025878745656221706   -0.03970566705414093   -0.0010255200626353394
-0.0033562430160551395   -0.039434252995321314   -0.0011311561134574664
-0.0036507330893511022   -0.03939712591224295   -0.0011441365362490211
-0.002143138952250304   -0.04   -0.0011061978151219553
-0.0035375111492280953   -0.03941435656414368   -0.0010327624744178236
-0.0025878745656221706   -0.03970566705414093   -0.0010255200626353394
-0.001982289801117069   -0.04   -0.0009531950346515117
-0.0035375111492280953   -0.03941435656414368   -0.0010327624744178236
-0.002143138952250304   -0.04   -0.0011061978151219553
-0.0025878745656221706   -0.03970566705414093   -0.0010255200626353394
-0.0035375111492280953   -0.03941435656414368   -0.0010327624744178236
-0.0032701098112137483   -0.0394463848695477   -0.0010703762924687116
-0.0033562430160551395   -0.039434252995321314   -0.0011311561134574664
-0.0025878745656221706   -0.03970566705414093   -0.0010255200626353394
-0.0035375111492280953   -0.03941435656414368   -0.0010327624744178236
-0.0033562430160551395   -0.039434252995321314   -0.0011311561134574664
-0.002143138952250304   -0.04   -0.0011061978151219553
-0.0024717890103574916   -0.04   -0.0014145299323243396
-0.0038627230387102075   -0.039448712717380575   -0.0013513136890727427
-0.00210959979975464   -0.04   -0.0015213001254385202
-0.0023079598335164864   -0.04   -0.0012612690285657563
-0.0038627230387102075   -0.039448712717380575   -0.0013513136890727427
-0.0045527162537508156   -0.03925605110667688   -0.0014712861155341626
-0.00210959979975464   -0.04   -0.0015213001254385202
-0.004307937698343804   -0.0392201589597145   -0.0013074610378746674
-0.0023079598335164864   -0.04   -0.0012612690285657563
-0.0017653413461092738   -0.04   -0.0012991933307126434
-0.004307937698343804   -0.0392201589597145   -0.0013074610378746674
-0.00210959979975464   -0.04   -0.0015213001254385202
-0.0023079598335164864   -0.04   -0.0012612690285657563
-0.004307937698343804   -0.0392201589597145   -0.0013074610378746674
-0.0037714101627980535   -0.039406487108522056   -0.0012514333786002843
-0.0038627230387102075   -0.039448712717380575   -0.0013513136890727427
-0.0023079598335164864   -0.04   -0.0012612690285657563
-0.004307937698343804   -0.0392201589597145   -0.0013074610378746674
-0.0038627230387102075   -0.039448712717380575   -0.0013513136890727427
-0.00210959979975464   -0.04   -0.0015213001254385202
-0.0023079598335164864   -0.04   -0.0012612690285657563
-0.0037714101627980535   -0.039406487108522056   -0.0012514333786002843
-0.0017653413461092738   -0.04   -0.0012991933307126434
-0.002143138952250304   -0.04   -0.0011061978151219553
-0.0037714101627980535   -0.039406487108522056   -0.0012514333786002843
-0.004307937698343804   -0.0392201589597145   -0.0013074610378746674
-0.0017653413461092738   -0.04   -0.0012991933307126434
-0.004083450431594701   -0.03921543544421892   -0.0011327863206264607
-0.002143138952250304   -0.04   -0.0011061978151219553
-0.0014908176816016598   -0.04   -0.0010867421710121822
-0.004083450431594701   -0.03921543544421892   -0.0011327863206264607
-0.0017653413461092738   -0.04   -0.0012991933307126434
-0.002143138952250304   -0.04   -0.0011061978151219553
-0.004083450431594701   -0.03921543544421892   -0.0011327863206264607
-0.0036507330893511022   -0.03939712591224295   -0.0011441365362490211
-0.0037714101627980535   -0.039406487108522056   -0.0012514333786002843
-0.002143138952250304   -0.04   -0.0011061978151219553
-0.004083450431594701   -0.03921543544421892   -0.0011327863206264607
-0.0037714101627980535   -0.039406487108522056   -0.0012514333786002843
-0.0017653413461092738   -0.04   -0.0012991933307126434
-0.002143138952250304   -0.04   -0.0011061978151219553
-0.0036507330893511022   -0.03939712591224295   -0.0011441365362490211
-0.0014908176816016598   -0.04   -0.0010867421710121822
-0.001982289801117069   -0.04   -0.0009531950346515117
-0.0036507330893511022   -0.03939712591224295   -0.0011441365362490211
-0.004083450431594701   -0.03921543544421892   -0.0011327863206264607
-0.0014908176816016598   -0.04   -0.0010867421710121822
-0.0037998699568556494   -0.039262458071422444   -0.0009502664200477688
-0.001982289801117069   -0.04   -0.0009531950346515117
-0.0011517669610124333   -0.04   -0.00086617515923795
-0.0037998699568556494   -0.039262458071422444   -0.0009502664200477688
-0.0014908176816016598   -0.04   -0.0010867421710121822
-0.001982289801117069   -0.04   -0.0009531950346515117
-0.0037998699568556494   -0.039262458071422444   -0.0009502664200477688
-0.0035375111492280953   -0.03941435656414368   -0.0010327624744178236
-0.0036507330893511022   -0.03939712591224295   -0.0011441365362490211
-0.001982289801117069   -0.04   -0.0009531950346515117
-0.0037998699568556494   -0.039262458071422444   -0.0009502664200477688
-0.0036507330893511022   -0.03939712591224295   -0.0011441365362490211
-0.0014908176816016598   -0.04   -0.0010867421710121822
-0.002876090403697293   -0.03921177010370864   -0.000850543686082693
-0.0012023338000029078   -0.037754192755476965   -0.0007340810295283432
-0.0030402269509428605   -0.03936251343388368   -0.001000670521380332
-0.002680360531850041   -0.03914474116687053   -0.0009798784475381287
-0.0012023338000029078   -0.037754192755476965   -0.0007340810295283432
-0.0021947274423099383   -0.03786843525501512   -0.0008936801831446735
-0.0030402269509428605   -0.03936251343388368   -0.001000670521380332
-0.0021404020852366762   -0.03780528289351027   -0.0009430310211108793
-0.002680360531850041   -0.03914474116687053   -0.0009798784475381287
-0.0029638738942127573   -0.03931035233339936   -0.001055883995055608
-0.0021404020852366762   -0.03780528289351027   -0.0009430310211108793
-0.0030402269509428605   -0.03936251343388368   -0.001000670521380332
-0.002680360531850041   -0.03914474116687053   -0.0009798784475381287
-0.0021404020852366762   -0.03780528289351027   -0.0009430310211108793
-0.0010458066110723193   -0.03767594983506136   -0.0008461997180127491
-0.0012023338000029078   -0.037754192755476965   -0.0007340810295283432
-0.002680360531850041   -0.03914474116687053   -0.0009798784475381287
-0.0021404020852366762   -0.03780528289351027   -0.0009430310211108793
-0.0012023338000029078   -0.037754192755476965   -0.0007340810295283432
-0.0030402269509428605   -0.03936251343388368   -0.001000670521380332
-0.002680360531850041   -0.03914474116687053   -0.0009798784475381287
-0.0010458066110723193   -0.03767594983506136   -0.0008461997180127491
-0.0029638738942127573   -0.03931035233339936   -0.001055883995055608
-0.0025174730797374928   -0.039124629804964575   -0.0011040050678066988
-0.0010458066110723193   -0.03767594983506136   -0.0008461997180127491
-0.0021404020852366762   -0.03780528289351027   -0.0009430310211108793
-0.0029638738942127573   -0.03931035233339936   -0.001055883995055608
-0.002079116474656917   -0.03777076064946384   -0.0009880004136506135
-0.0025174730797374928   -0.039124629804964575   -0.0011040050678066988
-0.002874209816216056   -0.03929155792826503   -0.0011068972200766422
-0.002079116474656917   -0.03777076064946384   -0.0009880004136506135
-0.0029638738942127573   -0.03931035233339936   -0.001055883995055608
-0.0025174730797374928   -0.039124629804964575   -0.0011040050678066988
-0.002079116474656917   -0.03777076064946384   -0.0009880004136506135
-0.000922625765411981   -0.037639219959193636   -0.0009518280122758817
-0.0010458066110723193   -0.03767594983506136   -0.0008461997180127491
-0.0025174730797374928   -0.039124629804964575   -0.0011040050678066988
-0.002079116474656917   -0.03777076064946384   -0.0009880004136506135
-0.0010458066110723193   -0.03767594983506136   -0.0008461997180127491
-0.0029638738942127573   -0.03931035233339936   -0.001055883995055608
-0.0025174730797374928   -0.039124629804964575   -0.0011040050678066988
-0.000922625765411981   -0.037639219959193636   -0.0009518280122758817
-0.002874209816216056   -0.03929155792826503   -0.0011068972200766422
-0.0023329398288662196   -0.039143151698479636   -0.0012223878621800345
-0.000922625765411981   -0.037639219959193636   -0.0009518280122758817
-0.002079116474656917   -0.03777076064946384   -0.0009880004136506135
-0.002874209816216056   -0.03929155792826503   -0.0011068972200766422
-0.002032165511492063   -0.0377638981655819   -0.0010287325969306203
-0.0023329398288662196   -0.039143151698479636   -0.0012223878621800345
-0.002797463219156891   -0.03930642282703035   -0.0011534510835027618
-0.002032165511492063   -0.0377638981655819   -0.0010287325969306203
-0.002874209816216056   -0.03929155792826503   -0.0011068972200766422
-0.0023329398288662196   -0.039143151698479636   -0.0012223878621800345
-0.002032165511492063   -0.0377638981655819   -0.0010287325969306203
-0.0007878146220750227   -0.03763334692823155   -0.0010506969499149263
-0.000922625765411981   -0.037639219959193636   -0.0009518280122758817
-0.0023329398288662196   -0.039143151698479636   -0.0012223878621800345
-0.002032165511492063   -0.0377638981655819   -0.0010287325969306203
-0.000922625765411981   -0.037639219959193636   -0.0009518280122758817
-0.002874209816216056   -0.03929155792826503   -0.0011068972200766422
-0.0030402269509428605   -0.03936251343388368   -0.001000670521380332
-0.0021947274423099383   -0.03786843525501512   -0.0008936801831446735
-0.003266673674016446   -0.03945495104421077   -0.0011205903381355982
-0.0029638738942127573   -0.03931035233339936   -0.001055883995055608
-0.0021947274423099383   -0.03786843525501512   -0.0008936801831446735
-0.003176440609443623   -0.037908552481614885   -0.001023656333369375
-0.003266673674016446   -0.03945495104421077   -0.0011205903381355982
-0.0031308437156992003   -0.037853474693799814   -0.0010262607789519617
-0.0029638738942127573   -0.03931035233339936   -0.001055883995055608
-0.0031991658614767987   -0.03940834166019298   -0.001121929064266918
-0.0031308437156992003   -0.037853474693799814   -0.0010262607789519617
-0.003266673674016446   -0.03945495104421077   -0.0011205903381355982
-0.0029638738942127573   -0.03931035233339936   -0.001055883995055608
-0.0031308437156992003   -0.037853474693799814   -0.0010262607789519617
-0.0021404020852366762   -0.03780528289351027   -0.0009430310211108793
-0.0021947274423099383   -0.03786843525501512   -0.0008936801831446735
-0.0029638738942127573   -0.03931035233339936   -0.001055883995055608
-0.0031308437156992003   -0.037853474693799814   -0.0010262607789519617
-0.0021947274423099383   -0.03786843525501512   -0.0008936801831446735
-0.003266673674016446   -0.03945495104421077   -0.0011205903381355982
-0.0029638738942127573   -0.03931035233339936   -0.001055883995055608
-0.0021404020852366762   -0.03780528289351027   -0.0009430310211108793
-0.0031991658614767987   -0.03940834166019298   -0.001121929064266918
-0.002874209816216056   -0.03929155792826503   -0.0011068972200766422
-0.0021404020852366762   -0.03780528289351027   -0.0009430310211108793
-0.0031308437156992003   -0.037853474693799814   -0.0010262607789519617
-0.0031991658614767987   -0.03940834166019298   -0.001121929064266918
-0.0030836698616928684   -0.037824199519221696   -0.0010248056545215003
-0.002874209816216056   -0.03929155792826503   -0.0011068972200766422
-0.0031240531498559804   -0.03939194749834595   -0.0011178232593938237
-0.0030836698616928684   -0.037824199519221696   -0.0010248056545215003
-0.0031991658614767987   -0.03940834166019298   -0.001121929064266918
-0.002874209816216056   -0.03929155792826503   -0.0011068972200766422
-0.0030836698616928684   -0.037824199519221696   -0.0010248056545215003
-0.002079116474656917   -0.03777076064946384   -0.0009880004136506135
-0.0021404020852366762   -0.03780528289351027   -0.0009430310211108793
-0.002874209816216056   -0.03929155792826503   -0.0011068972200766422
-0.0030836698616928684   -0.037824199519221696   -0.0010248056545215003
-0.0021404020852366762   -0.03780528289351027   -0.0009430310211108793
-0.0031991658614767987   -0.03940834166019298   -0.001121929064266918
-0.002874209816216056   -0.03929155792826503   -0.0011068972200766422
-0.002079116474656917   -0.03777076064946384   -0.0009880004136506135
-0.0031240531498559804   -0.03939194749834595   -0.0011178232593938237
-0.002797463219156891   -0.03930642282703035   -0.0011534510835027618
-0.002079116474656917   -0.03777076064946384   -0.0009880004136506135
-0.0030836698616928684   -0.037824199519221696   -0.0010248056545215003
-0.0031240531498559804   -0.03939194749834595   -0.0011178232593938237
-0.003038192828020704   -0.03781951536868145   -0.0010192613242365018
-0.002797463219156891   -0.03930642282703035   -0.0011534510835027618
-0.003047715960846248   -0.03940442694144234   -0.001109443455022674
-0.003038192828020704   -0.03781951536868145   -0.0010192613242365018
-0.0031240531498559804   -0.03939194749834595   -0.0011178232593938237
-0.002797463219156891   -0.03930642282703035   -0.0011534510835027618
-0.003038192828020704   -0.03781951536868145   -0.0010192613242365018
-0.002032165511492063   -0.0377638981655819   -0.0010287325969306203
-0.002079116474656917   -0.03777076064946384   -0.0009880004136506135
-0.002797463219156891   -0.03930642282703035   -0.0011534510835027618
-0.003038192828020704   -0.03781951536868145   -0.0010192613242365018
-0.002079116474656917   -0.03777076064946384   -0.0009880004136506135
-0.0031240531498559804   -0.03939194749834595   -0.0011178232593938237
-0.003266673674016446   -0.03945495104421077   -0.0011205903381355982
-0.003176440609443623   -0.037908552481614885   -0.001023656333369375
-0.0035099825155925435   -0.039492632044648444   -0.0012387409373834934
-0.0031991658614767987   -0.03940834166019298   -0.001121929064266918
-0.003176440609443623   -0.037908552481614885   -0.001023656333369375
-0.004151675274521753   -0.03787248015774388   -0.001145352059793061
-0.0035099825155925435   -0.039492632044648444   -0.0012387409373834934
-0.004106439414558101   -0.03782351884476845   -0.0011031146156055744
-0.0031991658614767987   -0.03940834166019298   -0.001121929064266918
-0.003440047435095407   -0.03944809295786208   -0.001188265342679294
-0.004106439414558101   -0.03782351884476845   -0.0011031146156055744
-0.0035099825155925435   -0.039492632044648444   -0.0012387409373834934
-0.0031991658614767987   -0.03940834166019298   -0.001121929064266918
-0.004106439414558101   -0.03782351884476845   -0.0011031146156055744
-0.0031308437156992003   -0.037853474693799814   -0.0010262607789519617
-0.003176440609443623   -0.037908552481614885   -0.001023656333369375
-0.0031991658614767987   -0.03940834166019298   -0.001121929064266918
-0.004106439414558101   -0.03782351884476845   -0.0011031146156055744
-0.003176440609443623   -0.037908552481614885   -0.001023656333369375
-0.0035099825155925435   -0.039492632044648444   -0.0012387409373834934
-0.0031991658614767987   -0.03940834166019298   -0.001121929064266918
-0.0031308437156992003   -0.037853474693799814   -0.0010262607789519617
-0.003440047435095407   -0.03944809295786208   -0.001188265342679294
-0.0031240531498559804   -0.03939194749834595   -0.0011178232593938237
-0.0031308437156992003   -0.037853474693799814   -0.0010262607789519617
-0.004106439414558101   -0.03782351884476845   -0.0011031146156055744
-0.003440047435095407   -0.03944809295786208   -0.001188265342679294
-0.004055677390757447   -0.037799936889340725   -0.0010568815355531164
-0.0031240531498559804   -0.03939194749834595   -0.0011178232593938237
-0.0033562430160551395   -0.039434252995321314   -0.0011311561134574664
-0.004055677390757447   -0.037799936889340725   -0.0010568815355531164
-0.003440047435095407   -0.03944809295786208   -0.001188265342679294
-0.0031240531498559804   -0.03939194749834595   -0.0011178232593938237
-0.004055677390757447   -0.037799936889340725   -0.0010568815355531164
-0.0030836698616928684   -0.037824199519221696   -0.0010248056545215003
-0.0031308437156992003   -0.037853474693799814   -0.0010262607789519617
-0.0031240531498559804   -0.03939194749834595   -0.0011178232593938237
-0.004055677390757447   -0.037799936889340725   -0.0010568815355531164
-0.0031308437156992003   -0.037853474693799814   -0.0010262607789519617
-0.003440047435095407   -0.03944809295786208   -0.001188265342679294
-0.0031240531498559804   -0.03939194749834595   -0.0011178232593938237
-0.0030836698616928684   -0.037824199519221696   -0.0010248056545215003
-0.0033562430160551395   -0.039434252995321314   -0.0011311561134574664
-0.003047715960846248   -0.03940442694144234   -0.001109443455022674
-0.0030836698616928684   -0.037824199519221696   -0.0010248056545215003
-0.004055677390757447   -0.037799936889340725   -0.0010568815355531164
-0.0033562430160551395   -0.039434252995321314   -0.0011311561134574664
-0.0040047466833629175   -0.037799337718743824   -0.001006166704304423
-0.003047715960846248   -0.03940442694144234   -0.001109443455022674
-0.0032701098112137483   -0.0394463848695477   -0.0010703762924687116
-0.0040047466833629175   -0.037799337718743824   -0.001006166704304423
-0.0033562430160551395   -0.039434252995321314   -0.0011311561134574664
-0.003047715960846248   -0.03940442694144234   -0.001109443455022674
-0.0040047466833629175   -0.037799337718743824   -0.001006166704304423
-0.003038192828020704   -0.03781951536868145   -0.0010192613242365018
-0.0030836698616928684   -0.037824199519221696   -0.0010248056545215003
-0.003047715960846248   -0.03940442694144234   -0.001109443455022674
-0.0040047466833629175   -0.037799337718743824   -0.001006166704304423
-0.0030836698616928684   -0.037824199519221696   -0.0010248056545215003
-0.0033562430160551395   -0.039434252995321314   -0.0011311561134574664
-0.0035099825155925435   -0.039492632044648444   -0.0012387409373834934
-0.004151675274521753   -0.03787248015774388   -0.001145352059793061
-0.0038627230387102075   -0.039448712717380575   -0.0013513136890727427
-0.003440047435095407   -0.03944809295786208   -0.001188265342679294
-0.004151675274521753   -0.03787248015774388   -0.001145352059793061
-0.005222278171201096   -0.03775551406408545   -0.0012572961516927096
-0.0038627230387102075   -0.039448712717380575   -0.0013513136890727427
-0.00516678761618493   -0.037712649202257864   -0.0011711713742175612
-0.003440047435095407   -0.03944809295786208   -0.001188265342679294
-0.0037714101627980535   -0.039406487108522056   -0.0012514333786002843
-0.00516678761618493   -0.037712649202257864   -0.0011711713742175612
-0.0038627230387102075   -0.039448712717380575   -0.0013513136890727427
-0.003440047435095407   -0.03944809295786208   -0.001188265342679294
-0.00516678761618493   -0.037712649202257864   -0.0011711713742175612
-0.004106439414558101   -0.03782351884476845   -0.0011031146156055744
-0.004151675274521753   -0.03787248015774388   -0.001145352059793061
-0.003440047435095407   -0.03944809295786208   -0.001188265342679294
-0.00516678761618493   -0.037712649202257864   -0.0011711713742175612
-0.004151675274521753   -0.03787248015774388   -0.001145352059793061
-0.0038627230387102075   -0.039448712717380575   -0.0013513136890727427
-0.003440047435095407   -0.03944809295786208   -0.001188265342679294
-0.004106439414558101   -0.03782351884476845   -0.0011031146156055744
-0.0037714101627980535   -0.039406487108522056   -0.0012514333786002843
-0.0033562430160551395   -0.039434252995321314   -0.0011311561134574664
-0.004106439414558101   -0.03782351884476845   -0.0011031146156055744
-0.00516678761618493   -0.037712649202257864   -0.0011711713742175612
-0.0037714101627980535   -0.039406487108522056   -0.0012514333786002843
-0.005090062611658051   -0.03769473806894234   -0.001081355900554397
-0.0033562430160551395   -0.039434252995321314   -0.0011311561134574664
-0.0036507330893511022   -0.03939712591224295   -0.0011441365362490211
-0.005090062611658051   -0.03769473806894234   -0.001081355900554397
-0.0037714101627980535   -0.039406487108522056   -0.0012514333786002843
-0.0033562430160551395   -0.039434252995321314   -0.0011311561134574664
-0.005090062611658051   -0.03769473806894234   -0.001081355900554397
-0.004055677390757447   -0.037799936889340725   -0.0010568815355531164
-0.004106439414558101   -0.03782351884476845   -0.0011031146156055744
-0.0033562430160551395   -0.039434252995321314   -0.0011311561134574664
-0.005090062611658051   -0.03769473806894234   -0.001081355900554397
-0.004106439414558101   -0.03782351884476845   -0.0011031146156055744
-0.0037714101627980535   -0.039406487108522056   -0.0012514333786002843
-0.0033562430160551395   -0.039434252995321314   -0.0011311561134574664
-0.004055677390757447   -0.037799936889340725   -0.0010568815355531164
-0.0036507330893511022   -0.03939712591224295   -0.0011441365362490211
-0.0032701098112137483   -0.0394463848695477   -0.0010703762924687116
-0.004055677390757447   -0.037799936889340725   -0.0010568815355531164
-0.005090062611658051   -0.03769473806894234   -0.001081355900554397
-0.0036507330893511022   -0.03939712591224295   -0.0011441365362490211
-0.005023287552754677   -0.03770179934633996   -0.0009853780173402658
-0.0032701098112137483   -0.0394463848695477   -0.0010703762924687116
-0.0035375111492280953   -0.03941435656414368   -0.0010327624744178236
-0.005023287552754677   -0.03770179934633996   -0.0009853780173402658
-0.0036507330893511022   -0.03939712591224295   -0.0011441365362490211
-0.0032701098112137483   -0.0394463848695477   -0.0010703762924687116
-0.005023287552754677   -0.03770179934633996   -0.0009853780173402658
-0.0040047466833629175   -0.037799337718743824   -0.001006166704304423
-0.004055677390757447   -0.037799936889340725   -0.0010568815355531164
-0.0032701098112137483   -0.0394463848695477   -0.0010703762924687116
-0.005023287552754677   -0.03770179934633996   -0.0009853780173402658
-0.004055677390757447   -0.037799936889340725   -0.0010568815355531164
-0.0036507330893511022   -0.03939712591224295   -0.0011441365362490211
-0.0038627230387102075   -0.039448712717380575   -0.0013513136890727427
-0.005222278171201096   -0.03775551406408545   -0.0012572961516927096
-0.0045527162537508156   -0.03925605110667688   -0.0014712861155341626
-0.0037714101627980535   -0.039406487108522056   -0.0012514333786002843
-0.005222278171201096   -0.03775551406408545   -0.0012572961516927096
-0.0066007824869697765   -0.03756528775732078   -0.001365228909173523
-0.0045527162537508156   -0.03925605110667688   -0.0014712861155341626
-0.006420395549807565   -0.0375186093824181   -0.0012292005538398437
-0.0037714101627980535   -0.039406487108522056   -0.0012514333786002843
-0.004307937698343804   -0.0392201589597145   -0.0013074610378746674
-0.006420395549807565   -0.0375186093824181   -0.0012292005538398437
-0.0045527162537508156   -0.03925605110667688   -0.0014712861155341626
-0.0037714101627980535   -0.039406487108522056   -0.0012514333786002843
-0.006420395549807565   -0.0375186093824181   -0.0012292005538398437
-0.00516678761618493   -0.037712649202257864   -0.0011711713742175612
-0.005222278171201096   -0.03775551406408545   -0.0012572961516927096
-0.0037714101627980535   -0.039406487108522056   -0.0012514333786002843
-0.006420395549807565   -0.0375186093824181   -0.0012292005538398437
-0.005222278171201096   -0.03775551406408545   -0.0012572961516927096
-0.0045527162537508156   -0.03925605110667688   -0.0014712861155341626
-0.0037714101627980535   -0.039406487108522056   -0.0012514333786002843
-0.00516678761618493   -0.037712649202257864   -0.0011711713742175612
-0.004307937698343804   -0.0392201589597145   -0.0013074610378746674
-0.0036507330893511022   -0.03939712591224295   -0.0011441365362490211
-0.00516678761618493   -0.037712649202257864   -0.0011711713742175612
-0.006420395549807565   -0.0375186093824181   -0.0012292005538398437
-0.004307937698343804   -0.0392201589597145   -0.0013074610378746674
-0.006259047797288343   -0.03750204222001003   -0.0010854067510868003
-0.0036507330893511022   -0.03939712591224295   -0.0011441365362490211
-0.004083450431594701   -0.03921543544421892   -0.0011327863206264607
-0.006259047797288343   -0.03750204222001003   -0.0010854067510868003
-0.004307937698343804   -0.0392201589597145   -0.0013074610378746674
-0.0036507330893511022   -0.03939712591224295   -0.0011441365362490211
-0.006259047797288343   -0.03750204222001003   -0.0010854067510868003
-0.005090062611658051   -0.03769473806894234   -0.001081355900554397
-0.00516678761618493   -0.037712649202257864   -0.0011711713742175612
-0.0036507330893511022   -0.03939712591224295   -0.0011441365362490211
-0.006259047797288343   -0.03750204222001003   -0.0010854067510868003
-0.00516678761618493   -0.037712649202257864   -0.0011711713742175612
-0.004307937698343804   -0.0392201589597145   -0.0013074610378746674
-0.0036507330893511022   -0.03939712591224295   -0.0011441365362490211
-0.005090062611658051   -0.03769473806894234   -0.001081355900554397
-0.004083450431594701   -0.03921543544421892   -0.0011327863206264607
-0.0035375111492280953   -0.03941435656414368   -0.0010327624744178236
-0.005090062611658051   -0.03769473806894234   -0.001081355900554397
-0.006259047797288343   -0.03750204222001003   -0.0010854067510868003
-0.004083450431594701   -0.03921543544421892   -0.0011327863206264607
-0.006049977135168841   -0.03752424547406236   -0.0009352003207399826
-0.0035375111492280953   -0.03941435656414368   -0.0010327624744178236
-0.0037998699568556494   -0.039262458071422444   -0.0009502664200477688
-0.006049977135168841   -0.03752424547406236   -0.0009352003207399826
-0.004083450431594701   -0.03921543544421892   -0.0011327863206264607
-0.0035375111492280953   -0.03941435656414368   -0.0010327624744178236
-0.006049977135168841   -0.03752424547406236   -0.0009352003207399826
-0.005023287552754677   -0.03770179934633996   -0.0009853780173402658
-0.005090062611658051   -0.03769473806894234   -0.001081355900554397
-0.0035375111492280953   -0.03941435656414368   -0.0010327624744178236
-0.006049977135168841   -0.03752424547406236   -0.0009352003207399826
-0.005090062611658051   -0.03769473806894234   -0.001081355900554397
-0.004083450431594701   -0.03921543544421892   -0.0011327863206264607
-0.0012023338000029078   -0.037754192755476965   -0.0007340810295283432
0.00016048587685165994   -0.0350529847400806   -0.0006065124274817652
-0.0021947274423099383   -0.03786843525501512   -0.0008936801831446735
-0.0010458066110723193   -0.03767594983506136   -0.0008461997180127491
0.00016048587685165994   -0.0350529847400806   -0.0006065124274817652
-0.001520832597836658   -0.03513717092876111   -0.0007633254494530235
-0.0021947274423099383   -0.03786843525501512   -0.0008936801831446735
-0.0014918967549370494   -0.03507095838240675   -0.0008026266423646171
-0.0010458066110723193   -0.03767594983506136   -0.0008461997180127491
-0.0021404020852366762   -0.03780528289351027   -0.0009430310211108793
-0.0014918967549370494   -0.03507095838240675   -0.0008026266423646171
-0.0021947274423099383   -0.03786843525501512   -0.0008936801831446735
-0.0010458066110723193   -0.03767594983506136   -0.0008461997180127491
-0.0014918967549370494   -0.03507095838240675   -0.0008026266423646171
0.00027035845055280964   -0.03497341131103912   -0.0006961604193689631
0.00016048587685165994   -0.0350529847400806   -0.0006065124274817652
-0.0010458066110723193   -0.03767594983506136   -0.0008461997180127491
-0.0014918967549370494   -0.03507095838240675   -0.0008026266423646171
0.00016048587685165994   -0.0350529847400806   -0.0006065124274817652
-0.0021947274423099383   -0.03786843525501512   -0.0008936801831446735
-0.0010458066110723193   -0.03767594983506136   -0.0008461997180127491
0.00027035845055280964   -0.03497341131103912   -0.0006961604193689631
-0.0021404020852366762   -0.03780528289351027   -0.0009430310211108793
-0.000922625765411981   -0.037639219959193636   -0.0009518280122758817
0.00027035845055280964   -0.03497341131103912   -0.0006961604193689631
-0.0014918967549370494   -0.03507095838240675   -0.0008026266423646171
-0.0021404020852366762   -0.03780528289351027   -0.0009430310211108793
-0.0014588476843845819   -0.03502818531295823   -0.000837421129930073
-0.000922625765411981   -0.037639219959193636   -0.0009518280122758817
-0.002079116474656917   -0.03777076064946384   -0.0009880004136506135
-0.0014588476843845819   -0.03502818531295823   -0.000837421129930073
-0.0021404020852366762   -0.03780528289351027   -0.0009430310211108793
-0.000922625765411981   -0.037639219959193636   -0.0009518280122758817
-0.0014588476843845819   -0.03502818531295823   -0.000837421129930073
0.00035124209302863496   -0.034927978072512744   -0.0007794999688633747
0.00027035845055280964   -0.03497341131103912   -0.0006961604193689631
-0.000922625765411981   -0.037639219959193636   -0.0009518280122758817
-0.0014588476843845819   -0.03502818531295823   -0.000837421129930073
0.00027035845055280964   -0.03497341131103912   -0.0006961604193689631
-0.0021404020852366762   -0.03780528289351027   -0.0009430310211108793
-0.000922625765411981   -0.037639219959193636   -0.0009518280122758817
0.00035124209302863496   -0.034927978072512744   -0.0007794999688633747
-0.002079116474656917   -0.03777076064946384   -0.0009880004136506135
-0.0007878146220750227   -0.03763334692823155   -0.0010506969499149263
0.00035124209302863496   -0.034927978072512744   -0.0007794999688633747
-0.0014588476843845819   -0.03502818531295823   -0.000837421129930073
-0.002079116474656917   -0.03777076064946384   -0.0009880004136506135
-0.001439076988944837   -0.03500756955346456   -0.000868154554121806
-0.0007878146220750227   -0.03763334692823155   -0.0010506969499149263
-0.002032165511492063   -0.0377638981655819   -0.0010287325969306203
-0.001439076988944837   -0.03500756955346456   -0.000868154554121806
-0.002079116474656917   -0.03777076064946384   -0.0009880004136506135
-0.0007878146220750227   -0.03763334692823155   -0.0010506969499149263
-0.001439076988944837   -0.03500756955346456   -0.000868154554121806
0.00043810101323021227   -0.03490640919663563   -0.0008565046861651396
0.00035124209302863496   -0.034927978072512744   -0.0007794999688633747
-0.0007878146220750227   -0.03763334692823155   -0.0010506969499149263
-0.001439076988944837   -0.03500756955346456   -0.000868154554121806
0.00035124209302863496   -0.034927978072512744   -0.0007794999688633747
-0.002079116474656917   -0.03777076064946384   -0.0009880004136506135
-0.0021947274423099383   -0.03786843525501512   -0.0008936801831446735
-0.001520832597836658   -0.03513717092876111   -0.0007633254494530235
-0.003176440609443623   -0.037908552481614885   -0.001023656333369375
-0.0021404020852366762   -0.03780528289351027   -0.0009430310211108793
-0.001520832597836658   -0.03513717092876111   -0.0007633254494530235
-0.003149246992425671   -0.03515332136481805   -0.0008922420254493924
-0.003176440609443623   -0.037908552481614885   -0.001023656333369375
-0.003128048590828613   -0.03509655220636992   -0.000893169853984796
-0.0021404020852366762   -0.03780528289351027   -0.0009430310211108793
-0.0031308437156992003   -0.037853474693799814   -0.0010262607789519617
-0.003128048590828613   -0.03509655220636992   -0.000893169853984796
-0.003176440609443623   -0.037908552481614885   -0.001023656333369375
-0.0021404020852366762   -0.03780528289351027   -0.0009430310211108793
-0.003128048590828613   -0.03509655220636992   -0.000893169853984796
-0.0014918967549370494   -0.03507095838240675   -0.0008026266423646171
-0.001520832597836658   -0.03513717092876111   -0.0007633254494530235
-0.0021404020852366762   -0.03780528289351027   -0.0009430310211108793
-0.003128048590828613   -0.03509655220636992   -0.000893169853984796
-0.001520832597836658   -0.03513717092876111   -0.0007633254494530235
-0.003176440609443623   -0.037908552481614885   -0.001023656333369375
-0.0021404020852366762   -0.03780528289351027   -0.0009430310211108793
-0.0014918967549370494   -0.03507095838240675   -0.0008026266423646171
-0.0031308437156992003   -0.037853474693799814   -0.0010262607789519617
-0.002079116474656917   -0.03777076064946384   -0.0009880004136506135
-0.0014918967549370494   -0.03507095838240675   -0.0008026266423646171
-0.003128048590828613   -0.03509655220636992   -0.000893169853984796
-0.0031308437156992003   -0.037853474693799814   -0.0010262607789519617
-0.003106237291504263   -0.03506075538441521   -0.0008897758510158858
-0.002079116474656917   -0.03777076064946384   -0.0009880004136506135
-0.0030836698616928684   -0.037824199519221696   -0.0010248056545215003
-0.003106237291504263   -0.03506075538441521   -0.0008897758510158858
-0.0031308437156992003   -0.037853474693799814   -0.0010262607789519617
-0.002079116474656917   -0.03777076064946384   -0.0009880004136506135
-0.003106237291504263   -0.03506075538441521   -0.0008897758510158858
-0.0014588476843845819   -0.03502818531295823   -0.000837421129930073
-0.0014918967549370494   -0.03507095838240675   -0.0008026266423646171
-0.002079116474656917   -0.03777076064946384   -0.0009880004136506135
-0.003106237291504263   -0.03506075538441521   -0.0008897758510158858
-0.0014918967549370494   -0.03507095838240675   -0.0008026266423646171
-0.0031308437156992003   -0.037853474693799814   -0.0010262607789519617
-0.002079116474656917   -0.03777076064946384   -0.0009880004136506135
-0.0014588476843845819   -0.03502818531295823   -0.000837421129930073
-0.0030836698616928684   -0.037824199519221696   -0.0010248056545215003
-0.002032165511492063   -0.0377638981655819   -0.0010287325969306203
-0.0014588476843845819   -0.03502818531295823   -0.000837421129930073
-0.003106237291504263   -0.03506075538441521   -0.0008897758510158858
-0.0030836698616928684   -0.037824199519221696   -0.0010248056545215003
-0.0030871651662151963   -0.035045596246115925   -0.0008823539510289936
-0.002032165511492063   -0.0377638981655819   -0.0010287325969306203
-0.003038192828020704   -0.03781951536868145   -0.0010192613242365018
-0.0030871651662151963   -0.035045596246115925   -0.0008823539510289936
-0.0030836698616928684   -0.037824199519221696   -0.0010248056545215003
-0.002032165511492063   -0.0377638981655819   -0.0010287325969306203
-0.0030871651662151963   -0.035045596246115925   -0.0008823539510289936
-0.001439076988944837   -0.03500756955346456   -0.000868154554121806
-0.0014588476843845819   -0.03502818531295823   -0.000837421129930073
-0.002032165511492063   -0.0377638981655819   -0.0010287325969306203
-0.0030871651662151963   -0.035045596246115925   -0.0008823539510289936
-0.0014588476843845819   -0.03502818531295823   -0.000837421129930073
-0.0030836698616928684   -0.037824199519221696   -0.0010248056545215003
-0.003176440609443623   -0.037908552481614885   -0.001023656333369375
-0.003149246992425671   -0.03515332136481805   -0.0008922420254493924
-0.004151675274521753   -0.03787248015774388   -0.001145352059793061
-0.0031308437156992003   -0.037853474693799814   -0.0010262607789519617
-0.003149246992425671   -0.03515332136481805   -0.0008922420254493924
-0.004752469367534479   -0.03510127380263569   -0.0010085814151204022
-0.004151675274521753   -0.03787248015774388   -0.001145352059793061
-0.004732740990281882   -0.03505231797872578   -0.0009720561261837624
-0.0031308437156992003   -0.037853474693799814   -0.0010262607789519617
-0.004106439414558101   -0.03782351884476845   -0.0011031146156055744
-0.004732740990281882   -0.03505231797872578   -0.0009720561261837624
-0.004151675274521753   -0.03787248015774388   -0.001145352059793061
-0.0031308437156992003   -0.037853474693799814   -0.0010262607789519617
-0.004732740990281882   -0.03505231797872578   -0.0009720561261837624
-0.003128048590828613   -0.03509655220636992   -0.000893169853984796
-0.003149246992425671   -0.03515332136481805   -0.0008922420254493924
-0.0031308437156992003   -0.037853474693799814   -0.0010262607789519617
-0.004732740990281882   -0.03505231797872578   -0.0009720561261837624
-0.003149246992425671   -0.03515332136481805   -0.0008922420254493924
-0.004151675274521753   -0.03787248015774388   -0.001145352059793061
-0.0031308437156992003   -0.037853474693799814   -0.0010262607789519617
-0.003128048590828613   -0.03509655220636992   -0.000893169853984796
-0.004106439414558101   -0.03782351884476845   -0.0011031146156055744
-0.0030836698616928684   -0.037824199519221696   -0.0010248056545215003
-0.003128048590828613   -0.03509655220636992   -0.000893169853984796
-0.004732740990281882   -0.03505231797872578   -0.0009720561261837624
-0.004106439414558101   -0.03782351884476845   -0.0011031146156055744
-0.0047088943964689505   -0.035024105874351535   -0.0009313062043279057
-0.0030836698616928684   -0.037824199519221696   -0.0010248056545215003
-0.004055677390757447   -0.037799936889340725   -0.0010568815355531164
-0.0047088943964689505   -0.035024105874351535   -0.0009313062043279057
-0.004106439414558101   -0.03782351884476845   -0.0011031146156055744
-0.0030836698616928684   -0.037824199519221696   -0.0010248056545215003
-0.0047088943964689505   -0.035024105874351535   -0.0009313062043279057
-0.003106237291504263   -0.03506075538441521   -0.0008897758510158858
-0.003128048590828613   -0.03509655220636992   -0.000893169853984796
-0.0030836698616928684   -0.037824199519221696   -0.0010248056545215003
-0.0047088943964689505   -0.035024105874351535   -0.0009313062043279057
-0.003128048590828613   -0.03509655220636992   -0.000893169853984796
-0.004106439414558101   -0.03782351884476845   -0.0011031146156055744
-0.0030836698616928684   -0.037824199519221696   -0.0010248056545215003
-0.003106237291504263   -0.03506075538441521   -0.0008897758510158858
-0.004055677390757447   -0.037799936889340725   -0.0010568815355531164
-0.003038192828020704   -0.03781951536868145   -0.0010192613242365018
-0.003106237291504263   -0.03506075538441521   -0.0008897758510158858
-0.0047088943964689505   -0.035024105874351535   -0.0009313062043279057
-0.004055677390757447   -0.037799936889340725   -0.0010568815355531164
-0.004685726857208141   -0.03501569522789145   -0.0008864609103246312
-0.003038192828020704   -0.03781951536868145   -0.0010192613242365018
-0.0040047466833629175   -0.037799337718743824   -0.001006166704304423
-0.004685726857208141   -0.03501569522789145   -0.0008864609103246312
-0.004055677390757447   -0.037799936889340725   -0.0010568815355531164
-0.003038192828020704   -0.03781951536868145   -0.0010192613242365018
-0.004685726857208141   -0.03501569522789145   -0.0008864609103246312
-0.0030871651662151963   -0.035045596246115925   -0.0008823539510289936
-0.003106237291504263   -0.03506075538441521   -0.0008897758510158858
-0.003038192828020704   -0.03781951536868145   -0.0010192613242365018
-0.004685726857208141   -0.03501569522789145   -0.0008864609103246312
-0.003106237291504263   -0.03506075538441521   -0.0008897758510158858
-0.004055677390757447   -0.037799936889340725   -0.0010568815355531164
-0.004151675274521753   -0.03787248015774388   -0.001145352059793061
-0.004752469367534479   -0.03510127380263569   -0.0010085814151204022
-0.005222278171201096   -0.03775551406408545   -0.0012572961516927096
-0.004106439414558101   -0.03782351884476845   -0.0011031146156055744
-0.004752469367534479   -0.03510127380263569   -0.0010085814151204022
-0.006432042505446514   -0.034982816600654366   -0.0011119699300230713
-0.005222278171201096   -0.03775551406408545   -0.0012572961516927096
-0.006406154692249545   -0.03494128217661926   -0.0010379254885613718
-0.004106439414558101   -0.03782351884476845   -0.0011031146156055744
-0.00516678761618493   -0.037712649202257864   -0.0011711713742175612
-0.006406154692249545   -0.03494128217661926   -0.0010379254885613718
-0.005222278171201096   -0.03775551406408545   -0.0012572961516927096
-0.004106439414558101   -0.03782351884476845   -0.0011031146156055744
-0.006406154692249545   -0.03494128217661926   -0.0010379254885613718
-0.004732740990281882   -0.03505231797872578   -0.0009720561261837624
-0.004752469367534479   -0.03510127380263569   -0.0010085814151204022
-0.004106439414558101   -0.03782351884476845   -0.0011031146156055744
-0.006406154692249545   -0.03494128217661926   -0.0010379254885613718
-0.004752469367534479   -0.03510127380263569   -0.0010085814151204022
-0.005222278171201096   -0.03775551406408545   -0.0012572961516927096
-0.004106439414558101   -0.03782351884476845   -0.0011031146156055744
-0.004732740990281882   -0.03505231797872578   -0.0009720561261837624
-0.00516678761618493   -0.037712649202257864   -0.0011711713742175612
-0.004055677390757447   -0.037799936889340725   -0.0010568815355531164
-0.004732740990281882   -0.03505231797872578   -0.0009720561261837624
-0.006406154692249545   -0.03494128217661926   -0.0010379254885613718
-0.00516678761618493   -0.037712649202257864   -0.0011711713742175612
-0.006362202031186034   -0.03491994595600315   -0.0009603110930179399
-0.004055677390757447   -0.037799936889340725   -0.0010568815355531164
-0.005090062611658051   -0.03769473806894234   -0.001081355900554397
-0.006362202031186034   -0.03491994595600315   -0.0009603110930179399
-0.00516678761618493   -0.037712649202257864   -0.0011711713742175612
-0.004055677390757447   -0.037799936889340725   -0.0010568815355531164
-0.006362202031186034   -0.03491994595600315   -0.0009603110930179399
-0.0047088943964689505   -0.035024105874351535   -0.0009313062043279057
-0.004732740990281882   -0.03505231797872578   -0.0009720561261837624
-0.004055677390757447   -0.037799936889340725   -0.0010568815355531164
-0.006362202031186034   -0.03491994595600315   -0.0009603110930179399
-0.004732740990281882   -0.03505231797872578   -0.0009720561261837624
-0.00516678761618493   -0.037712649202257864   -0.0011711713742175612
-0.004055677390757447   -0.037799936889340725   -0.0010568815355531164
-0.0047088943964689505   -0.035024105874351535   -0.0009313062043279057
-0.005090062611658051   -0.03769473806894234   -0.001081355900554397
-0.0040047466833629175   -0.037799337718743824   -0.001006166704304423
-0.0047088943964689505   -0.035024105874351535   -0.0009313062043279057
-0.006362202031186034   -0.03491994595600315   -0.0009603110930179399
-0.005090062611658051   -0.03769473806894234   -0.001081355900554397
-0.006326638426321711   -0.034919963386183084   -0.0008780020807330793
-0.0040047466833629175   -0.037799337718743824   -0.001006166704304423
-0.005023287552754677   -0.03770179934633996   -0.0009853780173402658
-0.006326638426321711   -0.034919963386183084   -0.0008780020807330793
-0.005090062611658051   -0.03769473806894234   -0.001081355900554397
-0.0040047466833629175   -0.037799337718743824   -0.001006166704304423
-0.006326638426321711   -0.034919963386183084   -0.0008780020807330793
-0.004685726857208141   -0.03501569522789145   -0.0008864609103246312
-0.0047088943964689505   -0.035024105874351535   -0.0009313062043279057
-0.0040047466833629175   -0.037799337718743824   -0.001006166704304423
-0.006326638426321711   -0.034919963386183084   -0.0008780020807330793
-0.0047088943964689505   -0.035024105874351535   -0.0009313062043279057
-0.005090062611658051   -0.03769473806894234   -0.001081355900554397
-0.005222278171201096   -0.03775551406408545   -0.0012572961516927096
-0.006432042505446514   -0.034982816600654366   -0.0011119699300230713
-0.0066007824869697765   -0.03756528775732078   -0.001365228909173523
-0.00516678761618493   -0.037712649202257864   -0.0011711713742175612
-0.006432042505446514   -0.034982816600654366   -0.0011119699300230713
-0.008390536890493242   -0.034811878461004295   -0.001208706605086849
-0.0066007824869697765   -0.03756528775732078   -0.001365228909173523
-0.008256783437473231   -0.03476840619791003   -0.0010927293280469385
-0.00516678761618493   -0.037712649202257864   -0.0011711713742175612
-0.006420395549807565   -0.0375186093824181   -0.0012292005538398437
-0.008256783437473231   -0.03476840619791003   -0.0010927293280469385
-0.0066007824869697765   -0.03756528775732078   -0.001365228909173523
-0.00516678761618493   -0.037712649202257864   -0.0011711713742175612
-0.008256783437473231   -0.03476840619791003   -0.0010927293280469385
-0.006406154692249545   -0.03494128217661926   -0.0010379254885613718
-0.006432042505446514   -0.034982816600654366   -0.0011119699300230713
-0.00516678761618493   -0.037712649202257864   -0.0011711713742175612
-0.008256783437473231   -0.03476840619791003   -0.0010927293280469385
-0.006432042505446514   -0.034982816600654366   -0.0011119699300230713
-0.0066007824869697765   -0.03756528775732078   -0.001365228909173523
-0.00516678761618493   -0.037712649202257864   -0.0011711713742175612
-0.006406154692249545   -0.03494128217661926   -0.0010379254885613718
-0.006420395549807565   -0.0375186093824181   -0.0012292005538398437
-0.005090062611658051   -0.03769473806894234   -0.001081355900554397
-0.006406154692249545   -0.03494128217661926   -0.0010379254885613718
-0.008256783437473231   -0.03476840619791003   -0.0010927293280469385
-0.006420395549807565   -0.0375186093824181   -0.0012292005538398437
-0.008140916027322791   -0.03474893770801207   -0.000970849778570757
-0.005090062611658051   -0.03769473806894234   -0.001081355900554397
-0.006259047797288343   -0.03750204222001003   -0.0010854067510868003
-0.008140916027322791   -0.03474893770801207   -0.000970849778570757
-0.006420395549807565   -0.0375186093824181   -0.0012292005538398437
-0.005090062611658051   -0.03769473806894234   -0.001081355900554397
-0.008140916027322791   -0.03474893770801207   -0.000970849778570757
-0.006362202031186034   -0.03491994595600315   -0.0009603110930179399
-0.006406154692249545   -0.03494128217661926   -0.0010379254885613718
-0.005090062611658051   -0.03769473806894234   -0.001081355900554397
-0.008140916027322791   -0.03474893770801207   -0.000970849778570757
-0.006406154692249545   -0.03494128217661926   -0.0010379254885613718
-0.006420395549807565   -0.0375186093824181   -0.0012292005538398437
-0.005090062611658051   -0.03769473806894234   -0.001081355900554397
-0.006362202031186034   -0.03491994595600315   -0.0009603110930179399
-0.006259047797288343   -0.03750204222001003   -0.0010854067510868003
-0.005023287552754677   -0.03770179934633996   -0.0009853780173402658
-0.006362202031186034   -0.03491994595600315   -0.0009603110930179399
-0.008140916027322791   -0.03474893770801207   -0.000970849778570757
-0.006259047797288343   -0.03750204222001003   -0.0010854067510868003
-0.007984905725592554   -0.034762052352669305   -0.0008438415422073852
-0.005023287552754677   -0.03770179934633996   -0.0009853780173402658
-0.006049977135168841   -0.03752424547406236   -0.0009352003207399826
-0.007984905725592554   -0.034762052352669305   -0.0008438415422073852
-0.006259047797288343   -0.03750204222001003   -0.0010854067510868003
-0.005023287552754677   -0.03770179934633996   -0.0009853780173402658
-0.007984905725592554   -0.034762052352669305   -0.0008438415422073852
-0.006326638426321711   -0.034919963386183084   -0.0008780020807330793
-0.006362202031186034   -0.03491994595600315   -0.0009603110930179399
-0.005023287552754677   -0.03770179934633996   -0.0009853780173402658
-0.007984905725592554   -0.034762052352669305   -0.0008438415422073852
-0.006362202031186034   -0.03491994595600315   -0.0009603110930179399
-0.006259047797288343   -0.03750204222001003   -0.0010854067510868003
0.00016048587685165994   -0.0350529847400806   -0.0006065124274817652
0.0012001014260112808   -0.031372819265672716   -0.00046193533808151
-0.001520832597836658   -0.03513717092876111   -0.0007633254494530235
0.00027035845055280964   -0.03497341131103912   -0.0006961604193689631
0.0012001014260112808   -0.031372819265672716   -0.00046193533808151
-0.0010318583632412826   -0.03142882889154048   -0.0006116713869426609
-0.001520832597836658   -0.03513717092876111   -0.0007633254494530235
-0.0010256412865383621   -0.031362964862836296   -0.0006390800745007402
0.00027035845055280964   -0.03497341131103912   -0.0006961604193689631
-0.0014918967549370494   -0.03507095838240675   -0.0008026266423646171
-0.0010256412865383621   -0.031362964862836296   -0.0006390800745007402
-0.001520832597836658   -0.03513717092876111   -0.0007633254494530235
0.00027035845055280964   -0.03497341131103912   -0.0006961604193689631
-0.0010256412865383621   -0.031362964862836296   -0.0006390800745007402
0.0012659832859299603   -0.03129512022633243   -0.0005285989361538755
0.0012001014260112808   -0.031372819265672716   -0.00046193533808151
0.00027035845055280964   -0.03497341131103912   -0.0006961604193689631
-0.0010256412865383621   -0.031362964862836296   -0.0006390800745007402
0.0012001014260112808   -0.031372819265672716   -0.00046193533808151
-0.001520832597836658   -0.03513717092876111   -0.0007633254494530235
0.00027035845055280964   -0.03497341131103912   -0.0006961604193689631
0.0012659832859299603   -0.03129512022633243   -0.0005285989361538755
-0.0014918967549370494   -0.03507095838240675   -0.0008026266423646171
0.00035124209302863496   -0.034927978072512744   -0.0007794999688633747
0.0012659832859299603   -0.03129512022633243   -0.0005285989361538755
-0.0010256412865383621   -0.031362964862836296   -0.0006390800745007402
-0.0014918967549370494   -0.03507095838240675   -0.0008026266423646171
-0.0010177016341323159   -0.03131567122796655   -0.000662352859603508
0.00035124209302863496   -0.034927978072512744   -0.0007794999688633747
-0.0014588476843845819   -0.03502818531295823   -0.000837421129930073
-0.0010177016341323159   -0.03131567122796655   -0.000662352859603508
-0.0014918967549370494   -0.03507095838240675   -0.0008026266423646171
0.00035124209302863496   -0.034927978072512744   -0.0007794999688633747
-0.0010177016341323159   -0.03131567122796655   -0.000662352859603508
0.0013082712695985635   -0.031244685105614317   -0.000589413835023379
0.0012659832859299603   -0.03129512022633243   -0.0005285989361538755
0.00035124209302863496   -0.034927978072512744   -0.0007794999688633747
-0.0010177016341323159   -0.03131567122796655   -0.000662352859603508
0.0012659832859299603   -0.03129512022633243   -0.0005285989361538755
-0.0014918967549370494   -0.03507095838240675   -0.0008026266423646171
0.00035124209302863496   -0.034927978072512744   -0.0007794999688633747
0.0013082712695985635   -0.031244685105614317   -0.000589413835023379
-0.0014588476843845819   -0.03502818531295823   -0.000837421129930073
0.00043810101323021227   -0.03490640919663563   -0.0008565046861651396
0.0013082712695985635   -0.031244685105614317   -0.000589413835023379
-0.0010177016341323159   -0.03131567122796655   -0.000662352859603508
-0.0014588476843845819   -0.03502818531295823   -0.000837421129930073
-0.0010211349634718266   -0.03128540916816918   -0.0006817907557441418
0.00043810101323021227   -0.03490640919663563   -0.0008565046861651396
-0.001439076988944837   -0.03500756955346456   -0.000868154554121806
-0.0010211349634718266   -0.03128540916816918   -0.0006817907557441418
-0.0014588476843845819   -0.03502818531295823   -0.000837421129930073
0.00043810101323021227   -0.03490640919663563   -0.0008565046861651396
-0.0010211349634718266   -0.03128540916816918   -0.0006817907557441418
0.0013519454125013556   -0.031211580973041615   -0.0006445063916950359
0.0013082712695985635   -0.031244685105614317   -0.000589413835023379
0.00043810101323021227   -0.03490640919663563   -0.0008565046861651396
-0.0010211349634718266   -0.03128540916816918   -0.0006817907557441418
0.0013082712695985635   -0.031244685105614317   -0.000589413835023379
-0.0014588476843845819   -0.03502818531295823   -0.000837421129930073
-0.001520832597836658   -0.03513717092876111   -0.0007633254494530235
-0.0010318583632412826   -0.03142882889154048   -0.0006116713869426609
-0.003149246992425671   -0.03515332136481805   -0.0008922420254493924
-0.0014918967549370494   -0.03507095838240675   -0.0008026266423646171
-0.0010318583632412826   -0.03142882889154048   -0.0006116713869426609
-0.003181209040111796   -0.031429311920735586   -0.0007347942081890311
-0.003149246992425671   -0.03515332136481805   -0.0008922420254493924
-0.0031813881435489915   -0.031373706886255286   -0.0007321968401490928
-0.0014918967549370494   -0.03507095838240675   -0.0008026266423646171
-0.003128048590828613   -0.03509655220636992   -0.000893169853984796
-0.0031813881435489915   -0.031373706886255286   -0.0007321968401490928
-0.003149246992425671   -0.03515332136481805   -0.0008922420254493924
-0.0014918967549370494   -0.03507095838240675   -0.0008026266423646171
-0.0031813881435489915   -0.031373706886255286   -0.0007321968401490928
-0.0010256412865383621   -0.031362964862836296   -0.0006390800745007402
-0.0010318583632412826   -0.03142882889154048   -0.0006116713869426609
-0.0014918967549370494   -0.03507095838240675   -0.0008026266423646171
-0.0031813881435489915   -0.031373706886255286   -0.0007321968401490928
-0.0010318583632412826   -0.03142882889154048   -0.0006116713869426609
-0.003149246992425671   -0.03515332136481805   -0.0008922420254493924
-0.0014918967549370494   -0.03507095838240675   -0.0008026266423646171
-0.0010256412865383621   -0.031362964862836296   -0.0006390800745007402
-0.003128048590828613   -0.03509655220636992   -0.000893169853984796
-0.0014588476843845819   -0.03502818531295823   -0.000837421129930073
-0.0010256412865383621   -0.031362964862836296   -0.0006390800745007402
-0.0031813881435489915   -0.031373706886255286   -0.0007321968401490928
-0.003128048590828613   -0.03509655220636992   -0.000893169853984796
-0.003181416823583099   -0.03133446623684702   -0.0007254753391550648
-0.0014588476843845819   -0.03502818531295823   -0.000837421129930073
-0.003106237291504263   -0.03506075538441521   -0.0008897758510158858
-0.003181416823583099   -0.03133446623684702   -0.0007254753391550648
-0.003128048590828613   -0.03509655220636992   -0.000893169853984796
-0.0014588476843845819   -0.03502818531295823   -0.000837421129930073
-0.003181416823583099   -0.03133446623684702   -0.0007254753391550648
-0.0010177016341323159   -0.03131567122796655   -0.000662352859603508
-0.0010256412865383621   -0.031362964862836296   -0.0006390800745007402
-0.0014588476843845819   -0.03502818531295823   -0.000837421129930073
-0.003181416823583099   -0.03133446623684702   -0.0007254753391550648
-0.0010256412865383621   -0.031362964862836296   -0.0006390800745007402
-0.003128048590828613   -0.03509655220636992   -0.000893169853984796
-0.0014588476843845819   -0.03502818531295823   -0.000837421129930073
-0.0010177016341323159   -0.03131567122796655   -0.000662352859603508
-0.003106237291504263   -0.03506075538441521   -0.0008897758510158858
-0.001439076988944837   -0.03500756955346456   -0.000868154554121806
-0.0010177016341323159   -0.03131567122796655   -0.000662352859603508
-0.003181416823583099   -0.03133446623684702   -0.0007254753391550648
-0.003106237291504263   -0.03506075538441521   -0.0008897758510158858
-0.0031843078430625203   -0.03131162071926651   -0.0007148493089975097
-0.001439076988944837   -0.03500756955346456   -0.000868154554121806
-0.0030871651662151963   -0.035045596246115925   -0.0008823539510289936
-0.0031843078430625203   -0.03131162071926651   -0.0007148493089975097
-0.003106237291504263   -0.03506075538441521   -0.0008897758510158858
-0.001439076988944837   -0.03500756955346456   -0.000868154554121806
-0.0031843078430625203   -0.03131162071926651   -0.0007148493089975097
-0.0010211349634718266   -0.03128540916816918   -0.0006817907557441418
-0.0010177016341323159   -0.03131567122796655   -0.000662352859603508
-0.001439076988944837   -0.03500756955346456   -0.000868154554121806
-0.0031843078430625203   -0.03131162071926651   -0.0007148493089975097
-0.0010177016341323159   -0.03131567122796655   -0.000662352859603508
-0.003106237291504263   -0.03506075538441521   -0.0008897758510158858
-0.003149246992425671   -0.03515332136481805   -0.0008922420254493924
-0.003181209040111796   -0.031429311920735586   -0.0007347942081890311
-0.004752469367534479   -0.03510127380263569   -0.0010085814151204022
-0.003128048590828613   -0.03509655220636992   -0.000893169853984796
-0.003181209040111796   -0.031429311920735586   -0.0007347942081890311
-0.005294430684189193   -0.031375663941266584   -0.0008425303920537031
-0.004752469367534479   -0.03510127380263569   -0.0010085814151204022
-0.005296213757874011   -0.03132903564991778   -0.0008102939130210262
-0.003128048590828613   -0.03509655220636992   -0.000893169853984796
-0.004732740990281882   -0.03505231797872578   -0.0009720561261837624
-0.005296213757874011   -0.03132903564991778   -0.0008102939130210262
-0.004752469367534479   -0.03510127380263569   -0.0010085814151204022
-0.003128048590828613   -0.03509655220636992   -0.000893169853984796
-0.005296213757874011   -0.03132903564991778   -0.0008102939130210262
-0.0031813881435489915   -0.031373706886255286   -0.0007321968401490928
-0.003181209040111796   -0.031429311920735586   -0.0007347942081890311
-0.003128048590828613   -0.03509655220636992   -0.000893169853984796
-0.005296213757874011   -0.03132903564991778   -0.0008102939130210262
-0.003181209040111796   -0.031429311920735586   -0.0007347942081890311
-0.004752469367534479   -0.03510127380263569   -0.0010085814151204022
-0.003128048590828613   -0.03509655220636992   -0.000893169853984796
-0.0031813881435489915   -0.031373706886255286   -0.0007321968401490928
-0.004732740990281882   -0.03505231797872578   -0.0009720561261837624
-0.003106237291504263   -0.03506075538441521   -0.0008897758510158858
-0.0031813881435489915   -0.031373706886255286   -0.0007321968401490928
-0.005296213757874011   -0.03132903564991778   -0.0008102939130210262
-0.004732740990281882   -0.03505231797872578   -0.0009720561261837624
-0.005294405536947281   -0.03129862751277575   -0.0007740163289341322
-0.003106237291504263   -0.03506075538441521   -0.0008897758510158858
-0.0047088943964689505   -0.035024105874351535   -0.0009313062043279057
-0.005294405536947281   -0.03129862751277575   -0.0007740163289341322
-0.004732740990281882   -0.03505231797872578   -0.0009720561261837624
-0.003106237291504263   -0.03506075538441521   -0.0008897758510158858
-0.005294405536947281   -0.03129862751277575   -0.0007740163289341322
-0.003181416823583099   -0.03133446623684702   -0.0007254753391550648
-0.0031813881435489915   -0.031373706886255286   -0.0007321968401490928
-0.003106237291504263   -0.03506075538441521   -0.0008897758510158858
-0.005294405536947281   -0.03129862751277575   -0.0007740163289341322
-0.0031813881435489915   -0.031373706886255286   -0.0007321968401490928
-0.004732740990281882   -0.03505231797872578   -0.0009720561261837624
-0.003106237291504263   -0.03506075538441521   -0.0008897758510158858
-0.003181416823583099   -0.03133446623684702   -0.0007254753391550648
-0.0047088943964689505   -0.035024105874351535   -0.0009313062043279057
-0.0030871651662151963   -0.035045596246115925   -0.0008823539510289936
-0.003181416823583099   -0.03133446623684702   -0.0007254753391550648
-0.005294405536947281   -0.03129862751277575   -0.0007740163289341322
-0.0047088943964689505   -0.035024105874351535   -0.0009313062043279057
-0.005293258219329154   -0.031284160403100975   -0.0007338140162686321
-0.0030871651662151963   -0.035045596246115925   -0.0008823539510289936
-0.004685726857208141   -0.03501569522789145   -0.0008864609103246312
-0.005293258219329154   -0.031284160403100975   -0.0007338140162686321
-0.0047088943964689505   -0.035024105874351535   -0.0009313062043279057
-0.0030871651662151963   -0.035045596246115925   -0.0008823539510289936
-0.005293258219329154   -0.031284160403100975   -0.0007338140162686321
-0.0031843078430625203   -0.03131162071926651   -0.0007148493089975097
-0.003181416823583099   -0.03133446623684702   -0.0007254753391550648
-0.0030871651662151963   -0.035045596246115925   -0.0008823539510289936
-0.005293258219329154   -0.031284160403100975   -0.0007338140162686321
-0.003181416823583099   -0.03133446623684702   -0.0007254753391550648
-0.0047088943964689505   -0.035024105874351535   -0.0009313062043279057
-0.004752469367534479   -0.03510127380263569   -0.0010085814151204022
-0.005294430684189193   -0.031375663941266584   -0.0008425303920537031
-0.006432042505446514   -0.034982816600654366   -0.0011119699300230713
-0.004732740990281882   -0.03505231797872578   -0.0009720561261837624
-0.005294430684189193   -0.031375663941266584   -0.0008425303920537031
-0.007473272589971513   -0.03126987045331631   -0.0009351371218073483
-0.006432042505446514   -0.034982816600654366   -0.0011119699300230713
-0.007470547514741744   -0.03123180667262052   -0.0008729020615923739
-0.004732740990281882   -0.03505231797872578   -0.0009720561261837624
-0.006406154692249545   -0.03494128217661926   -0.0010379254885613718
-0.007470547514741744   -0.03123180667262052   -0.0008729020615923739
-0.006432042505446514   -0.034982816600654366   -0.0011119699300230713
-0.004732740990281882   -0.03505231797872578   -0.0009720561261837624
-0.007470547514741744   -0.03123180667262052   -0.0008729020615923739
-0.005296213757874011   -0.03132903564991778   -0.0008102939130210262
-0.005294430684189193   -0.031375663941266584   -0.0008425303920537031
-0.004732740990281882   -0.03505231797872578   -0.0009720561261837624
-0.007470547514741744   -0.03123180667262052   -0.0008729020615923739
-0.005294430684189193   -0.031375663941266584   -0.0008425303920537031
-0.006432042505446514   -0.034982816600654366   -0.0011119699300230713
-0.004732740990281882   -0.03505231797872578   -0.0009720561261837624
-0.005296213757874011   -0.03132903564991778   -0.0008102939130210262
-0.006406154692249545   -0.03494128217661926   -0.0010379254885613718
-0.0047088943964689505   -0.035024105874351535   -0.0009313062043279057
-0.005296213757874011   -0.03132903564991778   -0.0008102939130210262
-0.007470547514741744   -0.03123180667262052   -0.0008729020615923739
-0.006406154692249545   -0.03494128217661926   -0.0010379254885613718
-0.00745206794519107   -0.031209408846520507   -0.0008072370402136808
-0.0047088943964689505   -0.035024105874351535   -0.0009313062043279057
-0.006362202031186034   -0.03491994595600315   -0.0009603110930179399
-0.00745206794519107   -0.031209408846520507   -0.0008072370402136808
-0.006406154692249545   -0.03494128217661926   -0.0010379254885613718
-0.0047088943964689505   -0.035024105874351535   -0.0009313062043279057
-0.00745206794519107   -0.031209408846520507   -0.0008072370402136808
-0.005294405536947281   -0.03129862751277575   -0.0007740163289341322
-0.005296213757874011   -0.03132903564991778   -0.0008102939130210262
-0.0047088943964689505   -0.035024105874351535   -0.0009313062043279057
-0.00745206794519107   -0.031209408846520507   -0.0008072370402136808
-0.005296213757874011   -0.03132903564991778   -0.0008102939130210262
-0.006406154692249545   -0.03494128217661926   -0.0010379254885613718
-0.0047088943964689505   -0.035024105874351535   -0.0009313062043279057
-0.005294405536947281   -0.03129862751277575   -0.0007740163289341322
-0.006362202031186034   -0.03491994595600315   -0.0009603110930179399
-0.004685726857208141   -0.03501569522789145   -0.0008864609103246312
-0.005294405536947281   -0.03129862751277575   -0.0007740163289341322
-0.00745206794519107   -0.031209408846520507   -0.0008072370402136808
-0.006362202031186034   -0.03491994595600315   -0.0009603110930179399
-0.007439765631770975   -0.03120429765472417   -0.0007373287269690152
-0.004685726857208141   -0.03501569522789145   -0.0008864609103246312
-0.006326638426321711   -0.034919963386183084   -0.0008780020807330793
-0.007439765631770975   -0.03120429765472417   -0.0007373287269690152
-0.006362202031186034   -0.03491994595600315   -0.0009603110930179399
-0.004685726857208141   -0.03501569522789145   -0.0008864609103246312
-0.007439765631770975   -0.03120429765472417   -0.0007373287269690152
-0.005293258219329154   -0.031284160403100975   -0.0007338140162686321
-0.005294405536947281   -0.03129862751277575   -0.0007740163289341322
-0.004685726857208141   -0.03501569522789145   -0.0008864609103246312
-0.007439765631770975   -0.03120429765472417   -0.0007373287269690152
-0.005294405536947281   -0.03129862751277575   -0.0007740163289341322
-0.006362202031186034   -0.03491994595600315   -0.0009603110930179399
-0.006432042505446514   -0.034982816600654366   -0.0011119699300230713
-0.007473272589971513   -0.03126987045331631   -0.0009351371218073483
-0.008390536890493242   -0.034811878461004295   -0.001208706605086849
-0.006406154692249545   -0.03494128217661926   -0.0010379254885613718
-0.007473272589971513   -0.03126987045331631   -0.0009351371218073483
-0.009907099373977232   -0.031123673200559015   -0.0010188319468083856
-0.008390536890493242   -0.034811878461004295   -0.001208706605086849
-0.009815033660593393   -0.031086223875738356   -0.0009235124926578134
-0.006406154692249545   -0.03494128217661926   -0.0010379254885613718
-0.008256783437473231   -0.03476840619791003   -0.0010927293280469385
-0.009815033660593393   -0.031086223875738356   -0.0009235124926578134
-0.008390536890493242   -0.034811878461004295   -0.001208706605086849
-0.006406154692249545   -0.03494128217661926   -0.0010379254885613718
-0.009815033660593393   -0.031086223875738356   -0.0009235124926578134
-0.007470547514741744   -0.03123180667262052   -0.0008729020615923739
-0.007473272589971513   -0.03126987045331631   -0.0009351371218073483
-0.006406154692249545   -0.03494128217661926   -0.0010379254885613718
-0.009815033660593393   -0.031086223875738356   -0.0009235124926578134
-0.007473272589971513   -0.03126987045331631   -0.0009351371218073483
-0.008390536890493242   -0.034811878461004295   -0.001208706605086849
-0.006406154692249545   -0.03494128217661926   -0.0010379254885613718
-0.007470547514741744   -0.03123180667262052   -0.0008729020615923739
-0.008256783437473231   -0.03476840619791003   -0.0010927293280469385
-0.006362202031186034   -0.03491994595600315   -0.0009603110930179399
-0.007470547514741744   -0.03123180667262052   -0.0008729020615923739
-0.009815033660593393   -0.031086223875738356   -0.0009235124926578134
-0.008256783437473231   -0.03476840619791003   -0.0010927293280469385
-0.009736435604018177   -0.031066754000126692   -0.0008224149628536944
-0.006362202031186034   -0.03491994595600315   -0.0009603110930179399
-0.008140916027322791   -0.03474893770801207   -0.000970849778570757
-0.009736435604018177   -0.031066754000126692   -0.0008224149628536944
-0.008256783437473231   -0.03476840619791003   -0.0010927293280469385
-0.006362202031186034   -0.03491994595600315   -0.0009603110930179399
-0.009736435604018177   -0.031066754000126692   -0.0008224149628536944
-0.00745206794519107   -0.031209408846520507   -0.0008072370402136808
-0.007470547514741744   -0.03123180667262052   -0.0008729020615923739
-0.006362202031186034   -0.03491994595600315   -0.0009603110930179399
-0.009736435604018177   -0.031066754000126692   -0.0008224149628536944
-0.007470547514741744   -0.03123180667262052   -0.0008729020615923739
-0.008256783437473231   -0.03476840619791003   -0.0010927293280469385
-0.006362202031186034   -0.03491994595600315   -0.0009603110930179399
-0.00745206794519107   -0.031209408846520507   -0.0008072370402136808
-0.008140916027322791   -0.03474893770801207   -0.000970849778570757
-0.006326638426321711   -0.034919963386183084   -0.0008780020807330793
-0.00745206794519107   -0.031209408846520507   -0.0008072370402136808
-0.009736435604018177   -0.031066754000126692   -0.0008224149628536944
-0.008140916027322791   -0.03474893770801207   -0.000970849778570757
-0.009623196130881664   -0.03107465160760608   -0.0007163374974595686
-0.006326638426321711   -0.034919963386183084   -0.0008780020807330793
-0.007984905725592554   -0.034762052352669305   -0.0008438415422073852
-0.009623196130881664   -0.03107465160760608   -0.0007163374974595686
-0.008140916027322791   -0.03474893770801207   -0.000970849778570757
-0.006326638426321711   -0.034919963386183084   -0.0008780020807330793
-0.009623196130881664   -0.03107465160760608   -0.0007163374974595686
-0.007439765631770975   -0.03120429765472417   -0.0007373287269690152
-0.00745206794519107   -0.031209408846520507   -0.0008072370402136808
-0.006326638426321711   -0.034919963386183084   -0.0008780020807330793
-0.009623196130881664   -0.03107465160760608   -0.0007163374974595686
-0.00745206794519107   -0.031209408846520507   -0.0008072370402136808
-0.008140916027322791   -0.03474893770801207   -0.000970849778570757
0.0012001014260112808   -0.031372819265672716   -0.00046193533808151
0.001921141378349726   -0.026934894623362203   -0.0003079411547895008
-0.0010318583632412826   -0.03142882889154048   -0.0006116713869426609
0.0012659832859299603   -0.03129512022633243   -0.0005285989361538755
0.001921141378349726   -0.026934894623362203   -0.0003079411547895008
-0.0007323710097178723   -0.026962838246556823   -0.00044878177289885623
-0.0010318583632412826   -0.03142882889154048   -0.0006116713869426609
-0.0007444866807841483   -0.02689860536711875   -0.0004637373011525628
0.0012659832859299603   -0.03129512022633243   -0.0005285989361538755
-0.0010256412865383621   -0.031362964862836296   -0.0006390800745007402
-0.0007444866807841483   -0.02689860536711875   -0.0004637373011525628
-0.0010318583632412826   -0.03142882889154048   -0.0006116713869426609
0.0012659832859299603   -0.03129512022633243   -0.0005285989361538755
-0.0007444866807841483   -0.02689860536711875   -0.0004637373011525628
0.0019479223882153908   -0.026860031248776887   -0.00035197049979279516
0.001921141378349726   -0.026934894623362203   -0.0003079411547895008
0.0012659832859299603   -0.03129512022633243   -0.0005285989361538755
-0.0007444866807841483   -0.02689860536711875   -0.0004637373011525628
0.001921141378349726   -0.026934894623362203   -0.0003079411547895008
-0.0010318583632412826   -0.03142882889154048   -0.0006116713869426609
0.0012659832859299603   -0.03129512022633243   -0.0005285989361538755
0.0019479223882153908   -0.026860031248776887   -0.00035197049979279516
-0.0010256412865383621   -0.031362964862836296   -0.0006390800745007402
0.0013082712695985635   -0.031244685105614317   -0.000589413835023379
0.0019479223882153908   -0.026860031248776887   -0.00035197049979279516
-0.0007444866807841483   -0.02689860536711875   -0.0004637373011525628
-0.0010256412865383621   -0.031362964862836296   -0.0006390800745007402
-0.0007571753065431551   -0.0268482058821614   -0.0004749826450670668
0.0013082712695985635   -0.031244685105614317   -0.000589413835023379
-0.0010177016341323159   -0.03131567122796655   -0.000662352859603508
-0.0007571753065431551   -0.0268482058821614   -0.0004749826450670668
-0.0010256412865383621   -0.031362964862836296   -0.0006390800745007402
0.0013082712695985635   -0.031244685105614317   -0.000589413835023379
-0.0007571753065431551   -0.0268482058821614   -0.0004749826450670668
0.0019566060616884773   -0.026805995912395977   -0.00039052179270156775
0.0019479223882153908   -0.026860031248776887   -0.00035197049979279516
0.0013082712695985635   -0.031244685105614317   -0.000589413835023379
-0.0007571753065431551   -0.0268482058821614   -0.0004749826450670668
0.0019479223882153908   -0.026860031248776887   -0.00035197049979279516
-0.0010256412865383621   -0.031362964862836296   -0.0006390800745007402
0.0013082712695985635   -0.031244685105614317   -0.000589413835023379
0.0019566060616884773   -0.026805995912395977   -0.00039052179270156775
-0.0010177016341323159   -0.03131567122796655   -0.000662352859603508
0.0013519454125013556   -0.031211580973041615   -0.0006445063916950359
0.0019566060616884773   -0.026805995912395977   -0.00039052179270156775
-0.0007571753065431551   -0.0268482058821614   -0.0004749826450670668
-0.0010177016341323159   -0.03131567122796655   -0.000662352859603508
-0.0007791157940999975   -0.02681002638025021   -0.00048264225386156776
0.0013519454125013556   -0.031211580973041615   -0.0006445063916950359
-0.0010211349634718266   -0.03128540916816918   -0.0006817907557441418
-0.0007791157940999975   -0.02681002638025021   -0.00048264225386156776
-0.0010177016341323159   -0.03131567122796655   -0.000662352859603508
0.0013519454125013556   -0.031211580973041615   -0.0006445063916950359
-0.0007791157940999975   -0.02681002638025021   -0.00048264225386156776
0.0019620996916913606   -0.026763086214991624   -0.00042385653847861664
0.0019566060616884773   -0.026805995912395977   -0.00039052179270156775
0.0013519454125013556   -0.031211580973041615   -0.0006445063916950359
-0.0007791157940999975   -0.02681002638025021   -0.00048264225386156776
0.0019566060616884773   -0.026805995912395977   -0.00039052179270156775
-0.0010177016341323159   -0.03131567122796655   -0.000662352859603508
-0.0010318583632412826   -0.03142882889154048   -0.0006116713869426609
-0.0007323710097178723   -0.026962838246556823   -0.00044878177289885623
-0.003181209040111796   -0.031429311920735586   -0.0007347942081890311
-0.0010256412865383621   -0.031362964862836296   -0.0006390800745007402
-0.0007323710097178723   -0.026962838246556823   -0.00044878177289885623
-0.0032769495660235613   -0.026949007696968032   -0.000564320003825768
-0.003181209040111796   -0.031429311920735586   -0.0007347942081890311
-0.0032939904805830097   -0.02689549476768438   -0.000557474442239199
-0.0010256412865383621   -0.031362964862836296   -0.0006390800745007402
-0.0031813881435489915   -0.031373706886255286   -0.0007321968401490928
-0.0032939904805830097   -0.02689549476768438   -0.000557474442239199
-0.003181209040111796   -0.031429311920735586   -0.0007347942081890311
-0.0010256412865383621   -0.031362964862836296   -0.0006390800745007402
-0.0032939904805830097   -0.02689549476768438   -0.000557474442239199
-0.0007444866807841483   -0.02689860536711875   -0.0004637373011525628
-0.0007323710097178723   -0.026962838246556823   -0.00044878177289885623
-0.0010256412865383621   -0.031362964862836296   -0.0006390800745007402
-0.0032939904805830097   -0.02689549476768438   -0.000557474442239199
-0.0007323710097178723   -0.026962838246556823   -0.00044878177289885623
-0.003181209040111796   -0.031429311920735586   -0.0007347942081890311
-0.0010256412865383621   -0.031362964862836296   -0.0006390800745007402
-0.0007444866807841483   -0.02689860536711875   -0.0004637373011525628
-0.0031813881435489915   -0.031373706886255286   -0.0007321968401490928
-0.0010177016341323159   -0.03131567122796655   -0.000662352859603508
-0.0007444866807841483   -0.02689860536711875   -0.0004637373011525628
-0.0032939904805830097   -0.02689549476768438   -0.000557474442239199
-0.0031813881435489915   -0.031373706886255286   -0.0007321968401490928
-0.0033112676462381456   -0.026853835478515404   -0.0005468051724342893
-0.0010177016341323159   -0.03131567122796655   -0.000662352859603508
-0.003181416823583099   -0.03133446623684702   -0.0007254753391550648
-0.0033112676462381456   -0.026853835478515404   -0.0005468051724342893
-0.0031813881435489915   -0.031373706886255286   -0.0007321968401490928
-0.0010177016341323159   -0.03131567122796655   -0.000662352859603508
-0.0033112676462381456   -0.026853835478515404   -0.0005468051724342893
-0.0007571753065431551   -0.0268482058821614   -0.0004749826450670668
-0.0007444866807841483   -0.02689860536711875   -0.0004637373011525628
-0.0010177016341323159   -0.03131567122796655   -0.000662352859603508
-0.0033112676462381456   -0.026853835478515404   -0.0005468051724342893
-0.0007444866807841483   -0.02689860536711875   -0.0004637373011525628
-0.0031813881435489915   -0.031373706886255286   -0.0007321968401490928
-0.0010177016341323159   -0.03131567122796655   -0.000662352859603508
-0.0007571753065431551   -0.0268482058821614   -0.0004749826450670668
-0.003181416823583099   -0.03133446623684702   -0.0007254753391550648
-0.0010211349634718266   -0.03128540916816918   -0.0006817907557441418
-0.0007571753065431551   -0.0268482058821614   -0.0004749826450670668
-0.0033112676462381456   -0.026853835478515404   -0.0005468051724342893
-0.003181416823583099   -0.03133446623684702   -0.0007254753391550648
-0.0033312687072866733   -0.02682422896519494   -0.0005325018006322529
-0.0010211349634718266   -0.03128540916816918   -0.0006817907557441418
-0.0031843078430625203   -0.03131162071926651   -0.0007148493089975097
-0.0033312687072866733   -0.02682422896519494   -0.0005325018006322529
-0.003181416823583099   -0.03133446623684702   -0.0007254753391550648
-0.0010211349634718266   -0.03128540916816918   -0.0006817907557441418
-0.0033312687072866733   -0.02682422896519494   -0.0005325018006322529
-0.0007791157940999975   -0.02681002638025021   -0.00048264225386156776
-0.0007571753065431551   -0.0268482058821614   -0.0004749826450670668
-0.0010211349634718266   -0.03128540916816918   -0.0006817907557441418
-0.0033312687072866733   -0.02682422896519494   -0.0005325018006322529
-0.0007571753065431551   -0.0268482058821614   -0.0004749826450670668
-0.003181416823583099   -0.03133446623684702   -0.0007254753391550648
-0.003181209040111796   -0.031429311920735586   -0.0007347942081890311
-0.0032769495660235613   -0.026949007696968032   -0.000564320003825768
-0.005294430684189193   -0.031375663941266584   -0.0008425303920537031
-0.0031813881435489915   -0.031373706886255286   -0.0007321968401490928
-0.0032769495660235613   -0.026949007696968032   -0.000564320003825768
-0.005778755688681314   -0.026896105812097563   -0.0006629774229646076
-0.005294430684189193   -0.031375663941266584   -0.0008425303920537031
-0.005797192859465488   -0.026852298863908074   -0.000634446724939999
-0.0031813881435489915   -0.031373706886255286   -0.0007321968401490928
-0.005296213757874011   -0.03132903564991778   -0.0008102939130210262
-0.005797192859465488   -0.026852298863908074   -0.000634446724939999
-0.005294430684189193   -0.031375663941266584   -0.0008425303920537031
-0.0031813881435489915   -0.031373706886255286   -0.0007321968401490928
-0.005797192859465488   -0.026852298863908074   -0.000634446724939999
-0.0032939904805830097   -0.02689549476768438   -0.000557474442239199
-0.0032769495660235613   -0.026949007696968032   -0.000564320003825768
-0.0031813881435489915   -0.031373706886255286   -0.0007321968401490928
-0.005797192859465488   -0.026852298863908074   -0.000634446724939999
-0.0032769495660235613   -0.026949007696968032   -0.000564320003825768
-0.005294430684189193   -0.031375663941266584   -0.0008425303920537031
-0.0031813881435489915   -0.031373706886255286   -0.0007321968401490928
-0.0032939904805830097   -0.02689549476768438   -0.000557474442239199
-0.005296213757874011   -0.03132903564991778   -0.0008102939130210262
-0.003181416823583099   -0.03133446623684702   -0.0007254753391550648
-0.0032939904805830097   -0.02689549476768438   -0.000557474442239199
-0.005797192859465488   -0.026852298863908074   -0.000634446724939999
-0.005296213757874011   -0.03132903564991778   -0.0008102939130210262
-0.00581243181762313   -0.026820233106192973   -0.0006021624498102966
-0.003181416823583099   -0.03133446623684702   -0.0007254753391550648
-0.005294405536947281   -0.03129862751277575   -0.0007740163289341322
-0.00581243181762313   -0.026820233106192973   -0.0006021624498102966
-0.005296213757874011   -0.03132903564991778   -0.0008102939130210262
-0.003181416823583099   -0.03133446623684702   -0.0007254753391550648
-0.00581243181762313   -0.026820233106192973   -0.0006021624498102966
-0.0033112676462381456   -0.026853835478515404   -0.0005468051724342893
-0.0032939904805830097   -0.02689549476768438   -0.000557474442239199
-0.003181416823583099   -0.03133446623684702   -0.0007254753391550648
-0.00581243181762313   -0.026820233106192973   -0.0006021624498102966
-0.0032939904805830097   -0.02689549476768438   -0.000557474442239199
-0.005296213757874011   -0.03132903564991778   -0.0008102939130210262
-0.003181416823583099   -0.03133446623684702   -0.0007254753391550648
-0.0033112676462381456   -0.026853835478515404   -0.0005468051724342893
-0.005294405536947281   -0.03129862751277575   -0.0007740163289341322
-0.0031843078430625203   -0.03131162071926651   -0.0007148493089975097
-0.0033112676462381456   -0.026853835478515404   -0.0005468051724342893
-0.00581243181762313   -0.026820233106192973   -0.0006021624498102966
-0.005294405536947281   -0.03129862751277575   -0.0007740163289341322
-0.005828125777206711   -0.026799857521618106   -0.0005662334412295355
-0.0031843078430625203   -0.03131162071926651   -0.0007148493089975097
-0.005293258219329154   -0.031284160403100975   -0.0007338140162686321
-0.005828125777206711   -0.026799857521618106   -0.0005662334412295355
-0.005294405536947281   -0.03129862751277575   -0.0007740163289341322
-0.0031843078430625203   -0.03131162071926651   -0.0007148493089975097
-0.005828125777206711   -0.026799857521618106   -0.0005662334412295355
-0.0033312687072866733   -0.02682422896519494   -0.0005325018006322529
-0.0033112676462381456   -0.026853835478515404   -0.0005468051724342893
-0.0031843078430625203   -0.03131162071926651   -0.0007148493089975097
-0.005828125777206711   -0.026799857521618106   -0.0005662334412295355
-0.0033112676462381456   -0.026853835478515404   -0.0005468051724342893
-0.005294405536947281   -0.03129862751277575   -0.0007740163289341322
-0.005294430684189193   -0.031375663941266584   -0.0008425303920537031
-0.005778755688681314   -0.026896105812097563   -0.0006629774229646076
-0.007473272589971513   -0.03126987045331631   -0.0009351371218073483
-0.005296213757874011   -0.03132903564991778   -0.0008102939130210262
-0.005778755688681314   -0.026896105812097563   -0.0006629774229646076
-0.008340038625933651   -0.02680516688561319   -0.0007451742856218937
-0.007473272589971513   -0.03126987045331631   -0.0009351371218073483
-0.008355199931050192   -0.02677081719686114   -0.0006946581947907097
-0.005296213757874011   -0.03132903564991778   -0.0008102939130210262
-0.007470547514741744   -0.03123180667262052   -0.0008729020615923739
-0.008355199931050192   -0.02677081719686114   -0.0006946581947907097
-0.007473272589971513   -0.03126987045331631   -0.0009351371218073483
-0.005296213757874011   -0.03132903564991778   -0.0008102939130210262
-0.008355199931050192   -0.02677081719686114   -0.0006946581947907097
-0.005797192859465488   -0.026852298863908074   -0.000634446724939999
-0.005778755688681314   -0.026896105812097563   -0.0006629774229646076
-0.005296213757874011   -0.03132903564991778   -0.0008102939130210262
-0.008355199931050192   -0.02677081719686114   -0.0006946581947907097
-0.005778755688681314   -0.026896105812097563   -0.0006629774229646076
-0.007473272589971513   -0.03126987045331631   -0.0009351371218073483
-0.005296213757874011   -0.03132903564991778   -0.0008102939130210262
-0.005797192859465488   -0.026852298863908074   -0.000634446724939999
-0.007470547514741744   -0.03123180667262052   -0.0008729020615923739
-0.005294405536947281   -0.03129862751277575   -0.0007740163289341322
-0.005797192859465488   -0.026852298863908074   -0.000634446724939999
-0.008355199931050192   -0.02677081719686114   -0.0006946581947907097
-0.007470547514741744   -0.03123180667262052   -0.0008729020615923739
-0.008356830046274504   -0.02674752807587299   -0.0006409070700566129
-0.005294405536947281   -0.03129862751277575   -0.0007740163289341322
-0.00745206794519107   -0.031209408846520507   -0.0008072370402136808
-0.008356830046274504   -0.02674752807587299   -0.0006409070700566129
-0.007470547514741744   -0.03123180667262052   -0.0008729020615923739
-0.005294405536947281   -0.03129862751277575   -0.0007740163289341322
-0.008356830046274504   -0.02674752807587299   -0.0006409070700566129
-0.00581243181762313   -0.026820233106192973   -0.0006021624498102966
-0.005797192859465488   -0.026852298863908074   -0.000634446724939999
-0.005294405536947281   -0.03129862751277575   -0.0007740163289341322
-0.008356830046274504   -0.02674752807587299   -0.0006409070700566129
-0.005797192859465488   -0.026852298863908074   -0.000634446724939999
-0.007470547514741744   -0.03123180667262052   -0.0008729020615923739
-0.005294405536947281   -0.03129862751277575   -0.0007740163289341322
-0.00581243181762313   -0.026820233106192973   -0.0006021624498102966
-0.00745206794519107   -0.031209408846520507   -0.0008072370402136808
-0.005293258219329154   -0.031284160403100975   -0.0007338140162686321
-0.00581243181762313   -0.026820233106192973   -0.0006021624498102966
-0.008356830046274504   -0.02674752807587299   -0.0006409070700566129
-0.00745206794519107   -0.031209408846520507   -0.0008072370402136808
-0.00836237493546718   -0.02673698914113432   -0.0005832330884666531
-0.005293258219329154   -0.031284160403100975   -0.0007338140162686321
-0.007439765631770975   -0.03120429765472417   -0.0007373287269690152
-0.00836237493546718   -0.02673698914113432   -0.0005832330884666531
-0.00745206794519107   -0.031209408846520507   -0.0008072370402136808
-0.005293258219329154   -0.031284160403100975   -0.0007338140162686321
-0.00836237493546718   -0.02673698914113432   -0.0005832330884666531
-0.005828125777206711   -0.026799857521618106   -0.0005662334412295355
-0.00581243181762313   -0.026820233106192973   -0.0006021624498102966
-0.005293258219329154   -0.031284160403100975   -0.0007338140162686321
-0.00836237493546718   -0.02673698914113432   -0.0005832330884666531
-0.00581243181762313   -0.026820233106192973   -0.0006021624498102966
-0.00745206794519107   -0.031209408846520507   -0.0008072370402136808
-0.007473272589971513   -0.03126987045331631   -0.0009351371218073483
-0.008340038625933651   -0.02680516688561319   -0.0007451742856218937
-0.009907099373977232   -0.031123673200559015   -0.0010188319468083856
-0.007470547514741744   -0.03123180667262052   -0.0008729020615923739
-0.008340038625933651   -0.02680516688561319   -0.0007451742856218937
-0.011133604045523318   -0.02668550494431192   -0.0008154107872145027
-0.009907099373977232   -0.031123673200559015   -0.0010188319468083856
-0.011079018701038765   -0.02665412350430178   -0.0007415306948674828
-0.007470547514741744   -0.03123180667262052   -0.0008729020615923739
-0.009815033660593393   -0.031086223875738356   -0.0009235124926578134
-0.011079018701038765   -0.02665412350430178   -0.0007415306948674828
-0.009907099373977232   -0.031123673200559015   -0.0010188319468083856
-0.007470547514741744   -0.03123180667262052   -0.0008729020615923739
-0.011079018701038765   -0.02665412350430178   -0.0007415306948674828
-0.008355199931050192   -0.02677081719686114   -0.0006946581947907097
-0.008340038625933651   -0.02680516688561319   -0.0007451742856218937
-0.007470547514741744   -0.03123180667262052   -0.0008729020615923739
-0.011079018701038765   -0.02665412350430178   -0.0007415306948674828
-0.008340038625933651   -0.02680516688561319   -0.0007451742856218937
-0.009907099373977232   -0.031123673200559015   -0.0010188319468083856
-0.007470547514741744   -0.03123180667262052   -0.0008729020615923739
-0.008355199931050192   -0.02677081719686114   -0.0006946581947907097
-0.009815033660593393   -0.031086223875738356   -0.0009235124926578134
-0.00745206794519107   -0.031209408846520507   -0.0008072370402136808
-0.008355199931050192   -0.02677081719686114   -0.0006946581947907097
-0.011079018701038765   -0.02665412350430178   -0.0007415306948674828
-0.009815033660593393   -0.031086223875738356   -0.0009235124926578134
-0.011033066756692045   -0.026634560840963148   -0.0006619947531307438
-0.00745206794519107   -0.031209408846520507   -0.0008072370402136808
-0.009736435604018177   -0.031066754000126692   -0.0008224149628536944
-0.011033066756692045   -0.026634560840963148   -0.0006619947531307438
-0.009815033660593393   -0.031086223875738356   -0.0009235124926578134
-0.00745206794519107   -0.031209408846520507   -0.0008072370402136808
-0.011033066756692045   -0.026634560840963148   -0.0006619947531307438
-0.008356830046274504   -0.02674752807587299   -0.0006409070700566129
-0.008355199931050192   -0.02677081719686114   -0.0006946581947907097
-0.00745206794519107   -0.031209408846520507   -0.0008072370402136808
-0.011033066756692045   -0.026634560840963148   -0.0006619947531307438
-0.008355199931050192   -0.02677081719686114   -0.0006946581947907097
-0.009815033660593393   -0.031086223875738356   -0.0009235124926578134
-0.00745206794519107   -0.031209408846520507   -0.0008072370402136808
-0.008356830046274504   -0.02674752807587299   -0.0006409070700566129
-0.009736435604018177   -0.031066754000126692   -0.0008224149628536944
-0.007439765631770975   -0.03120429765472417   -0.0007373287269690152
-0.008356830046274504   -0.02674752807587299   -0.0006409070700566129
-0.011033066756692045   -0.026634560840963148   -0.0006619947531307438
-0.009736435604018177   -0.031066754000126692   -0.0008224149628536944
-0.010957648860166884   -0.026636603601323434   -0.0005775103571242202
-0.007439765631770975   -0.03120429765472417   -0.0007373287269690152
-0.009623196130881664   -0.03107465160760608   -0.0007163374974595686
-0.010957648860166884   -0.026636603601323434   -0.0005775103571242202
-0.009736435604018177   -0.031066754000126692   -0.0008224149628536944
-0.007439765631770975   -0.03120429765472417   -0.0007373287269690152
-0.010957648860166884   -0.026636603601323434   -0.0005775103571242202
-0.00836237493546718   -0.02673698914113432   -0.0005832330884666531
-0.008356830046274504   -0.02674752807587299   -0.0006409070700566129
-0.007439765631770975   -0.03120429765472417   -0.0007373287269690152
-0.010957648860166884   -0.026636603601323434   -0.0005775103571242202
-0.008356830046274504   -0.02674752807587299   -0.0006409070700566129
-0.009736435604018177   -0.031066754000126692   -0.0008224149628536944
0.001921141378349726   -0.026934894623362203   -0.0003079411547895008
0.0023266460898564404   -0.021944562987020952   -0.0001575273662593844
-0.0007323710097178723   -0.026962838246556823   -0.00044878177289885623
0.0019479223882153908   -0.026860031248776887   -0.00035197049979279516
0.0023266460898564404   -0.021944562987020952   -0.0001575273662593844
-0.0006243671725973399   -0.02194459572158315   -0.0002879836175368297
-0.0007323710097178723   -0.026962838246556823   -0.00044878177289885623
-0.0006502766809141186   -0.021882528848610718   -0.0002902632957712207
0.0019479223882153908   -0.026860031248776887   -0.00035197049979279516
-0.0007444866807841483   -0.02689860536711875   -0.0004637373011525628
-0.0006502766809141186   -0.021882528848610718   -0.0002902632957712207
-0.0007323710097178723   -0.026962838246556823   -0.00044878177289885623
0.0019479223882153908   -0.026860031248776887   -0.00035197049979279516
-0.0006502766809141186   -0.021882528848610718   -0.0002902632957712207
0.0023192732358898543   -0.021872941036506627   -0.0001790626132119291
0.0023266460898564404   -0.021944562987020952   -0.0001575273662593844
0.0019479223882153908   -0.026860031248776887   -0.00035197049979279516
-0.0006502766809141186   -0.021882528848610718   -0.0002902632957712207
0.0023266460898564404   -0.021944562987020952   -0.0001575273662593844
-0.0007323710097178723   -0.026962838246556823   -0.00044878177289885623
0.0019479223882153908   -0.026860031248776887   -0.00035197049979279516
0.0023192732358898543   -0.021872941036506627   -0.0001790626132119291
-0.0007444866807841483   -0.02689860536711875   -0.0004637373011525628
0.0019566060616884773   -0.026805995912395977   -0.00039052179270156775
0.0023192732358898543   -0.021872941036506627   -0.0001790626132119291
-0.0006502766809141186   -0.021882528848610718   -0.0002902632957712207
-0.0007444866807841483   -0.02689860536711875   -0.0004637373011525628
-0.0006790758489875746   -0.021829452695405566   -0.0002892353214019485
0.0019566060616884773   -0.026805995912395977   -0.00039052179270156775
-0.0007571753065431551   -0.0268482058821614   -0.0004749826450670668
-0.0006790758489875746   -0.021829452695405566   -0.0002892353214019485
-0.0007444866807841483   -0.02689860536711875   -0.0004637373011525628
0.0019566060616884773   -0.026805995912395977   -0.00039052179270156775
-0.0006790758489875746   -0.021829452695405566   -0.0002892353214019485
0.0022989990143250398   -0.021815778619991944   -0.00019529614990803176
0.0023192732358898543   -0.021872941036506627   -0.0001790626132119291
0.0019566060616884773   -0.026805995912395977   -0.00039052179270156775
-0.0006790758489875746   -0.021829452695405566   -0.0002892353214019485
0.0023192732358898543   -0.021872941036506627   -0.0001790626132119291
-0.0007444866807841483   -0.02689860536711875   -0.0004637373011525628
0.0019566060616884773   -0.026805995912395977   -0.00039052179270156775
0.0022989990143250398   -0.021815778619991944   -0.00019529614990803176
-0.0007571753065431551   -0.0268482058821614   -0.0004749826450670668
0.0019620996916913606   -0.026763086214991624   -0.00042385653847861664
0.0022989990143250398   -0.021815778619991944   -0.00019529614990803176
-0.0006790758489875746   -0.021829452695405566   -0.0002892353214019485
-0.0007571753065431551   -0.0268482058821614   -0.0004749826450670668
-0.000714992943968555   -0.021783964325728072   -0.00028476929353983923
0.0019620996916913606   -0.026763086214991624   -0.00042385653847861664
-0.0007791157940999975   -0.02681002638025021   -0.00048264225386156776
-0.000714992943968555   -0.021783964325728072   -0.00028476929353983923
-0.0007571753065431551   -0.0268482058821614   -0.0004749826450670668
0.0019620996916913606   -0.026763086214991624   -0.00042385653847861664
-0.000714992943968555   -0.021783964325728072   -0.00028476929353983923
0.002270525288997996   -0.02176354705636344   -0.00020659840317481352
0.0022989990143250398   -0.021815778619991944   -0.00019529614990803176
0.0019620996916913606   -0.026763086214991624   -0.00042385653847861664
-0.000714992943968555   -0.021783964325728072   -0.00028476929353983923
0.0022989990143250398   -0.021815778619991944   -0.00019529614990803176
-0.0007571753065431551   -0.0268482058821614   -0.0004749826450670668
-0.0007323710097178723   -0.026962838246556823   -0.00044878177289885623
-0.0006243671725973399   -0.02194459572158315   -0.0002879836175368297
-0.0032769495660235613   -0.026949007696968032   -0.000564320003825768
-0.0007444866807841483   -0.02689860536711875   -0.0004637373011525628
-0.0006243671725973399   -0.02194459572158315   -0.0002879836175368297
-0.003439649892394579   -0.021918058500947517   -0.0003951515133218035
-0.0032769495660235613   -0.026949007696968032   -0.000564320003825768
-0.0034688273781516227   -0.02186674433347895   -0.00038367846671154016
-0.0007444866807841483   -0.02689860536711875   -0.0004637373011525628
-0.0032939904805830097   -0.02689549476768438   -0.000557474442239199
-0.0034688273781516227   -0.02186674433347895   -0.00038367846671154016
-0.0032769495660235613   -0.026949007696968032   -0.000564320003825768
-0.0007444866807841483   -0.02689860536711875   -0.0004637373011525628
-0.0034688273781516227   -0.02186674433347895   -0.00038367846671154016
-0.0006502766809141186   -0.021882528848610718   -0.0002902632957712207
-0.0006243671725973399   -0.02194459572158315   -0.0002879836175368297
-0.0007444866807841483   -0.02689860536711875   -0.0004637373011525628
-0.0034688273781516227   -0.02186674433347895   -0.00038367846671154016
-0.0006243671725973399   -0.02194459572158315   -0.0002879836175368297
-0.0032769495660235613   -0.026949007696968032   -0.000564320003825768
-0.0007444866807841483   -0.02689860536711875   -0.0004637373011525628
-0.0006502766809141186   -0.021882528848610718   -0.0002902632957712207
-0.0032939904805830097   -0.02689549476768438   -0.000557474442239199
-0.0007571753065431551   -0.0268482058821614   -0.0004749826450670668
-0.0006502766809141186   -0.021882528848610718   -0.0002902632957712207
-0.0034688273781516227   -0.02186674433347895   -0.00038367846671154016
-0.0032939904805830097   -0.02689549476768438   -0.000557474442239199
-0.0034986035044577836   -0.021822747999932543   -0.0003687555286745888
-0.0007571753065431551   -0.0268482058821614   -0.0004749826450670668
-0.0033112676462381456   -0.026853835478515404   -0.0005468051724342893
-0.0034986035044577836   -0.021822747999932543   -0.0003687555286745888
-0.0032939904805830097   -0.02689549476768438   -0.000557474442239199
-0.0007571753065431551   -0.0268482058821614   -0.0004749826450670668
-0.0034986035044577836   -0.021822747999932543   -0.0003687555286745888
-0.0006790758489875746   -0.021829452695405566   -0.0002892353214019485
-0.0006502766809141186   -0.021882528848610718   -0.0002902632957712207
-0.0007571753065431551   -0.0268482058821614   -0.0004749826450670668
-0.0034986035044577836   -0.021822747999932543   -0.0003687555286745888
-0.0006502766809141186   -0.021882528848610718   -0.0002902632957712207
-0.0032939904805830097   -0.02689549476768438   -0.000557474442239199
-0.0007571753065431551   -0.0268482058821614   -0.0004749826450670668
-0.0006790758489875746   -0.021829452695405566   -0.0002892353214019485
-0.0033112676462381456   -0.026853835478515404   -0.0005468051724342893
-0.0007791157940999975   -0.02681002638025021   -0.00048264225386156776
-0.0006790758489875746   -0.021829452695405566   -0.0002892353214019485
-0.0034986035044577836   -0.021822747999932543   -0.0003687555286745888
-0.0033112676462381456   -0.026853835478515404   -0.0005468051724342893
-0.0035309261738688262   -0.021786498026302205   -0.0003505495604254046
-0.0007791157940999975   -0.02681002638025021   -0.00048264225386156776
-0.0033312687072866733   -0.02682422896519494   -0.0005325018006322529
-0.0035309261738688262   -0.021786498026302205   -0.0003505495604254046
-0.0033112676462381456   -0.026853835478515404   -0.0005468051724342893
-0.0007791157940999975   -0.02681002638025021   -0.00048264225386156776
-0.0035309261738688262   -0.021786498026302205   -0.0003505495604254046
-0.000714992943968555   -0.021783964325728072   -0.00028476929353983923
-0.0006790758489875746   -0.021829452695405566   -0.0002892353214019485
-0.0007791157940999975   -0.02681002638025021   -0.00048264225386156776
-0.0035309261738688262   -0.021786498026302205   -0.0003505495604254046
-0.0006790758489875746   -0.021829452695405566   -0.0002892353214019485
-0.0033112676462381456   -0.026853835478515404   -0.0005468051724342893
-0.0032769495660235613   -0.026949007696968032   -0.000564320003825768
-0.003439649892394579   -0.021918058500947517   -0.0003951515133218035
-0.005778755688681314   -0.026896105812097563   -0.0006629774229646076
-0.0032939904805830097   -0.02689549476768438   -0.000557474442239199
-0.003439649892394579   -0.021918058500947517   -0.0003951515133218035
-0.006207357342055189   -0.021868084062453275   -0.00048528403573477847
-0.005778755688681314   -0.026896105812097563   -0.0006629774229646076
-0.006237456370140979   -0.02182664934732604   -0.00046009833685607595
-0.0032939904805830097   -0.02689549476768438   -0.000557474442239199
-0.005797192859465488   -0.026852298863908074   -0.000634446724939999
-0.006237456370140979   -0.02182664934732604   -0.00046009833685607595
-0.005778755688681314   -0.026896105812097563   -0.0006629774229646076
-0.0032939904805830097   -0.02689549476768438   -0.000557474442239199
-0.006237456370140979   -0.02182664934732604   -0.00046009833685607595
-0.0034688273781516227   -0.02186674433347895   -0.00038367846671154016
-0.003439649892394579   -0.021918058500947517   -0.0003951515133218035
-0.0032939904805830097   -0.02689549476768438   -0.000557474442239199
-0.006237456370140979   -0.02182664934732604   -0.00046009833685607595
-0.003439649892394579   -0.021918058500947517   -0.0003951515133218035
-0.005778755688681314   -0.026896105812097563   -0.0006629774229646076
-0.0032939904805830097   -0.02689549476768438   -0.000557474442239199
-0.0034688273781516227   -0.02186674433347895   -0.00038367846671154016
-0.005797192859465488   -0.026852298863908074   -0.000634446724939999
-0.0033112676462381456   -0.026853835478515404   -0.0005468051724342893
-0.0034688273781516227   -0.02186674433347895   -0.00038367846671154016
-0.006237456370140979   -0.02182664934732604   -0.00046009833685607595
-0.005797192859465488   -0.026852298863908074   -0.000634446724939999
-0.006264732999971462   -0.021792480884739545   -0.0004315447805212706
-0.0033112676462381456   -0.026853835478515404   -0.0005468051724342893
-0.00581243181762313   -0.026820233106192973   -0.0006021624498102966
-0.006264732999971462   -0.021792480884739545   -0.0004315447805212706
-0.005797192859465488   -0.026852298863908074   -0.000634446724939999
-0.0033112676462381456   -0.026853835478515404   -0.0005468051724342893
-0.006264732999971462   -0.021792480884739545   -0.0004315447805212706
-0.0034986035044577836   -0.021822747999932543   -0.0003687555286745888
-0.0034688273781516227   -0.02186674433347895   -0.00038367846671154016
-0.0033112676462381456   -0.026853835478515404   -0.0005468051724342893
-0.006264732999971462   -0.021792480884739545   -0.0004315447805212706
-0.0034688273781516227   -0.02186674433347895   -0.00038367846671154016
-0.005797192859465488   -0.026852298863908074   -0.000634446724939999
-0.0033112676462381456   -0.026853835478515404   -0.0005468051724342893
-0.0034986035044577836   -0.021822747999932543   -0.0003687555286745888
-0.00581243181762313   -0.026820233106192973   -0.0006021624498102966
-0.0033312687072866733   -0.02682422896519494   -0.0005325018006322529
-0.0034986035044577836   -0.021822747999932543   -0.0003687555286745888
-0.006264732999971462   -0.021792480884739545   -0.0004315447805212706
-0.00581243181762313   -0.026820233106192973   -0.0006021624498102966
-0.006292272161932637   -0.02176563257909357   -0.0003997498406625185
-0.0033312687072866733   -0.02682422896519494   -0.0005325018006322529
-0.005828125777206711   -0.026799857521618106   -0.0005662334412295355
-0.006292272161932637   -0.02176563257909357   -0.0003997498406625185
-0.00581243181762313   -0.026820233106192973   -0.0006021624498102966
-0.0033312687072866733   -0.02682422896519494   -0.0005325018006322529
-0.006292272161932637   -0.02176563257909357   -0.0003997498406625185
-0.0035309261738688262   -0.021786498026302205   -0.0003505495604254046
-0.0034986035044577836   -0.021822747999932543   -0.0003687555286745888
-0.0033312687072866733   -0.02682422896519494   -0.0005325018006322529
-0.006292272161932637   -0.02176563257909357   -0.0003997498406625185
-0.0034986035044577836   -0.021822747999932543   -0.0003687555286745888
-0.00581243181762313   -0.026820233106192973   -0.0006021624498102966
-0.005778755688681314   -0.026896105812097563   -0.0006629774229646076
-0.006207357342055189   -0.021868084062453275   -0.00048528403573477847
-0.008340038625933651   -0.02680516688561319   -0.0007451742856218937
-0.005797192859465488   -0.026852298863908074   -0.000634446724939999
-0.006207357342055189   -0.021868084062453275   -0.00048528403573477847
-0.009030007781524442   -0.021793618658400946   -0.0005586161929556194
-0.008340038625933651   -0.02680516688561319   -0.0007451742856218937
-0.00905789886516635   -0.021762131883925825   -0.0005196102438128289
-0.005797192859465488   -0.026852298863908074   -0.000634446724939999
-0.008355199931050192   -0.02677081719686114   -0.0006946581947907097
-0.00905789886516635   -0.021762131883925825   -0.0005196102438128289
-0.008340038625933651   -0.02680516688561319   -0.0007451742856218937
-0.005797192859465488   -0.026852298863908074   -0.000634446724939999
-0.00905789886516635   -0.021762131883925825   -0.0005196102438128289
-0.006237456370140979   -0.02182664934732604   -0.00046009833685607595
-0.006207357342055189   -0.021868084062453275   -0.00048528403573477847
-0.005797192859465488   -0.026852298863908074   -0.000634446724939999
-0.00905789886516635   -0.021762131883925825   -0.0005196102438128289
-0.006207357342055189   -0.021868084062453275   -0.00048528403573477847
-0.008340038625933651   -0.02680516688561319   -0.0007451742856218937
-0.005797192859465488   -0.026852298863908074   -0.000634446724939999
-0.006237456370140979   -0.02182664934732604   -0.00046009833685607595
-0.008355199931050192   -0.02677081719686114   -0.0006946581947907097
-0.00581243181762313   -0.026820233106192973   -0.0006021624498102966
-0.006237456370140979   -0.02182664934732604   -0.00046009833685607595
-0.00905789886516635   -0.021762131883925825   -0.0005196102438128289
-0.008355199931050192   -0.02677081719686114   -0.0006946581947907097
-0.009074582357136264   -0.021737029381911344   -0.0004776865509999866
-0.00581243181762313   -0.026820233106192973   -0.0006021624498102966
-0.008356830046274504   -0.02674752807587299   -0.0006409070700566129
-0.009074582357136264   -0.021737029381911344   -0.0004776865509999866
-0.008355199931050192   -0.02677081719686114   -0.0006946581947907097
-0.00581243181762313   -0.026820233106192973   -0.0006021624498102966
-0.009074582357136264   -0.021737029381911344   -0.0004776865509999866
-0.006264732999971462   -0.021792480884739545   -0.0004315447805212706
-0.006237456370140979   -0.02182664934732604   -0.00046009833685607595
-0.00581243181762313   -0.026820233106192973   -0.0006021624498102966
-0.009074582357136264   -0.021737029381911344   -0.0004776865509999866
-0.006237456370140979   -0.02182664934732604   -0.00046009833685607595
-0.008355199931050192   -0.02677081719686114   -0.0006946581947907097
-0.00581243181762313   -0.026820233106192973   -0.0006021624498102966
-0.006264732999971462   -0.021792480884739545   -0.0004315447805212706
-0.008356830046274504   -0.02674752807587299   -0.0006409070700566129
-0.005828125777206711   -0.026799857521618106   -0.0005662334412295355
-0.006264732999971462   -0.021792480884739545   -0.0004315447805212706
-0.009074582357136264   -0.021737029381911344   -0.0004776865509999866
-0.008356830046274504   -0.02674752807587299   -0.0006409070700566129
-0.009093016814040494   -0.02171989236491773   -0.0004322439200236226
-0.005828125777206711   -0.026799857521618106   -0.0005662334412295355
-0.00836237493546718   -0.02673698914113432   -0.0005832330884666531
-0.009093016814040494   -0.02171989236491773   -0.0004322439200236226
-0.008356830046274504   -0.02674752807587299   -0.0006409070700566129
-0.005828125777206711   -0.026799857521618106   -0.0005662334412295355
-0.009093016814040494   -0.02171989236491773   -0.0004322439200236226
-0.006292272161932637   -0.02176563257909357   -0.0003997498406625185
-0.006264732999971462   -0.021792480884739545   -0.0004315447805212706
-0.005828125777206711   -0.026799857521618106   -0.0005662334412295355
-0.009093016814040494   -0.02171989236491773   -0.0004322439200236226
-0.006264732999971462   -0.021792480884739545   -0.0004315447805212706
-0.008356830046274504   -0.02674752807587299   -0.0006409070700566129
-0.008340038625933651   -0.02680516688561319   -0.0007451742856218937
-0.009030007781524442   -0.021793618658400946   -0.0005586161929556194
-0.011133604045523318   -0.02668550494431192   -0.0008154107872145027
-0.008355199931050192   -0.02677081719686114   -0.0006946581947907097
-0.009030007781524442   -0.021793618658400946   -0.0005586161929556194
-0.012060437383621059   -0.021701648826401226   -0.0006167287038610322
-0.011133604045523318   -0.02668550494431192   -0.0008154107872145027
-0.012038535824217522   -0.021675226031388096   -0.0005645429344623195
-0.008355199931050192   -0.02677081719686114   -0.0006946581947907097
-0.011079018701038765   -0.02665412350430178   -0.0007415306948674828
-0.012038535824217522   -0.021675226031388096   -0.0005645429344623195
-0.011133604045523318   -0.02668550494431192   -0.0008154107872145027
-0.008355199931050192   -0.02677081719686114   -0.0006946581947907097
-0.012038535824217522   -0.021675226031388096   -0.0005645429344623195
-0.00905789886516635   -0.021762131883925825   -0.0005196102438128289
-0.009030007781524442   -0.021793618658400946   -0.0005586161929556194
-0.008355199931050192   -0.02677081719686114   -0.0006946581947907097
-0.012038535824217522   -0.021675226031388096   -0.0005645429344623195
-0.009030007781524442   -0.021793618658400946   -0.0005586161929556194
-0.011133604045523318   -0.02668550494431192   -0.0008154107872145027
-0.008355199931050192   -0.02677081719686114   -0.0006946581947907097
-0.00905789886516635   -0.021762131883925825   -0.0005196102438128289
-0.011079018701038765   -0.02665412350430178   -0.0007415306948674828
-0.008356830046274504   -0.02674752807587299   -0.0006409070700566129
-0.00905789886516635   -0.021762131883925825   -0.0005196102438128289
-0.012038535824217522   -0.021675226031388096   -0.0005645429344623195
-0.011079018701038765   -0.02665412350430178   -0.0007415306948674828
-0.012020673063101683   -0.021654398659798655   -0.000507002516050643
-0.008356830046274504   -0.02674752807587299   -0.0006409070700566129
-0.011033066756692045   -0.026634560840963148   -0.0006619947531307438
-0.012020673063101683   -0.021654398659798655   -0.000507002516050643
-0.011079018701038765   -0.02665412350430178   -0.0007415306948674828
-0.008356830046274504   -0.02674752807587299   -0.0006409070700566129
-0.012020673063101683   -0.021654398659798655   -0.000507002516050643
-0.009074582357136264   -0.021737029381911344   -0.0004776865509999866
-0.00905789886516635   -0.021762131883925825   -0.0005196102438128289
-0.008356830046274504   -0.02674752807587299   -0.0006409070700566129
-0.012020673063101683   -0.021654398659798655   -0.000507002516050643
-0.00905789886516635   -0.021762131883925825   -0.0005196102438128289
-0.011079018701038765   -0.02665412350430178   -0.0007415306948674828
-0.008356830046274504   -0.02674752807587299   -0.0006409070700566129
-0.009074582357136264   -0.021737029381911344   -0.0004776865509999866
-0.011033066756692045   -0.026634560840963148   -0.0006619947531307438
-0.00836237493546718   -0.02673698914113432   -0.0005832330884666531
-0.009074582357136264   -0.021737029381911344   -0.0004776865509999866
-0.012020673063101683   -0.021654398659798655   -0.000507002516050643
-0.011033066756692045   -0.026634560840963148   -0.0006619947531307438
-0.011978816678682207   -0.021648961300786612   -0.0004447168364591879
-0.00836237493546718   -0.02673698914113432   -0.0005832330884666531
-0.010957648860166884   -0.026636603601323434   -0.0005775103571242202
-0.011978816678682207   -0.021648961300786612   -0.0004447168364591879
-0.011033066756692045   -0.026634560840963148   -0.0006619947531307438
-0.00836237493546718   -0.02673698914113432   -0.0005832330884666531
-0.011978816678682207   -0.021648961300786612   -0.0004447168364591879
-0.009093016814040494   -0.02171989236491773   -0.0004322439200236226
-0.009074582357136264   -0.021737029381911344   -0.0004776865509999866
-0.00836237493546718   -0.02673698914113432   -0.0005832330884666531
-0.011978816678682207   -0.021648961300786612   -0.0004447168364591879
-0.009074582357136264   -0.021737029381911344   -0.0004776865509999866
-0.011033066756692045   -0.026634560840963148   -0.0006619947531307438
0.0023266460898564404   -0.021944562987020952   -0.0001575273662593844
0.0024152134113344576   -0.016599871582488487   -2.5933070988720426e-05
-0.0006243671725973399   -0.02194459572158315   -0.0002879836175368297
0.0023192732358898543   -0.021872941036506627   -0.0001790626132119291
0.0024152134113344576   -0.016599871582488487   -2.5933070988720426e-05
-0.0007082235260936283   -0.016572997755789787   -0.00014292378194609502
-0.0006243671725973399   -0.02194459572158315   -0.0002879836175368297
-0.0007440139374030075   -0.016513698589785533   -0.00013246308848968176
0.0023192732358898543   -0.021872941036506627   -0.0001790626132119291
-0.0006502766809141186   -0.021882528848610718   -0.0002902632957712207
-0.0007440139374030075   -0.016513698589785533   -0.00013246308848968176
-0.0006243671725973399   -0.02194459572158315   -0.0002879836175368297
0.0023192732358898543   -0.021872941036506627   -0.0001790626132119291
-0.0007440139374030075   -0.016513698589785533   -0.00013246308848968176
0.0023778607172615673   -0.016531654166694807   -2.4482535591419634e-05
0.0024152134113344576   -0.016599871582488487   -2.5933070988720426e-05
0.0023192732358898543   -0.021872941036506627   -0.0001790626132119291
-0.0007440139374030075   -0.016513698589785533   -0.00013246308848968176
0.0024152134113344576   -0.016599871582488487   -2.5933070988720426e-05
-0.0006243671725973399   -0.02194459572158315   -0.0002879836175368297
0.0023192732358898543   -0.021872941036506627   -0.0001790626132119291
0.0023778607172615673   -0.016531654166694807   -2.4482535591419634e-05
-0.0006502766809141186   -0.021882528848610718   -0.0002902632957712207
0.0022989990143250398   -0.021815778619991944   -0.00019529614990803176
0.0023778607172615673   -0.016531654166694807   -2.4482535591419634e-05
-0.0007440139374030075   -0.016513698589785533   -0.00013246308848968176
-0.0006502766809141186   -0.021882528848610718   -0.0002902632957712207
-0.0007850379153500292   -0.01645797859523285   -0.00011898754347920035
0.0022989990143250398   -0.021815778619991944   -0.00019529614990803176
-0.0006790758489875746   -0.021829452695405566   -0.0002892353214019485
-0.0007850379153500292   -0.01645797859523285   -0.00011898754347920035
-0.0006502766809141186   -0.021882528848610718   -0.0002902632957712207
0.0022989990143250398   -0.021815778619991944   -0.00019529614990803176
-0.0007850379153500292   -0.01645797859523285   -0.00011898754347920035
0.0023315226750376993   -0.016471072430617215   -1.6882413393561877e-05
0.0023778607172615673   -0.016531654166694807   -2.4482535591419634e-05
0.0022989990143250398   -0.021815778619991944   -0.00019529614990803176
-0.0007850379153500292   -0.01645797859523285   -0.00011898754347920035
0.0023778607172615673   -0.016531654166694807   -2.4482535591419634e-05
-0.0006502766809141186   -0.021882528848610718   -0.0002902632957712207
0.0022989990143250398   -0.021815778619991944   -0.00019529614990803176
0.0023315226750376993   -0.016471072430617215   -1.6882413393561877e-05
-0.0006790758489875746   -0.021829452695405566   -0.0002892353214019485
0.002270525288997996   -0.02176354705636344   -0.00020659840317481352
0.0023315226750376993   -0.016471072430617215   -1.6882413393561877e-05
-0.0007850379153500292   -0.01645797859523285   -0.00011898754347920035
-0.0006790758489875746   -0.021829452695405566   -0.0002892353214019485
-0.00083120371560486   -0.016405062484463225   -0.00010174347021289665
0.002270525288997996   -0.02176354705636344   -0.00020659840317481352
-0.000714992943968555   -0.021783964325728072   -0.00028476929353983923
-0.00083120371560486   -0.016405062484463225   -0.00010174347021289665
-0.0006790758489875746   -0.021829452695405566   -0.0002892353214019485
0.002270525288997996   -0.02176354705636344   -0.00020659840317481352
-0.00083120371560486   -0.016405062484463225   -0.00010174347021289665
0.002270311551378812   -0.016407890687815334   -3.4076983838667796e-06
0.0023315226750376993   -0.016471072430617215   -1.6882413393561877e-05
0.002270525288997996   -0.02176354705636344   -0.00020659840317481352
-0.00083120371560486   -0.016405062484463225   -0.00010174347021289665
0.0023315226750376993   -0.016471072430617215   -1.6882413393561877e-05
-0.0006790758489875746   -0.021829452695405566   -0.0002892353214019485
-0.0006243671725973399   -0.02194459572158315   -0.0002879836175368297
-0.0007082235260936283   -0.016572997755789787   -0.00014292378194609502
-0.003439649892394579   -0.021918058500947517   -0.0003951515133218035
-0.0006502766809141186   -0.021882528848610718   -0.0002902632957712207
-0.0007082235260936283   -0.016572997755789787   -0.00014292378194609502
-0.003667670610492962   -0.016541061488591382   -0.0002414130723620197
-0.003439649892394579   -0.021918058500947517   -0.0003951515133218035
-0.0037043391460790387   -0.01649169612832778   -0.0002249869240054244
-0.0006502766809141186   -0.021882528848610718   -0.0002902632957712207
-0.0034688273781516227   -0.02186674433347895   -0.00038367846671154016
-0.0037043391460790387   -0.01649169612832778   -0.0002249869240054244
-0.003439649892394579   -0.021918058500947517   -0.0003951515133218035
-0.0006502766809141186   -0.021882528848610718   -0.0002902632957712207
-0.0037043391460790387   -0.01649169612832778   -0.0002249869240054244
-0.0007440139374030075   -0.016513698589785533   -0.00013246308848968176
-0.0007082235260936283   -0.016572997755789787   -0.00014292378194609502
-0.0006502766809141186   -0.021882528848610718   -0.0002902632957712207
-0.0037043391460790387   -0.01649169612832778   -0.0002249869240054244
-0.0007082235260936283   -0.016572997755789787   -0.00014292378194609502
-0.003439649892394579   -0.021918058500947517   -0.0003951515133218035
-0.0006502766809141186   -0.021882528848610718   -0.0002902632957712207
-0.0007440139374030075   -0.016513698589785533   -0.00013246308848968176
-0.0034688273781516227   -0.02186674433347895   -0.00038367846671154016
-0.0006790758489875746   -0.021829452695405566   -0.0002892353214019485
-0.0007440139374030075   -0.016513698589785533   -0.00013246308848968176
-0.0037043391460790387   -0.01649169612832778   -0.0002249869240054244
-0.0034688273781516227   -0.02186674433347895   -0.00038367846671154016
-0.003741847505105923   -0.016445103455106063   -0.00020567934371760338
-0.0006790758489875746   -0.021829452695405566   -0.0002892353214019485
-0.0034986035044577836   -0.021822747999932543   -0.0003687555286745888
-0.003741847505105923   -0.016445103455106063   -0.00020567934371760338
-0.0034688273781516227   -0.02186674433347895   -0.00038367846671154016
-0.0006790758489875746   -0.021829452695405566   -0.0002892353214019485
-0.003741847505105923   -0.016445103455106063   -0.00020567934371760338
-0.0007850379153500292   -0.01645797859523285   -0.00011898754347920035
-0.0007440139374030075   -0.016513698589785533   -0.00013246308848968176
-0.0006790758489875746   -0.021829452695405566   -0.0002892353214019485
-0.003741847505105923   -0.016445103455106063   -0.00020567934371760338
-0.0007440139374030075   -0.016513698589785533   -0.00013246308848968176
-0.0034688273781516227   -0.02186674433347895   -0.00038367846671154016
-0.0006790758489875746   -0.021829452695405566   -0.0002892353214019485
-0.0007850379153500292   -0.01645797859523285   -0.00011898754347920035
-0.0034986035044577836   -0.021822747999932543   -0.0003687555286745888
-0.000714992943968555   -0.021783964325728072   -0.00028476929353983923
-0.0007850379153500292   -0.01645797859523285   -0.00011898754347920035
-0.003741847505105923   -0.016445103455106063   -0.00020567934371760338
-0.0034986035044577836   -0.021822747999932543   -0.0003687555286745888
-0.0037817699475647024   -0.016402030591052615   -0.00018346565459216604
-0.000714992943968555   -0.021783964325728072   -0.00028476929353983923
-0.0035309261738688262   -0.021786498026302205   -0.0003505495604254046
-0.0037817699475647024   -0.016402030591052615   -0.00018346565459216604
-0.0034986035044577836   -0.021822747999932543   -0.0003687555286745888
-0.000714992943968555   -0.021783964325728072   -0.00028476929353983923
-0.0037817699475647024   -0.016402030591052615   -0.00018346565459216604
-0.00083120371560486   -0.016405062484463225   -0.00010174347021289665
-0.0007850379153500292   -0.01645797859523285   -0.00011898754347920035
-0.000714992943968555   -0.021783964325728072   -0.00028476929353983923
-0.0037817699475647024   -0.016402030591052615   -0.00018346565459216604
-0.0007850379153500292   -0.01645797859523285   -0.00011898754347920035
-0.0034986035044577836   -0.021822747999932543   -0.0003687555286745888
-0.003439649892394579   -0.021918058500947517   -0.0003951515133218035
-0.003667670610492962   -0.016541061488591382   -0.0002414130723620197
-0.006207357342055189   -0.021868084062453275   -0.00048528403573477847
-0.0034688273781516227   -0.02186674433347895   -0.00038367846671154016
-0.003667670610492962   -0.016541061488591382   -0.0002414130723620197
-0.006578652651856375   -0.016502482617313678   -0.00032474602161927717
-0.006207357342055189   -0.021868084062453275   -0.00048528403573477847
-0.006615117662644669   -0.01646228920121659   -0.00030238295990222495
-0.0034688273781516227   -0.02186674433347895   -0.00038367846671154016
-0.006237456370140979   -0.02182664934732604   -0.00046009833685607595
-0.006615117662644669   -0.01646228920121659   -0.00030238295990222495
-0.006207357342055189   -0.021868084062453275   -0.00048528403573477847
-0.0034688273781516227   -0.02186674433347895   -0.00038367846671154016
-0.006615117662644669   -0.01646228920121659   -0.00030238295990222495
-0.0037043391460790387   -0.01649169612832778   -0.0002249869240054244
-0.003667670610492962   -0.016541061488591382   -0.0002414130723620197
-0.0034688273781516227   -0.02186674433347895   -0.00038367846671154016
-0.006615117662644669   -0.01646228920121659   -0.00030238295990222495
-0.003667670610492962   -0.016541061488591382   -0.0002414130723620197
-0.006207357342055189   -0.021868084062453275   -0.00048528403573477847
-0.0034688273781516227   -0.02186674433347895   -0.00038367846671154016
-0.0037043391460790387   -0.01649169612832778   -0.0002249869240054244
-0.006237456370140979   -0.02182664934732604   -0.00046009833685607595
-0.0034986035044577836   -0.021822747999932543   -0.0003687555286745888
-0.0037043391460790387   -0.01649169612832778   -0.0002249869240054244
-0.006615117662644669   -0.01646228920121659   -0.00030238295990222495
-0.006237456370140979   -0.02182664934732604   -0.00046009833685607595
-0.0066492058095738845   -0.01642501489532047   -0.0002772365917308565
-0.0034986035044577836   -0.021822747999932543   -0.0003687555286745888
-0.006264732999971462   -0.021792480884739545   -0.0004315447805212706
-0.0066492058095738845   -0.01642501489532047   -0.0002772365917308565
-0.006237456370140979   -0.02182664934732604   -0.00046009833685607595
-0.0034986035044577836   -0.021822747999932543   -0.0003687555286745888
-0.0066492058095738845   -0.01642501489532047   -0.0002772365917308565
-0.003741847505105923   -0.016445103455106063   -0.00020567934371760338
-0.0037043391460790387   -0.01649169612832778   -0.0002249869240054244
-0.0034986035044577836   -0.021822747999932543   -0.0003687555286745888
-0.0066492058095738845   -0.01642501489532047   -0.0002772365917308565
-0.0037043391460790387   -0.01649169612832778   -0.0002249869240054244
-0.006237456370140979   -0.02182664934732604   -0.00046009833685607595
-0.0034986035044577836   -0.021822747999932543   -0.0003687555286745888
-0.003741847505105923   -0.016445103455106063   -0.00020567934371760338
-0.006264732999971462   -0.021792480884739545   -0.0004315447805212706
-0.0035309261738688262   -0.021786498026302205   -0.0003505495604254046
-0.003741847505105923   -0.016445103455106063   -0.00020567934371760338
-0.0066492058095738845   -0.01642501489532047   -0.0002772365917308565
-0.006264732999971462   -0.021792480884739545   -0.0004315447805212706
-0.00668341646803314   -0.016390759034083942   -0.00024944285281383653
-0.0035309261738688262   -0.021786498026302205   -0.0003505495604254046
-0.006292272161932637   -0.02176563257909357   -0.0003997498406625185
-0.00668341646803314   -0.016390759034083942   -0.00024944285281383653
-0.006264732999971462   -0.021792480884739545   -0.0004315447805212706
-0.0035309261738688262   -0.021786498026302205   -0.0003505495604254046
-0.00668341646803314   -0.016390759034083942   -0.00024944285281383653
-0.0037817699475647024   -0.016402030591052615   -0.00018346565459216604
-0.003741847505105923   -0.016445103455106063   -0.00020567934371760338
-0.0035309261738688262   -0.021786498026302205   -0.0003505495604254046
-0.00668341646803314   -0.016390759034083942   -0.00024944285281383653
-0.003741847505105923   -0.016445103455106063   -0.00020567934371760338
-0.006264732999971462   -0.021792480884739545   -0.0004315447805212706
-0.006207357342055189   -0.021868084062453275   -0.00048528403573477847
-0.006578652651856375   -0.016502482617313678   -0.00032474602161927717
-0.009030007781524442   -0.021793618658400946   -0.0005586161929556194
-0.006237456370140979   -0.02182664934732604   -0.00046009833685607595
-0.006578652651856375   -0.016502482617313678   -0.00032474602161927717
-0.00954240610023124   -0.01645014554483183   -0.0003922056956180652
-0.009030007781524442   -0.021793618658400946   -0.0005586161929556194
-0.009577300849048263   -0.01641959768810803   -0.0003639776376472939
-0.006237456370140979   -0.02182664934732604   -0.00046009833685607595
-0.00905789886516635   -0.021762131883925825   -0.0005196102438128289
-0.009577300849048263   -0.01641959768810803   -0.0003639776376472939
-0.009030007781524442   -0.021793618658400946   -0.0005586161929556194
-0.006237456370140979   -0.02182664934732604   -0.00046009833685607595
-0.009577300849048263   -0.01641959768810803   -0.0003639776376472939
-0.006615117662644669   -0.01646228920121659   -0.00030238295990222495
-0.006578652651856375   -0.016502482617313678   -0.00032474602161927717
-0.006237456370140979   -0.02182664934732604   -0.00046009833685607595
-0.009577300849048263   -0.01641959768810803   -0.0003639776376472939
-0.006578652651856375   -0.016502482617313678   -0.00032474602161927717
-0.009030007781524442   -0.021793618658400946   -0.0005586161929556194
-0.006237456370140979   -0.02182664934732604   -0.00046009833685607595
-0.006615117662644669   -0.01646228920121659   -0.00030238295990222495
-0.00905789886516635   -0.021762131883925825   -0.0005196102438128289
-0.006264732999971462   -0.021792480884739545   -0.0004315447805212706
-0.006615117662644669   -0.01646228920121659   -0.00030238295990222495
-0.009577300849048263   -0.01641959768810803   -0.0003639776376472939
-0.00905789886516635   -0.021762131883925825   -0.0005196102438128289
-0.009603609650635201   -0.01639092112767181   -0.00033341654988801577
-0.006264732999971462   -0.021792480884739545   -0.0004315447805212706
-0.009074582357136264   -0.021737029381911344   -0.0004776865509999866
-0.009603609650635201   -0.01639092112767181   -0.00033341654988801577
-0.00905789886516635   -0.021762131883925825   -0.0005196102438128289
-0.006264732999971462   -0.021792480884739545   -0.0004315447805212706
-0.009603609650635201   -0.01639092112767181   -0.00033341654988801577
-0.0066492058095738845   -0.01642501489532047   -0.0002772365917308565
-0.006615117662644669   -0.01646228920121659   -0.00030238295990222495
-0.006264732999971462   -0.021792480884739545   -0.0004315447805212706
-0.009603609650635201   -0.01639092112767181   -0.00033341654988801577
-0.006615117662644669   -0.01646228920121659   -0.00030238295990222495
-0.00905789886516635   -0.021762131883925825   -0.0005196102438128289
-0.006264732999971462   -0.021792480884739545   -0.0004315447805212706
-0.0066492058095738845   -0.01642501489532047   -0.0002772365917308565
-0.009074582357136264   -0.021737029381911344   -0.0004776865509999866
-0.006292272161932637   -0.02176563257909357   -0.0003997498406625185
-0.0066492058095738845   -0.01642501489532047   -0.0002772365917308565
-0.009603609650635201   -0.01639092112767181   -0.00033341654988801577
-0.009074582357136264   -0.021737029381911344   -0.0004776865509999866
-0.009629748022554787   -0.01636544170693086   -0.00029992169219659353
-0.006292272161932637   -0.02176563257909357   -0.0003997498406625185
-0.009093016814040494   -0.02171989236491773   -0.0004322439200236226
-0.009629748022554787   -0.01636544170693086   -0.00029992169219659353
-0.009074582357136264   -0.021737029381911344   -0.0004776865509999866
-0.006292272161932637   -0.02176563257909357   -0.0003997498406625185
-0.009629748022554787   -0.01636544170693086   -0.00029992169219659353
-0.00668341646803314   -0.016390759034083942   -0.00024944285281383653
-0.0066492058095738845   -0.01642501489532047   -0.0002772365917308565
-0.006292272161932637   -0.02176563257909357   -0.0003997498406625185
-0.009629748022554787   -0.01636544170693086   -0.00029992169219659353
-0.0066492058095738845   -0.01642501489532047   -0.0002772365917308565
-0.009074582357136264   -0.021737029381911344   -0.0004776865509999866
-0.009030007781524442   -0.021793618658400946   -0.0005586161929556194
-0.00954240610023124   -0.01645014554483183   -0.0003922056956180652
-0.012060437383621059   -0.021701648826401226   -0.0006167287038610322
-0.00905789886516635   -0.021762131883925825   -0.0005196102438128289
-0.00954240610023124   -0.01645014554483183   -0.0003922056956180652
-0.012684991312119575   -0.01638799461431318   -0.0004418303430490214
-0.012060437383621059   -0.021701648826401226   -0.0006167287038610322
-0.012689487982592515   -0.01636386042352223   -0.00041037911518488485
-0.00905789886516635   -0.021762131883925825   -0.0005196102438128289
-0.012038535824217522   -0.021675226031388096   -0.0005645429344623195
-0.012689487982592515   -0.01636386042352223   -0.00041037911518488485
-0.012060437383621059   -0.021701648826401226   -0.0006167287038610322
-0.00905789886516635   -0.021762131883925825   -0.0005196102438128289
-0.012689487982592515   -0.01636386042352223   -0.00041037911518488485
-0.009577300849048263   -0.01641959768810803   -0.0003639776376472939
-0.00954240610023124   -0.01645014554483183   -0.0003922056956180652
-0.00905789886516635   -0.021762131883925825   -0.0005196102438128289
-0.012689487982592515   -0.01636386042352223   -0.00041037911518488485
-0.00954240610023124   -0.01645014554483183   -0.0003922056956180652
-0.012060437383621059   -0.021701648826401226   -0.0006167287038610322
-0.00905789886516635   -0.021762131883925825   -0.0005196102438128289
-0.009577300849048263   -0.01641959768810803   -0.0003639776376472939
-0.012038535824217522   -0.021675226031388096   -0.0005645429344623195
-0.009074582357136264   -0.021737029381911344   -0.0004776865509999866
-0.009577300849048263   -0.01641959768810803   -0.0003639776376472939
-0.012689487982592515   -0.01636386042352223   -0.00041037911518488485
-0.012038535824217522   -0.021675226031388096   -0.0005645429344623195
-0.012694248865207184   -0.016339603535384772   -0.00037424068678267383
-0.009074582357136264   -0.021737029381911344   -0.0004776865509999866
-0.012020673063101683   -0.021654398659798655   -0.000507002516050643
-0.012694248865207184   -0.016339603535384772   -0.00037424068678267383
-0.012038535824217522   -0.021675226031388096   -0.0005645429344623195
-0.009074582357136264   -0.021737029381911344   -0.0004776865509999866
-0.012694248865207184   -0.016339603535384772   -0.00037424068678267383
-0.009603609650635201   -0.01639092112767181   -0.00033341654988801577
-0.009577300849048263   -0.01641959768810803   -0.0003639776376472939
-0.009074582357136264   -0.021737029381911344   -0.0004776865509999866
-0.012694248865207184   -0.016339603535384772   -0.00037424068678267383
-0.009577300849048263   -0.01641959768810803   -0.0003639776376472939
-0.012038535824217522   -0.021675226031388096   -0.0005645429344623195
-0.009074582357136264   -0.021737029381911344   -0.0004776865509999866
-0.009603609650635201   -0.01639092112767181   -0.00033341654988801577
-0.012020673063101683   -0.021654398659798655   -0.000507002516050643
-0.009093016814040494   -0.02171989236491773   -0.0004322439200236226
-0.009603609650635201   -0.01639092112767181   -0.00033341654988801577
-0.012694248865207184   -0.016339603535384772   -0.00037424068678267383
-0.012020673063101683   -0.021654398659798655   -0.000507002516050643
-0.012681110797127705   -0.016324346638236894   -0.00033396531428350274
-0.009093016814040494   -0.02171989236491773   -0.0004322439200236226
-0.011978816678682207   -0.021648961300786612   -0.0004447168364591879
-0.012681110797127705   -0.016324346638236894   -0.00033396531428350274
-0.012020673063101683   -0.021654398659798655   -0.000507002516050643
-0.009093016814040494   -0.02171989236491773   -0.0004322439200236226
-0.012681110797127705   -0.016324346638236894   -0.00033396531428350274
-0.009629748022554787   -0.01636544170693086   -0.00029992169219659353
-0.009603609650635201   -0.01639092112767181   -0.00033341654988801577
-0.009093016814040494   -0.02171989236491773   -0.0004322439200236226
-0.012681110797127705   -0.016324346638236894   -0.00033396531428350274
-0.009603609650635201   -0.01639092112767181   -0.00033341654988801577
-0.012020673063101683   -0.021654398659798655   -0.000507002516050643
0.0024152134113344576   -0.016599871582488487   -2.5933070988720426e-05
0.002171802000548049   -0.011087511699465844   6.498757343903426e-05
-0.0007082235260936283   -0.016572997755789787   -0.00014292378194609502
0.0023778607172615673   -0.016531654166694807   -2.4482535591419634e-05
0.002171802000548049   -0.011087511699465844   6.498757343903426e-05
-0.000979770006557963   -0.011036168224217761   -2.7340977920490113e-05
-0.0007082235260936283   -0.016572997755789787   -0.00014292378194609502
-0.001022813358221552   -0.010982650149988393   -5.075050642056422e-06
0.0023778607172615673   -0.016531654166694807   -2.4482535591419634e-05
-0.0007440139374030075   -0.016513698589785533   -0.00013246308848968176
-0.001022813358221552   -0.010982650149988393   -5.075050642056422e-06
-0.0007082235260936283   -0.016572997755789787   -0.00014292378194609502
0.0023778607172615673   -0.016531654166694807   -2.4482535591419634e-05
-0.001022813358221552   -0.010982650149988393   -5.075050642056422e-06
0.002104455712281705   -0.011022646524476027   9.231718126033568e-05
0.002171802000548049   -0.011087511699465844   6.498757343903426e-05
0.0023778607172615673   -0.016531654166694807   -2.4482535591419634e-05
-0.001022813358221552   -0.010982650149988393   -5.075050642056422e-06
0.002171802000548049   -0.011087511699465844   6.498757343903426e-05
-0.0007082235260936283   -0.016572997755789787   -0.00014292378194609502
0.0023778607172615673   -0.016531654166694807   -2.4482535591419634e-05
0.002104455712281705   -0.011022646524476027   9.231718126033568e-05
-0.0007440139374030075   -0.016513698589785533   -0.00013246308848968176
0.0023315226750376993   -0.016471072430617215   -1.6882413393561877e-05
0.002104455712281705   -0.011022646524476027   9.231718126033568e-05
-0.001022813358221552   -0.010982650149988393   -5.075050642056422e-06
-0.0007440139374030075   -0.016513698589785533   -0.00013246308848968176
-0.0010732405848324323   -0.010926263414801135   2.1211049845174613e-05
0.0023315226750376993   -0.016471072430617215   -1.6882413393561877e-05
-0.0007850379153500292   -0.01645797859523285   -0.00011898754347920035
-0.0010732405848324323   -0.010926263414801135   2.1211049845174613e-05
-0.0007440139374030075   -0.016513698589785533   -0.00013246308848968176
0.0023315226750376993   -0.016471072430617215   -1.6882413393561877e-05
-0.0010732405848324323   -0.010926263414801135   2.1211049845174613e-05
0.0020288839397591936   -0.010958461630043744   0.0001319189709838763
0.002104455712281705   -0.011022646524476027   9.231718126033568e-05
0.0023315226750376993   -0.016471072430617215   -1.6882413393561877e-05
-0.0010732405848324323   -0.010926263414801135   2.1211049845174613e-05
0.002104455712281705   -0.011022646524476027   9.231718126033568e-05
-0.0007440139374030075   -0.016513698589785533   -0.00013246308848968176
0.0023315226750376993   -0.016471072430617215   -1.6882413393561877e-05
0.0020288839397591936   -0.010958461630043744   0.0001319189709838763
-0.0007850379153500292   -0.01645797859523285   -0.00011898754347920035
0.002270311551378812   -0.016407890687815334   -3.4076983838667796e-06
0.0020288839397591936   -0.010958461630043744   0.0001319189709838763
-0.0010732405848324323   -0.010926263414801135   2.1211049845174613e-05
-0.0007850379153500292   -0.01645797859523285   -0.00011898754347920035
-0.001125488911792632   -0.010866480329436538   5.147548772320907e-05
0.002270311551378812   -0.016407890687815334   -3.4076983838667796e-06
-0.00083120371560486   -0.016405062484463225   -0.00010174347021289665
-0.001125488911792632   -0.010866480329436538   5.147548772320907e-05
-0.0007850379153500292   -0.01645797859523285   -0.00011898754347920035
0.002270311551378812   -0.016407890687815334   -3.4076983838667796e-06
-0.001125488911792632   -0.010866480329436538   5.147548772320907e-05
0.001936507631104907   -0.010879523745372521   0.00017555585969602507
0.0020288839397591936   -0.010958461630043744   0.0001319189709838763
0.002270311551378812   -0.016407890687815334   -3.4076983838667796e-06
-0.001125488911792632   -0.010866480329436538   5.147548772320907e-05
0.0020288839397591936   -0.010958461630043744   0.0001319189709838763
-0.0007850379153500292   -0.01645797859523285   -0.00011898754347920035
-0.0007082235260936283   -0.016572997755789787   -0.00014292378194609502
-0.000979770006557963   -0.011036168224217761   -2.7340977920490113e-05
-0.003667670610492962   -0.016541061488591382   -0.0002414130723620197
-0.0007440139374030075   -0.016513698589785533   -0.00013246308848968176
-0.000979770006557963   -0.011036168224217761   -2.7340977920490113e-05
-0.003946196072869953   -0.011022848703901161   -0.00011605111313661404
-0.003667670610492962   -0.016541061488591382   -0.0002414130723620197
-0.003985251291173472   -0.01097635532119843   -9.514794196012438e-05
-0.0007440139374030075   -0.016513698589785533   -0.00013246308848968176
-0.0037043391460790387   -0.01649169612832778   -0.0002249869240054244
-0.003985251291173472   -0.01097635532119843   -9.514794196012438e-05
-0.003667670610492962   -0.016541061488591382   -0.0002414130723620197
-0.0007440139374030075   -0.016513698589785533   -0.00013246308848968176
-0.003985251291173472   -0.01097635532119843   -9.514794196012438e-05
-0.001022813358221552   -0.010982650149988393   -5.075050642056422e-06
-0.000979770006557963   -0.011036168224217761   -2.7340977920490113e-05
-0.0007440139374030075   -0.016513698589785533   -0.00013246308848968176
-0.003985251291173472   -0.01097635532119843   -9.514794196012438e-05
-0.000979770006557963   -0.011036168224217761   -2.7340977920490113e-05
-0.003667670610492962   -0.016541061488591382   -0.0002414130723620197
-0.0007440139374030075   -0.016513698589785533   -0.00013246308848968176
-0.001022813358221552   -0.010982650149988393   -5.075050642056422e-06
-0.0037043391460790387   -0.01649169612832778   -0.0002249869240054244
-0.0007850379153500292   -0.01645797859523285   -0.00011898754347920035
-0.001022813358221552   -0.010982650149988393   -5.075050642056422e-06
-0.003985251291173472   -0.01097635532119843   -9.514794196012438e-05
-0.0037043391460790387   -0.01649169612832778   -0.0002249869240054244
-0.004025688642729173   -0.010928031153710051   -7.213540004966624e-05
-0.0007850379153500292   -0.01645797859523285   -0.00011898754347920035
-0.003741847505105923   -0.016445103455106063   -0.00020567934371760338
-0.004025688642729173   -0.010928031153710051   -7.213540004966624e-05
-0.0037043391460790387   -0.01649169612832778   -0.0002249869240054244
-0.0007850379153500292   -0.01645797859523285   -0.00011898754347920035
-0.004025688642729173   -0.010928031153710051   -7.213540004966624e-05
-0.0010732405848324323   -0.010926263414801135   2.1211049845174613e-05
-0.001022813358221552   -0.010982650149988393   -5.075050642056422e-06
-0.0007850379153500292   -0.01645797859523285   -0.00011898754347920035
-0.004025688642729173   -0.010928031153710051   -7.213540004966624e-05
-0.001022813358221552   -0.010982650149988393   -5.075050642056422e-06
-0.0037043391460790387   -0.01649169612832778   -0.0002249869240054244
-0.0007850379153500292   -0.01645797859523285   -0.00011898754347920035
-0.0010732405848324323   -0.010926263414801135   2.1211049845174613e-05
-0.003741847505105923   -0.016445103455106063   -0.00020567934371760338
-0.00083120371560486   -0.016405062484463225   -0.00010174347021289665
-0.0010732405848324323   -0.010926263414801135   2.1211049845174613e-05
-0.004025688642729173   -0.010928031153710051   -7.213540004966624e-05
-0.003741847505105923   -0.016445103455106063   -0.00020567934371760338
-0.00406782397217799   -0.010878791853341169   -4.660006622022369e-05
-0.00083120371560486   -0.016405062484463225   -0.00010174347021289665
-0.0037817699475647024   -0.016402030591052615   -0.00018346565459216604
-0.00406782397217799   -0.010878791853341169   -4.660006622022369e-05
-0.003741847505105923   -0.016445103455106063   -0.00020567934371760338
-0.00083120371560486   -0.016405062484463225   -0.00010174347021289665
-0.00406782397217799   -0.010878791853341169   -4.660006622022369e-05
-0.001125488911792632   -0.010866480329436538   5.147548772320907e-05
-0.0010732405848324323   -0.010926263414801135   2.1211049845174613e-05
-0.00083120371560486   -0.016405062484463225   -0.00010174347021289665
-0.00406782397217799   -0.010878791853341169   -4.660006622022369e-05
-0.0010732405848324323   -0.010926263414801135   2.1211049845174613e-05
-0.003741847505105923   -0.016445103455106063   -0.00020567934371760338
-0.003667670610492962   -0.016541061488591382   -0.0002414130723620197
-0.003946196072869953   -0.011022848703901161   -0.00011605111313661404
-0.006578652651856375   -0.016502482617313678   -0.00032474602161927717
-0.0037043391460790387   -0.01649169612832778   -0.0002249869240054244
-0.003946196072869953   -0.011022848703901161   -0.00011605111313661404
-0.006881244483219591   -0.01101910046228454   -0.0001960587369584976
-0.006578652651856375   -0.016502482617313678   -0.00032474602161927717
-0.006918653465840574   -0.01097848944895606   -0.00017595809452635675
-0.0037043391460790387   -0.01649169612832778   -0.0002249869240054244
-0.006615117662644669   -0.01646228920121659   -0.00030238295990222495
-0.006918653465840574   -0.01097848944895606   -0.00017595809452635675
-0.006578652651856375   -0.016502482617313678   -0.00032474602161927717
-0.0037043391460790387   -0.01649169612832778   -0.0002249869240054244
-0.006918653465840574   -0.01097848944895606   -0.00017595809452635675
-0.003985251291173472   -0.01097635532119843   -9.514794196012438e-05
-0.003946196072869953   -0.011022848703901161   -0.00011605111313661404
-0.0037043391460790387   -0.01649169612832778   -0.0002249869240054244
-0.006918653465840574   -0.01097848944895606   -0.00017595809452635675
-0.003946196072869953   -0.011022848703901161   -0.00011605111313661404
-0.006578652651856375   -0.016502482617313678   -0.00032474602161927717
-0.0037043391460790387   -0.01649169612832778   -0.0002249869240054244
-0.003985251291173472   -0.01097635532119843   -9.514794196012438e-05
-0.006615117662644669   -0.01646228920121659   -0.00030238295990222495
-0.003741847505105923   -0.016445103455106063   -0.00020567934371760338
-0.003985251291173472   -0.01097635532119843   -9.514794196012438e-05
-0.006918653465840574   -0.01097848944895606   -0.00017595809452635675
-0.006615117662644669   -0.01646228920121659   -0.00030238295990222495
-0.006954293741602515   -0.010937205350883002   -0.00015400698644000755
-0.003741847505105923   -0.016445103455106063   -0.00020567934371760338
-0.0066492058095738845   -0.01642501489532047   -0.0002772365917308565
-0.006954293741602515   -0.010937205350883002   -0.00015400698644000755
-0.006615117662644669   -0.01646228920121659   -0.00030238295990222495
-0.003741847505105923   -0.016445103455106063   -0.00020567934371760338
-0.006954293741602515   -0.010937205350883002   -0.00015400698644000755
-0.004025688642729173   -0.010928031153710051   -7.213540004966624e-05
-0.003985251291173472   -0.01097635532119843   -9.514794196012438e-05
-0.003741847505105923   -0.016445103455106063   -0.00020567934371760338
-0.006954293741602515   -0.010937205350883002   -0.00015400698644000755
-0.003985251291173472   -0.01097635532119843   -9.514794196012438e-05
-0.006615117662644669   -0.01646228920121659   -0.00030238295990222495
-0.003741847505105923   -0.016445103455106063   -0.00020567934371760338
-0.004025688642729173   -0.010928031153710051   -7.213540004966624e-05
-0.0066492058095738845   -0.01642501489532047   -0.0002772365917308565
-0.0037817699475647024   -0.016402030591052615   -0.00018346565459216604
-0.004025688642729173   -0.010928031153710051   -7.213540004966624e-05
-0.006954293741602515   -0.010937205350883002   -0.00015400698644000755
-0.0066492058095738845   -0.01642501489532047   -0.0002772365917308565
-0.006989579485897857   -0.010895003113097448   -0.00013030472538414306
-0.0037817699475647024   -0.016402030591052615   -0.00018346565459216604
-0.00668341646803314   -0.016390759034083942   -0.00024944285281383653
-0.006989579485897857   -0.010895003113097448   -0.00013030472538414306
-0.0066492058095738845   -0.01642501489532047   -0.0002772365917308565
-0.0037817699475647024   -0.016402030591052615   -0.00018346565459216604
-0.006989579485897857   -0.010895003113097448   -0.00013030472538414306
-0.00406782397217799   -0.010878791853341169   -4.660006622022369e-05
-0.004025688642729173   -0.010928031153710051   -7.213540004966624e-05
-0.0037817699475647024   -0.016402030591052615   -0.00018346565459216604
-0.006989579485897857   -0.010895003113097448   -0.00013030472538414306
-0.004025688642729173   -0.010928031153710051   -7.213540004966624e-05
-0.0066492058095738845   -0.01642501489532047   -0.0002772365917308565
-0.006578652651856375   -0.016502482617313678   -0.00032474602161927717
-0.006881244483219591   -0.01101910046228454   -0.0001960587369584976
-0.00954240610023124   -0.01645014554483183   -0.0003922056956180652
-0.006615117662644669   -0.01646228920121659   -0.00030238295990222495
-0.006881244483219591   -0.01101910046228454   -0.0001960587369584976
-0.009878611309398013   -0.011001825861194378   -0.00026291013218227634
-0.00954240610023124   -0.01645014554483183   -0.0003922056956180652
-0.009914271512059116   -0.01096898228523927   -0.0002437336519250525
-0.006615117662644669   -0.01646228920121659   -0.00030238295990222495
-0.009577300849048263   -0.01641959768810803   -0.0003639776376472939
-0.009914271512059116   -0.01096898228523927   -0.0002437336519250525
-0.00954240610023124   -0.01645014554483183   -0.0003922056956180652
-0.006615117662644669   -0.01646228920121659   -0.00030238295990222495
-0.009914271512059116   -0.01096898228523927   -0.0002437336519250525
-0.006918653465840574   -0.01097848944895606   -0.00017595809452635675
-0.006881244483219591   -0.01101910046228454   -0.0001960587369584976
-0.006615117662644669   -0.01646228920121659   -0.00030238295990222495
-0.009914271512059116   -0.01096898228523927   -0.0002437336519250525
-0.006881244483219591   -0.01101910046228454   -0.0001960587369584976
-0.00954240610023124   -0.01645014554483183   -0.0003922056956180652
-0.006615117662644669   -0.01646228920121659   -0.00030238295990222495
-0.006918653465840574   -0.01097848944895606   -0.00017595809452635675
-0.009577300849048263   -0.01641959768810803   -0.0003639776376472939
-0.0066492058095738845   -0.01642501489532047   -0.0002772365917308565
-0.006918653465840574   -0.01097848944895606   -0.00017595809452635675
-0.009914271512059116   -0.01096898228523927   -0.0002437336519250525
-0.009577300849048263   -0.01641959768810803   -0.0003639776376472939
-0.009944407257963592   -0.010934359044803166   -0.00022322568933438714
-0.0066492058095738845   -0.01642501489532047   -0.0002772365917308565
-0.009603609650635201   -0.01639092112767181   -0.00033341654988801577
-0.009944407257963592   -0.010934359044803166   -0.00022322568933438714
-0.009577300849048263   -0.01641959768810803   -0.0003639776376472939
-0.0066492058095738845   -0.01642501489532047   -0.0002772365917308565
-0.009944407257963592   -0.010934359044803166   -0.00022322568933438714
-0.006954293741602515   -0.010937205350883002   -0.00015400698644000755
-0.006918653465840574   -0.01097848944895606   -0.00017595809452635675
-0.0066492058095738845   -0.01642501489532047   -0.0002772365917308565
-0.009944407257963592   -0.010934359044803166   -0.00022322568933438714
-0.006918653465840574   -0.01097848944895606   -0.00017595809452635675
-0.009577300849048263   -0.01641959768810803   -0.0003639776376472939
-0.0066492058095738845   -0.01642501489532047   -0.0002772365917308565
-0.006954293741602515   -0.010937205350883002   -0.00015400698644000755
-0.009603609650635201   -0.01639092112767181   -0.00033341654988801577
-0.00668341646803314   -0.016390759034083942   -0.00024944285281383653
-0.006954293741602515   -0.010937205350883002   -0.00015400698644000755
-0.009944407257963592   -0.010934359044803166   -0.00022322568933438714
-0.009603609650635201   -0.01639092112767181   -0.00033341654988801577
-0.009972885430605904   -0.010898877766584885   -0.00020082291328250222
-0.00668341646803314   -0.016390759034083942   -0.00024944285281383653
-0.009629748022554787   -0.01636544170693086   -0.00029992169219659353
-0.009972885430605904   -0.010898877766584885   -0.00020082291328250222
-0.009603609650635201   -0.01639092112767181   -0.00033341654988801577
-0.00668341646803314   -0.016390759034083942   -0.00024944285281383653
-0.009972885430605904   -0.010898877766584885   -0.00020082291328250222
-0.006989579485897857   -0.010895003113097448   -0.00013030472538414306
-0.006954293741602515   -0.010937205350883002   -0.00015400698644000755
-0.00668341646803314   -0.016390759034083942   -0.00024944285281383653
-0.009972885430605904   -0.010898877766584885   -0.00020082291328250222
-0.006954293741602515   -0.010937205350883002   -0.00015400698644000755
-0.009603609650635201   -0.01639092112767181   -0.00033341654988801577
-0.00954240610023124   -0.01645014554483183   -0.0003922056956180652
-0.009878611309398013   -0.011001825861194378   -0.00026291013218227634
-0.012684991312119575   -0.01638799461431318   -0.0004418303430490214
-0.009577300849048263   -0.01641959768810803   -0.0003639776376472939
-0.009878611309398013   -0.011001825861194378   -0.00026291013218227634
-0.013020056468165833   -0.010973139037472567   -0.0003117987169693181
-0.012684991312119575   -0.01638799461431318   -0.0004418303430490214
-0.013041797841187567   -0.010945819708006734   -0.0002971618900330465
-0.009577300849048263   -0.01641959768810803   -0.0003639776376472939
-0.012689487982592515   -0.01636386042352223   -0.00041037911518488485
-0.013041797841187567   -0.010945819708006734   -0.0002971618900330465
-0.012684991312119575   -0.01638799461431318   -0.0004418303430490214
-0.009577300849048263   -0.01641959768810803   -0.0003639776376472939
-0.013041797841187567   -0.010945819708006734   -0.0002971618900330465
-0.009914271512059116   -0.01096898228523927   -0.0002437336519250525
-0.009878611309398013   -0.011001825861194378   -0.00026291013218227634
-0.009577300849048263   -0.01641959768810803   -0.0003639776376472939
-0.013041797841187567   -0.010945819708006734   -0.0002971618900330465
-0.009878611309398013   -0.011001825861194378   -0.00026291013218227634
-0.012684991312119575   -0.01638799461431318   -0.0004418303430490214
-0.009577300849048263   -0.01641959768810803   -0.0003639776376472939
-0.009914271512059116   -0.01096898228523927   -0.0002437336519250525
-0.012689487982592515   -0.01636386042352223   -0.00041037911518488485
-0.009603609650635201   -0.01639092112767181   -0.00033341654988801577
-0.009914271512059116   -0.01096898228523927   -0.0002437336519250525
-0.013041797841187567   -0.010945819708006734   -0.0002971618900330465
-0.012689487982592515   -0.01636386042352223   -0.00041037911518488485
-0.013061678103621797   -0.010914801782463556   -0.00027929422317687946
-0.009603609650635201   -0.01639092112767181   -0.00033341654988801577
-0.012694248865207184   -0.016339603535384772   -0.00037424068678267383
-0.013061678103621797   -0.010914801782463556   -0.00027929422317687946
-0.012689487982592515   -0.01636386042352223   -0.00041037911518488485
-0.009603609650635201   -0.01639092112767181   -0.00033341654988801577
-0.013061678103621797   -0.010914801782463556   -0.00027929422317687946
-0.009944407257963592   -0.010934359044803166   -0.00022322568933438714
-0.009914271512059116   -0.01096898228523927   -0.0002437336519250525
-0.009603609650635201   -0.01639092112767181   -0.00033341654988801577
-0.013061678103621797   -0.010914801782463556   -0.00027929422317687946
-0.009914271512059116   -0.01096898228523927   -0.0002437336519250525
-0.012689487982592515   -0.01636386042352223   -0.00041037911518488485
-0.009603609650635201   -0.01639092112767181   -0.00033341654988801577
-0.009944407257963592   -0.010934359044803166   -0.00022322568933438714
-0.012694248865207184   -0.016339603535384772   -0.00037424068678267383
-0.009629748022554787   -0.01636544170693086   -0.00029992169219659353
-0.009944407257963592   -0.010934359044803166   -0.00022322568933438714
-0.013061678103621797   -0.010914801782463556   -0.00027929422317687946
-0.012694248865207184   -0.016339603535384772   -0.00037424068678267383
-0.013070839785862813   -0.010886651296480488   -0.0002589835749115487
-0.009629748022554787   -0.01636544170693086   -0.00029992169219659353
-0.012681110797127705   -0.016324346638236894   -0.00033396531428350274
-0.013070839785862813   -0.010886651296480488   -0.0002589835749115487
-0.012694248865207184   -0.016339603535384772   -0.00037424068678267383
-0.009629748022554787   -0.01636544170693086   -0.00029992169219659353
-0.013070839785862813   -0.010886651296480488   -0.0002589835749115487
-0.009972885430605904   -0.010898877766584885   -0.00020082291328250222
-0.009944407257963592   -0.010934359044803166   -0.00022322568933438714
-0.009629748022554787   -0.01636544170693086   -0.00029992169219659353
-0.013070839785862813   -0.010886651296480488   -0.0002589835749115487
-0.009944407257963592   -0.010934359044803166   -0.00022322568933438714
-0.012694248865207184   -0.016339603535384772   -0.00037424068678267383
0.002171802000548049   -0.011087511699465844   6.498757343903426e-05
0.0015260488416521977   -0.005576458409584484   7.034078336600872e-05
-0.000979770006557963   -0.011036168224217761   -2.7340977920490113e-05
0.002104455712281705   -0.011022646524476027   9.231718126033568e-05
0.0015260488416521977   -0.005576458409584484   7.034078336600872e-05
-0.00141813991845251   -0.00550554152489625   3.805731804558293e-05
-0.000979770006557963   -0.011036168224217761   -2.7340977920490113e-05
-0.0014611406840119264   -0.005479218730074534   6.927617784718145e-05
0.002104455712281705   -0.011022646524476027   9.231718126033568e-05
-0.001022813358221552   -0.010982650149988393   -5.075050642056422e-06
-0.0014611406840119264   -0.005479218730074534   6.927617784718145e-05
-0.000979770006557963   -0.011036168224217761   -2.7340977920490113e-05
0.002104455712281705   -0.011022646524476027   9.231718126033568e-05
-0.0014611406840119264   -0.005479218730074534   6.927617784718145e-05
0.001391813220744438   -0.005507235865014361   0.00014734822389268935
0.0015260488416521977   -0.005576458409584484   7.034078336600872e-05
0.002104455712281705   -0.011022646524476027   9.231718126033568e-05
-0.0014611406840119264   -0.005479218730074534   6.927617784718145e-05
0.0015260488416521977   -0.005576458409584484   7.034078336600872e-05
-0.000979770006557963   -0.011036168224217761   -2.7340977920490113e-05
0.002104455712281705   -0.011022646524476027   9.231718126033568e-05
0.001391813220744438   -0.005507235865014361   0.00014734822389268935
-0.001022813358221552   -0.010982650149988393   -5.075050642056422e-06
0.0020288839397591936   -0.010958461630043744   0.0001319189709838763
0.001391813220744438   -0.005507235865014361   0.00014734822389268935
-0.0014611406840119264   -0.005479218730074534   6.927617784718145e-05
-0.001022813358221552   -0.010982650149988393   -5.075050642056422e-06
-0.0015179709810426412   -0.005431268861087147   0.00010727591855960721
0.0020288839397591936   -0.010958461630043744   0.0001319189709838763
-0.0010732405848324323   -0.010926263414801135   2.1211049845174613e-05
-0.0015179709810426412   -0.005431268861087147   0.00010727591855960721
-0.001022813358221552   -0.010982650149988393   -5.075050642056422e-06
0.0020288839397591936   -0.010958461630043744   0.0001319189709838763
-0.0015179709810426412   -0.005431268861087147   0.00010727591855960721
0.0013133491164649905   -0.0054511207170286095   0.00020463984420731322
0.001391813220744438   -0.005507235865014361   0.00014734822389268935
0.0020288839397591936   -0.010958461630043744   0.0001319189709838763
-0.0015179709810426412   -0.005431268861087147   0.00010727591855960721
0.001391813220744438   -0.005507235865014361   0.00014734822389268935
-0.001022813358221552   -0.010982650149988393   -5.075050642056422e-06
0.0020288839397591936   -0.010958461630043744   0.0001319189709838763
0.0013133491164649905   -0.0054511207170286095   0.00020463984420731322
-0.0010732405848324323   -0.010926263414801135   2.1211049845174613e-05
0.001936507631104907   -0.010879523745372521   0.00017555585969602507
0.0013133491164649905   -0.0054511207170286095   0.00020463984420731322
-0.0015179709810426412   -0.005431268861087147   0.00010727591855960721
-0.0010732405848324323   -0.010926263414801135   2.1211049845174613e-05
-0.0015658893702411164   -0.0053799045082778005   0.00014070752898142017
0.001936507631104907   -0.010879523745372521   0.00017555585969602507
-0.001125488911792632   -0.010866480329436538   5.147548772320907e-05
-0.0015658893702411164   -0.0053799045082778005   0.00014070752898142017
-0.0010732405848324323   -0.010926263414801135   2.1211049845174613e-05
0.001936507631104907   -0.010879523745372521   0.00017555585969602507
-0.0015658893702411164   -0.0053799045082778005   0.00014070752898142017
0.001212566111879056   -0.005364883185212726   0.0002703236838027428
0.0013133491164649905   -0.0054511207170286095   0.00020463984420731322
0.001936507631104907   -0.010879523745372521   0.00017555585969602507
-0.0015658893702411164   -0.0053799045082778005   0.00014070752898142017
0.0013133491164649905   -0.0054511207170286095   0.00020463984420731322
-0.0010732405848324323   -0.010926263414801135   2.1211049845174613e-05
-0.000979770006557963   -0.011036168224217761   -2.7340977920490113e-05
-0.00141813991845251   -0.00550554152489625   3.805731804558293e-05
-0.003946196072869953   -0.011022848703901161   -0.00011605111313661404
-0.001022813358221552   -0.010982650149988393   -5.075050642056422e-06
-0.00141813991845251   -0.00550554152489625   3.805731804558293e-05
-0.004216334971912143   -0.005587911084839468   -3.180034327122679e-05
-0.003946196072869953   -0.011022848703901161   -0.00011605111313661404
-0.004256210013989418   -0.0055469040870999905   -9.572263008521658e-06
-0.001022813358221552   -0.010982650149988393   -5.075050642056422e-06
-0.003985251291173472   -0.01097635532119843   -9.514794196012438e-05
-0.004256210013989418   -0.0055469040870999905   -9.572263008521658e-06
-0.003946196072869953   -0.011022848703901161   -0.00011605111313661404
-0.001022813358221552   -0.010982650149988393   -5.075050642056422e-06
-0.004256210013989418   -0.0055469040870999905   -9.572263008521658e-06
-0.0014611406840119264   -0.005479218730074534   6.927617784718145e-05
-0.00141813991845251   -0.00550554152489625   3.805731804558293e-05
-0.001022813358221552   -0.010982650149988393   -5.075050642056422e-06
-0.004256210013989418   -0.0055469040870999905   -9.572263008521658e-06
-0.00141813991845251   -0.00550554152489625   3.805731804558293e-05
-0.003946196072869953   -0.011022848703901161   -0.00011605111313661404
-0.001022813358221552   -0.010982650149988393   -5.075050642056422e-06
-0.0014611406840119264   -0.005479218730074534   6.927617784718145e-05
-0.003985251291173472   -0.01097635532119843   -9.514794196012438e-05
-0.0010732405848324323   -0.010926263414801135   2.1211049845174613e-05
-0.0014611406840119264   -0.005479218730074534   6.927617784718145e-05
-0.004256210013989418   -0.0055469040870999905   -9.572263008521658e-06
-0.003985251291173472   -0.01097635532119843   -9.514794196012438e-05
-0.004298100481583715   -0.005500408978270769   1.4028603194832155e-05
-0.0010732405848324323   -0.010926263414801135   2.1211049845174613e-05
-0.004025688642729173   -0.010928031153710051   -7.213540004966624e-05
-0.004298100481583715   -0.005500408978270769   1.4028603194832155e-05
-0.003985251291173472   -0.01097635532119843   -9.514794196012438e-05
-0.0010732405848324323   -0.010926263414801135   2.1211049845174613e-05
-0.004298100481583715   -0.005500408978270769   1.4028603194832155e-05
-0.0015179709810426412   -0.005431268861087147   0.00010727591855960721
-0.0014611406840119264   -0.005479218730074534   6.927617784718145e-05
-0.0010732405848324323   -0.010926263414801135   2.1211049845174613e-05
-0.004298100481583715   -0.005500408978270769   1.4028603194832155e-05
-0.0014611406840119264   -0.005479218730074534   6.927617784718145e-05
-0.003985251291173472   -0.01097635532119843   -9.514794196012438e-05
-0.0010732405848324323   -0.010926263414801135   2.1211049845174613e-05
-0.0015179709810426412   -0.005431268861087147   0.00010727591855960721
-0.004025688642729173   -0.010928031153710051   -7.213540004966624e-05
-0.001125488911792632   -0.010866480329436538   5.147548772320907e-05
-0.0015179709810426412   -0.005431268861087147   0.00010727591855960721
-0.004298100481583715   -0.005500408978270769   1.4028603194832155e-05
-0.004025688642729173   -0.010928031153710051   -7.213540004966624e-05
-0.004338043175466828   -0.005449448066474163   4.010220080216348e-05
-0.001125488911792632   -0.010866480329436538   5.147548772320907e-05
-0.00406782397217799   -0.010878791853341169   -4.660006622022369e-05
-0.004338043175466828   -0.005449448066474163   4.010220080216348e-05
-0.004025688642729173   -0.010928031153710051   -7.213540004966624e-05
-0.001125488911792632   -0.010866480329436538   5.147548772320907e-05
-0.004338043175466828   -0.005449448066474163   4.010220080216348e-05
-0.0015658893702411164   -0.0053799045082778005   0.00014070752898142017
-0.0015179709810426412   -0.005431268861087147   0.00010727591855960721
-0.001125488911792632   -0.010866480329436538   5.147548772320907e-05
-0.004338043175466828   -0.005449448066474163   4.010220080216348e-05
-0.0015179709810426412   -0.005431268861087147   0.00010727591855960721
-0.004025688642729173   -0.010928031153710051   -7.213540004966624e-05
-0.003946196072869953   -0.011022848703901161   -0.00011605111313661404
-0.004216334971912143   -0.005587911084839468   -3.180034327122679e-05
-0.006881244483219591   -0.01101910046228454   -0.0001960587369584976
-0.003985251291173472   -0.01097635532119843   -9.514794196012438e-05
-0.004216334971912143   -0.005587911084839468   -3.180034327122679e-05
-0.007081428646110768   -0.005652284060075905   -0.00010971322760584198
-0.006881244483219591   -0.01101910046228454   -0.0001960587369584976
-0.00711736531093862   -0.005610126971178057   -9.239491667829918e-05
-0.003985251291173472   -0.01097635532119843   -9.514794196012438e-05
-0.006918653465840574   -0.01097848944895606   -0.00017595809452635675
-0.00711736531093862   -0.005610126971178057   -9.239491667829918e-05
-0.006881244483219591   -0.01101910046228454   -0.0001960587369584976
-0.003985251291173472   -0.01097635532119843   -9.514794196012438e-05
-0.00711736531093862   -0.005610126971178057   -9.239491667829918e-05
-0.004256210013989418   -0.0055469040870999905   -9.572263008521658e-06
-0.004216334971912143   -0.005587911084839468   -3.180034327122679e-05
-0.003985251291173472   -0.01097635532119843   -9.514794196012438e-05
-0.00711736531093862   -0.005610126971178057   -9.239491667829918e-05
-0.004216334971912143   -0.005587911084839468   -3.180034327122679e-05
-0.006881244483219591   -0.01101910046228454   -0.0001960587369584976
-0.003985251291173472   -0.01097635532119843   -9.514794196012438e-05
-0.004256210013989418   -0.0055469040870999905   -9.572263008521658e-06
-0.006918653465840574   -0.01097848944895606   -0.00017595809452635675
-0.004025688642729173   -0.010928031153710051   -7.213540004966624e-05
-0.004256210013989418   -0.0055469040870999905   -9.572263008521658e-06
-0.00711736531093862   -0.005610126971178057   -9.239491667829918e-05
-0.006918653465840574   -0.01097848944895606   -0.00017595809452635675
-0.007151849252212797   -0.005565515988945492   -7.507832394455174e-05
-0.004025688642729173   -0.010928031153710051   -7.213540004966624e-05
-0.006954293741602515   -0.010937205350883002   -0.00015400698644000755
-0.007151849252212797   -0.005565515988945492   -7.507832394455174e-05
-0.006918653465840574   -0.01097848944895606   -0.00017595809452635675
-0.004025688642729173   -0.010928031153710051   -7.213540004966624e-05
-0.007151849252212797   -0.005565515988945492   -7.507832394455174e-05
-0.004298100481583715   -0.005500408978270769   1.4028603194832155e-05
-0.004256210013989418   -0.0055469040870999905   -9.572263008521658e-06
-0.004025688642729173   -0.010928031153710051   -7.213540004966624e-05
-0.007151849252212797   -0.005565515988945492   -7.507832394455174e-05
-0.004256210013989418   -0.0055469040870999905   -9.572263008521658e-06
-0.006918653465840574   -0.01097848944895606   -0.00017595809452635675
-0.004025688642729173   -0.010928031153710051   -7.213540004966624e-05
-0.004298100481583715   -0.005500408978270769   1.4028603194832155e-05
-0.006954293741602515   -0.010937205350883002   -0.00015400698644000755
-0.00406782397217799   -0.010878791853341169   -4.660006622022369e-05
-0.004298100481583715   -0.005500408978270769   1.4028603194832155e-05
-0.007151849252212797   -0.005565515988945492   -7.507832394455174e-05
-0.006954293741602515   -0.010937205350883002   -0.00015400698644000755
-0.007183705449790311   -0.005517148462996144   -5.616794423082512e-05
-0.00406782397217799   -0.010878791853341169   -4.660006622022369e-05
-0.006989579485897857   -0.010895003113097448   -0.00013030472538414306
-0.007183705449790311   -0.005517148462996144   -5.616794423082512e-05
-0.006954293741602515   -0.010937205350883002   -0.00015400698644000755
-0.00406782397217799   -0.010878791853341169   -4.660006622022369e-05
-0.007183705449790311   -0.005517148462996144   -5.616794423082512e-05
-0.004338043175466828   -0.005449448066474163   4.010220080216348e-05
-0.004298100481583715   -0.005500408978270769   1.4028603194832155e-05
-0.00406782397217799   -0.010878791853341169   -4.660006622022369e-05
-0.007183705449790311   -0.005517148462996144   -5.616794423082512e-05
-0.004298100481583715   -0.005500408978270769   1.4028603194832155e-05
-0.006954293741602515   -0.010937205350883002   -0.00015400698644000755
-0.006881244483219591   -0.01101910046228454   -0.0001960587369584976
-0.007081428646110768   -0.005652284060075905   -0.00010971322760584198
-0.009878611309398013   -0.011001825861194378   -0.00026291013218227634
-0.006918653465840574   -0.01097848944895606   -0.00017595809452635675
-0.007081428646110768   -0.005652284060075905   -0.00010971322760584198
-0.01004721215385285   -0.00567878591175797   -0.00018152628075026868
-0.009878611309398013   -0.011001825861194378   -0.00026291013218227634
-0.010079615091416043   -0.005641068064092066   -0.00016882466925622415
-0.006918653465840574   -0.01097848944895606   -0.00017595809452635675
-0.009914271512059116   -0.01096898228523927   -0.0002437336519250525
-0.010079615091416043   -0.005641068064092066   -0.00016882466925622415
-0.009878611309398013   -0.011001825861194378   -0.00026291013218227634
-0.006918653465840574   -0.01097848944895606   -0.00017595809452635675
-0.010079615091416043   -0.005641068064092066   -0.00016882466925622415
-0.00711736531093862   -0.005610126971178057   -9.239491667829918e-05
-0.007081428646110768   -0.005652284060075905   -0.00010971322760584198
-0.006918653465840574   -0.01097848944895606   -0.00017595809452635675
-0.010079615091416043   -0.005641068064092066   -0.00016882466925622415
-0.007081428646110768   -0.005652284060075905   -0.00010971322760584198
-0.009878611309398013   -0.011001825861194378   -0.00026291013218227634
-0.006918653465840574   -0.01097848944895606   -0.00017595809452635675
-0.00711736531093862   -0.005610126971178057   -9.239491667829918e-05
-0.009914271512059116   -0.01096898228523927   -0.0002437336519250525
-0.006954293741602515   -0.010937205350883002   -0.00015400698644000755
-0.00711736531093862   -0.005610126971178057   -9.239491667829918e-05
-0.010079615091416043   -0.005641068064092066   -0.00016882466925622415
-0.009914271512059116   -0.01096898228523927   -0.0002437336519250525
-0.010108495036059638   -0.005599871079149203   -0.0001564351880106997
-0.006954293741602515   -0.010937205350883002   -0.00015400698644000755
-0.009944407257963592   -0.010934359044803166   -0.00022322568933438714
-0.010108495036059638   -0.005599871079149203   -0.0001564351880106997
-0.009914271512059116   -0.01096898228523927   -0.0002437336519250525
-0.006954293741602515   -0.010937205350883002   -0.00015400698644000755
-0.010108495036059638   -0.005599871079149203   -0.0001564351880106997
-0.007151849252212797   -0.005565515988945492   -7.507832394455174e-05
-0.00711736531093862   -0.005610126971178057   -9.239491667829918e-05
-0.006954293741602515   -0.010937205350883002   -0.00015400698644000755
-0.010108495036059638   -0.005599871079149203   -0.0001564351880106997
-0.00711736531093862   -0.005610126971178057   -9.239491667829918e-05
-0.009914271512059116   -0.01096898228523927   -0.0002437336519250525
-0.006954293741602515   -0.010937205350883002   -0.00015400698644000755
-0.007151849252212797   -0.005565515988945492   -7.507832394455174e-05
-0.009944407257963592   -0.010934359044803166   -0.00022322568933438714
-0.006989579485897857   -0.010895003113097448   -0.00013030472538414306
-0.007151849252212797   -0.005565515988945492   -7.507832394455174e-05
-0.010108495036059638   -0.005599871079149203   -0.0001564351880106997
-0.009944407257963592   -0.010934359044803166   -0.00022322568933438714
-0.010134667734629793   -0.005555960520848548   -0.00014361943073646776
-0.006989579485897857   -0.010895003113097448   -0.00013030472538414306
-0.009972885430605904   -0.010898877766584885   -0.00020082291328250222
-0.010134667734629793   -0.005555960520848548   -0.00014361943073646776
-0.009944407257963592   -0.010934359044803166   -0.00022322568933438714
-0.006989579485897857   -0.010895003113097448   -0.00013030472538414306
-0.010134667734629793   -0.005555960520848548   -0.00014361943073646776
-0.007183705449790311   -0.005517148462996144   -5.616794423082512e-05
-0.007151849252212797   -0.005565515988945492   -7.507832394455174e-05
-0.006989579485897857   -0.010895003113097448   -0.00013030472538414306
-0.010134667734629793   -0.005555960520848548   -0.00014361943073646776
-0.007151849252212797   -0.005565515988945492   -7.507832394455174e-05
-0.009944407257963592   -0.010934359044803166   -0.00022322568933438714
-0.009878611309398013   -0.011001825861194378   -0.00026291013218227634
-0.01004721215385285   -0.00567878591175797   -0.00018152628075026868
-0.013020056468165833   -0.010973139037472567   -0.0003117987169693181
-0.009914271512059116   -0.01096898228523927   -0.0002437336519250525
-0.01004721215385285   -0.00567878591175797   -0.00018152628075026868
-0.013120193124632888   -0.005681610233922301   -0.00024075875099378464
-0.013020056468165833   -0.010973139037472567   -0.0003117987169693181
-0.013147908049869001   -0.005645065024461903   -0.00023515737327100373
-0.009914271512059116   -0.01096898228523927   -0.0002437336519250525
-0.013041797841187567   -0.010945819708006734   -0.0002971618900330465
-0.013147908049869001   -0.005645065024461903   -0.00023515737327100373
-0.013020056468165833   -0.010973139037472567   -0.0003117987169693181
-0.009914271512059116   -0.01096898228523927   -0.0002437336519250525
-0.013147908049869001   -0.005645065024461903   -0.00023515737327100373
-0.010079615091416043   -0.005641068064092066   -0.00016882466925622415
-0.01004721215385285   -0.00567878591175797   -0.00018152628075026868
-0.009914271512059116   -0.01096898228523927   -0.0002437336519250525
-0.013147908049869001   -0.005645065024461903   -0.00023515737327100373
-0.01004721215385285   -0.00567878591175797   -0.00018152628075026868
-0.013020056468165833   -0.010973139037472567   -0.0003117987169693181
-0.009914271512059116   -0.01096898228523927   -0.0002437336519250525
-0.010079615091416043   -0.005641068064092066   -0.00016882466925622415
-0.013041797841187567   -0.010945819708006734   -0.0002971618900330465
-0.009944407257963592   -0.010934359044803166   -0.00022322568933438714
-0.010079615091416043   -0.005641068064092066   -0.00016882466925622415
-0.013147908049869001   -0.005645065024461903   -0.00023515737327100373
-0.013041797841187567   -0.010945819708006734   -0.0002971618900330465
-0.013172738353396024   -0.005605435833892242   -0.00022857876493071784
-0.009944407257963592   -0.010934359044803166   -0.00022322568933438714
-0.013061678103621797   -0.010914801782463556   -0.00027929422317687946
-0.013172738353396024   -0.005605435833892242   -0.00022857876493071784
-0.013041797841187567   -0.010945819708006734   -0.0002971618900330465
-0.009944407257963592   -0.010934359044803166   -0.00022322568933438714
-0.013172738353396024   -0.005605435833892242   -0.00022857876493071784
-0.010108495036059638   -0.005599871079149203   -0.0001564351880106997
-0.010079615091416043   -0.005641068064092066   -0.00016882466925622415
-0.009944407257963592   -0.010934359044803166   -0.00022322568933438714
-0.013172738353396024   -0.005605435833892242   -0.00022857876493071784
-0.010079615091416043   -0.005641068064092066   -0.00016882466925622415
-0.013041797841187567   -0.010945819708006734   -0.0002971618900330465
-0.009944407257963592   -0.010934359044803166   -0.00022322568933438714
-0.010108495036059638   -0.005599871079149203   -0.0001564351880106997
-0.013061678103621797   -0.010914801782463556   -0.00027929422317687946
-0.009972885430605904   -0.010898877766584885   -0.00020082291328250222
-0.010108495036059638   -0.005599871079149203   -0.0001564351880106997
-0.013172738353396024   -0.005605435833892242   -0.00022857876493071784
-0.013061678103621797   -0.010914801782463556   -0.00027929422317687946
-0.013193456759522429   -0.0055634944385097645   -0.00022236598218593973
-0.009972885430605904   -0.010898877766584885   -0.00020082291328250222
-0.013070839785862813   -0.010886651296480488   -0.0002589835749115487
-0.013193456759522429   -0.0055634944385097645   -0.00022236598218593973
-0.013061678103621797   -0.010914801782463556   -0.00027929422317687946
-0.009972885430605904   -0.010898877766584885   -0.00020082291328250222
-0.013193456759522429   -0.0055634944385097645   -0.00022236598218593973
-0.010134667734629793   -0.005555960520848548   -0.00014361943073646776
-0.010108495036059638   -0.005599871079149203   -0.0001564351880106997
-0.009972885430605904   -0.010898877766584885   -0.00020082291328250222
-0.013193456759522429   -0.0055634944385097645   -0.00022236598218593973
-0.010108495036059638   -0.005599871079149203   -0.0001564351880106997
-0.013061678103621797   -0.010914801782463556   -0.00027929422317687946
0.0015260488416521977   -0.005576458409584484   7.034078336600872e-05
0.0   0.0   0.0
-0.00141813991845251   -0.00550554152489625   3.805731804558293e-05
0.001391813220744438   -0.005507235865014361   0.00014734822389268935
0.0   0.0   0.0
-0.0017751095421517766   -0.0004588419812407205   -1.2880643876139592e-05
-0.00141813991845251   -0.00550554152489625   3.805731804558293e-05
-0.0018813552508710825   -0.00035835904379996863   4.915841968898911e-05
0.001391813220744438   -0.005507235865014361   0.00014734822389268935
-0.0014611406840119264   -0.005479218730074534   6.927617784718145e-05
-0.0018813552508710825   -0.00035835904379996863   4.915841968898911e-05
-0.00141813991845251   -0.00550554152489625   3.805731804558293e-05
0.001391813220744438   -0.005507235865014361   0.00014734822389268935
-0.0018813552508710825   -0.00035835904379996863   4.915841968898911e-05
0.0   0.0   0.0
0.0   0.0   0.0
0.001391813220744438   -0.005507235865014361   0.00014734822389268935
-0.0018813552508710825   -0.00035835904379996863   4.915841968898911e-05
0.0   0.0   0.0
-0.00141813991845251   -0.00550554152489625   3.805731804558293e-05
0.001391813220744438   -0.005507235865014361   0.00014734822389268935
0.0   0.0   0.0
-0.0014611406840119264   -0.005479218730074534   6.927617784718145e-05
0.0013133491164649905   -0.0054511207170286095   0.00020463984420731322
0.0   0.0   0.0
-0.0018813552508710825   -0.00035835904379996863   4.915841968898911e-05
-0.0014611406840119264   -0.005479218730074534   6.927617784718145e-05
-0.0019482989342370096   -0.000310170837888637   8.526448720344255e-05
0.0013133491164649905   -0.0054511207170286095   0.00020463984420731322
-0.0015179709810426412   -0.005431268861087147   0.00010727591855960721
-0.0019482989342370096   -0.000310170837888637   8.526448720344255e-05
-0.0014611406840119264   -0.005479218730074534   6.927617784718145e-05
0.0013133491164649905   -0.0054511207170286095   0.00020463984420731322
-0.0019482989342370096   -0.000310170837888637   8.526448720344255e-05
0.0   0.0   0.0
0.0   0.0   0.0
0.0013133491164649905   -0.0054511207170286095   0.00020463984420731322
-0.0019482989342370096   -0.000310170837888637   8.526448720344255e-05
0.0   0.0   0.0
-0.0014611406840119264   -0.005479218730074534   6.927617784718145e-05
0.0013133491164649905   -0.0054511207170286095   0.00020463984420731322
0.0   0.0   0.0
-0.0015179709810426412   -0.005431268861087147   0.00010727591855960721
0.001212566111879056   -0.005364883185212726   0.0002703236838027428
0.0   0.0   0.0
-0.0019482989342370096   -0.000310170837888637   8.526448720344255e-05
-0.0015179709810426412   -0.005431268861087147   0.00010727591855960721
-0.002038513612473222   -0.00024602969214007056   0.0001267645415195091
0.001212566111879056   -0.005364883185212726   0.0002703236838027428
-0.0015658893702411164   -0.0053799045082778005   0.00014070752898142017
-0.002038513612473222   -0.00024602969214007056   0.0001267645415195091
-0.0015179709810426412   -0.005431268861087147   0.00010727591855960721
0.001212566111879056   -0.005364883185212726   0.0002703236838027428
-0.002038513612473222   -0.00024602969214007056   0.0001267645415195091
0.0   0.0   0.0
0.0   0.0   0.0
0.001212566111879056   -0.005364883185212726   0.0002703236838027428
-0.002038513612473222   -0.00024602969214007056   0.0001267645415195091
0.0   0.0   0.0
-0.0015179709810426412   -0.005431268861087147   0.00010727591855960721
-0.00141813991845251   -0.00550554152489625   3.805731804558293e-05
-0.0017751095421517766   -0.0004588419812407205   -1.2880643876139592e-05
-0.004216334971912143   -0.005587911084839468   -3.180034327122679e-05
-0.0014611406840119264   -0.005479218730074534   6.927617784718145e-05
-0.0017751095421517766   -0.0004588419812407205   -1.2880643876139592e-05
-0.004340159131196073   -0.0006042359463307674   -9.133336698483251e-06
-0.004216334971912143   -0.005587911084839468   -3.180034327122679e-05
-0.004395253540729277   -0.0005498084600366664   7.164886508964129e-06
-0.0014611406840119264   -0.005479218730074534   6.927617784718145e-05
-0.004256210013989418   -0.0055469040870999905   -9.572263008521658e-06
-0.004395253540729277   -0.0005498084600366664   7.164886508964129e-06
-0.004216334971912143   -0.005587911084839468   -3.180034327122679e-05
-0.0014611406840119264   -0.005479218730074534   6.927617784718145e-05
-0.004395253540729277   -0.0005498084600366664   7.164886508964129e-06
-0.0018813552508710825   -0.00035835904379996863   4.915841968898911e-05
-0.0017751095421517766   -0.0004588419812407205   -1.2880643876139592e-05
-0.0014611406840119264   -0.005479218730074534   6.927617784718145e-05
-0.004395253540729277   -0.0005498084600366664   7.164886508964129e-06
-0.0017751095421517766   -0.0004588419812407205   -1.2880643876139592e-05
-0.004216334971912143   -0.005587911084839468   -3.180034327122679e-05
-0.0014611406840119264   -0.005479218730074534   6.927617784718145e-05
-0.0018813552508710825   -0.00035835904379996863   4.915841968898911e-05
-0.004256210013989418   -0.0055469040870999905   -9.572263008521658e-06
-0.0015179709810426412   -0.005431268861087147   0.00010727591855960721
-0.0018813552508710825   -0.00035835904379996863   4.915841968898911e-05
-0.004395253540729277   -0.0005498084600366664   7.164886508964129e-06
-0.004256210013989418   -0.0055469040870999905   -9.572263008521658e-06
-0.004450238446884798   -0.00048599584497884186   3.6059739648605847e-05
-0.0015179709810426412   -0.005431268861087147   0.00010727591855960721
-0.004298100481583715   -0.005500408978270769   1.4028603194832155e-05
-0.004450238446884798   -0.00048599584497884186   3.6059739648605847e-05
-0.004256210013989418   -0.0055469040870999905   -9.572263008521658e-06
-0.0015179709810426412   -0.005431268861087147   0.00010727591855960721
-0.004450238446884798   -0.00048599584497884186   3.6059739648605847e-05
-0.0019482989342370096   -0.000310170837888637   8.526448720344255e-05
-0.0018813552508710825   -0.00035835904379996863   4.915841968898911e-05
-0.0015179709810426412   -0.005431268861087147   0.00010727591855960721
-0.004450238446884798   -0.00048599584497884186   3.6059739648605847e-05
-0.0018813552508710825   -0.00035835904379996863   4.915841968898911e-05
-0.004256210013989418   -0.0055469040870999905   -9.572263008521658e-06
-0.0015179709810426412   -0.005431268861087147   0.00010727591855960721
-0.0019482989342370096   -0.000310170837888637   8.526448720344255e-05
-0.004298100481583715   -0.005500408978270769   1.4028603194832155e-05
-0.0015658893702411164   -0.0053799045082778005   0.00014070752898142017
-0.0019482989342370096   -0.000310170837888637   8.526448720344255e-05
-0.004450238446884798   -0.00048599584497884186   3.6059739648605847e-05
-0.004298100481583715   -0.005500408978270769   1.4028603194832155e-05
-0.004511601802210044   -0.00041192232908741027   6.391348376498153e-05
-0.0015658893702411164   -0.0053799045082778005   0.00014070752898142017
-0.004338043175466828   -0.005449448066474163   4.010220080216348e-05
-0.004511601802210044   -0.00041192232908741027   6.391348376498153e-05
-0.004298100481583715   -0.005500408978270769   1.4028603194832155e-05
-0.0015658893702411164   -0.0053799045082778005   0.00014070752898142017
-0.004511601802210044   -0.00041192232908741027   6.391348376498153e-05
-0.002038513612473222   -0.00024602969214007056   0.0001267645415195091
-0.0019482989342370096   -0.000310170837888637   8.526448720344255e-05
-0.0015658893702411164   -0.0053799045082778005   0.00014070752898142017
-0.004511601802210044   -0.00041192232908741027   6.391348376498153e-05
-0.0019482989342370096   -0.000310170837888637   8.526448720344255e-05
-0.004298100481583715   -0.005500408978270769   1.4028603194832155e-05
-0.004216334971912143   -0.005587911084839468   -3.180034327122679e-05
-0.004340159131196073   -0.0006042359463307674   -9.133336698483251e-06
-0.007081428646110768   -0.005652284060075905   -0.00010971322760584198
-0.004256210013989418   -0.0055469040870999905   -9.572263008521658e-06
-0.004340159131196073   -0.0006042359463307674   -9.133336698483251e-06
-0.007150836900805754   -0.0006466399002436449   -5.734479493447988e-05
-0.007081428646110768   -0.005652284060075905   -0.00010971322760584198
-0.0071844549345721756   -0.0006047277617088907   -5.266241159602273e-05
-0.004256210013989418   -0.0055469040870999905   -9.572263008521658e-06
-0.00711736531093862   -0.005610126971178057   -9.239491667829918e-05
-0.0071844549345721756   -0.0006047277617088907   -5.266241159602273e-05
-0.007081428646110768   -0.005652284060075905   -0.00010971322760584198
-0.004256210013989418   -0.0055469040870999905   -9.572263008521658e-06
-0.0071844549345721756   -0.0006047277617088907   -5.266241159602273e-05
-0.004395253540729277   -0.0005498084600366664   7.164886508964129e-06
-0.004340159131196073   -0.0006042359463307674   -9.133336698483251e-06
-0.004256210013989418   -0.0055469040870999905   -9.572263008521658e-06
-0.0071844549345721756   -0.0006047277617088907   -5.266241159602273e-05
-0.004340159131196073   -0.0006042359463307674   -9.133336698483251e-06
-0.007081428646110768   -0.005652284060075905   -0.00010971322760584198
-0.004256210013989418   -0.0055469040870999905   -9.572263008521658e-06
-0.004395253540729277   -0.0005498084600366664   7.164886508964129e-06
-0.00711736531093862   -0.005610126971178057   -9.239491667829918e-05
-0.004298100481583715   -0.005500408978270769   1.4028603194832155e-05
-0.004395253540729277   -0.0005498084600366664   7.164886508964129e-06
-0.0071844549345721756   -0.0006047277617088907   -5.266241159602273e-05
-0.00711736531093862   -0.005610126971178057   -9.239491667829918e-05
-0.007219445345301937   -0.0005558187124198695   -4.454124099888807e-05
-0.004298100481583715   -0.005500408978270769   1.4028603194832155e-05
-0.007151849252212797   -0.005565515988945492   -7.507832394455174e-05
-0.007219445345301937   -0.0005558187124198695   -4.454124099888807e-05
-0.00711736531093862   -0.005610126971178057   -9.239491667829918e-05
-0.004298100481583715   -0.005500408978270769   1.4028603194832155e-05
-0.007219445345301937   -0.0005558187124198695   -4.454124099888807e-05
-0.004450238446884798   -0.00048599584497884186   3.6059739648605847e-05
-0.004395253540729277   -0.0005498084600366664   7.164886508964129e-06
-0.004298100481583715   -0.005500408978270769   1.4028603194832155e-05
-0.007219445345301937   -0.0005558187124198695   -4.454124099888807e-05
-0.004395253540729277   -0.0005498084600366664   7.164886508964129e-06
-0.00711736531093862   -0.005610126971178057   -9.239491667829918e-05
-0.004298100481583715   -0.005500408978270769   1.4028603194832155e-05
-0.004450238446884798   -0.00048599584497884186   3.6059739648605847e-05
-0.007151849252212797   -0.005565515988945492   -7.507832394455174e-05
-0.004338043175466828   -0.005449448066474163   4.010220080216348e-05
-0.004450238446884798   -0.00048599584497884186   3.6059739648605847e-05
-0.007219445345301937   -0.0005558187124198695   -4.454124099888807e-05
-0.007151849252212797   -0.005565515988945492   -7.507832394455174e-05
-0.007253039354033835   -0.0004958734986477963   -3.379468151086332e-05
-0.004338043175466828   -0.005449448066474163   4.010220080216348e-05
-0.007183705449790311   -0.005517148462996144   -5.616794423082512e-05
-0.007253039354033835   -0.0004958734986477963   -3.379468151086332e-05
-0.007151849252212797   -0.005565515988945492   -7.507832394455174e-05
-0.004338043175466828   -0.005449448066474163   4.010220080216348e-05
-0.007253039354033835   -0.0004958734986477963   -3.379468151086332e-05
-0.004511601802210044   -0.00041192232908741027   6.391348376498153e-05
-0.004450238446884798   -0.00048599584497884186   3.6059739648605847e-05
-0.004338043175466828   -0.005449448066474163   4.010220080216348e-05
-0.007253039354033835   -0.0004958734986477963   -3.379468151086332e-05
-0.004450238446884798   -0.00048599584497884186   3.6059739648605847e-05
-0.007151849252212797   -0.005565515988945492   -7.507832394455174e-05
-0.007081428646110768   -0.005652284060075905   -0.00010971322760584198
-0.007150836900805754   -0.0006466399002436449   -5.734479493447988e-05
-0.01004721215385285   -0.00567878591175797   -0.00018152628075026868
-0.00711736531093862   -0.005610126971178057   -9.239491667829918e-05
-0.007150836900805754   -0.0006466399002436449   -5.734479493447988e-05
-0.010099500411806475   -0.0006413797598941924   -0.00012804729763087573
-0.01004721215385285   -0.00567878591175797   -0.00018152628075026868
-0.01012225589716878   -0.0006041126702324443   -0.0001260172601923049
-0.00711736531093862   -0.005610126971178057   -9.239491667829918e-05
-0.010079615091416043   -0.005641068064092066   -0.00016882466925622415
-0.01012225589716878   -0.0006041126702324443   -0.0001260172601923049
-0.01004721215385285   -0.00567878591175797   -0.00018152628075026868
-0.00711736531093862   -0.005610126971178057   -9.239491667829918e-05
-0.01012225589716878   -0.0006041126702324443   -0.0001260172601923049
-0.0071844549345721756   -0.0006047277617088907   -5.266241159602273e-05
-0.007150836900805754   -0.0006466399002436449   -5.734479493447988e-05
-0.00711736531093862   -0.005610126971178057   -9.239491667829918e-05
-0.01012225589716878   -0.0006041126702324443   -0.0001260172601923049
-0.007150836900805754   -0.0006466399002436449   -5.734479493447988e-05
-0.01004721215385285   -0.00567878591175797   -0.00018152628075026868
-0.00711736531093862   -0.005610126971178057   -9.239491667829918e-05
-0.0071844549345721756   -0.0006047277617088907   -5.266241159602273e-05
-0.010079615091416043   -0.005641068064092066   -0.00016882466925622415
-0.007151849252212797   -0.005565515988945492   -7.507832394455174e-05
-0.0071844549345721756   -0.0006047277617088907   -5.266241159602273e-05
-0.01012225589716878   -0.0006041126702324443   -0.0001260172601923049
-0.010079615091416043   -0.005641068064092066   -0.00016882466925622415
-0.010145984916527155   -0.0005623782342151828   -0.00012446348323982018
-0.007151849252212797   -0.005565515988945492   -7.507832394455174e-05
-0.010108495036059638   -0.005599871079149203   -0.0001564351880106997
-0.010145984916527155   -0.0005623782342151828   -0.00012446348323982018
-0.010079615091416043   -0.005641068064092066   -0.00016882466925622415
-0.007151849252212797   -0.005565515988945492   -7.507832394455174e-05
-0.010145984916527155   -0.0005623782342151828   -0.00012446348323982018
-0.007219445345301937   -0.0005558187124198695   -4.454124099888807e-05
-0.0071844549345721756   -0.0006047277617088907   -5.266241159602273e-05
-0.007151849252212797   -0.005565515988945492   -7.507832394455174e-05
-0.010145984916527155   -0.0005623782342151828   -0.00012446348323982018
-0.0071844549345721756   -0.0006047277617088907   -5.266241159602273e-05
-0.010079615091416043   -0.005641068064092066   -0.00016882466925622415
-0.007151849252212797   -0.005565515988945492   -7.507832394455174e-05
-0.007219445345301937   -0.0005558187124198695   -4.454124099888807e-05
-0.010108495036059638   -0.005599871079149203   -0.0001564351880106997
-0.007183705449790311   -0.005517148462996144   -5.616794423082512e-05
-0.007219445345301937   -0.0005558187124198695   -4.454124099888807e-05
-0.010145984916527155   -0.0005623782342151828   -0.00012446348323982018
-0.010108495036059638   -0.005599871079149203   -0.0001564351880106997
-0.010164277323443511   -0.0005169321405260269   -0.00012347357730872389
-0.007183705449790311   -0.005517148462996144   -5.616794423082512e-05
-0.010134667734629793   -0.005555960520848548   -0.00014361943073646776
-0.010164277323443511   -0.0005169321405260269   -0.00012347357730872389
-0.010108495036059638   -0.005599871079149203   -0.0001564351880106997
-0.007183705449790311   -0.005517148462996144   -5.616794423082512e-05
-0.010164277323443511   -0.0005169321405260269   -0.00012347357730872389
-0.007253039354033835   -0.0004958734986477963   -3.379468151086332e-05
-0.007219445345301937   -0.0005558187124198695   -4.454124099888807e-05
-0.007183705449790311   -0.005517148462996144   -5.616794423082512e-05
-0.010164277323443511   -0.0005169321405260269   -0.00012347357730872389
-0.007219445345301937   -0.0005558187124198695   -4.454124099888807e-05
-0.010108495036059638   -0.005599871079149203   -0.0001564351880106997
-0.01004721215385285   -0.00567878591175797   -0.00018152628075026868
-0.010099500411806475   -0.0006413797598941924   -0.00012804729763087573
-0.013120193124632888   -0.005681610233922301   -0.00024075875099378464
-0.010079615091416043   -0.005641068064092066   -0.00016882466925622415
-0.010099500411806475   -0.0006413797598941924   -0.00012804729763087573
-0.013130707571412034   -0.000637077727855903   -0.00019777707163718298
-0.013120193124632888   -0.005681610233922301   -0.00024075875099378464
-0.01314897796551873   -0.0005967451622268209   -0.00019765922600127635
-0.010079615091416043   -0.005641068064092066   -0.00016882466925622415
-0.013147908049869001   -0.005645065024461903   -0.00023515737327100373
-0.01314897796551873   -0.0005967451622268209   -0.00019765922600127635
-0.013120193124632888   -0.005681610233922301   -0.00024075875099378464
-0.010079615091416043   -0.005641068064092066   -0.00016882466925622415
-0.01314897796551873   -0.0005967451622268209   -0.00019765922600127635
-0.01012225589716878   -0.0006041126702324443   -0.0001260172601923049
-0.010099500411806475   -0.0006413797598941924   -0.00012804729763087573
-0.010079615091416043   -0.005641068064092066   -0.00016882466925622415
-0.01314897796551873   -0.0005967451622268209   -0.00019765922600127635
-0.010099500411806475   -0.0006413797598941924   -0.00012804729763087573
-0.013120193124632888   -0.005681610233922301   -0.00024075875099378464
-0.010079615091416043   -0.005641068064092066   -0.00016882466925622415
-0.01012225589716878   -0.0006041126702324443   -0.0001260172601923049
-0.013147908049869001   -0.005645065024461903   -0.00023515737327100373
-0.010108495036059638   -0.005599871079149203   -0.0001564351880106997
-0.01012225589716878   -0.0006041126702324443   -0.0001260172601923049
-0.01314897796551873   -0.0005967451622268209   -0.00019765922600127635
-0.013147908049869001   -0.005645065024461903   -0.00023515737327100373
-0.0131690107427534   -0.0005562802576246527   -0.00020069760038210564
-0.010108495036059638   -0.005599871079149203   -0.0001564351880106997
-0.013172738353396024   -0.005605435833892242   -0.00022857876493071784
-0.0131690107427534   -0.0005562802576246527   -0.00020069760038210564
-0.013147908049869001   -0.005645065024461903   -0.00023515737327100373
-0.010108495036059638   -0.005599871079149203   -0.0001564351880106997
-0.0131690107427534   -0.0005562802576246527   -0.00020069760038210564
-0.010145984916527155   -0.0005623782342151828   -0.00012446348323982018
-0.01012225589716878   -0.0006041126702324443   -0.0001260172601923049
-0.010108495036059638   -0.005599871079149203   -0.0001564351880106997
-0.0131690107427534   -0.0005562802576246527   -0.00020069760038210564
-0.01012225589716878   -0.0006041126702324443   -0.0001260172601923049
-0.013147908049869001   -0.005645065024461903   -0.00023515737327100373
-0.010108495036059638   -0.005599871079149203   -0.0001564351880106997
-0.010145984916527155   -0.0005623782342151828   -0.00012446348323982018
-0.013172738353396024   -0.005605435833892242   -0.00022857876493071784
-0.010134667734629793   -0.005555960520848548   -0.00014361943073646776
-0.010145984916527155   -0.0005623782342151828   -0.00012446348323982018
-0.0131690107427534   -0.0005562802576246527   -0.00020069760038210564
-0.013172738353396024   -0.005605435833892242   -0.00022857876493071784
-0.013183857930579548   -0.0005121050088164136   -0.00020388759594365766
-0.010134667734629793   -0.005555960520848548   -0.00014361943073646776
-0.013193456759522429   -0.0055634944385097645   -0.00022236598218593973
-0.013183857930579548   -0.0005121050088164136   -0.00020388759594365766
-0.013172738353396024   -0.005605435833892242   -0.00022857876493071784
-0.010134667734629793   -0.005555960520848548   -0.00014361943073646776
-0.013183857930579548   -0.0005121050088164136   -0.00020388759594365766
-0.010164277323443511   -0.0005169321405260269   -0.00012347357730872389
-0.010145984916527155   -0.0005623782342151828   -0.00012446348323982018
-0.010134667734629793   -0.005555960520848548   -0.00014361943073646776
-0.013183857930579548   -0.0005121050088164136   -0.00020388759594365766
-0.010145984916527155   -0.0005623782342151828   -0.00012446348323982018
-0.013172738353396024   -0.005605435833892242   -0.00022857876493071784
              </DataArray>   
          </PointData>  
       </Piece>  
   </UnstructuredGrid> 
</VTKFile> 
