<?xml version="1.0"?> 
<VTKFile type="UnstructuredGrid"> 
   <UnstructuredGrid> 
      <Piece NumberOfPoints="6000"  NumberOfCells="1500">  
          <Points>  
             <DataArray type="Float64" NumberOfComponents="3" format="ascii">   
-500.0   0.0   0.0
-450.0   0.0   0.0
-500.0   30.0   0.0
-500.0   0.0   16.666666666666668
-450.0   0.0   0.0
-450.0   30.0   0.0
-500.0   30.0   0.0
-450.0   30.0   16.666666666666668
-500.0   0.0   16.666666666666668
-500.0   30.0   16.666666666666668
-450.0   30.0   16.666666666666668
-500.0   30.0   0.0
-500.0   0.0   16.666666666666668
-450.0   30.0   16.666666666666668
-450.0   0.0   16.666666666666668
-450.0   0.0   0.0
-500.0   0.0   16.666666666666668
-450.0   30.0   16.666666666666668
-450.0   0.0   0.0
-500.0   30.0   0.0
-500.0   0.0   16.666666666666668
-450.0   0.0   16.666666666666668
-500.0   30.0   16.666666666666668
-500.0   0.0   33.333333333333336
-450.0   0.0   16.666666666666668
-450.0   30.0   16.666666666666668
-500.0   30.0   16.666666666666668
-450.0   30.0   33.333333333333336
-500.0   0.0   33.333333333333336
-500.0   30.0   33.333333333333336
-450.0   30.0   33.333333333333336
-500.0   30.0   16.666666666666668
-500.0   0.0   33.333333333333336
-450.0   30.0   33.333333333333336
-450.0   0.0   33.333333333333336
-450.0   0.0   16.666666666666668
-500.0   0.0   33.333333333333336
-450.0   30.0   33.333333333333336
-450.0   0.0   16.666666666666668
-500.0   30.0   16.666666666666668
-500.0   0.0   33.333333333333336
-450.0   0.0   33.333333333333336
-500.0   30.0   33.333333333333336
-500.0   0.0   50.0
-450.0   0.0   33.333333333333336
-450.0   30.0   33.333333333333336
-500.0   30.0   33.333333333333336
-450.0   30.0   50.0
-500.0   0.0   50.0
-500.0   30.0   50.0
-450.0   30.0   50.0
-500.0   30.0   33.333333333333336
-500.0   0.0   50.0
-450.0   30.0   50.0
-450.0   0.0   50.0
-450.0   0.0   33.333333333333336
-500.0   0.0   50.0
-450.0   30.0   50.0
-450.0   0.0   33.333333333333336
-500.0   30.0   33.333333333333336
-500.0   30.0   0.0
-450.0   30.0   0.0
-500.0   60.0   0.0
-500.0   30.0   16.666666666666668
-450.0   30.0   0.0
-450.0   60.0   0.0
-500.0   60.0   0.0
-450.0   60.0   16.666666666666668
-500.0   30.0   16.666666666666668
-500.0   60.0   16.666666666666668
-450.0   60.0   16.666666666666668
-500.0   60.0   0.0
-500.0   30.0   16.666666666666668
-450.0   60.0   16.666666666666668
-450.0   30.0   16.666666666666668
-450.0   30.0   0.0
-500.0   30.0   16.666666666666668
-450.0   60.0   16.666666666666668
-450.0   30.0   0.0
-500.0   60.0   0.0
-500.0   30.0   16.666666666666668
-450.0   30.0   16.666666666666668
-500.0   60.0   16.666666666666668
-500.0   30.0   33.333333333333336
-450.0   30.0   16.666666666666668
-450.0   60.0   16.666666666666668
-500.0   60.0   16.666666666666668
-450.0   60.0   33.333333333333336
-500.0   30.0   33.333333333333336
-500.0   60.0   33.333333333333336
-450.0   60.0   33.333333333333336
-500.0   60.0   16.666666666666668
-500.0   30.0   33.333333333333336
-450.0   60.0   33.333333333333336
-450.0   30.0   33.333333333333336
-450.0   30.0   16.666666666666668
-500.0   30.0   33.333333333333336
-450.0   60.0   33.333333333333336
-450.0   30.0   16.666666666666668
-500.0   60.0   16.666666666666668
-500.0   30.0   33.333333333333336
-450.0   30.0   33.333333333333336
-500.0   60.0   33.333333333333336
-500.0   30.0   50.0
-450.0   30.0   33.333333333333336
-450.0   60.0   33.333333333333336
-500.0   60.0   33.333333333333336
-450.0   60.0   50.0
-500.0   30.0   50.0
-500.0   60.0   50.0
-450.0   60.0   50.0
-500.0   60.0   33.333333333333336
-500.0   30.0   50.0
-450.0   60.0   50.0
-450.0   30.0   50.0
-450.0   30.0   33.333333333333336
-500.0   30.0   50.0
-450.0   60.0   50.0
-450.0   30.0   33.333333333333336
-500.0   60.0   33.333333333333336
-500.0   60.0   0.0
-450.0   60.0   0.0
-500.0   90.0   0.0
-500.0   60.0   16.666666666666668
-450.0   60.0   0.0
-450.0   90.0   0.0
-500.0   90.0   0.0
-450.0   90.0   16.666666666666668
-500.0   60.0   16.666666666666668
-500.0   90.0   16.666666666666668
-450.0   90.0   16.666666666666668
-500.0   90.0   0.0
-500.0   60.0   16.666666666666668
-450.0   90.0   16.666666666666668
-450.0   60.0   16.666666666666668
-450.0   60.0   0.0
-500.0   60.0   16.666666666666668
-450.0   90.0   16.666666666666668
-450.0   60.0   0.0
-500.0   90.0   0.0
-500.0   60.0   16.666666666666668
-450.0   60.0   16.666666666666668
-500.0   90.0   16.666666666666668
-500.0   60.0   33.333333333333336
-450.0   60.0   16.666666666666668
-450.0   90.0   16.666666666666668
-500.0   90.0   16.666666666666668
-450.0   90.0   33.333333333333336
-500.0   60.0   33.333333333333336
-500.0   90.0   33.333333333333336
-450.0   90.0   33.333333333333336
-500.0   90.0   16.666666666666668
-500.0   60.0   33.333333333333336
-450.0   90.0   33.333333333333336
-450.0   60.0   33.333333333333336
-450.0   60.0   16.666666666666668
-500.0   60.0   33.333333333333336
-450.0   90.0   33.333333333333336
-450.0   60.0   16.666666666666668
-500.0   90.0   16.666666666666668
-500.0   60.0   33.333333333333336
-450.0   60.0   33.333333333333336
-500.0   90.0   33.333333333333336
-500.0   60.0   50.0
-450.0   60.0   33.333333333333336
-450.0   90.0   33.333333333333336
-500.0   90.0   33.333333333333336
-450.0   90.0   50.0
-500.0   60.0   50.0
-500.0   90.0   50.0
-450.0   90.0   50.0
-500.0   90.0   33.333333333333336
-500.0   60.0   50.0
-450.0   90.0   50.0
-450.0   60.0   50.0
-450.0   60.0   33.333333333333336
-500.0   60.0   50.0
-450.0   90.0   50.0
-450.0   60.0   33.333333333333336
-500.0   90.0   33.333333333333336
-500.0   90.0   0.0
-450.0   90.0   0.0
-500.0   120.0   0.0
-500.0   90.0   16.666666666666668
-450.0   90.0   0.0
-450.0   120.0   0.0
-500.0   120.0   0.0
-450.0   120.0   16.666666666666668
-500.0   90.0   16.666666666666668
-500.0   120.0   16.666666666666668
-450.0   120.0   16.666666666666668
-500.0   120.0   0.0
-500.0   90.0   16.666666666666668
-450.0   120.0   16.666666666666668
-450.0   90.0   16.666666666666668
-450.0   90.0   0.0
-500.0   90.0   16.666666666666668
-450.0   120.0   16.666666666666668
-450.0   90.0   0.0
-500.0   120.0   0.0
-500.0   90.0   16.666666666666668
-450.0   90.0   16.666666666666668
-500.0   120.0   16.666666666666668
-500.0   90.0   33.333333333333336
-450.0   90.0   16.666666666666668
-450.0   120.0   16.666666666666668
-500.0   120.0   16.666666666666668
-450.0   120.0   33.333333333333336
-500.0   90.0   33.333333333333336
-500.0   120.0   33.333333333333336
-450.0   120.0   33.333333333333336
-500.0   120.0   16.666666666666668
-500.0   90.0   33.333333333333336
-450.0   120.0   33.333333333333336
-450.0   90.0   33.333333333333336
-450.0   90.0   16.666666666666668
-500.0   90.0   33.333333333333336
-450.0   120.0   33.333333333333336
-450.0   90.0   16.666666666666668
-500.0   120.0   16.666666666666668
-500.0   90.0   33.333333333333336
-450.0   90.0   33.333333333333336
-500.0   120.0   33.333333333333336
-500.0   90.0   50.0
-450.0   90.0   33.333333333333336
-450.0   120.0   33.333333333333336
-500.0   120.0   33.333333333333336
-450.0   120.0   50.0
-500.0   90.0   50.0
-500.0   120.0   50.0
-450.0   120.0   50.0
-500.0   120.0   33.333333333333336
-500.0   90.0   50.0
-450.0   120.0   50.0
-450.0   90.0   50.0
-450.0   90.0   33.333333333333336
-500.0   90.0   50.0
-450.0   120.0   50.0
-450.0   90.0   33.333333333333336
-500.0   120.0   33.333333333333336
-500.0   120.0   0.0
-450.0   120.0   0.0
-500.0   150.0   0.0
-500.0   120.0   16.666666666666668
-450.0   120.0   0.0
-450.0   150.0   0.0
-500.0   150.0   0.0
-450.0   150.0   16.666666666666668
-500.0   120.0   16.666666666666668
-500.0   150.0   16.666666666666668
-450.0   150.0   16.666666666666668
-500.0   150.0   0.0
-500.0   120.0   16.666666666666668
-450.0   150.0   16.666666666666668
-450.0   120.0   16.666666666666668
-450.0   120.0   0.0
-500.0   120.0   16.666666666666668
-450.0   150.0   16.666666666666668
-450.0   120.0   0.0
-500.0   150.0   0.0
-500.0   120.0   16.666666666666668
-450.0   120.0   16.666666666666668
-500.0   150.0   16.666666666666668
-500.0   120.0   33.333333333333336
-450.0   120.0   16.666666666666668
-450.0   150.0   16.666666666666668
-500.0   150.0   16.666666666666668
-450.0   150.0   33.333333333333336
-500.0   120.0   33.333333333333336
-500.0   150.0   33.333333333333336
-450.0   150.0   33.333333333333336
-500.0   150.0   16.666666666666668
-500.0   120.0   33.333333333333336
-450.0   150.0   33.333333333333336
-450.0   120.0   33.333333333333336
-450.0   120.0   16.666666666666668
-500.0   120.0   33.333333333333336
-450.0   150.0   33.333333333333336
-450.0   120.0   16.666666666666668
-500.0   150.0   16.666666666666668
-500.0   120.0   33.333333333333336
-450.0   120.0   33.333333333333336
-500.0   150.0   33.333333333333336
-500.0   120.0   50.0
-450.0   120.0   33.333333333333336
-450.0   150.0   33.333333333333336
-500.0   150.0   33.333333333333336
-450.0   150.0   50.0
-500.0   120.0   50.0
-500.0   150.0   50.0
-450.0   150.0   50.0
-500.0   150.0   33.333333333333336
-500.0   120.0   50.0
-450.0   150.0   50.0
-450.0   120.0   50.0
-450.0   120.0   33.333333333333336
-500.0   120.0   50.0
-450.0   150.0   50.0
-450.0   120.0   33.333333333333336
-500.0   150.0   33.333333333333336
-450.0   0.0   0.0
-400.0   0.0   0.0
-450.0   30.0   0.0
-450.0   0.0   16.666666666666668
-400.0   0.0   0.0
-400.0   30.0   0.0
-450.0   30.0   0.0
-400.0   30.0   16.666666666666668
-450.0   0.0   16.666666666666668
-450.0   30.0   16.666666666666668
-400.0   30.0   16.666666666666668
-450.0   30.0   0.0
-450.0   0.0   16.666666666666668
-400.0   30.0   16.666666666666668
-400.0   0.0   16.666666666666668
-400.0   0.0   0.0
-450.0   0.0   16.666666666666668
-400.0   30.0   16.666666666666668
-400.0   0.0   0.0
-450.0   30.0   0.0
-450.0   0.0   16.666666666666668
-400.0   0.0   16.666666666666668
-450.0   30.0   16.666666666666668
-450.0   0.0   33.333333333333336
-400.0   0.0   16.666666666666668
-400.0   30.0   16.666666666666668
-450.0   30.0   16.666666666666668
-400.0   30.0   33.333333333333336
-450.0   0.0   33.333333333333336
-450.0   30.0   33.333333333333336
-400.0   30.0   33.333333333333336
-450.0   30.0   16.666666666666668
-450.0   0.0   33.333333333333336
-400.0   30.0   33.333333333333336
-400.0   0.0   33.333333333333336
-400.0   0.0   16.666666666666668
-450.0   0.0   33.333333333333336
-400.0   30.0   33.333333333333336
-400.0   0.0   16.666666666666668
-450.0   30.0   16.666666666666668
-450.0   0.0   33.333333333333336
-400.0   0.0   33.333333333333336
-450.0   30.0   33.333333333333336
-450.0   0.0   50.0
-400.0   0.0   33.333333333333336
-400.0   30.0   33.333333333333336
-450.0   30.0   33.333333333333336
-400.0   30.0   50.0
-450.0   0.0   50.0
-450.0   30.0   50.0
-400.0   30.0   50.0
-450.0   30.0   33.333333333333336
-450.0   0.0   50.0
-400.0   30.0   50.0
-400.0   0.0   50.0
-400.0   0.0   33.333333333333336
-450.0   0.0   50.0
-400.0   30.0   50.0
-400.0   0.0   33.333333333333336
-450.0   30.0   33.333333333333336
-450.0   30.0   0.0
-400.0   30.0   0.0
-450.0   60.0   0.0
-450.0   30.0   16.666666666666668
-400.0   30.0   0.0
-400.0   60.0   0.0
-450.0   60.0   0.0
-400.0   60.0   16.666666666666668
-450.0   30.0   16.666666666666668
-450.0   60.0   16.666666666666668
-400.0   60.0   16.666666666666668
-450.0   60.0   0.0
-450.0   30.0   16.666666666666668
-400.0   60.0   16.666666666666668
-400.0   30.0   16.666666666666668
-400.0   30.0   0.0
-450.0   30.0   16.666666666666668
-400.0   60.0   16.666666666666668
-400.0   30.0   0.0
-450.0   60.0   0.0
-450.0   30.0   16.666666666666668
-400.0   30.0   16.666666666666668
-450.0   60.0   16.666666666666668
-450.0   30.0   33.333333333333336
-400.0   30.0   16.666666666666668
-400.0   60.0   16.666666666666668
-450.0   60.0   16.666666666666668
-400.0   60.0   33.333333333333336
-450.0   30.0   33.333333333333336
-450.0   60.0   33.333333333333336
-400.0   60.0   33.333333333333336
-450.0   60.0   16.666666666666668
-450.0   30.0   33.333333333333336
-400.0   60.0   33.333333333333336
-400.0   30.0   33.333333333333336
-400.0   30.0   16.666666666666668
-450.0   30.0   33.333333333333336
-400.0   60.0   33.333333333333336
-400.0   30.0   16.666666666666668
-450.0   60.0   16.666666666666668
-450.0   30.0   33.333333333333336
-400.0   30.0   33.333333333333336
-450.0   60.0   33.333333333333336
-450.0   30.0   50.0
-400.0   30.0   33.333333333333336
-400.0   60.0   33.333333333333336
-450.0   60.0   33.333333333333336
-400.0   60.0   50.0
-450.0   30.0   50.0
-450.0   60.0   50.0
-400.0   60.0   50.0
-450.0   60.0   33.333333333333336
-450.0   30.0   50.0
-400.0   60.0   50.0
-400.0   30.0   50.0
-400.0   30.0   33.333333333333336
-450.0   30.0   50.0
-400.0   60.0   50.0
-400.0   30.0   33.333333333333336
-450.0   60.0   33.333333333333336
-450.0   60.0   0.0
-400.0   60.0   0.0
-450.0   90.0   0.0
-450.0   60.0   16.666666666666668
-400.0   60.0   0.0
-400.0   90.0   0.0
-450.0   90.0   0.0
-400.0   90.0   16.666666666666668
-450.0   60.0   16.666666666666668
-450.0   90.0   16.666666666666668
-400.0   90.0   16.666666666666668
-450.0   90.0   0.0
-450.0   60.0   16.666666666666668
-400.0   90.0   16.666666666666668
-400.0   60.0   16.666666666666668
-400.0   60.0   0.0
-450.0   60.0   16.666666666666668
-400.0   90.0   16.666666666666668
-400.0   60.0   0.0
-450.0   90.0   0.0
-450.0   60.0   16.666666666666668
-400.0   60.0   16.666666666666668
-450.0   90.0   16.666666666666668
-450.0   60.0   33.333333333333336
-400.0   60.0   16.666666666666668
-400.0   90.0   16.666666666666668
-450.0   90.0   16.666666666666668
-400.0   90.0   33.333333333333336
-450.0   60.0   33.333333333333336
-450.0   90.0   33.333333333333336
-400.0   90.0   33.333333333333336
-450.0   90.0   16.666666666666668
-450.0   60.0   33.333333333333336
-400.0   90.0   33.333333333333336
-400.0   60.0   33.333333333333336
-400.0   60.0   16.666666666666668
-450.0   60.0   33.333333333333336
-400.0   90.0   33.333333333333336
-400.0   60.0   16.666666666666668
-450.0   90.0   16.666666666666668
-450.0   60.0   33.333333333333336
-400.0   60.0   33.333333333333336
-450.0   90.0   33.333333333333336
-450.0   60.0   50.0
-400.0   60.0   33.333333333333336
-400.0   90.0   33.333333333333336
-450.0   90.0   33.333333333333336
-400.0   90.0   50.0
-450.0   60.0   50.0
-450.0   90.0   50.0
-400.0   90.0   50.0
-450.0   90.0   33.333333333333336
-450.0   60.0   50.0
-400.0   90.0   50.0
-400.0   60.0   50.0
-400.0   60.0   33.333333333333336
-450.0   60.0   50.0
-400.0   90.0   50.0
-400.0   60.0   33.333333333333336
-450.0   90.0   33.333333333333336
-450.0   90.0   0.0
-400.0   90.0   0.0
-450.0   120.0   0.0
-450.0   90.0   16.666666666666668
-400.0   90.0   0.0
-400.0   120.0   0.0
-450.0   120.0   0.0
-400.0   120.0   16.666666666666668
-450.0   90.0   16.666666666666668
-450.0   120.0   16.666666666666668
-400.0   120.0   16.666666666666668
-450.0   120.0   0.0
-450.0   90.0   16.666666666666668
-400.0   120.0   16.666666666666668
-400.0   90.0   16.666666666666668
-400.0   90.0   0.0
-450.0   90.0   16.666666666666668
-400.0   120.0   16.666666666666668
-400.0   90.0   0.0
-450.0   120.0   0.0
-450.0   90.0   16.666666666666668
-400.0   90.0   16.666666666666668
-450.0   120.0   16.666666666666668
-450.0   90.0   33.333333333333336
-400.0   90.0   16.666666666666668
-400.0   120.0   16.666666666666668
-450.0   120.0   16.666666666666668
-400.0   120.0   33.333333333333336
-450.0   90.0   33.333333333333336
-450.0   120.0   33.333333333333336
-400.0   120.0   33.333333333333336
-450.0   120.0   16.666666666666668
-450.0   90.0   33.333333333333336
-400.0   120.0   33.333333333333336
-400.0   90.0   33.333333333333336
-400.0   90.0   16.666666666666668
-450.0   90.0   33.333333333333336
-400.0   120.0   33.333333333333336
-400.0   90.0   16.666666666666668
-450.0   120.0   16.666666666666668
-450.0   90.0   33.333333333333336
-400.0   90.0   33.333333333333336
-450.0   120.0   33.333333333333336
-450.0   90.0   50.0
-400.0   90.0   33.333333333333336
-400.0   120.0   33.333333333333336
-450.0   120.0   33.333333333333336
-400.0   120.0   50.0
-450.0   90.0   50.0
-450.0   120.0   50.0
-400.0   120.0   50.0
-450.0   120.0   33.333333333333336
-450.0   90.0   50.0
-400.0   120.0   50.0
-400.0   90.0   50.0
-400.0   90.0   33.333333333333336
-450.0   90.0   50.0
-400.0   120.0   50.0
-400.0   90.0   33.333333333333336
-450.0   120.0   33.333333333333336
-450.0   120.0   0.0
-400.0   120.0   0.0
-450.0   150.0   0.0
-450.0   120.0   16.666666666666668
-400.0   120.0   0.0
-400.0   150.0   0.0
-450.0   150.0   0.0
-400.0   150.0   16.666666666666668
-450.0   120.0   16.666666666666668
-450.0   150.0   16.666666666666668
-400.0   150.0   16.666666666666668
-450.0   150.0   0.0
-450.0   120.0   16.666666666666668
-400.0   150.0   16.666666666666668
-400.0   120.0   16.666666666666668
-400.0   120.0   0.0
-450.0   120.0   16.666666666666668
-400.0   150.0   16.666666666666668
-400.0   120.0   0.0
-450.0   150.0   0.0
-450.0   120.0   16.666666666666668
-400.0   120.0   16.666666666666668
-450.0   150.0   16.666666666666668
-450.0   120.0   33.333333333333336
-400.0   120.0   16.666666666666668
-400.0   150.0   16.666666666666668
-450.0   150.0   16.666666666666668
-400.0   150.0   33.333333333333336
-450.0   120.0   33.333333333333336
-450.0   150.0   33.333333333333336
-400.0   150.0   33.333333333333336
-450.0   150.0   16.666666666666668
-450.0   120.0   33.333333333333336
-400.0   150.0   33.333333333333336
-400.0   120.0   33.333333333333336
-400.0   120.0   16.666666666666668
-450.0   120.0   33.333333333333336
-400.0   150.0   33.333333333333336
-400.0   120.0   16.666666666666668
-450.0   150.0   16.666666666666668
-450.0   120.0   33.333333333333336
-400.0   120.0   33.333333333333336
-450.0   150.0   33.333333333333336
-450.0   120.0   50.0
-400.0   120.0   33.333333333333336
-400.0   150.0   33.333333333333336
-450.0   150.0   33.333333333333336
-400.0   150.0   50.0
-450.0   120.0   50.0
-450.0   150.0   50.0
-400.0   150.0   50.0
-450.0   150.0   33.333333333333336
-450.0   120.0   50.0
-400.0   150.0   50.0
-400.0   120.0   50.0
-400.0   120.0   33.333333333333336
-450.0   120.0   50.0
-400.0   150.0   50.0
-400.0   120.0   33.333333333333336
-450.0   150.0   33.333333333333336
-400.0   0.0   0.0
-350.0   0.0   0.0
-400.0   30.0   0.0
-400.0   0.0   16.666666666666668
-350.0   0.0   0.0
-350.0   30.0   0.0
-400.0   30.0   0.0
-350.0   30.0   16.666666666666668
-400.0   0.0   16.666666666666668
-400.0   30.0   16.666666666666668
-350.0   30.0   16.666666666666668
-400.0   30.0   0.0
-400.0   0.0   16.666666666666668
-350.0   30.0   16.666666666666668
-350.0   0.0   16.666666666666668
-350.0   0.0   0.0
-400.0   0.0   16.666666666666668
-350.0   30.0   16.666666666666668
-350.0   0.0   0.0
-400.0   30.0   0.0
-400.0   0.0   16.666666666666668
-350.0   0.0   16.666666666666668
-400.0   30.0   16.666666666666668
-400.0   0.0   33.333333333333336
-350.0   0.0   16.666666666666668
-350.0   30.0   16.666666666666668
-400.0   30.0   16.666666666666668
-350.0   30.0   33.333333333333336
-400.0   0.0   33.333333333333336
-400.0   30.0   33.333333333333336
-350.0   30.0   33.333333333333336
-400.0   30.0   16.666666666666668
-400.0   0.0   33.333333333333336
-350.0   30.0   33.333333333333336
-350.0   0.0   33.333333333333336
-350.0   0.0   16.666666666666668
-400.0   0.0   33.333333333333336
-350.0   30.0   33.333333333333336
-350.0   0.0   16.666666666666668
-400.0   30.0   16.666666666666668
-400.0   0.0   33.333333333333336
-350.0   0.0   33.333333333333336
-400.0   30.0   33.333333333333336
-400.0   0.0   50.0
-350.0   0.0   33.333333333333336
-350.0   30.0   33.333333333333336
-400.0   30.0   33.333333333333336
-350.0   30.0   50.0
-400.0   0.0   50.0
-400.0   30.0   50.0
-350.0   30.0   50.0
-400.0   30.0   33.333333333333336
-400.0   0.0   50.0
-350.0   30.0   50.0
-350.0   0.0   50.0
-350.0   0.0   33.333333333333336
-400.0   0.0   50.0
-350.0   30.0   50.0
-350.0   0.0   33.333333333333336
-400.0   30.0   33.333333333333336
-400.0   30.0   0.0
-350.0   30.0   0.0
-400.0   60.0   0.0
-400.0   30.0   16.666666666666668
-350.0   30.0   0.0
-350.0   60.0   0.0
-400.0   60.0   0.0
-350.0   60.0   16.666666666666668
-400.0   30.0   16.666666666666668
-400.0   60.0   16.666666666666668
-350.0   60.0   16.666666666666668
-400.0   60.0   0.0
-400.0   30.0   16.666666666666668
-350.0   60.0   16.666666666666668
-350.0   30.0   16.666666666666668
-350.0   30.0   0.0
-400.0   30.0   16.666666666666668
-350.0   60.0   16.666666666666668
-350.0   30.0   0.0
-400.0   60.0   0.0
-400.0   30.0   16.666666666666668
-350.0   30.0   16.666666666666668
-400.0   60.0   16.666666666666668
-400.0   30.0   33.333333333333336
-350.0   30.0   16.666666666666668
-350.0   60.0   16.666666666666668
-400.0   60.0   16.666666666666668
-350.0   60.0   33.333333333333336
-400.0   30.0   33.333333333333336
-400.0   60.0   33.333333333333336
-350.0   60.0   33.333333333333336
-400.0   60.0   16.666666666666668
-400.0   30.0   33.333333333333336
-350.0   60.0   33.333333333333336
-350.0   30.0   33.333333333333336
-350.0   30.0   16.666666666666668
-400.0   30.0   33.333333333333336
-350.0   60.0   33.333333333333336
-350.0   30.0   16.666666666666668
-400.0   60.0   16.666666666666668
-400.0   30.0   33.333333333333336
-350.0   30.0   33.333333333333336
-400.0   60.0   33.333333333333336
-400.0   30.0   50.0
-350.0   30.0   33.333333333333336
-350.0   60.0   33.333333333333336
-400.0   60.0   33.333333333333336
-350.0   60.0   50.0
-400.0   30.0   50.0
-400.0   60.0   50.0
-350.0   60.0   50.0
-400.0   60.0   33.333333333333336
-400.0   30.0   50.0
-350.0   60.0   50.0
-350.0   30.0   50.0
-350.0   30.0   33.333333333333336
-400.0   30.0   50.0
-350.0   60.0   50.0
-350.0   30.0   33.333333333333336
-400.0   60.0   33.333333333333336
-400.0   60.0   0.0
-350.0   60.0   0.0
-400.0   90.0   0.0
-400.0   60.0   16.666666666666668
-350.0   60.0   0.0
-350.0   90.0   0.0
-400.0   90.0   0.0
-350.0   90.0   16.666666666666668
-400.0   60.0   16.666666666666668
-400.0   90.0   16.666666666666668
-350.0   90.0   16.666666666666668
-400.0   90.0   0.0
-400.0   60.0   16.666666666666668
-350.0   90.0   16.666666666666668
-350.0   60.0   16.666666666666668
-350.0   60.0   0.0
-400.0   60.0   16.666666666666668
-350.0   90.0   16.666666666666668
-350.0   60.0   0.0
-400.0   90.0   0.0
-400.0   60.0   16.666666666666668
-350.0   60.0   16.666666666666668
-400.0   90.0   16.666666666666668
-400.0   60.0   33.333333333333336
-350.0   60.0   16.666666666666668
-350.0   90.0   16.666666666666668
-400.0   90.0   16.666666666666668
-350.0   90.0   33.333333333333336
-400.0   60.0   33.333333333333336
-400.0   90.0   33.333333333333336
-350.0   90.0   33.333333333333336
-400.0   90.0   16.666666666666668
-400.0   60.0   33.333333333333336
-350.0   90.0   33.333333333333336
-350.0   60.0   33.333333333333336
-350.0   60.0   16.666666666666668
-400.0   60.0   33.333333333333336
-350.0   90.0   33.333333333333336
-350.0   60.0   16.666666666666668
-400.0   90.0   16.666666666666668
-400.0   60.0   33.333333333333336
-350.0   60.0   33.333333333333336
-400.0   90.0   33.333333333333336
-400.0   60.0   50.0
-350.0   60.0   33.333333333333336
-350.0   90.0   33.333333333333336
-400.0   90.0   33.333333333333336
-350.0   90.0   50.0
-400.0   60.0   50.0
-400.0   90.0   50.0
-350.0   90.0   50.0
-400.0   90.0   33.333333333333336
-400.0   60.0   50.0
-350.0   90.0   50.0
-350.0   60.0   50.0
-350.0   60.0   33.333333333333336
-400.0   60.0   50.0
-350.0   90.0   50.0
-350.0   60.0   33.333333333333336
-400.0   90.0   33.333333333333336
-400.0   90.0   0.0
-350.0   90.0   0.0
-400.0   120.0   0.0
-400.0   90.0   16.666666666666668
-350.0   90.0   0.0
-350.0   120.0   0.0
-400.0   120.0   0.0
-350.0   120.0   16.666666666666668
-400.0   90.0   16.666666666666668
-400.0   120.0   16.666666666666668
-350.0   120.0   16.666666666666668
-400.0   120.0   0.0
-400.0   90.0   16.666666666666668
-350.0   120.0   16.666666666666668
-350.0   90.0   16.666666666666668
-350.0   90.0   0.0
-400.0   90.0   16.666666666666668
-350.0   120.0   16.666666666666668
-350.0   90.0   0.0
-400.0   120.0   0.0
-400.0   90.0   16.666666666666668
-350.0   90.0   16.666666666666668
-400.0   120.0   16.666666666666668
-400.0   90.0   33.333333333333336
-350.0   90.0   16.666666666666668
-350.0   120.0   16.666666666666668
-400.0   120.0   16.666666666666668
-350.0   120.0   33.333333333333336
-400.0   90.0   33.333333333333336
-400.0   120.0   33.333333333333336
-350.0   120.0   33.333333333333336
-400.0   120.0   16.666666666666668
-400.0   90.0   33.333333333333336
-350.0   120.0   33.333333333333336
-350.0   90.0   33.333333333333336
-350.0   90.0   16.666666666666668
-400.0   90.0   33.333333333333336
-350.0   120.0   33.333333333333336
-350.0   90.0   16.666666666666668
-400.0   120.0   16.666666666666668
-400.0   90.0   33.333333333333336
-350.0   90.0   33.333333333333336
-400.0   120.0   33.333333333333336
-400.0   90.0   50.0
-350.0   90.0   33.333333333333336
-350.0   120.0   33.333333333333336
-400.0   120.0   33.333333333333336
-350.0   120.0   50.0
-400.0   90.0   50.0
-400.0   120.0   50.0
-350.0   120.0   50.0
-400.0   120.0   33.333333333333336
-400.0   90.0   50.0
-350.0   120.0   50.0
-350.0   90.0   50.0
-350.0   90.0   33.333333333333336
-400.0   90.0   50.0
-350.0   120.0   50.0
-350.0   90.0   33.333333333333336
-400.0   120.0   33.333333333333336
-400.0   120.0   0.0
-350.0   120.0   0.0
-400.0   150.0   0.0
-400.0   120.0   16.666666666666668
-350.0   120.0   0.0
-350.0   150.0   0.0
-400.0   150.0   0.0
-350.0   150.0   16.666666666666668
-400.0   120.0   16.666666666666668
-400.0   150.0   16.666666666666668
-350.0   150.0   16.666666666666668
-400.0   150.0   0.0
-400.0   120.0   16.666666666666668
-350.0   150.0   16.666666666666668
-350.0   120.0   16.666666666666668
-350.0   120.0   0.0
-400.0   120.0   16.666666666666668
-350.0   150.0   16.666666666666668
-350.0   120.0   0.0
-400.0   150.0   0.0
-400.0   120.0   16.666666666666668
-350.0   120.0   16.666666666666668
-400.0   150.0   16.666666666666668
-400.0   120.0   33.333333333333336
-350.0   120.0   16.666666666666668
-350.0   150.0   16.666666666666668
-400.0   150.0   16.666666666666668
-350.0   150.0   33.333333333333336
-400.0   120.0   33.333333333333336
-400.0   150.0   33.333333333333336
-350.0   150.0   33.333333333333336
-400.0   150.0   16.666666666666668
-400.0   120.0   33.333333333333336
-350.0   150.0   33.333333333333336
-350.0   120.0   33.333333333333336
-350.0   120.0   16.666666666666668
-400.0   120.0   33.333333333333336
-350.0   150.0   33.333333333333336
-350.0   120.0   16.666666666666668
-400.0   150.0   16.666666666666668
-400.0   120.0   33.333333333333336
-350.0   120.0   33.333333333333336
-400.0   150.0   33.333333333333336
-400.0   120.0   50.0
-350.0   120.0   33.333333333333336
-350.0   150.0   33.333333333333336
-400.0   150.0   33.333333333333336
-350.0   150.0   50.0
-400.0   120.0   50.0
-400.0   150.0   50.0
-350.0   150.0   50.0
-400.0   150.0   33.333333333333336
-400.0   120.0   50.0
-350.0   150.0   50.0
-350.0   120.0   50.0
-350.0   120.0   33.333333333333336
-400.0   120.0   50.0
-350.0   150.0   50.0
-350.0   120.0   33.333333333333336
-400.0   150.0   33.333333333333336
-350.0   0.0   0.0
-300.0   0.0   0.0
-350.0   30.0   0.0
-350.0   0.0   16.666666666666668
-300.0   0.0   0.0
-300.0   30.0   0.0
-350.0   30.0   0.0
-300.0   30.0   16.666666666666668
-350.0   0.0   16.666666666666668
-350.0   30.0   16.666666666666668
-300.0   30.0   16.666666666666668
-350.0   30.0   0.0
-350.0   0.0   16.666666666666668
-300.0   30.0   16.666666666666668
-300.0   0.0   16.666666666666668
-300.0   0.0   0.0
-350.0   0.0   16.666666666666668
-300.0   30.0   16.666666666666668
-300.0   0.0   0.0
-350.0   30.0   0.0
-350.0   0.0   16.666666666666668
-300.0   0.0   16.666666666666668
-350.0   30.0   16.666666666666668
-350.0   0.0   33.333333333333336
-300.0   0.0   16.666666666666668
-300.0   30.0   16.666666666666668
-350.0   30.0   16.666666666666668
-300.0   30.0   33.333333333333336
-350.0   0.0   33.333333333333336
-350.0   30.0   33.333333333333336
-300.0   30.0   33.333333333333336
-350.0   30.0   16.666666666666668
-350.0   0.0   33.333333333333336
-300.0   30.0   33.333333333333336
-300.0   0.0   33.333333333333336
-300.0   0.0   16.666666666666668
-350.0   0.0   33.333333333333336
-300.0   30.0   33.333333333333336
-300.0   0.0   16.666666666666668
-350.0   30.0   16.666666666666668
-350.0   0.0   33.333333333333336
-300.0   0.0   33.333333333333336
-350.0   30.0   33.333333333333336
-350.0   0.0   50.0
-300.0   0.0   33.333333333333336
-300.0   30.0   33.333333333333336
-350.0   30.0   33.333333333333336
-300.0   30.0   50.0
-350.0   0.0   50.0
-350.0   30.0   50.0
-300.0   30.0   50.0
-350.0   30.0   33.333333333333336
-350.0   0.0   50.0
-300.0   30.0   50.0
-300.0   0.0   50.0
-300.0   0.0   33.333333333333336
-350.0   0.0   50.0
-300.0   30.0   50.0
-300.0   0.0   33.333333333333336
-350.0   30.0   33.333333333333336
-350.0   30.0   0.0
-300.0   30.0   0.0
-350.0   60.0   0.0
-350.0   30.0   16.666666666666668
-300.0   30.0   0.0
-300.0   60.0   0.0
-350.0   60.0   0.0
-300.0   60.0   16.666666666666668
-350.0   30.0   16.666666666666668
-350.0   60.0   16.666666666666668
-300.0   60.0   16.666666666666668
-350.0   60.0   0.0
-350.0   30.0   16.666666666666668
-300.0   60.0   16.666666666666668
-300.0   30.0   16.666666666666668
-300.0   30.0   0.0
-350.0   30.0   16.666666666666668
-300.0   60.0   16.666666666666668
-300.0   30.0   0.0
-350.0   60.0   0.0
-350.0   30.0   16.666666666666668
-300.0   30.0   16.666666666666668
-350.0   60.0   16.666666666666668
-350.0   30.0   33.333333333333336
-300.0   30.0   16.666666666666668
-300.0   60.0   16.666666666666668
-350.0   60.0   16.666666666666668
-300.0   60.0   33.333333333333336
-350.0   30.0   33.333333333333336
-350.0   60.0   33.333333333333336
-300.0   60.0   33.333333333333336
-350.0   60.0   16.666666666666668
-350.0   30.0   33.333333333333336
-300.0   60.0   33.333333333333336
-300.0   30.0   33.333333333333336
-300.0   30.0   16.666666666666668
-350.0   30.0   33.333333333333336
-300.0   60.0   33.333333333333336
-300.0   30.0   16.666666666666668
-350.0   60.0   16.666666666666668
-350.0   30.0   33.333333333333336
-300.0   30.0   33.333333333333336
-350.0   60.0   33.333333333333336
-350.0   30.0   50.0
-300.0   30.0   33.333333333333336
-300.0   60.0   33.333333333333336
-350.0   60.0   33.333333333333336
-300.0   60.0   50.0
-350.0   30.0   50.0
-350.0   60.0   50.0
-300.0   60.0   50.0
-350.0   60.0   33.333333333333336
-350.0   30.0   50.0
-300.0   60.0   50.0
-300.0   30.0   50.0
-300.0   30.0   33.333333333333336
-350.0   30.0   50.0
-300.0   60.0   50.0
-300.0   30.0   33.333333333333336
-350.0   60.0   33.333333333333336
-350.0   60.0   0.0
-300.0   60.0   0.0
-350.0   90.0   0.0
-350.0   60.0   16.666666666666668
-300.0   60.0   0.0
-300.0   90.0   0.0
-350.0   90.0   0.0
-300.0   90.0   16.666666666666668
-350.0   60.0   16.666666666666668
-350.0   90.0   16.666666666666668
-300.0   90.0   16.666666666666668
-350.0   90.0   0.0
-350.0   60.0   16.666666666666668
-300.0   90.0   16.666666666666668
-300.0   60.0   16.666666666666668
-300.0   60.0   0.0
-350.0   60.0   16.666666666666668
-300.0   90.0   16.666666666666668
-300.0   60.0   0.0
-350.0   90.0   0.0
-350.0   60.0   16.666666666666668
-300.0   60.0   16.666666666666668
-350.0   90.0   16.666666666666668
-350.0   60.0   33.333333333333336
-300.0   60.0   16.666666666666668
-300.0   90.0   16.666666666666668
-350.0   90.0   16.666666666666668
-300.0   90.0   33.333333333333336
-350.0   60.0   33.333333333333336
-350.0   90.0   33.333333333333336
-300.0   90.0   33.333333333333336
-350.0   90.0   16.666666666666668
-350.0   60.0   33.333333333333336
-300.0   90.0   33.333333333333336
-300.0   60.0   33.333333333333336
-300.0   60.0   16.666666666666668
-350.0   60.0   33.333333333333336
-300.0   90.0   33.333333333333336
-300.0   60.0   16.666666666666668
-350.0   90.0   16.666666666666668
-350.0   60.0   33.333333333333336
-300.0   60.0   33.333333333333336
-350.0   90.0   33.333333333333336
-350.0   60.0   50.0
-300.0   60.0   33.333333333333336
-300.0   90.0   33.333333333333336
-350.0   90.0   33.333333333333336
-300.0   90.0   50.0
-350.0   60.0   50.0
-350.0   90.0   50.0
-300.0   90.0   50.0
-350.0   90.0   33.333333333333336
-350.0   60.0   50.0
-300.0   90.0   50.0
-300.0   60.0   50.0
-300.0   60.0   33.333333333333336
-350.0   60.0   50.0
-300.0   90.0   50.0
-300.0   60.0   33.333333333333336
-350.0   90.0   33.333333333333336
-350.0   90.0   0.0
-300.0   90.0   0.0
-350.0   120.0   0.0
-350.0   90.0   16.666666666666668
-300.0   90.0   0.0
-300.0   120.0   0.0
-350.0   120.0   0.0
-300.0   120.0   16.666666666666668
-350.0   90.0   16.666666666666668
-350.0   120.0   16.666666666666668
-300.0   120.0   16.666666666666668
-350.0   120.0   0.0
-350.0   90.0   16.666666666666668
-300.0   120.0   16.666666666666668
-300.0   90.0   16.666666666666668
-300.0   90.0   0.0
-350.0   90.0   16.666666666666668
-300.0   120.0   16.666666666666668
-300.0   90.0   0.0
-350.0   120.0   0.0
-350.0   90.0   16.666666666666668
-300.0   90.0   16.666666666666668
-350.0   120.0   16.666666666666668
-350.0   90.0   33.333333333333336
-300.0   90.0   16.666666666666668
-300.0   120.0   16.666666666666668
-350.0   120.0   16.666666666666668
-300.0   120.0   33.333333333333336
-350.0   90.0   33.333333333333336
-350.0   120.0   33.333333333333336
-300.0   120.0   33.333333333333336
-350.0   120.0   16.666666666666668
-350.0   90.0   33.333333333333336
-300.0   120.0   33.333333333333336
-300.0   90.0   33.333333333333336
-300.0   90.0   16.666666666666668
-350.0   90.0   33.333333333333336
-300.0   120.0   33.333333333333336
-300.0   90.0   16.666666666666668
-350.0   120.0   16.666666666666668
-350.0   90.0   33.333333333333336
-300.0   90.0   33.333333333333336
-350.0   120.0   33.333333333333336
-350.0   90.0   50.0
-300.0   90.0   33.333333333333336
-300.0   120.0   33.333333333333336
-350.0   120.0   33.333333333333336
-300.0   120.0   50.0
-350.0   90.0   50.0
-350.0   120.0   50.0
-300.0   120.0   50.0
-350.0   120.0   33.333333333333336
-350.0   90.0   50.0
-300.0   120.0   50.0
-300.0   90.0   50.0
-300.0   90.0   33.333333333333336
-350.0   90.0   50.0
-300.0   120.0   50.0
-300.0   90.0   33.333333333333336
-350.0   120.0   33.333333333333336
-350.0   120.0   0.0
-300.0   120.0   0.0
-350.0   150.0   0.0
-350.0   120.0   16.666666666666668
-300.0   120.0   0.0
-300.0   150.0   0.0
-350.0   150.0   0.0
-300.0   150.0   16.666666666666668
-350.0   120.0   16.666666666666668
-350.0   150.0   16.666666666666668
-300.0   150.0   16.666666666666668
-350.0   150.0   0.0
-350.0   120.0   16.666666666666668
-300.0   150.0   16.666666666666668
-300.0   120.0   16.666666666666668
-300.0   120.0   0.0
-350.0   120.0   16.666666666666668
-300.0   150.0   16.666666666666668
-300.0   120.0   0.0
-350.0   150.0   0.0
-350.0   120.0   16.666666666666668
-300.0   120.0   16.666666666666668
-350.0   150.0   16.666666666666668
-350.0   120.0   33.333333333333336
-300.0   120.0   16.666666666666668
-300.0   150.0   16.666666666666668
-350.0   150.0   16.666666666666668
-300.0   150.0   33.333333333333336
-350.0   120.0   33.333333333333336
-350.0   150.0   33.333333333333336
-300.0   150.0   33.333333333333336
-350.0   150.0   16.666666666666668
-350.0   120.0   33.333333333333336
-300.0   150.0   33.333333333333336
-300.0   120.0   33.333333333333336
-300.0   120.0   16.666666666666668
-350.0   120.0   33.333333333333336
-300.0   150.0   33.333333333333336
-300.0   120.0   16.666666666666668
-350.0   150.0   16.666666666666668
-350.0   120.0   33.333333333333336
-300.0   120.0   33.333333333333336
-350.0   150.0   33.333333333333336
-350.0   120.0   50.0
-300.0   120.0   33.333333333333336
-300.0   150.0   33.333333333333336
-350.0   150.0   33.333333333333336
-300.0   150.0   50.0
-350.0   120.0   50.0
-350.0   150.0   50.0
-300.0   150.0   50.0
-350.0   150.0   33.333333333333336
-350.0   120.0   50.0
-300.0   150.0   50.0
-300.0   120.0   50.0
-300.0   120.0   33.333333333333336
-350.0   120.0   50.0
-300.0   150.0   50.0
-300.0   120.0   33.333333333333336
-350.0   150.0   33.333333333333336
-300.0   0.0   0.0
-250.0   0.0   0.0
-300.0   30.0   0.0
-300.0   0.0   16.666666666666668
-250.0   0.0   0.0
-250.0   30.0   0.0
-300.0   30.0   0.0
-250.0   30.0   16.666666666666668
-300.0   0.0   16.666666666666668
-300.0   30.0   16.666666666666668
-250.0   30.0   16.666666666666668
-300.0   30.0   0.0
-300.0   0.0   16.666666666666668
-250.0   30.0   16.666666666666668
-250.0   0.0   16.666666666666668
-250.0   0.0   0.0
-300.0   0.0   16.666666666666668
-250.0   30.0   16.666666666666668
-250.0   0.0   0.0
-300.0   30.0   0.0
-300.0   0.0   16.666666666666668
-250.0   0.0   16.666666666666668
-300.0   30.0   16.666666666666668
-300.0   0.0   33.333333333333336
-250.0   0.0   16.666666666666668
-250.0   30.0   16.666666666666668
-300.0   30.0   16.666666666666668
-250.0   30.0   33.333333333333336
-300.0   0.0   33.333333333333336
-300.0   30.0   33.333333333333336
-250.0   30.0   33.333333333333336
-300.0   30.0   16.666666666666668
-300.0   0.0   33.333333333333336
-250.0   30.0   33.333333333333336
-250.0   0.0   33.333333333333336
-250.0   0.0   16.666666666666668
-300.0   0.0   33.333333333333336
-250.0   30.0   33.333333333333336
-250.0   0.0   16.666666666666668
-300.0   30.0   16.666666666666668
-300.0   0.0   33.333333333333336
-250.0   0.0   33.333333333333336
-300.0   30.0   33.333333333333336
-300.0   0.0   50.0
-250.0   0.0   33.333333333333336
-250.0   30.0   33.333333333333336
-300.0   30.0   33.333333333333336
-250.0   30.0   50.0
-300.0   0.0   50.0
-300.0   30.0   50.0
-250.0   30.0   50.0
-300.0   30.0   33.333333333333336
-300.0   0.0   50.0
-250.0   30.0   50.0
-250.0   0.0   50.0
-250.0   0.0   33.333333333333336
-300.0   0.0   50.0
-250.0   30.0   50.0
-250.0   0.0   33.333333333333336
-300.0   30.0   33.333333333333336
-300.0   30.0   0.0
-250.0   30.0   0.0
-300.0   60.0   0.0
-300.0   30.0   16.666666666666668
-250.0   30.0   0.0
-250.0   60.0   0.0
-300.0   60.0   0.0
-250.0   60.0   16.666666666666668
-300.0   30.0   16.666666666666668
-300.0   60.0   16.666666666666668
-250.0   60.0   16.666666666666668
-300.0   60.0   0.0
-300.0   30.0   16.666666666666668
-250.0   60.0   16.666666666666668
-250.0   30.0   16.666666666666668
-250.0   30.0   0.0
-300.0   30.0   16.666666666666668
-250.0   60.0   16.666666666666668
-250.0   30.0   0.0
-300.0   60.0   0.0
-300.0   30.0   16.666666666666668
-250.0   30.0   16.666666666666668
-300.0   60.0   16.666666666666668
-300.0   30.0   33.333333333333336
-250.0   30.0   16.666666666666668
-250.0   60.0   16.666666666666668
-300.0   60.0   16.666666666666668
-250.0   60.0   33.333333333333336
-300.0   30.0   33.333333333333336
-300.0   60.0   33.333333333333336
-250.0   60.0   33.333333333333336
-300.0   60.0   16.666666666666668
-300.0   30.0   33.333333333333336
-250.0   60.0   33.333333333333336
-250.0   30.0   33.333333333333336
-250.0   30.0   16.666666666666668
-300.0   30.0   33.333333333333336
-250.0   60.0   33.333333333333336
-250.0   30.0   16.666666666666668
-300.0   60.0   16.666666666666668
-300.0   30.0   33.333333333333336
-250.0   30.0   33.333333333333336
-300.0   60.0   33.333333333333336
-300.0   30.0   50.0
-250.0   30.0   33.333333333333336
-250.0   60.0   33.333333333333336
-300.0   60.0   33.333333333333336
-250.0   60.0   50.0
-300.0   30.0   50.0
-300.0   60.0   50.0
-250.0   60.0   50.0
-300.0   60.0   33.333333333333336
-300.0   30.0   50.0
-250.0   60.0   50.0
-250.0   30.0   50.0
-250.0   30.0   33.333333333333336
-300.0   30.0   50.0
-250.0   60.0   50.0
-250.0   30.0   33.333333333333336
-300.0   60.0   33.333333333333336
-300.0   60.0   0.0
-250.0   60.0   0.0
-300.0   90.0   0.0
-300.0   60.0   16.666666666666668
-250.0   60.0   0.0
-250.0   90.0   0.0
-300.0   90.0   0.0
-250.0   90.0   16.666666666666668
-300.0   60.0   16.666666666666668
-300.0   90.0   16.666666666666668
-250.0   90.0   16.666666666666668
-300.0   90.0   0.0
-300.0   60.0   16.666666666666668
-250.0   90.0   16.666666666666668
-250.0   60.0   16.666666666666668
-250.0   60.0   0.0
-300.0   60.0   16.666666666666668
-250.0   90.0   16.666666666666668
-250.0   60.0   0.0
-300.0   90.0   0.0
-300.0   60.0   16.666666666666668
-250.0   60.0   16.666666666666668
-300.0   90.0   16.666666666666668
-300.0   60.0   33.333333333333336
-250.0   60.0   16.666666666666668
-250.0   90.0   16.666666666666668
-300.0   90.0   16.666666666666668
-250.0   90.0   33.333333333333336
-300.0   60.0   33.333333333333336
-300.0   90.0   33.333333333333336
-250.0   90.0   33.333333333333336
-300.0   90.0   16.666666666666668
-300.0   60.0   33.333333333333336
-250.0   90.0   33.333333333333336
-250.0   60.0   33.333333333333336
-250.0   60.0   16.666666666666668
-300.0   60.0   33.333333333333336
-250.0   90.0   33.333333333333336
-250.0   60.0   16.666666666666668
-300.0   90.0   16.666666666666668
-300.0   60.0   33.333333333333336
-250.0   60.0   33.333333333333336
-300.0   90.0   33.333333333333336
-300.0   60.0   50.0
-250.0   60.0   33.333333333333336
-250.0   90.0   33.333333333333336
-300.0   90.0   33.333333333333336
-250.0   90.0   50.0
-300.0   60.0   50.0
-300.0   90.0   50.0
-250.0   90.0   50.0
-300.0   90.0   33.333333333333336
-300.0   60.0   50.0
-250.0   90.0   50.0
-250.0   60.0   50.0
-250.0   60.0   33.333333333333336
-300.0   60.0   50.0
-250.0   90.0   50.0
-250.0   60.0   33.333333333333336
-300.0   90.0   33.333333333333336
-300.0   90.0   0.0
-250.0   90.0   0.0
-300.0   120.0   0.0
-300.0   90.0   16.666666666666668
-250.0   90.0   0.0
-250.0   120.0   0.0
-300.0   120.0   0.0
-250.0   120.0   16.666666666666668
-300.0   90.0   16.666666666666668
-300.0   120.0   16.666666666666668
-250.0   120.0   16.666666666666668
-300.0   120.0   0.0
-300.0   90.0   16.666666666666668
-250.0   120.0   16.666666666666668
-250.0   90.0   16.666666666666668
-250.0   90.0   0.0
-300.0   90.0   16.666666666666668
-250.0   120.0   16.666666666666668
-250.0   90.0   0.0
-300.0   120.0   0.0
-300.0   90.0   16.666666666666668
-250.0   90.0   16.666666666666668
-300.0   120.0   16.666666666666668
-300.0   90.0   33.333333333333336
-250.0   90.0   16.666666666666668
-250.0   120.0   16.666666666666668
-300.0   120.0   16.666666666666668
-250.0   120.0   33.333333333333336
-300.0   90.0   33.333333333333336
-300.0   120.0   33.333333333333336
-250.0   120.0   33.333333333333336
-300.0   120.0   16.666666666666668
-300.0   90.0   33.333333333333336
-250.0   120.0   33.333333333333336
-250.0   90.0   33.333333333333336
-250.0   90.0   16.666666666666668
-300.0   90.0   33.333333333333336
-250.0   120.0   33.333333333333336
-250.0   90.0   16.666666666666668
-300.0   120.0   16.666666666666668
-300.0   90.0   33.333333333333336
-250.0   90.0   33.333333333333336
-300.0   120.0   33.333333333333336
-300.0   90.0   50.0
-250.0   90.0   33.333333333333336
-250.0   120.0   33.333333333333336
-300.0   120.0   33.333333333333336
-250.0   120.0   50.0
-300.0   90.0   50.0
-300.0   120.0   50.0
-250.0   120.0   50.0
-300.0   120.0   33.333333333333336
-300.0   90.0   50.0
-250.0   120.0   50.0
-250.0   90.0   50.0
-250.0   90.0   33.333333333333336
-300.0   90.0   50.0
-250.0   120.0   50.0
-250.0   90.0   33.333333333333336
-300.0   120.0   33.333333333333336
-300.0   120.0   0.0
-250.0   120.0   0.0
-300.0   150.0   0.0
-300.0   120.0   16.666666666666668
-250.0   120.0   0.0
-250.0   150.0   0.0
-300.0   150.0   0.0
-250.0   150.0   16.666666666666668
-300.0   120.0   16.666666666666668
-300.0   150.0   16.666666666666668
-250.0   150.0   16.666666666666668
-300.0   150.0   0.0
-300.0   120.0   16.666666666666668
-250.0   150.0   16.666666666666668
-250.0   120.0   16.666666666666668
-250.0   120.0   0.0
-300.0   120.0   16.666666666666668
-250.0   150.0   16.666666666666668
-250.0   120.0   0.0
-300.0   150.0   0.0
-300.0   120.0   16.666666666666668
-250.0   120.0   16.666666666666668
-300.0   150.0   16.666666666666668
-300.0   120.0   33.333333333333336
-250.0   120.0   16.666666666666668
-250.0   150.0   16.666666666666668
-300.0   150.0   16.666666666666668
-250.0   150.0   33.333333333333336
-300.0   120.0   33.333333333333336
-300.0   150.0   33.333333333333336
-250.0   150.0   33.333333333333336
-300.0   150.0   16.666666666666668
-300.0   120.0   33.333333333333336
-250.0   150.0   33.333333333333336
-250.0   120.0   33.333333333333336
-250.0   120.0   16.666666666666668
-300.0   120.0   33.333333333333336
-250.0   150.0   33.333333333333336
-250.0   120.0   16.666666666666668
-300.0   150.0   16.666666666666668
-300.0   120.0   33.333333333333336
-250.0   120.0   33.333333333333336
-300.0   150.0   33.333333333333336
-300.0   120.0   50.0
-250.0   120.0   33.333333333333336
-250.0   150.0   33.333333333333336
-300.0   150.0   33.333333333333336
-250.0   150.0   50.0
-300.0   120.0   50.0
-300.0   150.0   50.0
-250.0   150.0   50.0
-300.0   150.0   33.333333333333336
-300.0   120.0   50.0
-250.0   150.0   50.0
-250.0   120.0   50.0
-250.0   120.0   33.333333333333336
-300.0   120.0   50.0
-250.0   150.0   50.0
-250.0   120.0   33.333333333333336
-300.0   150.0   33.333333333333336
-250.0   0.0   0.0
-200.0   0.0   0.0
-250.0   30.0   0.0
-250.0   0.0   16.666666666666668
-200.0   0.0   0.0
-200.0   30.0   0.0
-250.0   30.0   0.0
-200.0   30.0   16.666666666666668
-250.0   0.0   16.666666666666668
-250.0   30.0   16.666666666666668
-200.0   30.0   16.666666666666668
-250.0   30.0   0.0
-250.0   0.0   16.666666666666668
-200.0   30.0   16.666666666666668
-200.0   0.0   16.666666666666668
-200.0   0.0   0.0
-250.0   0.0   16.666666666666668
-200.0   30.0   16.666666666666668
-200.0   0.0   0.0
-250.0   30.0   0.0
-250.0   0.0   16.666666666666668
-200.0   0.0   16.666666666666668
-250.0   30.0   16.666666666666668
-250.0   0.0   33.333333333333336
-200.0   0.0   16.666666666666668
-200.0   30.0   16.666666666666668
-250.0   30.0   16.666666666666668
-200.0   30.0   33.333333333333336
-250.0   0.0   33.333333333333336
-250.0   30.0   33.333333333333336
-200.0   30.0   33.333333333333336
-250.0   30.0   16.666666666666668
-250.0   0.0   33.333333333333336
-200.0   30.0   33.333333333333336
-200.0   0.0   33.333333333333336
-200.0   0.0   16.666666666666668
-250.0   0.0   33.333333333333336
-200.0   30.0   33.333333333333336
-200.0   0.0   16.666666666666668
-250.0   30.0   16.666666666666668
-250.0   0.0   33.333333333333336
-200.0   0.0   33.333333333333336
-250.0   30.0   33.333333333333336
-250.0   0.0   50.0
-200.0   0.0   33.333333333333336
-200.0   30.0   33.333333333333336
-250.0   30.0   33.333333333333336
-200.0   30.0   50.0
-250.0   0.0   50.0
-250.0   30.0   50.0
-200.0   30.0   50.0
-250.0   30.0   33.333333333333336
-250.0   0.0   50.0
-200.0   30.0   50.0
-200.0   0.0   50.0
-200.0   0.0   33.333333333333336
-250.0   0.0   50.0
-200.0   30.0   50.0
-200.0   0.0   33.333333333333336
-250.0   30.0   33.333333333333336
-250.0   30.0   0.0
-200.0   30.0   0.0
-250.0   60.0   0.0
-250.0   30.0   16.666666666666668
-200.0   30.0   0.0
-200.0   60.0   0.0
-250.0   60.0   0.0
-200.0   60.0   16.666666666666668
-250.0   30.0   16.666666666666668
-250.0   60.0   16.666666666666668
-200.0   60.0   16.666666666666668
-250.0   60.0   0.0
-250.0   30.0   16.666666666666668
-200.0   60.0   16.666666666666668
-200.0   30.0   16.666666666666668
-200.0   30.0   0.0
-250.0   30.0   16.666666666666668
-200.0   60.0   16.666666666666668
-200.0   30.0   0.0
-250.0   60.0   0.0
-250.0   30.0   16.666666666666668
-200.0   30.0   16.666666666666668
-250.0   60.0   16.666666666666668
-250.0   30.0   33.333333333333336
-200.0   30.0   16.666666666666668
-200.0   60.0   16.666666666666668
-250.0   60.0   16.666666666666668
-200.0   60.0   33.333333333333336
-250.0   30.0   33.333333333333336
-250.0   60.0   33.333333333333336
-200.0   60.0   33.333333333333336
-250.0   60.0   16.666666666666668
-250.0   30.0   33.333333333333336
-200.0   60.0   33.333333333333336
-200.0   30.0   33.333333333333336
-200.0   30.0   16.666666666666668
-250.0   30.0   33.333333333333336
-200.0   60.0   33.333333333333336
-200.0   30.0   16.666666666666668
-250.0   60.0   16.666666666666668
-250.0   30.0   33.333333333333336
-200.0   30.0   33.333333333333336
-250.0   60.0   33.333333333333336
-250.0   30.0   50.0
-200.0   30.0   33.333333333333336
-200.0   60.0   33.333333333333336
-250.0   60.0   33.333333333333336
-200.0   60.0   50.0
-250.0   30.0   50.0
-250.0   60.0   50.0
-200.0   60.0   50.0
-250.0   60.0   33.333333333333336
-250.0   30.0   50.0
-200.0   60.0   50.0
-200.0   30.0   50.0
-200.0   30.0   33.333333333333336
-250.0   30.0   50.0
-200.0   60.0   50.0
-200.0   30.0   33.333333333333336
-250.0   60.0   33.333333333333336
-250.0   60.0   0.0
-200.0   60.0   0.0
-250.0   90.0   0.0
-250.0   60.0   16.666666666666668
-200.0   60.0   0.0
-200.0   90.0   0.0
-250.0   90.0   0.0
-200.0   90.0   16.666666666666668
-250.0   60.0   16.666666666666668
-250.0   90.0   16.666666666666668
-200.0   90.0   16.666666666666668
-250.0   90.0   0.0
-250.0   60.0   16.666666666666668
-200.0   90.0   16.666666666666668
-200.0   60.0   16.666666666666668
-200.0   60.0   0.0
-250.0   60.0   16.666666666666668
-200.0   90.0   16.666666666666668
-200.0   60.0   0.0
-250.0   90.0   0.0
-250.0   60.0   16.666666666666668
-200.0   60.0   16.666666666666668
-250.0   90.0   16.666666666666668
-250.0   60.0   33.333333333333336
-200.0   60.0   16.666666666666668
-200.0   90.0   16.666666666666668
-250.0   90.0   16.666666666666668
-200.0   90.0   33.333333333333336
-250.0   60.0   33.333333333333336
-250.0   90.0   33.333333333333336
-200.0   90.0   33.333333333333336
-250.0   90.0   16.666666666666668
-250.0   60.0   33.333333333333336
-200.0   90.0   33.333333333333336
-200.0   60.0   33.333333333333336
-200.0   60.0   16.666666666666668
-250.0   60.0   33.333333333333336
-200.0   90.0   33.333333333333336
-200.0   60.0   16.666666666666668
-250.0   90.0   16.666666666666668
-250.0   60.0   33.333333333333336
-200.0   60.0   33.333333333333336
-250.0   90.0   33.333333333333336
-250.0   60.0   50.0
-200.0   60.0   33.333333333333336
-200.0   90.0   33.333333333333336
-250.0   90.0   33.333333333333336
-200.0   90.0   50.0
-250.0   60.0   50.0
-250.0   90.0   50.0
-200.0   90.0   50.0
-250.0   90.0   33.333333333333336
-250.0   60.0   50.0
-200.0   90.0   50.0
-200.0   60.0   50.0
-200.0   60.0   33.333333333333336
-250.0   60.0   50.0
-200.0   90.0   50.0
-200.0   60.0   33.333333333333336
-250.0   90.0   33.333333333333336
-250.0   90.0   0.0
-200.0   90.0   0.0
-250.0   120.0   0.0
-250.0   90.0   16.666666666666668
-200.0   90.0   0.0
-200.0   120.0   0.0
-250.0   120.0   0.0
-200.0   120.0   16.666666666666668
-250.0   90.0   16.666666666666668
-250.0   120.0   16.666666666666668
-200.0   120.0   16.666666666666668
-250.0   120.0   0.0
-250.0   90.0   16.666666666666668
-200.0   120.0   16.666666666666668
-200.0   90.0   16.666666666666668
-200.0   90.0   0.0
-250.0   90.0   16.666666666666668
-200.0   120.0   16.666666666666668
-200.0   90.0   0.0
-250.0   120.0   0.0
-250.0   90.0   16.666666666666668
-200.0   90.0   16.666666666666668
-250.0   120.0   16.666666666666668
-250.0   90.0   33.333333333333336
-200.0   90.0   16.666666666666668
-200.0   120.0   16.666666666666668
-250.0   120.0   16.666666666666668
-200.0   120.0   33.333333333333336
-250.0   90.0   33.333333333333336
-250.0   120.0   33.333333333333336
-200.0   120.0   33.333333333333336
-250.0   120.0   16.666666666666668
-250.0   90.0   33.333333333333336
-200.0   120.0   33.333333333333336
-200.0   90.0   33.333333333333336
-200.0   90.0   16.666666666666668
-250.0   90.0   33.333333333333336
-200.0   120.0   33.333333333333336
-200.0   90.0   16.666666666666668
-250.0   120.0   16.666666666666668
-250.0   90.0   33.333333333333336
-200.0   90.0   33.333333333333336
-250.0   120.0   33.333333333333336
-250.0   90.0   50.0
-200.0   90.0   33.333333333333336
-200.0   120.0   33.333333333333336
-250.0   120.0   33.333333333333336
-200.0   120.0   50.0
-250.0   90.0   50.0
-250.0   120.0   50.0
-200.0   120.0   50.0
-250.0   120.0   33.333333333333336
-250.0   90.0   50.0
-200.0   120.0   50.0
-200.0   90.0   50.0
-200.0   90.0   33.333333333333336
-250.0   90.0   50.0
-200.0   120.0   50.0
-200.0   90.0   33.333333333333336
-250.0   120.0   33.333333333333336
-250.0   120.0   0.0
-200.0   120.0   0.0
-250.0   150.0   0.0
-250.0   120.0   16.666666666666668
-200.0   120.0   0.0
-200.0   150.0   0.0
-250.0   150.0   0.0
-200.0   150.0   16.666666666666668
-250.0   120.0   16.666666666666668
-250.0   150.0   16.666666666666668
-200.0   150.0   16.666666666666668
-250.0   150.0   0.0
-250.0   120.0   16.666666666666668
-200.0   150.0   16.666666666666668
-200.0   120.0   16.666666666666668
-200.0   120.0   0.0
-250.0   120.0   16.666666666666668
-200.0   150.0   16.666666666666668
-200.0   120.0   0.0
-250.0   150.0   0.0
-250.0   120.0   16.666666666666668
-200.0   120.0   16.666666666666668
-250.0   150.0   16.666666666666668
-250.0   120.0   33.333333333333336
-200.0   120.0   16.666666666666668
-200.0   150.0   16.666666666666668
-250.0   150.0   16.666666666666668
-200.0   150.0   33.333333333333336
-250.0   120.0   33.333333333333336
-250.0   150.0   33.333333333333336
-200.0   150.0   33.333333333333336
-250.0   150.0   16.666666666666668
-250.0   120.0   33.333333333333336
-200.0   150.0   33.333333333333336
-200.0   120.0   33.333333333333336
-200.0   120.0   16.666666666666668
-250.0   120.0   33.333333333333336
-200.0   150.0   33.333333333333336
-200.0   120.0   16.666666666666668
-250.0   150.0   16.666666666666668
-250.0   120.0   33.333333333333336
-200.0   120.0   33.333333333333336
-250.0   150.0   33.333333333333336
-250.0   120.0   50.0
-200.0   120.0   33.333333333333336
-200.0   150.0   33.333333333333336
-250.0   150.0   33.333333333333336
-200.0   150.0   50.0
-250.0   120.0   50.0
-250.0   150.0   50.0
-200.0   150.0   50.0
-250.0   150.0   33.333333333333336
-250.0   120.0   50.0
-200.0   150.0   50.0
-200.0   120.0   50.0
-200.0   120.0   33.333333333333336
-250.0   120.0   50.0
-200.0   150.0   50.0
-200.0   120.0   33.333333333333336
-250.0   150.0   33.333333333333336
-200.0   0.0   0.0
-150.0   0.0   0.0
-200.0   30.0   0.0
-200.0   0.0   16.666666666666668
-150.0   0.0   0.0
-150.0   30.0   0.0
-200.0   30.0   0.0
-150.0   30.0   16.666666666666668
-200.0   0.0   16.666666666666668
-200.0   30.0   16.666666666666668
-150.0   30.0   16.666666666666668
-200.0   30.0   0.0
-200.0   0.0   16.666666666666668
-150.0   30.0   16.666666666666668
-150.0   0.0   16.666666666666668
-150.0   0.0   0.0
-200.0   0.0   16.666666666666668
-150.0   30.0   16.666666666666668
-150.0   0.0   0.0
-200.0   30.0   0.0
-200.0   0.0   16.666666666666668
-150.0   0.0   16.666666666666668
-200.0   30.0   16.666666666666668
-200.0   0.0   33.333333333333336
-150.0   0.0   16.666666666666668
-150.0   30.0   16.666666666666668
-200.0   30.0   16.666666666666668
-150.0   30.0   33.333333333333336
-200.0   0.0   33.333333333333336
-200.0   30.0   33.333333333333336
-150.0   30.0   33.333333333333336
-200.0   30.0   16.666666666666668
-200.0   0.0   33.333333333333336
-150.0   30.0   33.333333333333336
-150.0   0.0   33.333333333333336
-150.0   0.0   16.666666666666668
-200.0   0.0   33.333333333333336
-150.0   30.0   33.333333333333336
-150.0   0.0   16.666666666666668
-200.0   30.0   16.666666666666668
-200.0   0.0   33.333333333333336
-150.0   0.0   33.333333333333336
-200.0   30.0   33.333333333333336
-200.0   0.0   50.0
-150.0   0.0   33.333333333333336
-150.0   30.0   33.333333333333336
-200.0   30.0   33.333333333333336
-150.0   30.0   50.0
-200.0   0.0   50.0
-200.0   30.0   50.0
-150.0   30.0   50.0
-200.0   30.0   33.333333333333336
-200.0   0.0   50.0
-150.0   30.0   50.0
-150.0   0.0   50.0
-150.0   0.0   33.333333333333336
-200.0   0.0   50.0
-150.0   30.0   50.0
-150.0   0.0   33.333333333333336
-200.0   30.0   33.333333333333336
-200.0   30.0   0.0
-150.0   30.0   0.0
-200.0   60.0   0.0
-200.0   30.0   16.666666666666668
-150.0   30.0   0.0
-150.0   60.0   0.0
-200.0   60.0   0.0
-150.0   60.0   16.666666666666668
-200.0   30.0   16.666666666666668
-200.0   60.0   16.666666666666668
-150.0   60.0   16.666666666666668
-200.0   60.0   0.0
-200.0   30.0   16.666666666666668
-150.0   60.0   16.666666666666668
-150.0   30.0   16.666666666666668
-150.0   30.0   0.0
-200.0   30.0   16.666666666666668
-150.0   60.0   16.666666666666668
-150.0   30.0   0.0
-200.0   60.0   0.0
-200.0   30.0   16.666666666666668
-150.0   30.0   16.666666666666668
-200.0   60.0   16.666666666666668
-200.0   30.0   33.333333333333336
-150.0   30.0   16.666666666666668
-150.0   60.0   16.666666666666668
-200.0   60.0   16.666666666666668
-150.0   60.0   33.333333333333336
-200.0   30.0   33.333333333333336
-200.0   60.0   33.333333333333336
-150.0   60.0   33.333333333333336
-200.0   60.0   16.666666666666668
-200.0   30.0   33.333333333333336
-150.0   60.0   33.333333333333336
-150.0   30.0   33.333333333333336
-150.0   30.0   16.666666666666668
-200.0   30.0   33.333333333333336
-150.0   60.0   33.333333333333336
-150.0   30.0   16.666666666666668
-200.0   60.0   16.666666666666668
-200.0   30.0   33.333333333333336
-150.0   30.0   33.333333333333336
-200.0   60.0   33.333333333333336
-200.0   30.0   50.0
-150.0   30.0   33.333333333333336
-150.0   60.0   33.333333333333336
-200.0   60.0   33.333333333333336
-150.0   60.0   50.0
-200.0   30.0   50.0
-200.0   60.0   50.0
-150.0   60.0   50.0
-200.0   60.0   33.333333333333336
-200.0   30.0   50.0
-150.0   60.0   50.0
-150.0   30.0   50.0
-150.0   30.0   33.333333333333336
-200.0   30.0   50.0
-150.0   60.0   50.0
-150.0   30.0   33.333333333333336
-200.0   60.0   33.333333333333336
-200.0   60.0   0.0
-150.0   60.0   0.0
-200.0   90.0   0.0
-200.0   60.0   16.666666666666668
-150.0   60.0   0.0
-150.0   90.0   0.0
-200.0   90.0   0.0
-150.0   90.0   16.666666666666668
-200.0   60.0   16.666666666666668
-200.0   90.0   16.666666666666668
-150.0   90.0   16.666666666666668
-200.0   90.0   0.0
-200.0   60.0   16.666666666666668
-150.0   90.0   16.666666666666668
-150.0   60.0   16.666666666666668
-150.0   60.0   0.0
-200.0   60.0   16.666666666666668
-150.0   90.0   16.666666666666668
-150.0   60.0   0.0
-200.0   90.0   0.0
-200.0   60.0   16.666666666666668
-150.0   60.0   16.666666666666668
-200.0   90.0   16.666666666666668
-200.0   60.0   33.333333333333336
-150.0   60.0   16.666666666666668
-150.0   90.0   16.666666666666668
-200.0   90.0   16.666666666666668
-150.0   90.0   33.333333333333336
-200.0   60.0   33.333333333333336
-200.0   90.0   33.333333333333336
-150.0   90.0   33.333333333333336
-200.0   90.0   16.666666666666668
-200.0   60.0   33.333333333333336
-150.0   90.0   33.333333333333336
-150.0   60.0   33.333333333333336
-150.0   60.0   16.666666666666668
-200.0   60.0   33.333333333333336
-150.0   90.0   33.333333333333336
-150.0   60.0   16.666666666666668
-200.0   90.0   16.666666666666668
-200.0   60.0   33.333333333333336
-150.0   60.0   33.333333333333336
-200.0   90.0   33.333333333333336
-200.0   60.0   50.0
-150.0   60.0   33.333333333333336
-150.0   90.0   33.333333333333336
-200.0   90.0   33.333333333333336
-150.0   90.0   50.0
-200.0   60.0   50.0
-200.0   90.0   50.0
-150.0   90.0   50.0
-200.0   90.0   33.333333333333336
-200.0   60.0   50.0
-150.0   90.0   50.0
-150.0   60.0   50.0
-150.0   60.0   33.333333333333336
-200.0   60.0   50.0
-150.0   90.0   50.0
-150.0   60.0   33.333333333333336
-200.0   90.0   33.333333333333336
-200.0   90.0   0.0
-150.0   90.0   0.0
-200.0   120.0   0.0
-200.0   90.0   16.666666666666668
-150.0   90.0   0.0
-150.0   120.0   0.0
-200.0   120.0   0.0
-150.0   120.0   16.666666666666668
-200.0   90.0   16.666666666666668
-200.0   120.0   16.666666666666668
-150.0   120.0   16.666666666666668
-200.0   120.0   0.0
-200.0   90.0   16.666666666666668
-150.0   120.0   16.666666666666668
-150.0   90.0   16.666666666666668
-150.0   90.0   0.0
-200.0   90.0   16.666666666666668
-150.0   120.0   16.666666666666668
-150.0   90.0   0.0
-200.0   120.0   0.0
-200.0   90.0   16.666666666666668
-150.0   90.0   16.666666666666668
-200.0   120.0   16.666666666666668
-200.0   90.0   33.333333333333336
-150.0   90.0   16.666666666666668
-150.0   120.0   16.666666666666668
-200.0   120.0   16.666666666666668
-150.0   120.0   33.333333333333336
-200.0   90.0   33.333333333333336
-200.0   120.0   33.333333333333336
-150.0   120.0   33.333333333333336
-200.0   120.0   16.666666666666668
-200.0   90.0   33.333333333333336
-150.0   120.0   33.333333333333336
-150.0   90.0   33.333333333333336
-150.0   90.0   16.666666666666668
-200.0   90.0   33.333333333333336
-150.0   120.0   33.333333333333336
-150.0   90.0   16.666666666666668
-200.0   120.0   16.666666666666668
-200.0   90.0   33.333333333333336
-150.0   90.0   33.333333333333336
-200.0   120.0   33.333333333333336
-200.0   90.0   50.0
-150.0   90.0   33.333333333333336
-150.0   120.0   33.333333333333336
-200.0   120.0   33.333333333333336
-150.0   120.0   50.0
-200.0   90.0   50.0
-200.0   120.0   50.0
-150.0   120.0   50.0
-200.0   120.0   33.333333333333336
-200.0   90.0   50.0
-150.0   120.0   50.0
-150.0   90.0   50.0
-150.0   90.0   33.333333333333336
-200.0   90.0   50.0
-150.0   120.0   50.0
-150.0   90.0   33.333333333333336
-200.0   120.0   33.333333333333336
-200.0   120.0   0.0
-150.0   120.0   0.0
-200.0   150.0   0.0
-200.0   120.0   16.666666666666668
-150.0   120.0   0.0
-150.0   150.0   0.0
-200.0   150.0   0.0
-150.0   150.0   16.666666666666668
-200.0   120.0   16.666666666666668
-200.0   150.0   16.666666666666668
-150.0   150.0   16.666666666666668
-200.0   150.0   0.0
-200.0   120.0   16.666666666666668
-150.0   150.0   16.666666666666668
-150.0   120.0   16.666666666666668
-150.0   120.0   0.0
-200.0   120.0   16.666666666666668
-150.0   150.0   16.666666666666668
-150.0   120.0   0.0
-200.0   150.0   0.0
-200.0   120.0   16.666666666666668
-150.0   120.0   16.666666666666668
-200.0   150.0   16.666666666666668
-200.0   120.0   33.333333333333336
-150.0   120.0   16.666666666666668
-150.0   150.0   16.666666666666668
-200.0   150.0   16.666666666666668
-150.0   150.0   33.333333333333336
-200.0   120.0   33.333333333333336
-200.0   150.0   33.333333333333336
-150.0   150.0   33.333333333333336
-200.0   150.0   16.666666666666668
-200.0   120.0   33.333333333333336
-150.0   150.0   33.333333333333336
-150.0   120.0   33.333333333333336
-150.0   120.0   16.666666666666668
-200.0   120.0   33.333333333333336
-150.0   150.0   33.333333333333336
-150.0   120.0   16.666666666666668
-200.0   150.0   16.666666666666668
-200.0   120.0   33.333333333333336
-150.0   120.0   33.333333333333336
-200.0   150.0   33.333333333333336
-200.0   120.0   50.0
-150.0   120.0   33.333333333333336
-150.0   150.0   33.333333333333336
-200.0   150.0   33.333333333333336
-150.0   150.0   50.0
-200.0   120.0   50.0
-200.0   150.0   50.0
-150.0   150.0   50.0
-200.0   150.0   33.333333333333336
-200.0   120.0   50.0
-150.0   150.0   50.0
-150.0   120.0   50.0
-150.0   120.0   33.333333333333336
-200.0   120.0   50.0
-150.0   150.0   50.0
-150.0   120.0   33.333333333333336
-200.0   150.0   33.333333333333336
-150.0   0.0   0.0
-100.0   0.0   0.0
-150.0   30.0   0.0
-150.0   0.0   16.666666666666668
-100.0   0.0   0.0
-100.0   30.0   0.0
-150.0   30.0   0.0
-100.0   30.0   16.666666666666668
-150.0   0.0   16.666666666666668
-150.0   30.0   16.666666666666668
-100.0   30.0   16.666666666666668
-150.0   30.0   0.0
-150.0   0.0   16.666666666666668
-100.0   30.0   16.666666666666668
-100.0   0.0   16.666666666666668
-100.0   0.0   0.0
-150.0   0.0   16.666666666666668
-100.0   30.0   16.666666666666668
-100.0   0.0   0.0
-150.0   30.0   0.0
-150.0   0.0   16.666666666666668
-100.0   0.0   16.666666666666668
-150.0   30.0   16.666666666666668
-150.0   0.0   33.333333333333336
-100.0   0.0   16.666666666666668
-100.0   30.0   16.666666666666668
-150.0   30.0   16.666666666666668
-100.0   30.0   33.333333333333336
-150.0   0.0   33.333333333333336
-150.0   30.0   33.333333333333336
-100.0   30.0   33.333333333333336
-150.0   30.0   16.666666666666668
-150.0   0.0   33.333333333333336
-100.0   30.0   33.333333333333336
-100.0   0.0   33.333333333333336
-100.0   0.0   16.666666666666668
-150.0   0.0   33.333333333333336
-100.0   30.0   33.333333333333336
-100.0   0.0   16.666666666666668
-150.0   30.0   16.666666666666668
-150.0   0.0   33.333333333333336
-100.0   0.0   33.333333333333336
-150.0   30.0   33.333333333333336
-150.0   0.0   50.0
-100.0   0.0   33.333333333333336
-100.0   30.0   33.333333333333336
-150.0   30.0   33.333333333333336
-100.0   30.0   50.0
-150.0   0.0   50.0
-150.0   30.0   50.0
-100.0   30.0   50.0
-150.0   30.0   33.333333333333336
-150.0   0.0   50.0
-100.0   30.0   50.0
-100.0   0.0   50.0
-100.0   0.0   33.333333333333336
-150.0   0.0   50.0
-100.0   30.0   50.0
-100.0   0.0   33.333333333333336
-150.0   30.0   33.333333333333336
-150.0   30.0   0.0
-100.0   30.0   0.0
-150.0   60.0   0.0
-150.0   30.0   16.666666666666668
-100.0   30.0   0.0
-100.0   60.0   0.0
-150.0   60.0   0.0
-100.0   60.0   16.666666666666668
-150.0   30.0   16.666666666666668
-150.0   60.0   16.666666666666668
-100.0   60.0   16.666666666666668
-150.0   60.0   0.0
-150.0   30.0   16.666666666666668
-100.0   60.0   16.666666666666668
-100.0   30.0   16.666666666666668
-100.0   30.0   0.0
-150.0   30.0   16.666666666666668
-100.0   60.0   16.666666666666668
-100.0   30.0   0.0
-150.0   60.0   0.0
-150.0   30.0   16.666666666666668
-100.0   30.0   16.666666666666668
-150.0   60.0   16.666666666666668
-150.0   30.0   33.333333333333336
-100.0   30.0   16.666666666666668
-100.0   60.0   16.666666666666668
-150.0   60.0   16.666666666666668
-100.0   60.0   33.333333333333336
-150.0   30.0   33.333333333333336
-150.0   60.0   33.333333333333336
-100.0   60.0   33.333333333333336
-150.0   60.0   16.666666666666668
-150.0   30.0   33.333333333333336
-100.0   60.0   33.333333333333336
-100.0   30.0   33.333333333333336
-100.0   30.0   16.666666666666668
-150.0   30.0   33.333333333333336
-100.0   60.0   33.333333333333336
-100.0   30.0   16.666666666666668
-150.0   60.0   16.666666666666668
-150.0   30.0   33.333333333333336
-100.0   30.0   33.333333333333336
-150.0   60.0   33.333333333333336
-150.0   30.0   50.0
-100.0   30.0   33.333333333333336
-100.0   60.0   33.333333333333336
-150.0   60.0   33.333333333333336
-100.0   60.0   50.0
-150.0   30.0   50.0
-150.0   60.0   50.0
-100.0   60.0   50.0
-150.0   60.0   33.333333333333336
-150.0   30.0   50.0
-100.0   60.0   50.0
-100.0   30.0   50.0
-100.0   30.0   33.333333333333336
-150.0   30.0   50.0
-100.0   60.0   50.0
-100.0   30.0   33.333333333333336
-150.0   60.0   33.333333333333336
-150.0   60.0   0.0
-100.0   60.0   0.0
-150.0   90.0   0.0
-150.0   60.0   16.666666666666668
-100.0   60.0   0.0
-100.0   90.0   0.0
-150.0   90.0   0.0
-100.0   90.0   16.666666666666668
-150.0   60.0   16.666666666666668
-150.0   90.0   16.666666666666668
-100.0   90.0   16.666666666666668
-150.0   90.0   0.0
-150.0   60.0   16.666666666666668
-100.0   90.0   16.666666666666668
-100.0   60.0   16.666666666666668
-100.0   60.0   0.0
-150.0   60.0   16.666666666666668
-100.0   90.0   16.666666666666668
-100.0   60.0   0.0
-150.0   90.0   0.0
-150.0   60.0   16.666666666666668
-100.0   60.0   16.666666666666668
-150.0   90.0   16.666666666666668
-150.0   60.0   33.333333333333336
-100.0   60.0   16.666666666666668
-100.0   90.0   16.666666666666668
-150.0   90.0   16.666666666666668
-100.0   90.0   33.333333333333336
-150.0   60.0   33.333333333333336
-150.0   90.0   33.333333333333336
-100.0   90.0   33.333333333333336
-150.0   90.0   16.666666666666668
-150.0   60.0   33.333333333333336
-100.0   90.0   33.333333333333336
-100.0   60.0   33.333333333333336
-100.0   60.0   16.666666666666668
-150.0   60.0   33.333333333333336
-100.0   90.0   33.333333333333336
-100.0   60.0   16.666666666666668
-150.0   90.0   16.666666666666668
-150.0   60.0   33.333333333333336
-100.0   60.0   33.333333333333336
-150.0   90.0   33.333333333333336
-150.0   60.0   50.0
-100.0   60.0   33.333333333333336
-100.0   90.0   33.333333333333336
-150.0   90.0   33.333333333333336
-100.0   90.0   50.0
-150.0   60.0   50.0
-150.0   90.0   50.0
-100.0   90.0   50.0
-150.0   90.0   33.333333333333336
-150.0   60.0   50.0
-100.0   90.0   50.0
-100.0   60.0   50.0
-100.0   60.0   33.333333333333336
-150.0   60.0   50.0
-100.0   90.0   50.0
-100.0   60.0   33.333333333333336
-150.0   90.0   33.333333333333336
-150.0   90.0   0.0
-100.0   90.0   0.0
-150.0   120.0   0.0
-150.0   90.0   16.666666666666668
-100.0   90.0   0.0
-100.0   120.0   0.0
-150.0   120.0   0.0
-100.0   120.0   16.666666666666668
-150.0   90.0   16.666666666666668
-150.0   120.0   16.666666666666668
-100.0   120.0   16.666666666666668
-150.0   120.0   0.0
-150.0   90.0   16.666666666666668
-100.0   120.0   16.666666666666668
-100.0   90.0   16.666666666666668
-100.0   90.0   0.0
-150.0   90.0   16.666666666666668
-100.0   120.0   16.666666666666668
-100.0   90.0   0.0
-150.0   120.0   0.0
-150.0   90.0   16.666666666666668
-100.0   90.0   16.666666666666668
-150.0   120.0   16.666666666666668
-150.0   90.0   33.333333333333336
-100.0   90.0   16.666666666666668
-100.0   120.0   16.666666666666668
-150.0   120.0   16.666666666666668
-100.0   120.0   33.333333333333336
-150.0   90.0   33.333333333333336
-150.0   120.0   33.333333333333336
-100.0   120.0   33.333333333333336
-150.0   120.0   16.666666666666668
-150.0   90.0   33.333333333333336
-100.0   120.0   33.333333333333336
-100.0   90.0   33.333333333333336
-100.0   90.0   16.666666666666668
-150.0   90.0   33.333333333333336
-100.0   120.0   33.333333333333336
-100.0   90.0   16.666666666666668
-150.0   120.0   16.666666666666668
-150.0   90.0   33.333333333333336
-100.0   90.0   33.333333333333336
-150.0   120.0   33.333333333333336
-150.0   90.0   50.0
-100.0   90.0   33.333333333333336
-100.0   120.0   33.333333333333336
-150.0   120.0   33.333333333333336
-100.0   120.0   50.0
-150.0   90.0   50.0
-150.0   120.0   50.0
-100.0   120.0   50.0
-150.0   120.0   33.333333333333336
-150.0   90.0   50.0
-100.0   120.0   50.0
-100.0   90.0   50.0
-100.0   90.0   33.333333333333336
-150.0   90.0   50.0
-100.0   120.0   50.0
-100.0   90.0   33.333333333333336
-150.0   120.0   33.333333333333336
-150.0   120.0   0.0
-100.0   120.0   0.0
-150.0   150.0   0.0
-150.0   120.0   16.666666666666668
-100.0   120.0   0.0
-100.0   150.0   0.0
-150.0   150.0   0.0
-100.0   150.0   16.666666666666668
-150.0   120.0   16.666666666666668
-150.0   150.0   16.666666666666668
-100.0   150.0   16.666666666666668
-150.0   150.0   0.0
-150.0   120.0   16.666666666666668
-100.0   150.0   16.666666666666668
-100.0   120.0   16.666666666666668
-100.0   120.0   0.0
-150.0   120.0   16.666666666666668
-100.0   150.0   16.666666666666668
-100.0   120.0   0.0
-150.0   150.0   0.0
-150.0   120.0   16.666666666666668
-100.0   120.0   16.666666666666668
-150.0   150.0   16.666666666666668
-150.0   120.0   33.333333333333336
-100.0   120.0   16.666666666666668
-100.0   150.0   16.666666666666668
-150.0   150.0   16.666666666666668
-100.0   150.0   33.333333333333336
-150.0   120.0   33.333333333333336
-150.0   150.0   33.333333333333336
-100.0   150.0   33.333333333333336
-150.0   150.0   16.666666666666668
-150.0   120.0   33.333333333333336
-100.0   150.0   33.333333333333336
-100.0   120.0   33.333333333333336
-100.0   120.0   16.666666666666668
-150.0   120.0   33.333333333333336
-100.0   150.0   33.333333333333336
-100.0   120.0   16.666666666666668
-150.0   150.0   16.666666666666668
-150.0   120.0   33.333333333333336
-100.0   120.0   33.333333333333336
-150.0   150.0   33.333333333333336
-150.0   120.0   50.0
-100.0   120.0   33.333333333333336
-100.0   150.0   33.333333333333336
-150.0   150.0   33.333333333333336
-100.0   150.0   50.0
-150.0   120.0   50.0
-150.0   150.0   50.0
-100.0   150.0   50.0
-150.0   150.0   33.333333333333336
-150.0   120.0   50.0
-100.0   150.0   50.0
-100.0   120.0   50.0
-100.0   120.0   33.333333333333336
-150.0   120.0   50.0
-100.0   150.0   50.0
-100.0   120.0   33.333333333333336
-150.0   150.0   33.333333333333336
-100.0   0.0   0.0
-50.0   0.0   0.0
-100.0   30.0   0.0
-100.0   0.0   16.666666666666668
-50.0   0.0   0.0
-50.0   30.0   0.0
-100.0   30.0   0.0
-50.0   30.0   16.666666666666668
-100.0   0.0   16.666666666666668
-100.0   30.0   16.666666666666668
-50.0   30.0   16.666666666666668
-100.0   30.0   0.0
-100.0   0.0   16.666666666666668
-50.0   30.0   16.666666666666668
-50.0   0.0   16.666666666666668
-50.0   0.0   0.0
-100.0   0.0   16.666666666666668
-50.0   30.0   16.666666666666668
-50.0   0.0   0.0
-100.0   30.0   0.0
-100.0   0.0   16.666666666666668
-50.0   0.0   16.666666666666668
-100.0   30.0   16.666666666666668
-100.0   0.0   33.333333333333336
-50.0   0.0   16.666666666666668
-50.0   30.0   16.666666666666668
-100.0   30.0   16.666666666666668
-50.0   30.0   33.333333333333336
-100.0   0.0   33.333333333333336
-100.0   30.0   33.333333333333336
-50.0   30.0   33.333333333333336
-100.0   30.0   16.666666666666668
-100.0   0.0   33.333333333333336
-50.0   30.0   33.333333333333336
-50.0   0.0   33.333333333333336
-50.0   0.0   16.666666666666668
-100.0   0.0   33.333333333333336
-50.0   30.0   33.333333333333336
-50.0   0.0   16.666666666666668
-100.0   30.0   16.666666666666668
-100.0   0.0   33.333333333333336
-50.0   0.0   33.333333333333336
-100.0   30.0   33.333333333333336
-100.0   0.0   50.0
-50.0   0.0   33.333333333333336
-50.0   30.0   33.333333333333336
-100.0   30.0   33.333333333333336
-50.0   30.0   50.0
-100.0   0.0   50.0
-100.0   30.0   50.0
-50.0   30.0   50.0
-100.0   30.0   33.333333333333336
-100.0   0.0   50.0
-50.0   30.0   50.0
-50.0   0.0   50.0
-50.0   0.0   33.333333333333336
-100.0   0.0   50.0
-50.0   30.0   50.0
-50.0   0.0   33.333333333333336
-100.0   30.0   33.333333333333336
-100.0   30.0   0.0
-50.0   30.0   0.0
-100.0   60.0   0.0
-100.0   30.0   16.666666666666668
-50.0   30.0   0.0
-50.0   60.0   0.0
-100.0   60.0   0.0
-50.0   60.0   16.666666666666668
-100.0   30.0   16.666666666666668
-100.0   60.0   16.666666666666668
-50.0   60.0   16.666666666666668
-100.0   60.0   0.0
-100.0   30.0   16.666666666666668
-50.0   60.0   16.666666666666668
-50.0   30.0   16.666666666666668
-50.0   30.0   0.0
-100.0   30.0   16.666666666666668
-50.0   60.0   16.666666666666668
-50.0   30.0   0.0
-100.0   60.0   0.0
-100.0   30.0   16.666666666666668
-50.0   30.0   16.666666666666668
-100.0   60.0   16.666666666666668
-100.0   30.0   33.333333333333336
-50.0   30.0   16.666666666666668
-50.0   60.0   16.666666666666668
-100.0   60.0   16.666666666666668
-50.0   60.0   33.333333333333336
-100.0   30.0   33.333333333333336
-100.0   60.0   33.333333333333336
-50.0   60.0   33.333333333333336
-100.0   60.0   16.666666666666668
-100.0   30.0   33.333333333333336
-50.0   60.0   33.333333333333336
-50.0   30.0   33.333333333333336
-50.0   30.0   16.666666666666668
-100.0   30.0   33.333333333333336
-50.0   60.0   33.333333333333336
-50.0   30.0   16.666666666666668
-100.0   60.0   16.666666666666668
-100.0   30.0   33.333333333333336
-50.0   30.0   33.333333333333336
-100.0   60.0   33.333333333333336
-100.0   30.0   50.0
-50.0   30.0   33.333333333333336
-50.0   60.0   33.333333333333336
-100.0   60.0   33.333333333333336
-50.0   60.0   50.0
-100.0   30.0   50.0
-100.0   60.0   50.0
-50.0   60.0   50.0
-100.0   60.0   33.333333333333336
-100.0   30.0   50.0
-50.0   60.0   50.0
-50.0   30.0   50.0
-50.0   30.0   33.333333333333336
-100.0   30.0   50.0
-50.0   60.0   50.0
-50.0   30.0   33.333333333333336
-100.0   60.0   33.333333333333336
-100.0   60.0   0.0
-50.0   60.0   0.0
-100.0   90.0   0.0
-100.0   60.0   16.666666666666668
-50.0   60.0   0.0
-50.0   90.0   0.0
-100.0   90.0   0.0
-50.0   90.0   16.666666666666668
-100.0   60.0   16.666666666666668
-100.0   90.0   16.666666666666668
-50.0   90.0   16.666666666666668
-100.0   90.0   0.0
-100.0   60.0   16.666666666666668
-50.0   90.0   16.666666666666668
-50.0   60.0   16.666666666666668
-50.0   60.0   0.0
-100.0   60.0   16.666666666666668
-50.0   90.0   16.666666666666668
-50.0   60.0   0.0
-100.0   90.0   0.0
-100.0   60.0   16.666666666666668
-50.0   60.0   16.666666666666668
-100.0   90.0   16.666666666666668
-100.0   60.0   33.333333333333336
-50.0   60.0   16.666666666666668
-50.0   90.0   16.666666666666668
-100.0   90.0   16.666666666666668
-50.0   90.0   33.333333333333336
-100.0   60.0   33.333333333333336
-100.0   90.0   33.333333333333336
-50.0   90.0   33.333333333333336
-100.0   90.0   16.666666666666668
-100.0   60.0   33.333333333333336
-50.0   90.0   33.333333333333336
-50.0   60.0   33.333333333333336
-50.0   60.0   16.666666666666668
-100.0   60.0   33.333333333333336
-50.0   90.0   33.333333333333336
-50.0   60.0   16.666666666666668
-100.0   90.0   16.666666666666668
-100.0   60.0   33.333333333333336
-50.0   60.0   33.333333333333336
-100.0   90.0   33.333333333333336
-100.0   60.0   50.0
-50.0   60.0   33.333333333333336
-50.0   90.0   33.333333333333336
-100.0   90.0   33.333333333333336
-50.0   90.0   50.0
-100.0   60.0   50.0
-100.0   90.0   50.0
-50.0   90.0   50.0
-100.0   90.0   33.333333333333336
-100.0   60.0   50.0
-50.0   90.0   50.0
-50.0   60.0   50.0
-50.0   60.0   33.333333333333336
-100.0   60.0   50.0
-50.0   90.0   50.0
-50.0   60.0   33.333333333333336
-100.0   90.0   33.333333333333336
-100.0   90.0   0.0
-50.0   90.0   0.0
-100.0   120.0   0.0
-100.0   90.0   16.666666666666668
-50.0   90.0   0.0
-50.0   120.0   0.0
-100.0   120.0   0.0
-50.0   120.0   16.666666666666668
-100.0   90.0   16.666666666666668
-100.0   120.0   16.666666666666668
-50.0   120.0   16.666666666666668
-100.0   120.0   0.0
-100.0   90.0   16.666666666666668
-50.0   120.0   16.666666666666668
-50.0   90.0   16.666666666666668
-50.0   90.0   0.0
-100.0   90.0   16.666666666666668
-50.0   120.0   16.666666666666668
-50.0   90.0   0.0
-100.0   120.0   0.0
-100.0   90.0   16.666666666666668
-50.0   90.0   16.666666666666668
-100.0   120.0   16.666666666666668
-100.0   90.0   33.333333333333336
-50.0   90.0   16.666666666666668
-50.0   120.0   16.666666666666668
-100.0   120.0   16.666666666666668
-50.0   120.0   33.333333333333336
-100.0   90.0   33.333333333333336
-100.0   120.0   33.333333333333336
-50.0   120.0   33.333333333333336
-100.0   120.0   16.666666666666668
-100.0   90.0   33.333333333333336
-50.0   120.0   33.333333333333336
-50.0   90.0   33.333333333333336
-50.0   90.0   16.666666666666668
-100.0   90.0   33.333333333333336
-50.0   120.0   33.333333333333336
-50.0   90.0   16.666666666666668
-100.0   120.0   16.666666666666668
-100.0   90.0   33.333333333333336
-50.0   90.0   33.333333333333336
-100.0   120.0   33.333333333333336
-100.0   90.0   50.0
-50.0   90.0   33.333333333333336
-50.0   120.0   33.333333333333336
-100.0   120.0   33.333333333333336
-50.0   120.0   50.0
-100.0   90.0   50.0
-100.0   120.0   50.0
-50.0   120.0   50.0
-100.0   120.0   33.333333333333336
-100.0   90.0   50.0
-50.0   120.0   50.0
-50.0   90.0   50.0
-50.0   90.0   33.333333333333336
-100.0   90.0   50.0
-50.0   120.0   50.0
-50.0   90.0   33.333333333333336
-100.0   120.0   33.333333333333336
-100.0   120.0   0.0
-50.0   120.0   0.0
-100.0   150.0   0.0
-100.0   120.0   16.666666666666668
-50.0   120.0   0.0
-50.0   150.0   0.0
-100.0   150.0   0.0
-50.0   150.0   16.666666666666668
-100.0   120.0   16.666666666666668
-100.0   150.0   16.666666666666668
-50.0   150.0   16.666666666666668
-100.0   150.0   0.0
-100.0   120.0   16.666666666666668
-50.0   150.0   16.666666666666668
-50.0   120.0   16.666666666666668
-50.0   120.0   0.0
-100.0   120.0   16.666666666666668
-50.0   150.0   16.666666666666668
-50.0   120.0   0.0
-100.0   150.0   0.0
-100.0   120.0   16.666666666666668
-50.0   120.0   16.666666666666668
-100.0   150.0   16.666666666666668
-100.0   120.0   33.333333333333336
-50.0   120.0   16.666666666666668
-50.0   150.0   16.666666666666668
-100.0   150.0   16.666666666666668
-50.0   150.0   33.333333333333336
-100.0   120.0   33.333333333333336
-100.0   150.0   33.333333333333336
-50.0   150.0   33.333333333333336
-100.0   150.0   16.666666666666668
-100.0   120.0   33.333333333333336
-50.0   150.0   33.333333333333336
-50.0   120.0   33.333333333333336
-50.0   120.0   16.666666666666668
-100.0   120.0   33.333333333333336
-50.0   150.0   33.333333333333336
-50.0   120.0   16.666666666666668
-100.0   150.0   16.666666666666668
-100.0   120.0   33.333333333333336
-50.0   120.0   33.333333333333336
-100.0   150.0   33.333333333333336
-100.0   120.0   50.0
-50.0   120.0   33.333333333333336
-50.0   150.0   33.333333333333336
-100.0   150.0   33.333333333333336
-50.0   150.0   50.0
-100.0   120.0   50.0
-100.0   150.0   50.0
-50.0   150.0   50.0
-100.0   150.0   33.333333333333336
-100.0   120.0   50.0
-50.0   150.0   50.0
-50.0   120.0   50.0
-50.0   120.0   33.333333333333336
-100.0   120.0   50.0
-50.0   150.0   50.0
-50.0   120.0   33.333333333333336
-100.0   150.0   33.333333333333336
-50.0   0.0   0.0
0.0   0.0   0.0
-50.0   30.0   0.0
-50.0   0.0   16.666666666666668
0.0   0.0   0.0
0.0   30.0   0.0
-50.0   30.0   0.0
0.0   30.0   16.666666666666668
-50.0   0.0   16.666666666666668
-50.0   30.0   16.666666666666668
0.0   30.0   16.666666666666668
-50.0   30.0   0.0
-50.0   0.0   16.666666666666668
0.0   30.0   16.666666666666668
0.0   0.0   16.666666666666668
0.0   0.0   0.0
-50.0   0.0   16.666666666666668
0.0   30.0   16.666666666666668
0.0   0.0   0.0
-50.0   30.0   0.0
-50.0   0.0   16.666666666666668
0.0   0.0   16.666666666666668
-50.0   30.0   16.666666666666668
-50.0   0.0   33.333333333333336
0.0   0.0   16.666666666666668
0.0   30.0   16.666666666666668
-50.0   30.0   16.666666666666668
0.0   30.0   33.333333333333336
-50.0   0.0   33.333333333333336
-50.0   30.0   33.333333333333336
0.0   30.0   33.333333333333336
-50.0   30.0   16.666666666666668
-50.0   0.0   33.333333333333336
0.0   30.0   33.333333333333336
0.0   0.0   33.333333333333336
0.0   0.0   16.666666666666668
-50.0   0.0   33.333333333333336
0.0   30.0   33.333333333333336
0.0   0.0   16.666666666666668
-50.0   30.0   16.666666666666668
-50.0   0.0   33.333333333333336
0.0   0.0   33.333333333333336
-50.0   30.0   33.333333333333336
-50.0   0.0   50.0
0.0   0.0   33.333333333333336
0.0   30.0   33.333333333333336
-50.0   30.0   33.333333333333336
0.0   30.0   50.0
-50.0   0.0   50.0
-50.0   30.0   50.0
0.0   30.0   50.0
-50.0   30.0   33.333333333333336
-50.0   0.0   50.0
0.0   30.0   50.0
0.0   0.0   50.0
0.0   0.0   33.333333333333336
-50.0   0.0   50.0
0.0   30.0   50.0
0.0   0.0   33.333333333333336
-50.0   30.0   33.333333333333336
-50.0   30.0   0.0
0.0   30.0   0.0
-50.0   60.0   0.0
-50.0   30.0   16.666666666666668
0.0   30.0   0.0
0.0   60.0   0.0
-50.0   60.0   0.0
0.0   60.0   16.666666666666668
-50.0   30.0   16.666666666666668
-50.0   60.0   16.666666666666668
0.0   60.0   16.666666666666668
-50.0   60.0   0.0
-50.0   30.0   16.666666666666668
0.0   60.0   16.666666666666668
0.0   30.0   16.666666666666668
0.0   30.0   0.0
-50.0   30.0   16.666666666666668
0.0   60.0   16.666666666666668
0.0   30.0   0.0
-50.0   60.0   0.0
-50.0   30.0   16.666666666666668
0.0   30.0   16.666666666666668
-50.0   60.0   16.666666666666668
-50.0   30.0   33.333333333333336
0.0   30.0   16.666666666666668
0.0   60.0   16.666666666666668
-50.0   60.0   16.666666666666668
0.0   60.0   33.333333333333336
-50.0   30.0   33.333333333333336
-50.0   60.0   33.333333333333336
0.0   60.0   33.333333333333336
-50.0   60.0   16.666666666666668
-50.0   30.0   33.333333333333336
0.0   60.0   33.333333333333336
0.0   30.0   33.333333333333336
0.0   30.0   16.666666666666668
-50.0   30.0   33.333333333333336
0.0   60.0   33.333333333333336
0.0   30.0   16.666666666666668
-50.0   60.0   16.666666666666668
-50.0   30.0   33.333333333333336
0.0   30.0   33.333333333333336
-50.0   60.0   33.333333333333336
-50.0   30.0   50.0
0.0   30.0   33.333333333333336
0.0   60.0   33.333333333333336
-50.0   60.0   33.333333333333336
0.0   60.0   50.0
-50.0   30.0   50.0
-50.0   60.0   50.0
0.0   60.0   50.0
-50.0   60.0   33.333333333333336
-50.0   30.0   50.0
0.0   60.0   50.0
0.0   30.0   50.0
0.0   30.0   33.333333333333336
-50.0   30.0   50.0
0.0   60.0   50.0
0.0   30.0   33.333333333333336
-50.0   60.0   33.333333333333336
-50.0   60.0   0.0
0.0   60.0   0.0
-50.0   90.0   0.0
-50.0   60.0   16.666666666666668
0.0   60.0   0.0
0.0   90.0   0.0
-50.0   90.0   0.0
0.0   90.0   16.666666666666668
-50.0   60.0   16.666666666666668
-50.0   90.0   16.666666666666668
0.0   90.0   16.666666666666668
-50.0   90.0   0.0
-50.0   60.0   16.666666666666668
0.0   90.0   16.666666666666668
0.0   60.0   16.666666666666668
0.0   60.0   0.0
-50.0   60.0   16.666666666666668
0.0   90.0   16.666666666666668
0.0   60.0   0.0
-50.0   90.0   0.0
-50.0   60.0   16.666666666666668
0.0   60.0   16.666666666666668
-50.0   90.0   16.666666666666668
-50.0   60.0   33.333333333333336
0.0   60.0   16.666666666666668
0.0   90.0   16.666666666666668
-50.0   90.0   16.666666666666668
0.0   90.0   33.333333333333336
-50.0   60.0   33.333333333333336
-50.0   90.0   33.333333333333336
0.0   90.0   33.333333333333336
-50.0   90.0   16.666666666666668
-50.0   60.0   33.333333333333336
0.0   90.0   33.333333333333336
0.0   60.0   33.333333333333336
0.0   60.0   16.666666666666668
-50.0   60.0   33.333333333333336
0.0   90.0   33.333333333333336
0.0   60.0   16.666666666666668
-50.0   90.0   16.666666666666668
-50.0   60.0   33.333333333333336
0.0   60.0   33.333333333333336
-50.0   90.0   33.333333333333336
-50.0   60.0   50.0
0.0   60.0   33.333333333333336
0.0   90.0   33.333333333333336
-50.0   90.0   33.333333333333336
0.0   90.0   50.0
-50.0   60.0   50.0
-50.0   90.0   50.0
0.0   90.0   50.0
-50.0   90.0   33.333333333333336
-50.0   60.0   50.0
0.0   90.0   50.0
0.0   60.0   50.0
0.0   60.0   33.333333333333336
-50.0   60.0   50.0
0.0   90.0   50.0
0.0   60.0   33.333333333333336
-50.0   90.0   33.333333333333336
-50.0   90.0   0.0
0.0   90.0   0.0
-50.0   120.0   0.0
-50.0   90.0   16.666666666666668
0.0   90.0   0.0
0.0   120.0   0.0
-50.0   120.0   0.0
0.0   120.0   16.666666666666668
-50.0   90.0   16.666666666666668
-50.0   120.0   16.666666666666668
0.0   120.0   16.666666666666668
-50.0   120.0   0.0
-50.0   90.0   16.666666666666668
0.0   120.0   16.666666666666668
0.0   90.0   16.666666666666668
0.0   90.0   0.0
-50.0   90.0   16.666666666666668
0.0   120.0   16.666666666666668
0.0   90.0   0.0
-50.0   120.0   0.0
-50.0   90.0   16.666666666666668
0.0   90.0   16.666666666666668
-50.0   120.0   16.666666666666668
-50.0   90.0   33.333333333333336
0.0   90.0   16.666666666666668
0.0   120.0   16.666666666666668
-50.0   120.0   16.666666666666668
0.0   120.0   33.333333333333336
-50.0   90.0   33.333333333333336
-50.0   120.0   33.333333333333336
0.0   120.0   33.333333333333336
-50.0   120.0   16.666666666666668
-50.0   90.0   33.333333333333336
0.0   120.0   33.333333333333336
0.0   90.0   33.333333333333336
0.0   90.0   16.666666666666668
-50.0   90.0   33.333333333333336
0.0   120.0   33.333333333333336
0.0   90.0   16.666666666666668
-50.0   120.0   16.666666666666668
-50.0   90.0   33.333333333333336
0.0   90.0   33.333333333333336
-50.0   120.0   33.333333333333336
-50.0   90.0   50.0
0.0   90.0   33.333333333333336
0.0   120.0   33.333333333333336
-50.0   120.0   33.333333333333336
0.0   120.0   50.0
-50.0   90.0   50.0
-50.0   120.0   50.0
0.0   120.0   50.0
-50.0   120.0   33.333333333333336
-50.0   90.0   50.0
0.0   120.0   50.0
0.0   90.0   50.0
0.0   90.0   33.333333333333336
-50.0   90.0   50.0
0.0   120.0   50.0
0.0   90.0   33.333333333333336
-50.0   120.0   33.333333333333336
-50.0   120.0   0.0
0.0   120.0   0.0
-50.0   150.0   0.0
-50.0   120.0   16.666666666666668
0.0   120.0   0.0
0.0   150.0   0.0
-50.0   150.0   0.0
0.0   150.0   16.666666666666668
-50.0   120.0   16.666666666666668
-50.0   150.0   16.666666666666668
0.0   150.0   16.666666666666668
-50.0   150.0   0.0
-50.0   120.0   16.666666666666668
0.0   150.0   16.666666666666668
0.0   120.0   16.666666666666668
0.0   120.0   0.0
-50.0   120.0   16.666666666666668
0.0   150.0   16.666666666666668
0.0   120.0   0.0
-50.0   150.0   0.0
-50.0   120.0   16.666666666666668
0.0   120.0   16.666666666666668
-50.0   150.0   16.666666666666668
-50.0   120.0   33.333333333333336
0.0   120.0   16.666666666666668
0.0   150.0   16.666666666666668
-50.0   150.0   16.666666666666668
0.0   150.0   33.333333333333336
-50.0   120.0   33.333333333333336
-50.0   150.0   33.333333333333336
0.0   150.0   33.333333333333336
-50.0   150.0   16.666666666666668
-50.0   120.0   33.333333333333336
0.0   150.0   33.333333333333336
0.0   120.0   33.333333333333336
0.0   120.0   16.666666666666668
-50.0   120.0   33.333333333333336
0.0   150.0   33.333333333333336
0.0   120.0   16.666666666666668
-50.0   150.0   16.666666666666668
-50.0   120.0   33.333333333333336
0.0   120.0   33.333333333333336
-50.0   150.0   33.333333333333336
-50.0   120.0   50.0
0.0   120.0   33.333333333333336
0.0   150.0   33.333333333333336
-50.0   150.0   33.333333333333336
0.0   150.0   50.0
-50.0   120.0   50.0
-50.0   150.0   50.0
0.0   150.0   50.0
-50.0   150.0   33.333333333333336
-50.0   120.0   50.0
0.0   150.0   50.0
0.0   120.0   50.0
0.0   120.0   33.333333333333336
-50.0   120.0   50.0
0.0   150.0   50.0
0.0   120.0   33.333333333333336
-50.0   150.0   33.333333333333336
0.0   0.0   0.0
50.0   0.0   0.0
0.0   30.0   0.0
0.0   0.0   16.666666666666668
50.0   0.0   0.0
50.0   30.0   0.0
0.0   30.0   0.0
50.0   30.0   16.666666666666668
0.0   0.0   16.666666666666668
0.0   30.0   16.666666666666668
50.0   30.0   16.666666666666668
0.0   30.0   0.0
0.0   0.0   16.666666666666668
50.0   30.0   16.666666666666668
50.0   0.0   16.666666666666668
50.0   0.0   0.0
0.0   0.0   16.666666666666668
50.0   30.0   16.666666666666668
50.0   0.0   0.0
0.0   30.0   0.0
0.0   0.0   16.666666666666668
50.0   0.0   16.666666666666668
0.0   30.0   16.666666666666668
0.0   0.0   33.333333333333336
50.0   0.0   16.666666666666668
50.0   30.0   16.666666666666668
0.0   30.0   16.666666666666668
50.0   30.0   33.333333333333336
0.0   0.0   33.333333333333336
0.0   30.0   33.333333333333336
50.0   30.0   33.333333333333336
0.0   30.0   16.666666666666668
0.0   0.0   33.333333333333336
50.0   30.0   33.333333333333336
50.0   0.0   33.333333333333336
50.0   0.0   16.666666666666668
0.0   0.0   33.333333333333336
50.0   30.0   33.333333333333336
50.0   0.0   16.666666666666668
0.0   30.0   16.666666666666668
0.0   0.0   33.333333333333336
50.0   0.0   33.333333333333336
0.0   30.0   33.333333333333336
0.0   0.0   50.0
50.0   0.0   33.333333333333336
50.0   30.0   33.333333333333336
0.0   30.0   33.333333333333336
50.0   30.0   50.0
0.0   0.0   50.0
0.0   30.0   50.0
50.0   30.0   50.0
0.0   30.0   33.333333333333336
0.0   0.0   50.0
50.0   30.0   50.0
50.0   0.0   50.0
50.0   0.0   33.333333333333336
0.0   0.0   50.0
50.0   30.0   50.0
50.0   0.0   33.333333333333336
0.0   30.0   33.333333333333336
0.0   30.0   0.0
50.0   30.0   0.0
0.0   60.0   0.0
0.0   30.0   16.666666666666668
50.0   30.0   0.0
50.0   60.0   0.0
0.0   60.0   0.0
50.0   60.0   16.666666666666668
0.0   30.0   16.666666666666668
0.0   60.0   16.666666666666668
50.0   60.0   16.666666666666668
0.0   60.0   0.0
0.0   30.0   16.666666666666668
50.0   60.0   16.666666666666668
50.0   30.0   16.666666666666668
50.0   30.0   0.0
0.0   30.0   16.666666666666668
50.0   60.0   16.666666666666668
50.0   30.0   0.0
0.0   60.0   0.0
0.0   30.0   16.666666666666668
50.0   30.0   16.666666666666668
0.0   60.0   16.666666666666668
0.0   30.0   33.333333333333336
50.0   30.0   16.666666666666668
50.0   60.0   16.666666666666668
0.0   60.0   16.666666666666668
50.0   60.0   33.333333333333336
0.0   30.0   33.333333333333336
0.0   60.0   33.333333333333336
50.0   60.0   33.333333333333336
0.0   60.0   16.666666666666668
0.0   30.0   33.333333333333336
50.0   60.0   33.333333333333336
50.0   30.0   33.333333333333336
50.0   30.0   16.666666666666668
0.0   30.0   33.333333333333336
50.0   60.0   33.333333333333336
50.0   30.0   16.666666666666668
0.0   60.0   16.666666666666668
0.0   30.0   33.333333333333336
50.0   30.0   33.333333333333336
0.0   60.0   33.333333333333336
0.0   30.0   50.0
50.0   30.0   33.333333333333336
50.0   60.0   33.333333333333336
0.0   60.0   33.333333333333336
50.0   60.0   50.0
0.0   30.0   50.0
0.0   60.0   50.0
50.0   60.0   50.0
0.0   60.0   33.333333333333336
0.0   30.0   50.0
50.0   60.0   50.0
50.0   30.0   50.0
50.0   30.0   33.333333333333336
0.0   30.0   50.0
50.0   60.0   50.0
50.0   30.0   33.333333333333336
0.0   60.0   33.333333333333336
0.0   60.0   0.0
50.0   60.0   0.0
0.0   90.0   0.0
0.0   60.0   16.666666666666668
50.0   60.0   0.0
50.0   90.0   0.0
0.0   90.0   0.0
50.0   90.0   16.666666666666668
0.0   60.0   16.666666666666668
0.0   90.0   16.666666666666668
50.0   90.0   16.666666666666668
0.0   90.0   0.0
0.0   60.0   16.666666666666668
50.0   90.0   16.666666666666668
50.0   60.0   16.666666666666668
50.0   60.0   0.0
0.0   60.0   16.666666666666668
50.0   90.0   16.666666666666668
50.0   60.0   0.0
0.0   90.0   0.0
0.0   60.0   16.666666666666668
50.0   60.0   16.666666666666668
0.0   90.0   16.666666666666668
0.0   60.0   33.333333333333336
50.0   60.0   16.666666666666668
50.0   90.0   16.666666666666668
0.0   90.0   16.666666666666668
50.0   90.0   33.333333333333336
0.0   60.0   33.333333333333336
0.0   90.0   33.333333333333336
50.0   90.0   33.333333333333336
0.0   90.0   16.666666666666668
0.0   60.0   33.333333333333336
50.0   90.0   33.333333333333336
50.0   60.0   33.333333333333336
50.0   60.0   16.666666666666668
0.0   60.0   33.333333333333336
50.0   90.0   33.333333333333336
50.0   60.0   16.666666666666668
0.0   90.0   16.666666666666668
0.0   60.0   33.333333333333336
50.0   60.0   33.333333333333336
0.0   90.0   33.333333333333336
0.0   60.0   50.0
50.0   60.0   33.333333333333336
50.0   90.0   33.333333333333336
0.0   90.0   33.333333333333336
50.0   90.0   50.0
0.0   60.0   50.0
0.0   90.0   50.0
50.0   90.0   50.0
0.0   90.0   33.333333333333336
0.0   60.0   50.0
50.0   90.0   50.0
50.0   60.0   50.0
50.0   60.0   33.333333333333336
0.0   60.0   50.0
50.0   90.0   50.0
50.0   60.0   33.333333333333336
0.0   90.0   33.333333333333336
0.0   90.0   0.0
50.0   90.0   0.0
0.0   120.0   0.0
0.0   90.0   16.666666666666668
50.0   90.0   0.0
50.0   120.0   0.0
0.0   120.0   0.0
50.0   120.0   16.666666666666668
0.0   90.0   16.666666666666668
0.0   120.0   16.666666666666668
50.0   120.0   16.666666666666668
0.0   120.0   0.0
0.0   90.0   16.666666666666668
50.0   120.0   16.666666666666668
50.0   90.0   16.666666666666668
50.0   90.0   0.0
0.0   90.0   16.666666666666668
50.0   120.0   16.666666666666668
50.0   90.0   0.0
0.0   120.0   0.0
0.0   90.0   16.666666666666668
50.0   90.0   16.666666666666668
0.0   120.0   16.666666666666668
0.0   90.0   33.333333333333336
50.0   90.0   16.666666666666668
50.0   120.0   16.666666666666668
0.0   120.0   16.666666666666668
50.0   120.0   33.333333333333336
0.0   90.0   33.333333333333336
0.0   120.0   33.333333333333336
50.0   120.0   33.333333333333336
0.0   120.0   16.666666666666668
0.0   90.0   33.333333333333336
50.0   120.0   33.333333333333336
50.0   90.0   33.333333333333336
50.0   90.0   16.666666666666668
0.0   90.0   33.333333333333336
50.0   120.0   33.333333333333336
50.0   90.0   16.666666666666668
0.0   120.0   16.666666666666668
0.0   90.0   33.333333333333336
50.0   90.0   33.333333333333336
0.0   120.0   33.333333333333336
0.0   90.0   50.0
50.0   90.0   33.333333333333336
50.0   120.0   33.333333333333336
0.0   120.0   33.333333333333336
50.0   120.0   50.0
0.0   90.0   50.0
0.0   120.0   50.0
50.0   120.0   50.0
0.0   120.0   33.333333333333336
0.0   90.0   50.0
50.0   120.0   50.0
50.0   90.0   50.0
50.0   90.0   33.333333333333336
0.0   90.0   50.0
50.0   120.0   50.0
50.0   90.0   33.333333333333336
0.0   120.0   33.333333333333336
0.0   120.0   0.0
50.0   120.0   0.0
0.0   150.0   0.0
0.0   120.0   16.666666666666668
50.0   120.0   0.0
50.0   150.0   0.0
0.0   150.0   0.0
50.0   150.0   16.666666666666668
0.0   120.0   16.666666666666668
0.0   150.0   16.666666666666668
50.0   150.0   16.666666666666668
0.0   150.0   0.0
0.0   120.0   16.666666666666668
50.0   150.0   16.666666666666668
50.0   120.0   16.666666666666668
50.0   120.0   0.0
0.0   120.0   16.666666666666668
50.0   150.0   16.666666666666668
50.0   120.0   0.0
0.0   150.0   0.0
0.0   120.0   16.666666666666668
50.0   120.0   16.666666666666668
0.0   150.0   16.666666666666668
0.0   120.0   33.333333333333336
50.0   120.0   16.666666666666668
50.0   150.0   16.666666666666668
0.0   150.0   16.666666666666668
50.0   150.0   33.333333333333336
0.0   120.0   33.333333333333336
0.0   150.0   33.333333333333336
50.0   150.0   33.333333333333336
0.0   150.0   16.666666666666668
0.0   120.0   33.333333333333336
50.0   150.0   33.333333333333336
50.0   120.0   33.333333333333336
50.0   120.0   16.666666666666668
0.0   120.0   33.333333333333336
50.0   150.0   33.333333333333336
50.0   120.0   16.666666666666668
0.0   150.0   16.666666666666668
0.0   120.0   33.333333333333336
50.0   120.0   33.333333333333336
0.0   150.0   33.333333333333336
0.0   120.0   50.0
50.0   120.0   33.333333333333336
50.0   150.0   33.333333333333336
0.0   150.0   33.333333333333336
50.0   150.0   50.0
0.0   120.0   50.0
0.0   150.0   50.0
50.0   150.0   50.0
0.0   150.0   33.333333333333336
0.0   120.0   50.0
50.0   150.0   50.0
50.0   120.0   50.0
50.0   120.0   33.333333333333336
0.0   120.0   50.0
50.0   150.0   50.0
50.0   120.0   33.333333333333336
0.0   150.0   33.333333333333336
50.0   0.0   0.0
100.0   0.0   0.0
50.0   30.0   0.0
50.0   0.0   16.666666666666668
100.0   0.0   0.0
100.0   30.0   0.0
50.0   30.0   0.0
100.0   30.0   16.666666666666668
50.0   0.0   16.666666666666668
50.0   30.0   16.666666666666668
100.0   30.0   16.666666666666668
50.0   30.0   0.0
50.0   0.0   16.666666666666668
100.0   30.0   16.666666666666668
100.0   0.0   16.666666666666668
100.0   0.0   0.0
50.0   0.0   16.666666666666668
100.0   30.0   16.666666666666668
100.0   0.0   0.0
50.0   30.0   0.0
50.0   0.0   16.666666666666668
100.0   0.0   16.666666666666668
50.0   30.0   16.666666666666668
50.0   0.0   33.333333333333336
100.0   0.0   16.666666666666668
100.0   30.0   16.666666666666668
50.0   30.0   16.666666666666668
100.0   30.0   33.333333333333336
50.0   0.0   33.333333333333336
50.0   30.0   33.333333333333336
100.0   30.0   33.333333333333336
50.0   30.0   16.666666666666668
50.0   0.0   33.333333333333336
100.0   30.0   33.333333333333336
100.0   0.0   33.333333333333336
100.0   0.0   16.666666666666668
50.0   0.0   33.333333333333336
100.0   30.0   33.333333333333336
100.0   0.0   16.666666666666668
50.0   30.0   16.666666666666668
50.0   0.0   33.333333333333336
100.0   0.0   33.333333333333336
50.0   30.0   33.333333333333336
50.0   0.0   50.0
100.0   0.0   33.333333333333336
100.0   30.0   33.333333333333336
50.0   30.0   33.333333333333336
100.0   30.0   50.0
50.0   0.0   50.0
50.0   30.0   50.0
100.0   30.0   50.0
50.0   30.0   33.333333333333336
50.0   0.0   50.0
100.0   30.0   50.0
100.0   0.0   50.0
100.0   0.0   33.333333333333336
50.0   0.0   50.0
100.0   30.0   50.0
100.0   0.0   33.333333333333336
50.0   30.0   33.333333333333336
50.0   30.0   0.0
100.0   30.0   0.0
50.0   60.0   0.0
50.0   30.0   16.666666666666668
100.0   30.0   0.0
100.0   60.0   0.0
50.0   60.0   0.0
100.0   60.0   16.666666666666668
50.0   30.0   16.666666666666668
50.0   60.0   16.666666666666668
100.0   60.0   16.666666666666668
50.0   60.0   0.0
50.0   30.0   16.666666666666668
100.0   60.0   16.666666666666668
100.0   30.0   16.666666666666668
100.0   30.0   0.0
50.0   30.0   16.666666666666668
100.0   60.0   16.666666666666668
100.0   30.0   0.0
50.0   60.0   0.0
50.0   30.0   16.666666666666668
100.0   30.0   16.666666666666668
50.0   60.0   16.666666666666668
50.0   30.0   33.333333333333336
100.0   30.0   16.666666666666668
100.0   60.0   16.666666666666668
50.0   60.0   16.666666666666668
100.0   60.0   33.333333333333336
50.0   30.0   33.333333333333336
50.0   60.0   33.333333333333336
100.0   60.0   33.333333333333336
50.0   60.0   16.666666666666668
50.0   30.0   33.333333333333336
100.0   60.0   33.333333333333336
100.0   30.0   33.333333333333336
100.0   30.0   16.666666666666668
50.0   30.0   33.333333333333336
100.0   60.0   33.333333333333336
100.0   30.0   16.666666666666668
50.0   60.0   16.666666666666668
50.0   30.0   33.333333333333336
100.0   30.0   33.333333333333336
50.0   60.0   33.333333333333336
50.0   30.0   50.0
100.0   30.0   33.333333333333336
100.0   60.0   33.333333333333336
50.0   60.0   33.333333333333336
100.0   60.0   50.0
50.0   30.0   50.0
50.0   60.0   50.0
100.0   60.0   50.0
50.0   60.0   33.333333333333336
50.0   30.0   50.0
100.0   60.0   50.0
100.0   30.0   50.0
100.0   30.0   33.333333333333336
50.0   30.0   50.0
100.0   60.0   50.0
100.0   30.0   33.333333333333336
50.0   60.0   33.333333333333336
50.0   60.0   0.0
100.0   60.0   0.0
50.0   90.0   0.0
50.0   60.0   16.666666666666668
100.0   60.0   0.0
100.0   90.0   0.0
50.0   90.0   0.0
100.0   90.0   16.666666666666668
50.0   60.0   16.666666666666668
50.0   90.0   16.666666666666668
100.0   90.0   16.666666666666668
50.0   90.0   0.0
50.0   60.0   16.666666666666668
100.0   90.0   16.666666666666668
100.0   60.0   16.666666666666668
100.0   60.0   0.0
50.0   60.0   16.666666666666668
100.0   90.0   16.666666666666668
100.0   60.0   0.0
50.0   90.0   0.0
50.0   60.0   16.666666666666668
100.0   60.0   16.666666666666668
50.0   90.0   16.666666666666668
50.0   60.0   33.333333333333336
100.0   60.0   16.666666666666668
100.0   90.0   16.666666666666668
50.0   90.0   16.666666666666668
100.0   90.0   33.333333333333336
50.0   60.0   33.333333333333336
50.0   90.0   33.333333333333336
100.0   90.0   33.333333333333336
50.0   90.0   16.666666666666668
50.0   60.0   33.333333333333336
100.0   90.0   33.333333333333336
100.0   60.0   33.333333333333336
100.0   60.0   16.666666666666668
50.0   60.0   33.333333333333336
100.0   90.0   33.333333333333336
100.0   60.0   16.666666666666668
50.0   90.0   16.666666666666668
50.0   60.0   33.333333333333336
100.0   60.0   33.333333333333336
50.0   90.0   33.333333333333336
50.0   60.0   50.0
100.0   60.0   33.333333333333336
100.0   90.0   33.333333333333336
50.0   90.0   33.333333333333336
100.0   90.0   50.0
50.0   60.0   50.0
50.0   90.0   50.0
100.0   90.0   50.0
50.0   90.0   33.333333333333336
50.0   60.0   50.0
100.0   90.0   50.0
100.0   60.0   50.0
100.0   60.0   33.333333333333336
50.0   60.0   50.0
100.0   90.0   50.0
100.0   60.0   33.333333333333336
50.0   90.0   33.333333333333336
50.0   90.0   0.0
100.0   90.0   0.0
50.0   120.0   0.0
50.0   90.0   16.666666666666668
100.0   90.0   0.0
100.0   120.0   0.0
50.0   120.0   0.0
100.0   120.0   16.666666666666668
50.0   90.0   16.666666666666668
50.0   120.0   16.666666666666668
100.0   120.0   16.666666666666668
50.0   120.0   0.0
50.0   90.0   16.666666666666668
100.0   120.0   16.666666666666668
100.0   90.0   16.666666666666668
100.0   90.0   0.0
50.0   90.0   16.666666666666668
100.0   120.0   16.666666666666668
100.0   90.0   0.0
50.0   120.0   0.0
50.0   90.0   16.666666666666668
100.0   90.0   16.666666666666668
50.0   120.0   16.666666666666668
50.0   90.0   33.333333333333336
100.0   90.0   16.666666666666668
100.0   120.0   16.666666666666668
50.0   120.0   16.666666666666668
100.0   120.0   33.333333333333336
50.0   90.0   33.333333333333336
50.0   120.0   33.333333333333336
100.0   120.0   33.333333333333336
50.0   120.0   16.666666666666668
50.0   90.0   33.333333333333336
100.0   120.0   33.333333333333336
100.0   90.0   33.333333333333336
100.0   90.0   16.666666666666668
50.0   90.0   33.333333333333336
100.0   120.0   33.333333333333336
100.0   90.0   16.666666666666668
50.0   120.0   16.666666666666668
50.0   90.0   33.333333333333336
100.0   90.0   33.333333333333336
50.0   120.0   33.333333333333336
50.0   90.0   50.0
100.0   90.0   33.333333333333336
100.0   120.0   33.333333333333336
50.0   120.0   33.333333333333336
100.0   120.0   50.0
50.0   90.0   50.0
50.0   120.0   50.0
100.0   120.0   50.0
50.0   120.0   33.333333333333336
50.0   90.0   50.0
100.0   120.0   50.0
100.0   90.0   50.0
100.0   90.0   33.333333333333336
50.0   90.0   50.0
100.0   120.0   50.0
100.0   90.0   33.333333333333336
50.0   120.0   33.333333333333336
50.0   120.0   0.0
100.0   120.0   0.0
50.0   150.0   0.0
50.0   120.0   16.666666666666668
100.0   120.0   0.0
100.0   150.0   0.0
50.0   150.0   0.0
100.0   150.0   16.666666666666668
50.0   120.0   16.666666666666668
50.0   150.0   16.666666666666668
100.0   150.0   16.666666666666668
50.0   150.0   0.0
50.0   120.0   16.666666666666668
100.0   150.0   16.666666666666668
100.0   120.0   16.666666666666668
100.0   120.0   0.0
50.0   120.0   16.666666666666668
100.0   150.0   16.666666666666668
100.0   120.0   0.0
50.0   150.0   0.0
50.0   120.0   16.666666666666668
100.0   120.0   16.666666666666668
50.0   150.0   16.666666666666668
50.0   120.0   33.333333333333336
100.0   120.0   16.666666666666668
100.0   150.0   16.666666666666668
50.0   150.0   16.666666666666668
100.0   150.0   33.333333333333336
50.0   120.0   33.333333333333336
50.0   150.0   33.333333333333336
100.0   150.0   33.333333333333336
50.0   150.0   16.666666666666668
50.0   120.0   33.333333333333336
100.0   150.0   33.333333333333336
100.0   120.0   33.333333333333336
100.0   120.0   16.666666666666668
50.0   120.0   33.333333333333336
100.0   150.0   33.333333333333336
100.0   120.0   16.666666666666668
50.0   150.0   16.666666666666668
50.0   120.0   33.333333333333336
100.0   120.0   33.333333333333336
50.0   150.0   33.333333333333336
50.0   120.0   50.0
100.0   120.0   33.333333333333336
100.0   150.0   33.333333333333336
50.0   150.0   33.333333333333336
100.0   150.0   50.0
50.0   120.0   50.0
50.0   150.0   50.0
100.0   150.0   50.0
50.0   150.0   33.333333333333336
50.0   120.0   50.0
100.0   150.0   50.0
100.0   120.0   50.0
100.0   120.0   33.333333333333336
50.0   120.0   50.0
100.0   150.0   50.0
100.0   120.0   33.333333333333336
50.0   150.0   33.333333333333336
100.0   0.0   0.0
150.0   0.0   0.0
100.0   30.0   0.0
100.0   0.0   16.666666666666668
150.0   0.0   0.0
150.0   30.0   0.0
100.0   30.0   0.0
150.0   30.0   16.666666666666668
100.0   0.0   16.666666666666668
100.0   30.0   16.666666666666668
150.0   30.0   16.666666666666668
100.0   30.0   0.0
100.0   0.0   16.666666666666668
150.0   30.0   16.666666666666668
150.0   0.0   16.666666666666668
150.0   0.0   0.0
100.0   0.0   16.666666666666668
150.0   30.0   16.666666666666668
150.0   0.0   0.0
100.0   30.0   0.0
100.0   0.0   16.666666666666668
150.0   0.0   16.666666666666668
100.0   30.0   16.666666666666668
100.0   0.0   33.333333333333336
150.0   0.0   16.666666666666668
150.0   30.0   16.666666666666668
100.0   30.0   16.666666666666668
150.0   30.0   33.333333333333336
100.0   0.0   33.333333333333336
100.0   30.0   33.333333333333336
150.0   30.0   33.333333333333336
100.0   30.0   16.666666666666668
100.0   0.0   33.333333333333336
150.0   30.0   33.333333333333336
150.0   0.0   33.333333333333336
150.0   0.0   16.666666666666668
100.0   0.0   33.333333333333336
150.0   30.0   33.333333333333336
150.0   0.0   16.666666666666668
100.0   30.0   16.666666666666668
100.0   0.0   33.333333333333336
150.0   0.0   33.333333333333336
100.0   30.0   33.333333333333336
100.0   0.0   50.0
150.0   0.0   33.333333333333336
150.0   30.0   33.333333333333336
100.0   30.0   33.333333333333336
150.0   30.0   50.0
100.0   0.0   50.0
100.0   30.0   50.0
150.0   30.0   50.0
100.0   30.0   33.333333333333336
100.0   0.0   50.0
150.0   30.0   50.0
150.0   0.0   50.0
150.0   0.0   33.333333333333336
100.0   0.0   50.0
150.0   30.0   50.0
150.0   0.0   33.333333333333336
100.0   30.0   33.333333333333336
100.0   30.0   0.0
150.0   30.0   0.0
100.0   60.0   0.0
100.0   30.0   16.666666666666668
150.0   30.0   0.0
150.0   60.0   0.0
100.0   60.0   0.0
150.0   60.0   16.666666666666668
100.0   30.0   16.666666666666668
100.0   60.0   16.666666666666668
150.0   60.0   16.666666666666668
100.0   60.0   0.0
100.0   30.0   16.666666666666668
150.0   60.0   16.666666666666668
150.0   30.0   16.666666666666668
150.0   30.0   0.0
100.0   30.0   16.666666666666668
150.0   60.0   16.666666666666668
150.0   30.0   0.0
100.0   60.0   0.0
100.0   30.0   16.666666666666668
150.0   30.0   16.666666666666668
100.0   60.0   16.666666666666668
100.0   30.0   33.333333333333336
150.0   30.0   16.666666666666668
150.0   60.0   16.666666666666668
100.0   60.0   16.666666666666668
150.0   60.0   33.333333333333336
100.0   30.0   33.333333333333336
100.0   60.0   33.333333333333336
150.0   60.0   33.333333333333336
100.0   60.0   16.666666666666668
100.0   30.0   33.333333333333336
150.0   60.0   33.333333333333336
150.0   30.0   33.333333333333336
150.0   30.0   16.666666666666668
100.0   30.0   33.333333333333336
150.0   60.0   33.333333333333336
150.0   30.0   16.666666666666668
100.0   60.0   16.666666666666668
100.0   30.0   33.333333333333336
150.0   30.0   33.333333333333336
100.0   60.0   33.333333333333336
100.0   30.0   50.0
150.0   30.0   33.333333333333336
150.0   60.0   33.333333333333336
100.0   60.0   33.333333333333336
150.0   60.0   50.0
100.0   30.0   50.0
100.0   60.0   50.0
150.0   60.0   50.0
100.0   60.0   33.333333333333336
100.0   30.0   50.0
150.0   60.0   50.0
150.0   30.0   50.0
150.0   30.0   33.333333333333336
100.0   30.0   50.0
150.0   60.0   50.0
150.0   30.0   33.333333333333336
100.0   60.0   33.333333333333336
100.0   60.0   0.0
150.0   60.0   0.0
100.0   90.0   0.0
100.0   60.0   16.666666666666668
150.0   60.0   0.0
150.0   90.0   0.0
100.0   90.0   0.0
150.0   90.0   16.666666666666668
100.0   60.0   16.666666666666668
100.0   90.0   16.666666666666668
150.0   90.0   16.666666666666668
100.0   90.0   0.0
100.0   60.0   16.666666666666668
150.0   90.0   16.666666666666668
150.0   60.0   16.666666666666668
150.0   60.0   0.0
100.0   60.0   16.666666666666668
150.0   90.0   16.666666666666668
150.0   60.0   0.0
100.0   90.0   0.0
100.0   60.0   16.666666666666668
150.0   60.0   16.666666666666668
100.0   90.0   16.666666666666668
100.0   60.0   33.333333333333336
150.0   60.0   16.666666666666668
150.0   90.0   16.666666666666668
100.0   90.0   16.666666666666668
150.0   90.0   33.333333333333336
100.0   60.0   33.333333333333336
100.0   90.0   33.333333333333336
150.0   90.0   33.333333333333336
100.0   90.0   16.666666666666668
100.0   60.0   33.333333333333336
150.0   90.0   33.333333333333336
150.0   60.0   33.333333333333336
150.0   60.0   16.666666666666668
100.0   60.0   33.333333333333336
150.0   90.0   33.333333333333336
150.0   60.0   16.666666666666668
100.0   90.0   16.666666666666668
100.0   60.0   33.333333333333336
150.0   60.0   33.333333333333336
100.0   90.0   33.333333333333336
100.0   60.0   50.0
150.0   60.0   33.333333333333336
150.0   90.0   33.333333333333336
100.0   90.0   33.333333333333336
150.0   90.0   50.0
100.0   60.0   50.0
100.0   90.0   50.0
150.0   90.0   50.0
100.0   90.0   33.333333333333336
100.0   60.0   50.0
150.0   90.0   50.0
150.0   60.0   50.0
150.0   60.0   33.333333333333336
100.0   60.0   50.0
150.0   90.0   50.0
150.0   60.0   33.333333333333336
100.0   90.0   33.333333333333336
100.0   90.0   0.0
150.0   90.0   0.0
100.0   120.0   0.0
100.0   90.0   16.666666666666668
150.0   90.0   0.0
150.0   120.0   0.0
100.0   120.0   0.0
150.0   120.0   16.666666666666668
100.0   90.0   16.666666666666668
100.0   120.0   16.666666666666668
150.0   120.0   16.666666666666668
100.0   120.0   0.0
100.0   90.0   16.666666666666668
150.0   120.0   16.666666666666668
150.0   90.0   16.666666666666668
150.0   90.0   0.0
100.0   90.0   16.666666666666668
150.0   120.0   16.666666666666668
150.0   90.0   0.0
100.0   120.0   0.0
100.0   90.0   16.666666666666668
150.0   90.0   16.666666666666668
100.0   120.0   16.666666666666668
100.0   90.0   33.333333333333336
150.0   90.0   16.666666666666668
150.0   120.0   16.666666666666668
100.0   120.0   16.666666666666668
150.0   120.0   33.333333333333336
100.0   90.0   33.333333333333336
100.0   120.0   33.333333333333336
150.0   120.0   33.333333333333336
100.0   120.0   16.666666666666668
100.0   90.0   33.333333333333336
150.0   120.0   33.333333333333336
150.0   90.0   33.333333333333336
150.0   90.0   16.666666666666668
100.0   90.0   33.333333333333336
150.0   120.0   33.333333333333336
150.0   90.0   16.666666666666668
100.0   120.0   16.666666666666668
100.0   90.0   33.333333333333336
150.0   90.0   33.333333333333336
100.0   120.0   33.333333333333336
100.0   90.0   50.0
150.0   90.0   33.333333333333336
150.0   120.0   33.333333333333336
100.0   120.0   33.333333333333336
150.0   120.0   50.0
100.0   90.0   50.0
100.0   120.0   50.0
150.0   120.0   50.0
100.0   120.0   33.333333333333336
100.0   90.0   50.0
150.0   120.0   50.0
150.0   90.0   50.0
150.0   90.0   33.333333333333336
100.0   90.0   50.0
150.0   120.0   50.0
150.0   90.0   33.333333333333336
100.0   120.0   33.333333333333336
100.0   120.0   0.0
150.0   120.0   0.0
100.0   150.0   0.0
100.0   120.0   16.666666666666668
150.0   120.0   0.0
150.0   150.0   0.0
100.0   150.0   0.0
150.0   150.0   16.666666666666668
100.0   120.0   16.666666666666668
100.0   150.0   16.666666666666668
150.0   150.0   16.666666666666668
100.0   150.0   0.0
100.0   120.0   16.666666666666668
150.0   150.0   16.666666666666668
150.0   120.0   16.666666666666668
150.0   120.0   0.0
100.0   120.0   16.666666666666668
150.0   150.0   16.666666666666668
150.0   120.0   0.0
100.0   150.0   0.0
100.0   120.0   16.666666666666668
150.0   120.0   16.666666666666668
100.0   150.0   16.666666666666668
100.0   120.0   33.333333333333336
150.0   120.0   16.666666666666668
150.0   150.0   16.666666666666668
100.0   150.0   16.666666666666668
150.0   150.0   33.333333333333336
100.0   120.0   33.333333333333336
100.0   150.0   33.333333333333336
150.0   150.0   33.333333333333336
100.0   150.0   16.666666666666668
100.0   120.0   33.333333333333336
150.0   150.0   33.333333333333336
150.0   120.0   33.333333333333336
150.0   120.0   16.666666666666668
100.0   120.0   33.333333333333336
150.0   150.0   33.333333333333336
150.0   120.0   16.666666666666668
100.0   150.0   16.666666666666668
100.0   120.0   33.333333333333336
150.0   120.0   33.333333333333336
100.0   150.0   33.333333333333336
100.0   120.0   50.0
150.0   120.0   33.333333333333336
150.0   150.0   33.333333333333336
100.0   150.0   33.333333333333336
150.0   150.0   50.0
100.0   120.0   50.0
100.0   150.0   50.0
150.0   150.0   50.0
100.0   150.0   33.333333333333336
100.0   120.0   50.0
150.0   150.0   50.0
150.0   120.0   50.0
150.0   120.0   33.333333333333336
100.0   120.0   50.0
150.0   150.0   50.0
150.0   120.0   33.333333333333336
100.0   150.0   33.333333333333336
150.0   0.0   0.0
200.0   0.0   0.0
150.0   30.0   0.0
150.0   0.0   16.666666666666668
200.0   0.0   0.0
200.0   30.0   0.0
150.0   30.0   0.0
200.0   30.0   16.666666666666668
150.0   0.0   16.666666666666668
150.0   30.0   16.666666666666668
200.0   30.0   16.666666666666668
150.0   30.0   0.0
150.0   0.0   16.666666666666668
200.0   30.0   16.666666666666668
200.0   0.0   16.666666666666668
200.0   0.0   0.0
150.0   0.0   16.666666666666668
200.0   30.0   16.666666666666668
200.0   0.0   0.0
150.0   30.0   0.0
150.0   0.0   16.666666666666668
200.0   0.0   16.666666666666668
150.0   30.0   16.666666666666668
150.0   0.0   33.333333333333336
200.0   0.0   16.666666666666668
200.0   30.0   16.666666666666668
150.0   30.0   16.666666666666668
200.0   30.0   33.333333333333336
150.0   0.0   33.333333333333336
150.0   30.0   33.333333333333336
200.0   30.0   33.333333333333336
150.0   30.0   16.666666666666668
150.0   0.0   33.333333333333336
200.0   30.0   33.333333333333336
200.0   0.0   33.333333333333336
200.0   0.0   16.666666666666668
150.0   0.0   33.333333333333336
200.0   30.0   33.333333333333336
200.0   0.0   16.666666666666668
150.0   30.0   16.666666666666668
150.0   0.0   33.333333333333336
200.0   0.0   33.333333333333336
150.0   30.0   33.333333333333336
150.0   0.0   50.0
200.0   0.0   33.333333333333336
200.0   30.0   33.333333333333336
150.0   30.0   33.333333333333336
200.0   30.0   50.0
150.0   0.0   50.0
150.0   30.0   50.0
200.0   30.0   50.0
150.0   30.0   33.333333333333336
150.0   0.0   50.0
200.0   30.0   50.0
200.0   0.0   50.0
200.0   0.0   33.333333333333336
150.0   0.0   50.0
200.0   30.0   50.0
200.0   0.0   33.333333333333336
150.0   30.0   33.333333333333336
150.0   30.0   0.0
200.0   30.0   0.0
150.0   60.0   0.0
150.0   30.0   16.666666666666668
200.0   30.0   0.0
200.0   60.0   0.0
150.0   60.0   0.0
200.0   60.0   16.666666666666668
150.0   30.0   16.666666666666668
150.0   60.0   16.666666666666668
200.0   60.0   16.666666666666668
150.0   60.0   0.0
150.0   30.0   16.666666666666668
200.0   60.0   16.666666666666668
200.0   30.0   16.666666666666668
200.0   30.0   0.0
150.0   30.0   16.666666666666668
200.0   60.0   16.666666666666668
200.0   30.0   0.0
150.0   60.0   0.0
150.0   30.0   16.666666666666668
200.0   30.0   16.666666666666668
150.0   60.0   16.666666666666668
150.0   30.0   33.333333333333336
200.0   30.0   16.666666666666668
200.0   60.0   16.666666666666668
150.0   60.0   16.666666666666668
200.0   60.0   33.333333333333336
150.0   30.0   33.333333333333336
150.0   60.0   33.333333333333336
200.0   60.0   33.333333333333336
150.0   60.0   16.666666666666668
150.0   30.0   33.333333333333336
200.0   60.0   33.333333333333336
200.0   30.0   33.333333333333336
200.0   30.0   16.666666666666668
150.0   30.0   33.333333333333336
200.0   60.0   33.333333333333336
200.0   30.0   16.666666666666668
150.0   60.0   16.666666666666668
150.0   30.0   33.333333333333336
200.0   30.0   33.333333333333336
150.0   60.0   33.333333333333336
150.0   30.0   50.0
200.0   30.0   33.333333333333336
200.0   60.0   33.333333333333336
150.0   60.0   33.333333333333336
200.0   60.0   50.0
150.0   30.0   50.0
150.0   60.0   50.0
200.0   60.0   50.0
150.0   60.0   33.333333333333336
150.0   30.0   50.0
200.0   60.0   50.0
200.0   30.0   50.0
200.0   30.0   33.333333333333336
150.0   30.0   50.0
200.0   60.0   50.0
200.0   30.0   33.333333333333336
150.0   60.0   33.333333333333336
150.0   60.0   0.0
200.0   60.0   0.0
150.0   90.0   0.0
150.0   60.0   16.666666666666668
200.0   60.0   0.0
200.0   90.0   0.0
150.0   90.0   0.0
200.0   90.0   16.666666666666668
150.0   60.0   16.666666666666668
150.0   90.0   16.666666666666668
200.0   90.0   16.666666666666668
150.0   90.0   0.0
150.0   60.0   16.666666666666668
200.0   90.0   16.666666666666668
200.0   60.0   16.666666666666668
200.0   60.0   0.0
150.0   60.0   16.666666666666668
200.0   90.0   16.666666666666668
200.0   60.0   0.0
150.0   90.0   0.0
150.0   60.0   16.666666666666668
200.0   60.0   16.666666666666668
150.0   90.0   16.666666666666668
150.0   60.0   33.333333333333336
200.0   60.0   16.666666666666668
200.0   90.0   16.666666666666668
150.0   90.0   16.666666666666668
200.0   90.0   33.333333333333336
150.0   60.0   33.333333333333336
150.0   90.0   33.333333333333336
200.0   90.0   33.333333333333336
150.0   90.0   16.666666666666668
150.0   60.0   33.333333333333336
200.0   90.0   33.333333333333336
200.0   60.0   33.333333333333336
200.0   60.0   16.666666666666668
150.0   60.0   33.333333333333336
200.0   90.0   33.333333333333336
200.0   60.0   16.666666666666668
150.0   90.0   16.666666666666668
150.0   60.0   33.333333333333336
200.0   60.0   33.333333333333336
150.0   90.0   33.333333333333336
150.0   60.0   50.0
200.0   60.0   33.333333333333336
200.0   90.0   33.333333333333336
150.0   90.0   33.333333333333336
200.0   90.0   50.0
150.0   60.0   50.0
150.0   90.0   50.0
200.0   90.0   50.0
150.0   90.0   33.333333333333336
150.0   60.0   50.0
200.0   90.0   50.0
200.0   60.0   50.0
200.0   60.0   33.333333333333336
150.0   60.0   50.0
200.0   90.0   50.0
200.0   60.0   33.333333333333336
150.0   90.0   33.333333333333336
150.0   90.0   0.0
200.0   90.0   0.0
150.0   120.0   0.0
150.0   90.0   16.666666666666668
200.0   90.0   0.0
200.0   120.0   0.0
150.0   120.0   0.0
200.0   120.0   16.666666666666668
150.0   90.0   16.666666666666668
150.0   120.0   16.666666666666668
200.0   120.0   16.666666666666668
150.0   120.0   0.0
150.0   90.0   16.666666666666668
200.0   120.0   16.666666666666668
200.0   90.0   16.666666666666668
200.0   90.0   0.0
150.0   90.0   16.666666666666668
200.0   120.0   16.666666666666668
200.0   90.0   0.0
150.0   120.0   0.0
150.0   90.0   16.666666666666668
200.0   90.0   16.666666666666668
150.0   120.0   16.666666666666668
150.0   90.0   33.333333333333336
200.0   90.0   16.666666666666668
200.0   120.0   16.666666666666668
150.0   120.0   16.666666666666668
200.0   120.0   33.333333333333336
150.0   90.0   33.333333333333336
150.0   120.0   33.333333333333336
200.0   120.0   33.333333333333336
150.0   120.0   16.666666666666668
150.0   90.0   33.333333333333336
200.0   120.0   33.333333333333336
200.0   90.0   33.333333333333336
200.0   90.0   16.666666666666668
150.0   90.0   33.333333333333336
200.0   120.0   33.333333333333336
200.0   90.0   16.666666666666668
150.0   120.0   16.666666666666668
150.0   90.0   33.333333333333336
200.0   90.0   33.333333333333336
150.0   120.0   33.333333333333336
150.0   90.0   50.0
200.0   90.0   33.333333333333336
200.0   120.0   33.333333333333336
150.0   120.0   33.333333333333336
200.0   120.0   50.0
150.0   90.0   50.0
150.0   120.0   50.0
200.0   120.0   50.0
150.0   120.0   33.333333333333336
150.0   90.0   50.0
200.0   120.0   50.0
200.0   90.0   50.0
200.0   90.0   33.333333333333336
150.0   90.0   50.0
200.0   120.0   50.0
200.0   90.0   33.333333333333336
150.0   120.0   33.333333333333336
150.0   120.0   0.0
200.0   120.0   0.0
150.0   150.0   0.0
150.0   120.0   16.666666666666668
200.0   120.0   0.0
200.0   150.0   0.0
150.0   150.0   0.0
200.0   150.0   16.666666666666668
150.0   120.0   16.666666666666668
150.0   150.0   16.666666666666668
200.0   150.0   16.666666666666668
150.0   150.0   0.0
150.0   120.0   16.666666666666668
200.0   150.0   16.666666666666668
200.0   120.0   16.666666666666668
200.0   120.0   0.0
150.0   120.0   16.666666666666668
200.0   150.0   16.666666666666668
200.0   120.0   0.0
150.0   150.0   0.0
150.0   120.0   16.666666666666668
200.0   120.0   16.666666666666668
150.0   150.0   16.666666666666668
150.0   120.0   33.333333333333336
200.0   120.0   16.666666666666668
200.0   150.0   16.666666666666668
150.0   150.0   16.666666666666668
200.0   150.0   33.333333333333336
150.0   120.0   33.333333333333336
150.0   150.0   33.333333333333336
200.0   150.0   33.333333333333336
150.0   150.0   16.666666666666668
150.0   120.0   33.333333333333336
200.0   150.0   33.333333333333336
200.0   120.0   33.333333333333336
200.0   120.0   16.666666666666668
150.0   120.0   33.333333333333336
200.0   150.0   33.333333333333336
200.0   120.0   16.666666666666668
150.0   150.0   16.666666666666668
150.0   120.0   33.333333333333336
200.0   120.0   33.333333333333336
150.0   150.0   33.333333333333336
150.0   120.0   50.0
200.0   120.0   33.333333333333336
200.0   150.0   33.333333333333336
150.0   150.0   33.333333333333336
200.0   150.0   50.0
150.0   120.0   50.0
150.0   150.0   50.0
200.0   150.0   50.0
150.0   150.0   33.333333333333336
150.0   120.0   50.0
200.0   150.0   50.0
200.0   120.0   50.0
200.0   120.0   33.333333333333336
150.0   120.0   50.0
200.0   150.0   50.0
200.0   120.0   33.333333333333336
150.0   150.0   33.333333333333336
200.0   0.0   0.0
250.0   0.0   0.0
200.0   30.0   0.0
200.0   0.0   16.666666666666668
250.0   0.0   0.0
250.0   30.0   0.0
200.0   30.0   0.0
250.0   30.0   16.666666666666668
200.0   0.0   16.666666666666668
200.0   30.0   16.666666666666668
250.0   30.0   16.666666666666668
200.0   30.0   0.0
200.0   0.0   16.666666666666668
250.0   30.0   16.666666666666668
250.0   0.0   16.666666666666668
250.0   0.0   0.0
200.0   0.0   16.666666666666668
250.0   30.0   16.666666666666668
250.0   0.0   0.0
200.0   30.0   0.0
200.0   0.0   16.666666666666668
250.0   0.0   16.666666666666668
200.0   30.0   16.666666666666668
200.0   0.0   33.333333333333336
250.0   0.0   16.666666666666668
250.0   30.0   16.666666666666668
200.0   30.0   16.666666666666668
250.0   30.0   33.333333333333336
200.0   0.0   33.333333333333336
200.0   30.0   33.333333333333336
250.0   30.0   33.333333333333336
200.0   30.0   16.666666666666668
200.0   0.0   33.333333333333336
250.0   30.0   33.333333333333336
250.0   0.0   33.333333333333336
250.0   0.0   16.666666666666668
200.0   0.0   33.333333333333336
250.0   30.0   33.333333333333336
250.0   0.0   16.666666666666668
200.0   30.0   16.666666666666668
200.0   0.0   33.333333333333336
250.0   0.0   33.333333333333336
200.0   30.0   33.333333333333336
200.0   0.0   50.0
250.0   0.0   33.333333333333336
250.0   30.0   33.333333333333336
200.0   30.0   33.333333333333336
250.0   30.0   50.0
200.0   0.0   50.0
200.0   30.0   50.0
250.0   30.0   50.0
200.0   30.0   33.333333333333336
200.0   0.0   50.0
250.0   30.0   50.0
250.0   0.0   50.0
250.0   0.0   33.333333333333336
200.0   0.0   50.0
250.0   30.0   50.0
250.0   0.0   33.333333333333336
200.0   30.0   33.333333333333336
200.0   30.0   0.0
250.0   30.0   0.0
200.0   60.0   0.0
200.0   30.0   16.666666666666668
250.0   30.0   0.0
250.0   60.0   0.0
200.0   60.0   0.0
250.0   60.0   16.666666666666668
200.0   30.0   16.666666666666668
200.0   60.0   16.666666666666668
250.0   60.0   16.666666666666668
200.0   60.0   0.0
200.0   30.0   16.666666666666668
250.0   60.0   16.666666666666668
250.0   30.0   16.666666666666668
250.0   30.0   0.0
200.0   30.0   16.666666666666668
250.0   60.0   16.666666666666668
250.0   30.0   0.0
200.0   60.0   0.0
200.0   30.0   16.666666666666668
250.0   30.0   16.666666666666668
200.0   60.0   16.666666666666668
200.0   30.0   33.333333333333336
250.0   30.0   16.666666666666668
250.0   60.0   16.666666666666668
200.0   60.0   16.666666666666668
250.0   60.0   33.333333333333336
200.0   30.0   33.333333333333336
200.0   60.0   33.333333333333336
250.0   60.0   33.333333333333336
200.0   60.0   16.666666666666668
200.0   30.0   33.333333333333336
250.0   60.0   33.333333333333336
250.0   30.0   33.333333333333336
250.0   30.0   16.666666666666668
200.0   30.0   33.333333333333336
250.0   60.0   33.333333333333336
250.0   30.0   16.666666666666668
200.0   60.0   16.666666666666668
200.0   30.0   33.333333333333336
250.0   30.0   33.333333333333336
200.0   60.0   33.333333333333336
200.0   30.0   50.0
250.0   30.0   33.333333333333336
250.0   60.0   33.333333333333336
200.0   60.0   33.333333333333336
250.0   60.0   50.0
200.0   30.0   50.0
200.0   60.0   50.0
250.0   60.0   50.0
200.0   60.0   33.333333333333336
200.0   30.0   50.0
250.0   60.0   50.0
250.0   30.0   50.0
250.0   30.0   33.333333333333336
200.0   30.0   50.0
250.0   60.0   50.0
250.0   30.0   33.333333333333336
200.0   60.0   33.333333333333336
200.0   60.0   0.0
250.0   60.0   0.0
200.0   90.0   0.0
200.0   60.0   16.666666666666668
250.0   60.0   0.0
250.0   90.0   0.0
200.0   90.0   0.0
250.0   90.0   16.666666666666668
200.0   60.0   16.666666666666668
200.0   90.0   16.666666666666668
250.0   90.0   16.666666666666668
200.0   90.0   0.0
200.0   60.0   16.666666666666668
250.0   90.0   16.666666666666668
250.0   60.0   16.666666666666668
250.0   60.0   0.0
200.0   60.0   16.666666666666668
250.0   90.0   16.666666666666668
250.0   60.0   0.0
200.0   90.0   0.0
200.0   60.0   16.666666666666668
250.0   60.0   16.666666666666668
200.0   90.0   16.666666666666668
200.0   60.0   33.333333333333336
250.0   60.0   16.666666666666668
250.0   90.0   16.666666666666668
200.0   90.0   16.666666666666668
250.0   90.0   33.333333333333336
200.0   60.0   33.333333333333336
200.0   90.0   33.333333333333336
250.0   90.0   33.333333333333336
200.0   90.0   16.666666666666668
200.0   60.0   33.333333333333336
250.0   90.0   33.333333333333336
250.0   60.0   33.333333333333336
250.0   60.0   16.666666666666668
200.0   60.0   33.333333333333336
250.0   90.0   33.333333333333336
250.0   60.0   16.666666666666668
200.0   90.0   16.666666666666668
200.0   60.0   33.333333333333336
250.0   60.0   33.333333333333336
200.0   90.0   33.333333333333336
200.0   60.0   50.0
250.0   60.0   33.333333333333336
250.0   90.0   33.333333333333336
200.0   90.0   33.333333333333336
250.0   90.0   50.0
200.0   60.0   50.0
200.0   90.0   50.0
250.0   90.0   50.0
200.0   90.0   33.333333333333336
200.0   60.0   50.0
250.0   90.0   50.0
250.0   60.0   50.0
250.0   60.0   33.333333333333336
200.0   60.0   50.0
250.0   90.0   50.0
250.0   60.0   33.333333333333336
200.0   90.0   33.333333333333336
200.0   90.0   0.0
250.0   90.0   0.0
200.0   120.0   0.0
200.0   90.0   16.666666666666668
250.0   90.0   0.0
250.0   120.0   0.0
200.0   120.0   0.0
250.0   120.0   16.666666666666668
200.0   90.0   16.666666666666668
200.0   120.0   16.666666666666668
250.0   120.0   16.666666666666668
200.0   120.0   0.0
200.0   90.0   16.666666666666668
250.0   120.0   16.666666666666668
250.0   90.0   16.666666666666668
250.0   90.0   0.0
200.0   90.0   16.666666666666668
250.0   120.0   16.666666666666668
250.0   90.0   0.0
200.0   120.0   0.0
200.0   90.0   16.666666666666668
250.0   90.0   16.666666666666668
200.0   120.0   16.666666666666668
200.0   90.0   33.333333333333336
250.0   90.0   16.666666666666668
250.0   120.0   16.666666666666668
200.0   120.0   16.666666666666668
250.0   120.0   33.333333333333336
200.0   90.0   33.333333333333336
200.0   120.0   33.333333333333336
250.0   120.0   33.333333333333336
200.0   120.0   16.666666666666668
200.0   90.0   33.333333333333336
250.0   120.0   33.333333333333336
250.0   90.0   33.333333333333336
250.0   90.0   16.666666666666668
200.0   90.0   33.333333333333336
250.0   120.0   33.333333333333336
250.0   90.0   16.666666666666668
200.0   120.0   16.666666666666668
200.0   90.0   33.333333333333336
250.0   90.0   33.333333333333336
200.0   120.0   33.333333333333336
200.0   90.0   50.0
250.0   90.0   33.333333333333336
250.0   120.0   33.333333333333336
200.0   120.0   33.333333333333336
250.0   120.0   50.0
200.0   90.0   50.0
200.0   120.0   50.0
250.0   120.0   50.0
200.0   120.0   33.333333333333336
200.0   90.0   50.0
250.0   120.0   50.0
250.0   90.0   50.0
250.0   90.0   33.333333333333336
200.0   90.0   50.0
250.0   120.0   50.0
250.0   90.0   33.333333333333336
200.0   120.0   33.333333333333336
200.0   120.0   0.0
250.0   120.0   0.0
200.0   150.0   0.0
200.0   120.0   16.666666666666668
250.0   120.0   0.0
250.0   150.0   0.0
200.0   150.0   0.0
250.0   150.0   16.666666666666668
200.0   120.0   16.666666666666668
200.0   150.0   16.666666666666668
250.0   150.0   16.666666666666668
200.0   150.0   0.0
200.0   120.0   16.666666666666668
250.0   150.0   16.666666666666668
250.0   120.0   16.666666666666668
250.0   120.0   0.0
200.0   120.0   16.666666666666668
250.0   150.0   16.666666666666668
250.0   120.0   0.0
200.0   150.0   0.0
200.0   120.0   16.666666666666668
250.0   120.0   16.666666666666668
200.0   150.0   16.666666666666668
200.0   120.0   33.333333333333336
250.0   120.0   16.666666666666668
250.0   150.0   16.666666666666668
200.0   150.0   16.666666666666668
250.0   150.0   33.333333333333336
200.0   120.0   33.333333333333336
200.0   150.0   33.333333333333336
250.0   150.0   33.333333333333336
200.0   150.0   16.666666666666668
200.0   120.0   33.333333333333336
250.0   150.0   33.333333333333336
250.0   120.0   33.333333333333336
250.0   120.0   16.666666666666668
200.0   120.0   33.333333333333336
250.0   150.0   33.333333333333336
250.0   120.0   16.666666666666668
200.0   150.0   16.666666666666668
200.0   120.0   33.333333333333336
250.0   120.0   33.333333333333336
200.0   150.0   33.333333333333336
200.0   120.0   50.0
250.0   120.0   33.333333333333336
250.0   150.0   33.333333333333336
200.0   150.0   33.333333333333336
250.0   150.0   50.0
200.0   120.0   50.0
200.0   150.0   50.0
250.0   150.0   50.0
200.0   150.0   33.333333333333336
200.0   120.0   50.0
250.0   150.0   50.0
250.0   120.0   50.0
250.0   120.0   33.333333333333336
200.0   120.0   50.0
250.0   150.0   50.0
250.0   120.0   33.333333333333336
200.0   150.0   33.333333333333336
250.0   0.0   0.0
300.0   0.0   0.0
250.0   30.0   0.0
250.0   0.0   16.666666666666668
300.0   0.0   0.0
300.0   30.0   0.0
250.0   30.0   0.0
300.0   30.0   16.666666666666668
250.0   0.0   16.666666666666668
250.0   30.0   16.666666666666668
300.0   30.0   16.666666666666668
250.0   30.0   0.0
250.0   0.0   16.666666666666668
300.0   30.0   16.666666666666668
300.0   0.0   16.666666666666668
300.0   0.0   0.0
250.0   0.0   16.666666666666668
300.0   30.0   16.666666666666668
300.0   0.0   0.0
250.0   30.0   0.0
250.0   0.0   16.666666666666668
300.0   0.0   16.666666666666668
250.0   30.0   16.666666666666668
250.0   0.0   33.333333333333336
300.0   0.0   16.666666666666668
300.0   30.0   16.666666666666668
250.0   30.0   16.666666666666668
300.0   30.0   33.333333333333336
250.0   0.0   33.333333333333336
250.0   30.0   33.333333333333336
300.0   30.0   33.333333333333336
250.0   30.0   16.666666666666668
250.0   0.0   33.333333333333336
300.0   30.0   33.333333333333336
300.0   0.0   33.333333333333336
300.0   0.0   16.666666666666668
250.0   0.0   33.333333333333336
300.0   30.0   33.333333333333336
300.0   0.0   16.666666666666668
250.0   30.0   16.666666666666668
250.0   0.0   33.333333333333336
300.0   0.0   33.333333333333336
250.0   30.0   33.333333333333336
250.0   0.0   50.0
300.0   0.0   33.333333333333336
300.0   30.0   33.333333333333336
250.0   30.0   33.333333333333336
300.0   30.0   50.0
250.0   0.0   50.0
250.0   30.0   50.0
300.0   30.0   50.0
250.0   30.0   33.333333333333336
250.0   0.0   50.0
300.0   30.0   50.0
300.0   0.0   50.0
300.0   0.0   33.333333333333336
250.0   0.0   50.0
300.0   30.0   50.0
300.0   0.0   33.333333333333336
250.0   30.0   33.333333333333336
250.0   30.0   0.0
300.0   30.0   0.0
250.0   60.0   0.0
250.0   30.0   16.666666666666668
300.0   30.0   0.0
300.0   60.0   0.0
250.0   60.0   0.0
300.0   60.0   16.666666666666668
250.0   30.0   16.666666666666668
250.0   60.0   16.666666666666668
300.0   60.0   16.666666666666668
250.0   60.0   0.0
250.0   30.0   16.666666666666668
300.0   60.0   16.666666666666668
300.0   30.0   16.666666666666668
300.0   30.0   0.0
250.0   30.0   16.666666666666668
300.0   60.0   16.666666666666668
300.0   30.0   0.0
250.0   60.0   0.0
250.0   30.0   16.666666666666668
300.0   30.0   16.666666666666668
250.0   60.0   16.666666666666668
250.0   30.0   33.333333333333336
300.0   30.0   16.666666666666668
300.0   60.0   16.666666666666668
250.0   60.0   16.666666666666668
300.0   60.0   33.333333333333336
250.0   30.0   33.333333333333336
250.0   60.0   33.333333333333336
300.0   60.0   33.333333333333336
250.0   60.0   16.666666666666668
250.0   30.0   33.333333333333336
300.0   60.0   33.333333333333336
300.0   30.0   33.333333333333336
300.0   30.0   16.666666666666668
250.0   30.0   33.333333333333336
300.0   60.0   33.333333333333336
300.0   30.0   16.666666666666668
250.0   60.0   16.666666666666668
250.0   30.0   33.333333333333336
300.0   30.0   33.333333333333336
250.0   60.0   33.333333333333336
250.0   30.0   50.0
300.0   30.0   33.333333333333336
300.0   60.0   33.333333333333336
250.0   60.0   33.333333333333336
300.0   60.0   50.0
250.0   30.0   50.0
250.0   60.0   50.0
300.0   60.0   50.0
250.0   60.0   33.333333333333336
250.0   30.0   50.0
300.0   60.0   50.0
300.0   30.0   50.0
300.0   30.0   33.333333333333336
250.0   30.0   50.0
300.0   60.0   50.0
300.0   30.0   33.333333333333336
250.0   60.0   33.333333333333336
250.0   60.0   0.0
300.0   60.0   0.0
250.0   90.0   0.0
250.0   60.0   16.666666666666668
300.0   60.0   0.0
300.0   90.0   0.0
250.0   90.0   0.0
300.0   90.0   16.666666666666668
250.0   60.0   16.666666666666668
250.0   90.0   16.666666666666668
300.0   90.0   16.666666666666668
250.0   90.0   0.0
250.0   60.0   16.666666666666668
300.0   90.0   16.666666666666668
300.0   60.0   16.666666666666668
300.0   60.0   0.0
250.0   60.0   16.666666666666668
300.0   90.0   16.666666666666668
300.0   60.0   0.0
250.0   90.0   0.0
250.0   60.0   16.666666666666668
300.0   60.0   16.666666666666668
250.0   90.0   16.666666666666668
250.0   60.0   33.333333333333336
300.0   60.0   16.666666666666668
300.0   90.0   16.666666666666668
250.0   90.0   16.666666666666668
300.0   90.0   33.333333333333336
250.0   60.0   33.333333333333336
250.0   90.0   33.333333333333336
300.0   90.0   33.333333333333336
250.0   90.0   16.666666666666668
250.0   60.0   33.333333333333336
300.0   90.0   33.333333333333336
300.0   60.0   33.333333333333336
300.0   60.0   16.666666666666668
250.0   60.0   33.333333333333336
300.0   90.0   33.333333333333336
300.0   60.0   16.666666666666668
250.0   90.0   16.666666666666668
250.0   60.0   33.333333333333336
300.0   60.0   33.333333333333336
250.0   90.0   33.333333333333336
250.0   60.0   50.0
300.0   60.0   33.333333333333336
300.0   90.0   33.333333333333336
250.0   90.0   33.333333333333336
300.0   90.0   50.0
250.0   60.0   50.0
250.0   90.0   50.0
300.0   90.0   50.0
250.0   90.0   33.333333333333336
250.0   60.0   50.0
300.0   90.0   50.0
300.0   60.0   50.0
300.0   60.0   33.333333333333336
250.0   60.0   50.0
300.0   90.0   50.0
300.0   60.0   33.333333333333336
250.0   90.0   33.333333333333336
250.0   90.0   0.0
300.0   90.0   0.0
250.0   120.0   0.0
250.0   90.0   16.666666666666668
300.0   90.0   0.0
300.0   120.0   0.0
250.0   120.0   0.0
300.0   120.0   16.666666666666668
250.0   90.0   16.666666666666668
250.0   120.0   16.666666666666668
300.0   120.0   16.666666666666668
250.0   120.0   0.0
250.0   90.0   16.666666666666668
300.0   120.0   16.666666666666668
300.0   90.0   16.666666666666668
300.0   90.0   0.0
250.0   90.0   16.666666666666668
300.0   120.0   16.666666666666668
300.0   90.0   0.0
250.0   120.0   0.0
250.0   90.0   16.666666666666668
300.0   90.0   16.666666666666668
250.0   120.0   16.666666666666668
250.0   90.0   33.333333333333336
300.0   90.0   16.666666666666668
300.0   120.0   16.666666666666668
250.0   120.0   16.666666666666668
300.0   120.0   33.333333333333336
250.0   90.0   33.333333333333336
250.0   120.0   33.333333333333336
300.0   120.0   33.333333333333336
250.0   120.0   16.666666666666668
250.0   90.0   33.333333333333336
300.0   120.0   33.333333333333336
300.0   90.0   33.333333333333336
300.0   90.0   16.666666666666668
250.0   90.0   33.333333333333336
300.0   120.0   33.333333333333336
300.0   90.0   16.666666666666668
250.0   120.0   16.666666666666668
250.0   90.0   33.333333333333336
300.0   90.0   33.333333333333336
250.0   120.0   33.333333333333336
250.0   90.0   50.0
300.0   90.0   33.333333333333336
300.0   120.0   33.333333333333336
250.0   120.0   33.333333333333336
300.0   120.0   50.0
250.0   90.0   50.0
250.0   120.0   50.0
300.0   120.0   50.0
250.0   120.0   33.333333333333336
250.0   90.0   50.0
300.0   120.0   50.0
300.0   90.0   50.0
300.0   90.0   33.333333333333336
250.0   90.0   50.0
300.0   120.0   50.0
300.0   90.0   33.333333333333336
250.0   120.0   33.333333333333336
250.0   120.0   0.0
300.0   120.0   0.0
250.0   150.0   0.0
250.0   120.0   16.666666666666668
300.0   120.0   0.0
300.0   150.0   0.0
250.0   150.0   0.0
300.0   150.0   16.666666666666668
250.0   120.0   16.666666666666668
250.0   150.0   16.666666666666668
300.0   150.0   16.666666666666668
250.0   150.0   0.0
250.0   120.0   16.666666666666668
300.0   150.0   16.666666666666668
300.0   120.0   16.666666666666668
300.0   120.0   0.0
250.0   120.0   16.666666666666668
300.0   150.0   16.666666666666668
300.0   120.0   0.0
250.0   150.0   0.0
250.0   120.0   16.666666666666668
300.0   120.0   16.666666666666668
250.0   150.0   16.666666666666668
250.0   120.0   33.333333333333336
300.0   120.0   16.666666666666668
300.0   150.0   16.666666666666668
250.0   150.0   16.666666666666668
300.0   150.0   33.333333333333336
250.0   120.0   33.333333333333336
250.0   150.0   33.333333333333336
300.0   150.0   33.333333333333336
250.0   150.0   16.666666666666668
250.0   120.0   33.333333333333336
300.0   150.0   33.333333333333336
300.0   120.0   33.333333333333336
300.0   120.0   16.666666666666668
250.0   120.0   33.333333333333336
300.0   150.0   33.333333333333336
300.0   120.0   16.666666666666668
250.0   150.0   16.666666666666668
250.0   120.0   33.333333333333336
300.0   120.0   33.333333333333336
250.0   150.0   33.333333333333336
250.0   120.0   50.0
300.0   120.0   33.333333333333336
300.0   150.0   33.333333333333336
250.0   150.0   33.333333333333336
300.0   150.0   50.0
250.0   120.0   50.0
250.0   150.0   50.0
300.0   150.0   50.0
250.0   150.0   33.333333333333336
250.0   120.0   50.0
300.0   150.0   50.0
300.0   120.0   50.0
300.0   120.0   33.333333333333336
250.0   120.0   50.0
300.0   150.0   50.0
300.0   120.0   33.333333333333336
250.0   150.0   33.333333333333336
300.0   0.0   0.0
350.0   0.0   0.0
300.0   30.0   0.0
300.0   0.0   16.666666666666668
350.0   0.0   0.0
350.0   30.0   0.0
300.0   30.0   0.0
350.0   30.0   16.666666666666668
300.0   0.0   16.666666666666668
300.0   30.0   16.666666666666668
350.0   30.0   16.666666666666668
300.0   30.0   0.0
300.0   0.0   16.666666666666668
350.0   30.0   16.666666666666668
350.0   0.0   16.666666666666668
350.0   0.0   0.0
300.0   0.0   16.666666666666668
350.0   30.0   16.666666666666668
350.0   0.0   0.0
300.0   30.0   0.0
300.0   0.0   16.666666666666668
350.0   0.0   16.666666666666668
300.0   30.0   16.666666666666668
300.0   0.0   33.333333333333336
350.0   0.0   16.666666666666668
350.0   30.0   16.666666666666668
300.0   30.0   16.666666666666668
350.0   30.0   33.333333333333336
300.0   0.0   33.333333333333336
300.0   30.0   33.333333333333336
350.0   30.0   33.333333333333336
300.0   30.0   16.666666666666668
300.0   0.0   33.333333333333336
350.0   30.0   33.333333333333336
350.0   0.0   33.333333333333336
350.0   0.0   16.666666666666668
300.0   0.0   33.333333333333336
350.0   30.0   33.333333333333336
350.0   0.0   16.666666666666668
300.0   30.0   16.666666666666668
300.0   0.0   33.333333333333336
350.0   0.0   33.333333333333336
300.0   30.0   33.333333333333336
300.0   0.0   50.0
350.0   0.0   33.333333333333336
350.0   30.0   33.333333333333336
300.0   30.0   33.333333333333336
350.0   30.0   50.0
300.0   0.0   50.0
300.0   30.0   50.0
350.0   30.0   50.0
300.0   30.0   33.333333333333336
300.0   0.0   50.0
350.0   30.0   50.0
350.0   0.0   50.0
350.0   0.0   33.333333333333336
300.0   0.0   50.0
350.0   30.0   50.0
350.0   0.0   33.333333333333336
300.0   30.0   33.333333333333336
300.0   30.0   0.0
350.0   30.0   0.0
300.0   60.0   0.0
300.0   30.0   16.666666666666668
350.0   30.0   0.0
350.0   60.0   0.0
300.0   60.0   0.0
350.0   60.0   16.666666666666668
300.0   30.0   16.666666666666668
300.0   60.0   16.666666666666668
350.0   60.0   16.666666666666668
300.0   60.0   0.0
300.0   30.0   16.666666666666668
350.0   60.0   16.666666666666668
350.0   30.0   16.666666666666668
350.0   30.0   0.0
300.0   30.0   16.666666666666668
350.0   60.0   16.666666666666668
350.0   30.0   0.0
300.0   60.0   0.0
300.0   30.0   16.666666666666668
350.0   30.0   16.666666666666668
300.0   60.0   16.666666666666668
300.0   30.0   33.333333333333336
350.0   30.0   16.666666666666668
350.0   60.0   16.666666666666668
300.0   60.0   16.666666666666668
350.0   60.0   33.333333333333336
300.0   30.0   33.333333333333336
300.0   60.0   33.333333333333336
350.0   60.0   33.333333333333336
300.0   60.0   16.666666666666668
300.0   30.0   33.333333333333336
350.0   60.0   33.333333333333336
350.0   30.0   33.333333333333336
350.0   30.0   16.666666666666668
300.0   30.0   33.333333333333336
350.0   60.0   33.333333333333336
350.0   30.0   16.666666666666668
300.0   60.0   16.666666666666668
300.0   30.0   33.333333333333336
350.0   30.0   33.333333333333336
300.0   60.0   33.333333333333336
300.0   30.0   50.0
350.0   30.0   33.333333333333336
350.0   60.0   33.333333333333336
300.0   60.0   33.333333333333336
350.0   60.0   50.0
300.0   30.0   50.0
300.0   60.0   50.0
350.0   60.0   50.0
300.0   60.0   33.333333333333336
300.0   30.0   50.0
350.0   60.0   50.0
350.0   30.0   50.0
350.0   30.0   33.333333333333336
300.0   30.0   50.0
350.0   60.0   50.0
350.0   30.0   33.333333333333336
300.0   60.0   33.333333333333336
300.0   60.0   0.0
350.0   60.0   0.0
300.0   90.0   0.0
300.0   60.0   16.666666666666668
350.0   60.0   0.0
350.0   90.0   0.0
300.0   90.0   0.0
350.0   90.0   16.666666666666668
300.0   60.0   16.666666666666668
300.0   90.0   16.666666666666668
350.0   90.0   16.666666666666668
300.0   90.0   0.0
300.0   60.0   16.666666666666668
350.0   90.0   16.666666666666668
350.0   60.0   16.666666666666668
350.0   60.0   0.0
300.0   60.0   16.666666666666668
350.0   90.0   16.666666666666668
350.0   60.0   0.0
300.0   90.0   0.0
300.0   60.0   16.666666666666668
350.0   60.0   16.666666666666668
300.0   90.0   16.666666666666668
300.0   60.0   33.333333333333336
350.0   60.0   16.666666666666668
350.0   90.0   16.666666666666668
300.0   90.0   16.666666666666668
350.0   90.0   33.333333333333336
300.0   60.0   33.333333333333336
300.0   90.0   33.333333333333336
350.0   90.0   33.333333333333336
300.0   90.0   16.666666666666668
300.0   60.0   33.333333333333336
350.0   90.0   33.333333333333336
350.0   60.0   33.333333333333336
350.0   60.0   16.666666666666668
300.0   60.0   33.333333333333336
350.0   90.0   33.333333333333336
350.0   60.0   16.666666666666668
300.0   90.0   16.666666666666668
300.0   60.0   33.333333333333336
350.0   60.0   33.333333333333336
300.0   90.0   33.333333333333336
300.0   60.0   50.0
350.0   60.0   33.333333333333336
350.0   90.0   33.333333333333336
300.0   90.0   33.333333333333336
350.0   90.0   50.0
300.0   60.0   50.0
300.0   90.0   50.0
350.0   90.0   50.0
300.0   90.0   33.333333333333336
300.0   60.0   50.0
350.0   90.0   50.0
350.0   60.0   50.0
350.0   60.0   33.333333333333336
300.0   60.0   50.0
350.0   90.0   50.0
350.0   60.0   33.333333333333336
300.0   90.0   33.333333333333336
300.0   90.0   0.0
350.0   90.0   0.0
300.0   120.0   0.0
300.0   90.0   16.666666666666668
350.0   90.0   0.0
350.0   120.0   0.0
300.0   120.0   0.0
350.0   120.0   16.666666666666668
300.0   90.0   16.666666666666668
300.0   120.0   16.666666666666668
350.0   120.0   16.666666666666668
300.0   120.0   0.0
300.0   90.0   16.666666666666668
350.0   120.0   16.666666666666668
350.0   90.0   16.666666666666668
350.0   90.0   0.0
300.0   90.0   16.666666666666668
350.0   120.0   16.666666666666668
350.0   90.0   0.0
300.0   120.0   0.0
300.0   90.0   16.666666666666668
350.0   90.0   16.666666666666668
300.0   120.0   16.666666666666668
300.0   90.0   33.333333333333336
350.0   90.0   16.666666666666668
350.0   120.0   16.666666666666668
300.0   120.0   16.666666666666668
350.0   120.0   33.333333333333336
300.0   90.0   33.333333333333336
300.0   120.0   33.333333333333336
350.0   120.0   33.333333333333336
300.0   120.0   16.666666666666668
300.0   90.0   33.333333333333336
350.0   120.0   33.333333333333336
350.0   90.0   33.333333333333336
350.0   90.0   16.666666666666668
300.0   90.0   33.333333333333336
350.0   120.0   33.333333333333336
350.0   90.0   16.666666666666668
300.0   120.0   16.666666666666668
300.0   90.0   33.333333333333336
350.0   90.0   33.333333333333336
300.0   120.0   33.333333333333336
300.0   90.0   50.0
350.0   90.0   33.333333333333336
350.0   120.0   33.333333333333336
300.0   120.0   33.333333333333336
350.0   120.0   50.0
300.0   90.0   50.0
300.0   120.0   50.0
350.0   120.0   50.0
300.0   120.0   33.333333333333336
300.0   90.0   50.0
350.0   120.0   50.0
350.0   90.0   50.0
350.0   90.0   33.333333333333336
300.0   90.0   50.0
350.0   120.0   50.0
350.0   90.0   33.333333333333336
300.0   120.0   33.333333333333336
300.0   120.0   0.0
350.0   120.0   0.0
300.0   150.0   0.0
300.0   120.0   16.666666666666668
350.0   120.0   0.0
350.0   150.0   0.0
300.0   150.0   0.0
350.0   150.0   16.666666666666668
300.0   120.0   16.666666666666668
300.0   150.0   16.666666666666668
350.0   150.0   16.666666666666668
300.0   150.0   0.0
300.0   120.0   16.666666666666668
350.0   150.0   16.666666666666668
350.0   120.0   16.666666666666668
350.0   120.0   0.0
300.0   120.0   16.666666666666668
350.0   150.0   16.666666666666668
350.0   120.0   0.0
300.0   150.0   0.0
300.0   120.0   16.666666666666668
350.0   120.0   16.666666666666668
300.0   150.0   16.666666666666668
300.0   120.0   33.333333333333336
350.0   120.0   16.666666666666668
350.0   150.0   16.666666666666668
300.0   150.0   16.666666666666668
350.0   150.0   33.333333333333336
300.0   120.0   33.333333333333336
300.0   150.0   33.333333333333336
350.0   150.0   33.333333333333336
300.0   150.0   16.666666666666668
300.0   120.0   33.333333333333336
350.0   150.0   33.333333333333336
350.0   120.0   33.333333333333336
350.0   120.0   16.666666666666668
300.0   120.0   33.333333333333336
350.0   150.0   33.333333333333336
350.0   120.0   16.666666666666668
300.0   150.0   16.666666666666668
300.0   120.0   33.333333333333336
350.0   120.0   33.333333333333336
300.0   150.0   33.333333333333336
300.0   120.0   50.0
350.0   120.0   33.333333333333336
350.0   150.0   33.333333333333336
300.0   150.0   33.333333333333336
350.0   150.0   50.0
300.0   120.0   50.0
300.0   150.0   50.0
350.0   150.0   50.0
300.0   150.0   33.333333333333336
300.0   120.0   50.0
350.0   150.0   50.0
350.0   120.0   50.0
350.0   120.0   33.333333333333336
300.0   120.0   50.0
350.0   150.0   50.0
350.0   120.0   33.333333333333336
300.0   150.0   33.333333333333336
350.0   0.0   0.0
400.0   0.0   0.0
350.0   30.0   0.0
350.0   0.0   16.666666666666668
400.0   0.0   0.0
400.0   30.0   0.0
350.0   30.0   0.0
400.0   30.0   16.666666666666668
350.0   0.0   16.666666666666668
350.0   30.0   16.666666666666668
400.0   30.0   16.666666666666668
350.0   30.0   0.0
350.0   0.0   16.666666666666668
400.0   30.0   16.666666666666668
400.0   0.0   16.666666666666668
400.0   0.0   0.0
350.0   0.0   16.666666666666668
400.0   30.0   16.666666666666668
400.0   0.0   0.0
350.0   30.0   0.0
350.0   0.0   16.666666666666668
400.0   0.0   16.666666666666668
350.0   30.0   16.666666666666668
350.0   0.0   33.333333333333336
400.0   0.0   16.666666666666668
400.0   30.0   16.666666666666668
350.0   30.0   16.666666666666668
400.0   30.0   33.333333333333336
350.0   0.0   33.333333333333336
350.0   30.0   33.333333333333336
400.0   30.0   33.333333333333336
350.0   30.0   16.666666666666668
350.0   0.0   33.333333333333336
400.0   30.0   33.333333333333336
400.0   0.0   33.333333333333336
400.0   0.0   16.666666666666668
350.0   0.0   33.333333333333336
400.0   30.0   33.333333333333336
400.0   0.0   16.666666666666668
350.0   30.0   16.666666666666668
350.0   0.0   33.333333333333336
400.0   0.0   33.333333333333336
350.0   30.0   33.333333333333336
350.0   0.0   50.0
400.0   0.0   33.333333333333336
400.0   30.0   33.333333333333336
350.0   30.0   33.333333333333336
400.0   30.0   50.0
350.0   0.0   50.0
350.0   30.0   50.0
400.0   30.0   50.0
350.0   30.0   33.333333333333336
350.0   0.0   50.0
400.0   30.0   50.0
400.0   0.0   50.0
400.0   0.0   33.333333333333336
350.0   0.0   50.0
400.0   30.0   50.0
400.0   0.0   33.333333333333336
350.0   30.0   33.333333333333336
350.0   30.0   0.0
400.0   30.0   0.0
350.0   60.0   0.0
350.0   30.0   16.666666666666668
400.0   30.0   0.0
400.0   60.0   0.0
350.0   60.0   0.0
400.0   60.0   16.666666666666668
350.0   30.0   16.666666666666668
350.0   60.0   16.666666666666668
400.0   60.0   16.666666666666668
350.0   60.0   0.0
350.0   30.0   16.666666666666668
400.0   60.0   16.666666666666668
400.0   30.0   16.666666666666668
400.0   30.0   0.0
350.0   30.0   16.666666666666668
400.0   60.0   16.666666666666668
400.0   30.0   0.0
350.0   60.0   0.0
350.0   30.0   16.666666666666668
400.0   30.0   16.666666666666668
350.0   60.0   16.666666666666668
350.0   30.0   33.333333333333336
400.0   30.0   16.666666666666668
400.0   60.0   16.666666666666668
350.0   60.0   16.666666666666668
400.0   60.0   33.333333333333336
350.0   30.0   33.333333333333336
350.0   60.0   33.333333333333336
400.0   60.0   33.333333333333336
350.0   60.0   16.666666666666668
350.0   30.0   33.333333333333336
400.0   60.0   33.333333333333336
400.0   30.0   33.333333333333336
400.0   30.0   16.666666666666668
350.0   30.0   33.333333333333336
400.0   60.0   33.333333333333336
400.0   30.0   16.666666666666668
350.0   60.0   16.666666666666668
350.0   30.0   33.333333333333336
400.0   30.0   33.333333333333336
350.0   60.0   33.333333333333336
350.0   30.0   50.0
400.0   30.0   33.333333333333336
400.0   60.0   33.333333333333336
350.0   60.0   33.333333333333336
400.0   60.0   50.0
350.0   30.0   50.0
350.0   60.0   50.0
400.0   60.0   50.0
350.0   60.0   33.333333333333336
350.0   30.0   50.0
400.0   60.0   50.0
400.0   30.0   50.0
400.0   30.0   33.333333333333336
350.0   30.0   50.0
400.0   60.0   50.0
400.0   30.0   33.333333333333336
350.0   60.0   33.333333333333336
350.0   60.0   0.0
400.0   60.0   0.0
350.0   90.0   0.0
350.0   60.0   16.666666666666668
400.0   60.0   0.0
400.0   90.0   0.0
350.0   90.0   0.0
400.0   90.0   16.666666666666668
350.0   60.0   16.666666666666668
350.0   90.0   16.666666666666668
400.0   90.0   16.666666666666668
350.0   90.0   0.0
350.0   60.0   16.666666666666668
400.0   90.0   16.666666666666668
400.0   60.0   16.666666666666668
400.0   60.0   0.0
350.0   60.0   16.666666666666668
400.0   90.0   16.666666666666668
400.0   60.0   0.0
350.0   90.0   0.0
350.0   60.0   16.666666666666668
400.0   60.0   16.666666666666668
350.0   90.0   16.666666666666668
350.0   60.0   33.333333333333336
400.0   60.0   16.666666666666668
400.0   90.0   16.666666666666668
350.0   90.0   16.666666666666668
400.0   90.0   33.333333333333336
350.0   60.0   33.333333333333336
350.0   90.0   33.333333333333336
400.0   90.0   33.333333333333336
350.0   90.0   16.666666666666668
350.0   60.0   33.333333333333336
400.0   90.0   33.333333333333336
400.0   60.0   33.333333333333336
400.0   60.0   16.666666666666668
350.0   60.0   33.333333333333336
400.0   90.0   33.333333333333336
400.0   60.0   16.666666666666668
350.0   90.0   16.666666666666668
350.0   60.0   33.333333333333336
400.0   60.0   33.333333333333336
350.0   90.0   33.333333333333336
350.0   60.0   50.0
400.0   60.0   33.333333333333336
400.0   90.0   33.333333333333336
350.0   90.0   33.333333333333336
400.0   90.0   50.0
350.0   60.0   50.0
350.0   90.0   50.0
400.0   90.0   50.0
350.0   90.0   33.333333333333336
350.0   60.0   50.0
400.0   90.0   50.0
400.0   60.0   50.0
400.0   60.0   33.333333333333336
350.0   60.0   50.0
400.0   90.0   50.0
400.0   60.0   33.333333333333336
350.0   90.0   33.333333333333336
350.0   90.0   0.0
400.0   90.0   0.0
350.0   120.0   0.0
350.0   90.0   16.666666666666668
400.0   90.0   0.0
400.0   120.0   0.0
350.0   120.0   0.0
400.0   120.0   16.666666666666668
350.0   90.0   16.666666666666668
350.0   120.0   16.666666666666668
400.0   120.0   16.666666666666668
350.0   120.0   0.0
350.0   90.0   16.666666666666668
400.0   120.0   16.666666666666668
400.0   90.0   16.666666666666668
400.0   90.0   0.0
350.0   90.0   16.666666666666668
400.0   120.0   16.666666666666668
400.0   90.0   0.0
350.0   120.0   0.0
350.0   90.0   16.666666666666668
400.0   90.0   16.666666666666668
350.0   120.0   16.666666666666668
350.0   90.0   33.333333333333336
400.0   90.0   16.666666666666668
400.0   120.0   16.666666666666668
350.0   120.0   16.666666666666668
400.0   120.0   33.333333333333336
350.0   90.0   33.333333333333336
350.0   120.0   33.333333333333336
400.0   120.0   33.333333333333336
350.0   120.0   16.666666666666668
350.0   90.0   33.333333333333336
400.0   120.0   33.333333333333336
400.0   90.0   33.333333333333336
400.0   90.0   16.666666666666668
350.0   90.0   33.333333333333336
400.0   120.0   33.333333333333336
400.0   90.0   16.666666666666668
350.0   120.0   16.666666666666668
350.0   90.0   33.333333333333336
400.0   90.0   33.333333333333336
350.0   120.0   33.333333333333336
350.0   90.0   50.0
400.0   90.0   33.333333333333336
400.0   120.0   33.333333333333336
350.0   120.0   33.333333333333336
400.0   120.0   50.0
350.0   90.0   50.0
350.0   120.0   50.0
400.0   120.0   50.0
350.0   120.0   33.333333333333336
350.0   90.0   50.0
400.0   120.0   50.0
400.0   90.0   50.0
400.0   90.0   33.333333333333336
350.0   90.0   50.0
400.0   120.0   50.0
400.0   90.0   33.333333333333336
350.0   120.0   33.333333333333336
350.0   120.0   0.0
400.0   120.0   0.0
350.0   150.0   0.0
350.0   120.0   16.666666666666668
400.0   120.0   0.0
400.0   150.0   0.0
350.0   150.0   0.0
400.0   150.0   16.666666666666668
350.0   120.0   16.666666666666668
350.0   150.0   16.666666666666668
400.0   150.0   16.666666666666668
350.0   150.0   0.0
350.0   120.0   16.666666666666668
400.0   150.0   16.666666666666668
400.0   120.0   16.666666666666668
400.0   120.0   0.0
350.0   120.0   16.666666666666668
400.0   150.0   16.666666666666668
400.0   120.0   0.0
350.0   150.0   0.0
350.0   120.0   16.666666666666668
400.0   120.0   16.666666666666668
350.0   150.0   16.666666666666668
350.0   120.0   33.333333333333336
400.0   120.0   16.666666666666668
400.0   150.0   16.666666666666668
350.0   150.0   16.666666666666668
400.0   150.0   33.333333333333336
350.0   120.0   33.333333333333336
350.0   150.0   33.333333333333336
400.0   150.0   33.333333333333336
350.0   150.0   16.666666666666668
350.0   120.0   33.333333333333336
400.0   150.0   33.333333333333336
400.0   120.0   33.333333333333336
400.0   120.0   16.666666666666668
350.0   120.0   33.333333333333336
400.0   150.0   33.333333333333336
400.0   120.0   16.666666666666668
350.0   150.0   16.666666666666668
350.0   120.0   33.333333333333336
400.0   120.0   33.333333333333336
350.0   150.0   33.333333333333336
350.0   120.0   50.0
400.0   120.0   33.333333333333336
400.0   150.0   33.333333333333336
350.0   150.0   33.333333333333336
400.0   150.0   50.0
350.0   120.0   50.0
350.0   150.0   50.0
400.0   150.0   50.0
350.0   150.0   33.333333333333336
350.0   120.0   50.0
400.0   150.0   50.0
400.0   120.0   50.0
400.0   120.0   33.333333333333336
350.0   120.0   50.0
400.0   150.0   50.0
400.0   120.0   33.333333333333336
350.0   150.0   33.333333333333336
400.0   0.0   0.0
450.0   0.0   0.0
400.0   30.0   0.0
400.0   0.0   16.666666666666668
450.0   0.0   0.0
450.0   30.0   0.0
400.0   30.0   0.0
450.0   30.0   16.666666666666668
400.0   0.0   16.666666666666668
400.0   30.0   16.666666666666668
450.0   30.0   16.666666666666668
400.0   30.0   0.0
400.0   0.0   16.666666666666668
450.0   30.0   16.666666666666668
450.0   0.0   16.666666666666668
450.0   0.0   0.0
400.0   0.0   16.666666666666668
450.0   30.0   16.666666666666668
450.0   0.0   0.0
400.0   30.0   0.0
400.0   0.0   16.666666666666668
450.0   0.0   16.666666666666668
400.0   30.0   16.666666666666668
400.0   0.0   33.333333333333336
450.0   0.0   16.666666666666668
450.0   30.0   16.666666666666668
400.0   30.0   16.666666666666668
450.0   30.0   33.333333333333336
400.0   0.0   33.333333333333336
400.0   30.0   33.333333333333336
450.0   30.0   33.333333333333336
400.0   30.0   16.666666666666668
400.0   0.0   33.333333333333336
450.0   30.0   33.333333333333336
450.0   0.0   33.333333333333336
450.0   0.0   16.666666666666668
400.0   0.0   33.333333333333336
450.0   30.0   33.333333333333336
450.0   0.0   16.666666666666668
400.0   30.0   16.666666666666668
400.0   0.0   33.333333333333336
450.0   0.0   33.333333333333336
400.0   30.0   33.333333333333336
400.0   0.0   50.0
450.0   0.0   33.333333333333336
450.0   30.0   33.333333333333336
400.0   30.0   33.333333333333336
450.0   30.0   50.0
400.0   0.0   50.0
400.0   30.0   50.0
450.0   30.0   50.0
400.0   30.0   33.333333333333336
400.0   0.0   50.0
450.0   30.0   50.0
450.0   0.0   50.0
450.0   0.0   33.333333333333336
400.0   0.0   50.0
450.0   30.0   50.0
450.0   0.0   33.333333333333336
400.0   30.0   33.333333333333336
400.0   30.0   0.0
450.0   30.0   0.0
400.0   60.0   0.0
400.0   30.0   16.666666666666668
450.0   30.0   0.0
450.0   60.0   0.0
400.0   60.0   0.0
450.0   60.0   16.666666666666668
400.0   30.0   16.666666666666668
400.0   60.0   16.666666666666668
450.0   60.0   16.666666666666668
400.0   60.0   0.0
400.0   30.0   16.666666666666668
450.0   60.0   16.666666666666668
450.0   30.0   16.666666666666668
450.0   30.0   0.0
400.0   30.0   16.666666666666668
450.0   60.0   16.666666666666668
450.0   30.0   0.0
400.0   60.0   0.0
400.0   30.0   16.666666666666668
450.0   30.0   16.666666666666668
400.0   60.0   16.666666666666668
400.0   30.0   33.333333333333336
450.0   30.0   16.666666666666668
450.0   60.0   16.666666666666668
400.0   60.0   16.666666666666668
450.0   60.0   33.333333333333336
400.0   30.0   33.333333333333336
400.0   60.0   33.333333333333336
450.0   60.0   33.333333333333336
400.0   60.0   16.666666666666668
400.0   30.0   33.333333333333336
450.0   60.0   33.333333333333336
450.0   30.0   33.333333333333336
450.0   30.0   16.666666666666668
400.0   30.0   33.333333333333336
450.0   60.0   33.333333333333336
450.0   30.0   16.666666666666668
400.0   60.0   16.666666666666668
400.0   30.0   33.333333333333336
450.0   30.0   33.333333333333336
400.0   60.0   33.333333333333336
400.0   30.0   50.0
450.0   30.0   33.333333333333336
450.0   60.0   33.333333333333336
400.0   60.0   33.333333333333336
450.0   60.0   50.0
400.0   30.0   50.0
400.0   60.0   50.0
450.0   60.0   50.0
400.0   60.0   33.333333333333336
400.0   30.0   50.0
450.0   60.0   50.0
450.0   30.0   50.0
450.0   30.0   33.333333333333336
400.0   30.0   50.0
450.0   60.0   50.0
450.0   30.0   33.333333333333336
400.0   60.0   33.333333333333336
400.0   60.0   0.0
450.0   60.0   0.0
400.0   90.0   0.0
400.0   60.0   16.666666666666668
450.0   60.0   0.0
450.0   90.0   0.0
400.0   90.0   0.0
450.0   90.0   16.666666666666668
400.0   60.0   16.666666666666668
400.0   90.0   16.666666666666668
450.0   90.0   16.666666666666668
400.0   90.0   0.0
400.0   60.0   16.666666666666668
450.0   90.0   16.666666666666668
450.0   60.0   16.666666666666668
450.0   60.0   0.0
400.0   60.0   16.666666666666668
450.0   90.0   16.666666666666668
450.0   60.0   0.0
400.0   90.0   0.0
400.0   60.0   16.666666666666668
450.0   60.0   16.666666666666668
400.0   90.0   16.666666666666668
400.0   60.0   33.333333333333336
450.0   60.0   16.666666666666668
450.0   90.0   16.666666666666668
400.0   90.0   16.666666666666668
450.0   90.0   33.333333333333336
400.0   60.0   33.333333333333336
400.0   90.0   33.333333333333336
450.0   90.0   33.333333333333336
400.0   90.0   16.666666666666668
400.0   60.0   33.333333333333336
450.0   90.0   33.333333333333336
450.0   60.0   33.333333333333336
450.0   60.0   16.666666666666668
400.0   60.0   33.333333333333336
450.0   90.0   33.333333333333336
450.0   60.0   16.666666666666668
400.0   90.0   16.666666666666668
400.0   60.0   33.333333333333336
450.0   60.0   33.333333333333336
400.0   90.0   33.333333333333336
400.0   60.0   50.0
450.0   60.0   33.333333333333336
450.0   90.0   33.333333333333336
400.0   90.0   33.333333333333336
450.0   90.0   50.0
400.0   60.0   50.0
400.0   90.0   50.0
450.0   90.0   50.0
400.0   90.0   33.333333333333336
400.0   60.0   50.0
450.0   90.0   50.0
450.0   60.0   50.0
450.0   60.0   33.333333333333336
400.0   60.0   50.0
450.0   90.0   50.0
450.0   60.0   33.333333333333336
400.0   90.0   33.333333333333336
400.0   90.0   0.0
450.0   90.0   0.0
400.0   120.0   0.0
400.0   90.0   16.666666666666668
450.0   90.0   0.0
450.0   120.0   0.0
400.0   120.0   0.0
450.0   120.0   16.666666666666668
400.0   90.0   16.666666666666668
400.0   120.0   16.666666666666668
450.0   120.0   16.666666666666668
400.0   120.0   0.0
400.0   90.0   16.666666666666668
450.0   120.0   16.666666666666668
450.0   90.0   16.666666666666668
450.0   90.0   0.0
400.0   90.0   16.666666666666668
450.0   120.0   16.666666666666668
450.0   90.0   0.0
400.0   120.0   0.0
400.0   90.0   16.666666666666668
450.0   90.0   16.666666666666668
400.0   120.0   16.666666666666668
400.0   90.0   33.333333333333336
450.0   90.0   16.666666666666668
450.0   120.0   16.666666666666668
400.0   120.0   16.666666666666668
450.0   120.0   33.333333333333336
400.0   90.0   33.333333333333336
400.0   120.0   33.333333333333336
450.0   120.0   33.333333333333336
400.0   120.0   16.666666666666668
400.0   90.0   33.333333333333336
450.0   120.0   33.333333333333336
450.0   90.0   33.333333333333336
450.0   90.0   16.666666666666668
400.0   90.0   33.333333333333336
450.0   120.0   33.333333333333336
450.0   90.0   16.666666666666668
400.0   120.0   16.666666666666668
400.0   90.0   33.333333333333336
450.0   90.0   33.333333333333336
400.0   120.0   33.333333333333336
400.0   90.0   50.0
450.0   90.0   33.333333333333336
450.0   120.0   33.333333333333336
400.0   120.0   33.333333333333336
450.0   120.0   50.0
400.0   90.0   50.0
400.0   120.0   50.0
450.0   120.0   50.0
400.0   120.0   33.333333333333336
400.0   90.0   50.0
450.0   120.0   50.0
450.0   90.0   50.0
450.0   90.0   33.333333333333336
400.0   90.0   50.0
450.0   120.0   50.0
450.0   90.0   33.333333333333336
400.0   120.0   33.333333333333336
400.0   120.0   0.0
450.0   120.0   0.0
400.0   150.0   0.0
400.0   120.0   16.666666666666668
450.0   120.0   0.0
450.0   150.0   0.0
400.0   150.0   0.0
450.0   150.0   16.666666666666668
400.0   120.0   16.666666666666668
400.0   150.0   16.666666666666668
450.0   150.0   16.666666666666668
400.0   150.0   0.0
400.0   120.0   16.666666666666668
450.0   150.0   16.666666666666668
450.0   120.0   16.666666666666668
450.0   120.0   0.0
400.0   120.0   16.666666666666668
450.0   150.0   16.666666666666668
450.0   120.0   0.0
400.0   150.0   0.0
400.0   120.0   16.666666666666668
450.0   120.0   16.666666666666668
400.0   150.0   16.666666666666668
400.0   120.0   33.333333333333336
450.0   120.0   16.666666666666668
450.0   150.0   16.666666666666668
400.0   150.0   16.666666666666668
450.0   150.0   33.333333333333336
400.0   120.0   33.333333333333336
400.0   150.0   33.333333333333336
450.0   150.0   33.333333333333336
400.0   150.0   16.666666666666668
400.0   120.0   33.333333333333336
450.0   150.0   33.333333333333336
450.0   120.0   33.333333333333336
450.0   120.0   16.666666666666668
400.0   120.0   33.333333333333336
450.0   150.0   33.333333333333336
450.0   120.0   16.666666666666668
400.0   150.0   16.666666666666668
400.0   120.0   33.333333333333336
450.0   120.0   33.333333333333336
400.0   150.0   33.333333333333336
400.0   120.0   50.0
450.0   120.0   33.333333333333336
450.0   150.0   33.333333333333336
400.0   150.0   33.333333333333336
450.0   150.0   50.0
400.0   120.0   50.0
400.0   150.0   50.0
450.0   150.0   50.0
400.0   150.0   33.333333333333336
400.0   120.0   50.0
450.0   150.0   50.0
450.0   120.0   50.0
450.0   120.0   33.333333333333336
400.0   120.0   50.0
450.0   150.0   50.0
450.0   120.0   33.333333333333336
400.0   150.0   33.333333333333336
450.0   0.0   0.0
500.0   0.0   0.0
450.0   30.0   0.0
450.0   0.0   16.666666666666668
500.0   0.0   0.0
500.0   30.0   0.0
450.0   30.0   0.0
500.0   30.0   16.666666666666668
450.0   0.0   16.666666666666668
450.0   30.0   16.666666666666668
500.0   30.0   16.666666666666668
450.0   30.0   0.0
450.0   0.0   16.666666666666668
500.0   30.0   16.666666666666668
500.0   0.0   16.666666666666668
500.0   0.0   0.0
450.0   0.0   16.666666666666668
500.0   30.0   16.666666666666668
500.0   0.0   0.0
450.0   30.0   0.0
450.0   0.0   16.666666666666668
500.0   0.0   16.666666666666668
450.0   30.0   16.666666666666668
450.0   0.0   33.333333333333336
500.0   0.0   16.666666666666668
500.0   30.0   16.666666666666668
450.0   30.0   16.666666666666668
500.0   30.0   33.333333333333336
450.0   0.0   33.333333333333336
450.0   30.0   33.333333333333336
500.0   30.0   33.333333333333336
450.0   30.0   16.666666666666668
450.0   0.0   33.333333333333336
500.0   30.0   33.333333333333336
500.0   0.0   33.333333333333336
500.0   0.0   16.666666666666668
450.0   0.0   33.333333333333336
500.0   30.0   33.333333333333336
500.0   0.0   16.666666666666668
450.0   30.0   16.666666666666668
450.0   0.0   33.333333333333336
500.0   0.0   33.333333333333336
450.0   30.0   33.333333333333336
450.0   0.0   50.0
500.0   0.0   33.333333333333336
500.0   30.0   33.333333333333336
450.0   30.0   33.333333333333336
500.0   30.0   50.0
450.0   0.0   50.0
450.0   30.0   50.0
500.0   30.0   50.0
450.0   30.0   33.333333333333336
450.0   0.0   50.0
500.0   30.0   50.0
500.0   0.0   50.0
500.0   0.0   33.333333333333336
450.0   0.0   50.0
500.0   30.0   50.0
500.0   0.0   33.333333333333336
450.0   30.0   33.333333333333336
450.0   30.0   0.0
500.0   30.0   0.0
450.0   60.0   0.0
450.0   30.0   16.666666666666668
500.0   30.0   0.0
500.0   60.0   0.0
450.0   60.0   0.0
500.0   60.0   16.666666666666668
450.0   30.0   16.666666666666668
450.0   60.0   16.666666666666668
500.0   60.0   16.666666666666668
450.0   60.0   0.0
450.0   30.0   16.666666666666668
500.0   60.0   16.666666666666668
500.0   30.0   16.666666666666668
500.0   30.0   0.0
450.0   30.0   16.666666666666668
500.0   60.0   16.666666666666668
500.0   30.0   0.0
450.0   60.0   0.0
450.0   30.0   16.666666666666668
500.0   30.0   16.666666666666668
450.0   60.0   16.666666666666668
450.0   30.0   33.333333333333336
500.0   30.0   16.666666666666668
500.0   60.0   16.666666666666668
450.0   60.0   16.666666666666668
500.0   60.0   33.333333333333336
450.0   30.0   33.333333333333336
450.0   60.0   33.333333333333336
500.0   60.0   33.333333333333336
450.0   60.0   16.666666666666668
450.0   30.0   33.333333333333336
500.0   60.0   33.333333333333336
500.0   30.0   33.333333333333336
500.0   30.0   16.666666666666668
450.0   30.0   33.333333333333336
500.0   60.0   33.333333333333336
500.0   30.0   16.666666666666668
450.0   60.0   16.666666666666668
450.0   30.0   33.333333333333336
500.0   30.0   33.333333333333336
450.0   60.0   33.333333333333336
450.0   30.0   50.0
500.0   30.0   33.333333333333336
500.0   60.0   33.333333333333336
450.0   60.0   33.333333333333336
500.0   60.0   50.0
450.0   30.0   50.0
450.0   60.0   50.0
500.0   60.0   50.0
450.0   60.0   33.333333333333336
450.0   30.0   50.0
500.0   60.0   50.0
500.0   30.0   50.0
500.0   30.0   33.333333333333336
450.0   30.0   50.0
500.0   60.0   50.0
500.0   30.0   33.333333333333336
450.0   60.0   33.333333333333336
450.0   60.0   0.0
500.0   60.0   0.0
450.0   90.0   0.0
450.0   60.0   16.666666666666668
500.0   60.0   0.0
500.0   90.0   0.0
450.0   90.0   0.0
500.0   90.0   16.666666666666668
450.0   60.0   16.666666666666668
450.0   90.0   16.666666666666668
500.0   90.0   16.666666666666668
450.0   90.0   0.0
450.0   60.0   16.666666666666668
500.0   90.0   16.666666666666668
500.0   60.0   16.666666666666668
500.0   60.0   0.0
450.0   60.0   16.666666666666668
500.0   90.0   16.666666666666668
500.0   60.0   0.0
450.0   90.0   0.0
450.0   60.0   16.666666666666668
500.0   60.0   16.666666666666668
450.0   90.0   16.666666666666668
450.0   60.0   33.333333333333336
500.0   60.0   16.666666666666668
500.0   90.0   16.666666666666668
450.0   90.0   16.666666666666668
500.0   90.0   33.333333333333336
450.0   60.0   33.333333333333336
450.0   90.0   33.333333333333336
500.0   90.0   33.333333333333336
450.0   90.0   16.666666666666668
450.0   60.0   33.333333333333336
500.0   90.0   33.333333333333336
500.0   60.0   33.333333333333336
500.0   60.0   16.666666666666668
450.0   60.0   33.333333333333336
500.0   90.0   33.333333333333336
500.0   60.0   16.666666666666668
450.0   90.0   16.666666666666668
450.0   60.0   33.333333333333336
500.0   60.0   33.333333333333336
450.0   90.0   33.333333333333336
450.0   60.0   50.0
500.0   60.0   33.333333333333336
500.0   90.0   33.333333333333336
450.0   90.0   33.333333333333336
500.0   90.0   50.0
450.0   60.0   50.0
450.0   90.0   50.0
500.0   90.0   50.0
450.0   90.0   33.333333333333336
450.0   60.0   50.0
500.0   90.0   50.0
500.0   60.0   50.0
500.0   60.0   33.333333333333336
450.0   60.0   50.0
500.0   90.0   50.0
500.0   60.0   33.333333333333336
450.0   90.0   33.333333333333336
450.0   90.0   0.0
500.0   90.0   0.0
450.0   120.0   0.0
450.0   90.0   16.666666666666668
500.0   90.0   0.0
500.0   120.0   0.0
450.0   120.0   0.0
500.0   120.0   16.666666666666668
450.0   90.0   16.666666666666668
450.0   120.0   16.666666666666668
500.0   120.0   16.666666666666668
450.0   120.0   0.0
450.0   90.0   16.666666666666668
500.0   120.0   16.666666666666668
500.0   90.0   16.666666666666668
500.0   90.0   0.0
450.0   90.0   16.666666666666668
500.0   120.0   16.666666666666668
500.0   90.0   0.0
450.0   120.0   0.0
450.0   90.0   16.666666666666668
500.0   90.0   16.666666666666668
450.0   120.0   16.666666666666668
450.0   90.0   33.333333333333336
500.0   90.0   16.666666666666668
500.0   120.0   16.666666666666668
450.0   120.0   16.666666666666668
500.0   120.0   33.333333333333336
450.0   90.0   33.333333333333336
450.0   120.0   33.333333333333336
500.0   120.0   33.333333333333336
450.0   120.0   16.666666666666668
450.0   90.0   33.333333333333336
500.0   120.0   33.333333333333336
500.0   90.0   33.333333333333336
500.0   90.0   16.666666666666668
450.0   90.0   33.333333333333336
500.0   120.0   33.333333333333336
500.0   90.0   16.666666666666668
450.0   120.0   16.666666666666668
450.0   90.0   33.333333333333336
500.0   90.0   33.333333333333336
450.0   120.0   33.333333333333336
450.0   90.0   50.0
500.0   90.0   33.333333333333336
500.0   120.0   33.333333333333336
450.0   120.0   33.333333333333336
500.0   120.0   50.0
450.0   90.0   50.0
450.0   120.0   50.0
500.0   120.0   50.0
450.0   120.0   33.333333333333336
450.0   90.0   50.0
500.0   120.0   50.0
500.0   90.0   50.0
500.0   90.0   33.333333333333336
450.0   90.0   50.0
500.0   120.0   50.0
500.0   90.0   33.333333333333336
450.0   120.0   33.333333333333336
450.0   120.0   0.0
500.0   120.0   0.0
450.0   150.0   0.0
450.0   120.0   16.666666666666668
500.0   120.0   0.0
500.0   150.0   0.0
450.0   150.0   0.0
500.0   150.0   16.666666666666668
450.0   120.0   16.666666666666668
450.0   150.0   16.666666666666668
500.0   150.0   16.666666666666668
450.0   150.0   0.0
450.0   120.0   16.666666666666668
500.0   150.0   16.666666666666668
500.0   120.0   16.666666666666668
500.0   120.0   0.0
450.0   120.0   16.666666666666668
500.0   150.0   16.666666666666668
500.0   120.0   0.0
450.0   150.0   0.0
450.0   120.0   16.666666666666668
500.0   120.0   16.666666666666668
450.0   150.0   16.666666666666668
450.0   120.0   33.333333333333336
500.0   120.0   16.666666666666668
500.0   150.0   16.666666666666668
450.0   150.0   16.666666666666668
500.0   150.0   33.333333333333336
450.0   120.0   33.333333333333336
450.0   150.0   33.333333333333336
500.0   150.0   33.333333333333336
450.0   150.0   16.666666666666668
450.0   120.0   33.333333333333336
500.0   150.0   33.333333333333336
500.0   120.0   33.333333333333336
500.0   120.0   16.666666666666668
450.0   120.0   33.333333333333336
500.0   150.0   33.333333333333336
500.0   120.0   16.666666666666668
450.0   150.0   16.666666666666668
450.0   120.0   33.333333333333336
500.0   120.0   33.333333333333336
450.0   150.0   33.333333333333336
450.0   120.0   50.0
500.0   120.0   33.333333333333336
500.0   150.0   33.333333333333336
450.0   150.0   33.333333333333336
500.0   150.0   50.0
450.0   120.0   50.0
450.0   150.0   50.0
500.0   150.0   50.0
450.0   150.0   33.333333333333336
450.0   120.0   50.0
500.0   150.0   50.0
500.0   120.0   50.0
500.0   120.0   33.333333333333336
450.0   120.0   50.0
500.0   150.0   50.0
500.0   120.0   33.333333333333336
450.0   150.0   33.333333333333336
             </DataArray>   
          </Points>  
          <Cells>  
             <DataArray type="Int32" Name="connectivity" format="ascii">   
0   1   2   3
4   5   6   7
8   9   10   11
12   13   14   15
16   17   18   19
20   21   22   23
24   25   26   27
28   29   30   31
32   33   34   35
36   37   38   39
40   41   42   43
44   45   46   47
48   49   50   51
52   53   54   55
56   57   58   59
60   61   62   63
64   65   66   67
68   69   70   71
72   73   74   75
76   77   78   79
80   81   82   83
84   85   86   87
88   89   90   91
92   93   94   95
96   97   98   99
100   101   102   103
104   105   106   107
108   109   110   111
112   113   114   115
116   117   118   119
120   121   122   123
124   125   126   127
128   129   130   131
132   133   134   135
136   137   138   139
140   141   142   143
144   145   146   147
148   149   150   151
152   153   154   155
156   157   158   159
160   161   162   163
164   165   166   167
168   169   170   171
172   173   174   175
176   177   178   179
180   181   182   183
184   185   186   187
188   189   190   191
192   193   194   195
196   197   198   199
200   201   202   203
204   205   206   207
208   209   210   211
212   213   214   215
216   217   218   219
220   221   222   223
224   225   226   227
228   229   230   231
232   233   234   235
236   237   238   239
240   241   242   243
244   245   246   247
248   249   250   251
252   253   254   255
256   257   258   259
260   261   262   263
264   265   266   267
268   269   270   271
272   273   274   275
276   277   278   279
280   281   282   283
284   285   286   287
288   289   290   291
292   293   294   295
296   297   298   299
300   301   302   303
304   305   306   307
308   309   310   311
312   313   314   315
316   317   318   319
320   321   322   323
324   325   326   327
328   329   330   331
332   333   334   335
336   337   338   339
340   341   342   343
344   345   346   347
348   349   350   351
352   353   354   355
356   357   358   359
360   361   362   363
364   365   366   367
368   369   370   371
372   373   374   375
376   377   378   379
380   381   382   383
384   385   386   387
388   389   390   391
392   393   394   395
396   397   398   399
400   401   402   403
404   405   406   407
408   409   410   411
412   413   414   415
416   417   418   419
420   421   422   423
424   425   426   427
428   429   430   431
432   433   434   435
436   437   438   439
440   441   442   443
444   445   446   447
448   449   450   451
452   453   454   455
456   457   458   459
460   461   462   463
464   465   466   467
468   469   470   471
472   473   474   475
476   477   478   479
480   481   482   483
484   485   486   487
488   489   490   491
492   493   494   495
496   497   498   499
500   501   502   503
504   505   506   507
508   509   510   511
512   513   514   515
516   517   518   519
520   521   522   523
524   525   526   527
528   529   530   531
532   533   534   535
536   537   538   539
540   541   542   543
544   545   546   547
548   549   550   551
552   553   554   555
556   557   558   559
560   561   562   563
564   565   566   567
568   569   570   571
572   573   574   575
576   577   578   579
580   581   582   583
584   585   586   587
588   589   590   591
592   593   594   595
596   597   598   599
600   601   602   603
604   605   606   607
608   609   610   611
612   613   614   615
616   617   618   619
620   621   622   623
624   625   626   627
628   629   630   631
632   633   634   635
636   637   638   639
640   641   642   643
644   645   646   647
648   649   650   651
652   653   654   655
656   657   658   659
660   661   662   663
664   665   666   667
668   669   670   671
672   673   674   675
676   677   678   679
680   681   682   683
684   685   686   687
688   689   690   691
692   693   694   695
696   697   698   699
700   701   702   703
704   705   706   707
708   709   710   711
712   713   714   715
716   717   718   719
720   721   722   723
724   725   726   727
728   729   730   731
732   733   734   735
736   737   738   739
740   741   742   743
744   745   746   747
748   749   750   751
752   753   754   755
756   757   758   759
760   761   762   763
764   765   766   767
768   769   770   771
772   773   774   775
776   777   778   779
780   781   782   783
784   785   786   787
788   789   790   791
792   793   794   795
796   797   798   799
800   801   802   803
804   805   806   807
808   809   810   811
812   813   814   815
816   817   818   819
820   821   822   823
824   825   826   827
828   829   830   831
832   833   834   835
836   837   838   839
840   841   842   843
844   845   846   847
848   849   850   851
852   853   854   855
856   857   858   859
860   861   862   863
864   865   866   867
868   869   870   871
872   873   874   875
876   877   878   879
880   881   882   883
884   885   886   887
888   889   890   891
892   893   894   895
896   897   898   899
900   901   902   903
904   905   906   907
908   909   910   911
912   913   914   915
916   917   918   919
920   921   922   923
924   925   926   927
928   929   930   931
932   933   934   935
936   937   938   939
940   941   942   943
944   945   946   947
948   949   950   951
952   953   954   955
956   957   958   959
960   961   962   963
964   965   966   967
968   969   970   971
972   973   974   975
976   977   978   979
980   981   982   983
984   985   986   987
988   989   990   991
992   993   994   995
996   997   998   999
1000   1001   1002   1003
1004   1005   1006   1007
1008   1009   1010   1011
1012   1013   1014   1015
1016   1017   1018   1019
1020   1021   1022   1023
1024   1025   1026   1027
1028   1029   1030   1031
1032   1033   1034   1035
1036   1037   1038   1039
1040   1041   1042   1043
1044   1045   1046   1047
1048   1049   1050   1051
1052   1053   1054   1055
1056   1057   1058   1059
1060   1061   1062   1063
1064   1065   1066   1067
1068   1069   1070   1071
1072   1073   1074   1075
1076   1077   1078   1079
1080   1081   1082   1083
1084   1085   1086   1087
1088   1089   1090   1091
1092   1093   1094   1095
1096   1097   1098   1099
1100   1101   1102   1103
1104   1105   1106   1107
1108   1109   1110   1111
1112   1113   1114   1115
1116   1117   1118   1119
1120   1121   1122   1123
1124   1125   1126   1127
1128   1129   1130   1131
1132   1133   1134   1135
1136   1137   1138   1139
1140   1141   1142   1143
1144   1145   1146   1147
1148   1149   1150   1151
1152   1153   1154   1155
1156   1157   1158   1159
1160   1161   1162   1163
1164   1165   1166   1167
1168   1169   1170   1171
1172   1173   1174   1175
1176   1177   1178   1179
1180   1181   1182   1183
1184   1185   1186   1187
1188   1189   1190   1191
1192   1193   1194   1195
1196   1197   1198   1199
1200   1201   1202   1203
1204   1205   1206   1207
1208   1209   1210   1211
1212   1213   1214   1215
1216   1217   1218   1219
1220   1221   1222   1223
1224   1225   1226   1227
1228   1229   1230   1231
1232   1233   1234   1235
1236   1237   1238   1239
1240   1241   1242   1243
1244   1245   1246   1247
1248   1249   1250   1251
1252   1253   1254   1255
1256   1257   1258   1259
1260   1261   1262   1263
1264   1265   1266   1267
1268   1269   1270   1271
1272   1273   1274   1275
1276   1277   1278   1279
1280   1281   1282   1283
1284   1285   1286   1287
1288   1289   1290   1291
1292   1293   1294   1295
1296   1297   1298   1299
1300   1301   1302   1303
1304   1305   1306   1307
1308   1309   1310   1311
1312   1313   1314   1315
1316   1317   1318   1319
1320   1321   1322   1323
1324   1325   1326   1327
1328   1329   1330   1331
1332   1333   1334   1335
1336   1337   1338   1339
1340   1341   1342   1343
1344   1345   1346   1347
1348   1349   1350   1351
1352   1353   1354   1355
1356   1357   1358   1359
1360   1361   1362   1363
1364   1365   1366   1367
1368   1369   1370   1371
1372   1373   1374   1375
1376   1377   1378   1379
1380   1381   1382   1383
1384   1385   1386   1387
1388   1389   1390   1391
1392   1393   1394   1395
1396   1397   1398   1399
1400   1401   1402   1403
1404   1405   1406   1407
1408   1409   1410   1411
1412   1413   1414   1415
1416   1417   1418   1419
1420   1421   1422   1423
1424   1425   1426   1427
1428   1429   1430   1431
1432   1433   1434   1435
1436   1437   1438   1439
1440   1441   1442   1443
1444   1445   1446   1447
1448   1449   1450   1451
1452   1453   1454   1455
1456   1457   1458   1459
1460   1461   1462   1463
1464   1465   1466   1467
1468   1469   1470   1471
1472   1473   1474   1475
1476   1477   1478   1479
1480   1481   1482   1483
1484   1485   1486   1487
1488   1489   1490   1491
1492   1493   1494   1495
1496   1497   1498   1499
1500   1501   1502   1503
1504   1505   1506   1507
1508   1509   1510   1511
1512   1513   1514   1515
1516   1517   1518   1519
1520   1521   1522   1523
1524   1525   1526   1527
1528   1529   1530   1531
1532   1533   1534   1535
1536   1537   1538   1539
1540   1541   1542   1543
1544   1545   1546   1547
1548   1549   1550   1551
1552   1553   1554   1555
1556   1557   1558   1559
1560   1561   1562   1563
1564   1565   1566   1567
1568   1569   1570   1571
1572   1573   1574   1575
1576   1577   1578   1579
1580   1581   1582   1583
1584   1585   1586   1587
1588   1589   1590   1591
1592   1593   1594   1595
1596   1597   1598   1599
1600   1601   1602   1603
1604   1605   1606   1607
1608   1609   1610   1611
1612   1613   1614   1615
1616   1617   1618   1619
1620   1621   1622   1623
1624   1625   1626   1627
1628   1629   1630   1631
1632   1633   1634   1635
1636   1637   1638   1639
1640   1641   1642   1643
1644   1645   1646   1647
1648   1649   1650   1651
1652   1653   1654   1655
1656   1657   1658   1659
1660   1661   1662   1663
1664   1665   1666   1667
1668   1669   1670   1671
1672   1673   1674   1675
1676   1677   1678   1679
1680   1681   1682   1683
1684   1685   1686   1687
1688   1689   1690   1691
1692   1693   1694   1695
1696   1697   1698   1699
1700   1701   1702   1703
1704   1705   1706   1707
1708   1709   1710   1711
1712   1713   1714   1715
1716   1717   1718   1719
1720   1721   1722   1723
1724   1725   1726   1727
1728   1729   1730   1731
1732   1733   1734   1735
1736   1737   1738   1739
1740   1741   1742   1743
1744   1745   1746   1747
1748   1749   1750   1751
1752   1753   1754   1755
1756   1757   1758   1759
1760   1761   1762   1763
1764   1765   1766   1767
1768   1769   1770   1771
1772   1773   1774   1775
1776   1777   1778   1779
1780   1781   1782   1783
1784   1785   1786   1787
1788   1789   1790   1791
1792   1793   1794   1795
1796   1797   1798   1799
1800   1801   1802   1803
1804   1805   1806   1807
1808   1809   1810   1811
1812   1813   1814   1815
1816   1817   1818   1819
1820   1821   1822   1823
1824   1825   1826   1827
1828   1829   1830   1831
1832   1833   1834   1835
1836   1837   1838   1839
1840   1841   1842   1843
1844   1845   1846   1847
1848   1849   1850   1851
1852   1853   1854   1855
1856   1857   1858   1859
1860   1861   1862   1863
1864   1865   1866   1867
1868   1869   1870   1871
1872   1873   1874   1875
1876   1877   1878   1879
1880   1881   1882   1883
1884   1885   1886   1887
1888   1889   1890   1891
1892   1893   1894   1895
1896   1897   1898   1899
1900   1901   1902   1903
1904   1905   1906   1907
1908   1909   1910   1911
1912   1913   1914   1915
1916   1917   1918   1919
1920   1921   1922   1923
1924   1925   1926   1927
1928   1929   1930   1931
1932   1933   1934   1935
1936   1937   1938   1939
1940   1941   1942   1943
1944   1945   1946   1947
1948   1949   1950   1951
1952   1953   1954   1955
1956   1957   1958   1959
1960   1961   1962   1963
1964   1965   1966   1967
1968   1969   1970   1971
1972   1973   1974   1975
1976   1977   1978   1979
1980   1981   1982   1983
1984   1985   1986   1987
1988   1989   1990   1991
1992   1993   1994   1995
1996   1997   1998   1999
2000   2001   2002   2003
2004   2005   2006   2007
2008   2009   2010   2011
2012   2013   2014   2015
2016   2017   2018   2019
2020   2021   2022   2023
2024   2025   2026   2027
2028   2029   2030   2031
2032   2033   2034   2035
2036   2037   2038   2039
2040   2041   2042   2043
2044   2045   2046   2047
2048   2049   2050   2051
2052   2053   2054   2055
2056   2057   2058   2059
2060   2061   2062   2063
2064   2065   2066   2067
2068   2069   2070   2071
2072   2073   2074   2075
2076   2077   2078   2079
2080   2081   2082   2083
2084   2085   2086   2087
2088   2089   2090   2091
2092   2093   2094   2095
2096   2097   2098   2099
2100   2101   2102   2103
2104   2105   2106   2107
2108   2109   2110   2111
2112   2113   2114   2115
2116   2117   2118   2119
2120   2121   2122   2123
2124   2125   2126   2127
2128   2129   2130   2131
2132   2133   2134   2135
2136   2137   2138   2139
2140   2141   2142   2143
2144   2145   2146   2147
2148   2149   2150   2151
2152   2153   2154   2155
2156   2157   2158   2159
2160   2161   2162   2163
2164   2165   2166   2167
2168   2169   2170   2171
2172   2173   2174   2175
2176   2177   2178   2179
2180   2181   2182   2183
2184   2185   2186   2187
2188   2189   2190   2191
2192   2193   2194   2195
2196   2197   2198   2199
2200   2201   2202   2203
2204   2205   2206   2207
2208   2209   2210   2211
2212   2213   2214   2215
2216   2217   2218   2219
2220   2221   2222   2223
2224   2225   2226   2227
2228   2229   2230   2231
2232   2233   2234   2235
2236   2237   2238   2239
2240   2241   2242   2243
2244   2245   2246   2247
2248   2249   2250   2251
2252   2253   2254   2255
2256   2257   2258   2259
2260   2261   2262   2263
2264   2265   2266   2267
2268   2269   2270   2271
2272   2273   2274   2275
2276   2277   2278   2279
2280   2281   2282   2283
2284   2285   2286   2287
2288   2289   2290   2291
2292   2293   2294   2295
2296   2297   2298   2299
2300   2301   2302   2303
2304   2305   2306   2307
2308   2309   2310   2311
2312   2313   2314   2315
2316   2317   2318   2319
2320   2321   2322   2323
2324   2325   2326   2327
2328   2329   2330   2331
2332   2333   2334   2335
2336   2337   2338   2339
2340   2341   2342   2343
2344   2345   2346   2347
2348   2349   2350   2351
2352   2353   2354   2355
2356   2357   2358   2359
2360   2361   2362   2363
2364   2365   2366   2367
2368   2369   2370   2371
2372   2373   2374   2375
2376   2377   2378   2379
2380   2381   2382   2383
2384   2385   2386   2387
2388   2389   2390   2391
2392   2393   2394   2395
2396   2397   2398   2399
2400   2401   2402   2403
2404   2405   2406   2407
2408   2409   2410   2411
2412   2413   2414   2415
2416   2417   2418   2419
2420   2421   2422   2423
2424   2425   2426   2427
2428   2429   2430   2431
2432   2433   2434   2435
2436   2437   2438   2439
2440   2441   2442   2443
2444   2445   2446   2447
2448   2449   2450   2451
2452   2453   2454   2455
2456   2457   2458   2459
2460   2461   2462   2463
2464   2465   2466   2467
2468   2469   2470   2471
2472   2473   2474   2475
2476   2477   2478   2479
2480   2481   2482   2483
2484   2485   2486   2487
2488   2489   2490   2491
2492   2493   2494   2495
2496   2497   2498   2499
2500   2501   2502   2503
2504   2505   2506   2507
2508   2509   2510   2511
2512   2513   2514   2515
2516   2517   2518   2519
2520   2521   2522   2523
2524   2525   2526   2527
2528   2529   2530   2531
2532   2533   2534   2535
2536   2537   2538   2539
2540   2541   2542   2543
2544   2545   2546   2547
2548   2549   2550   2551
2552   2553   2554   2555
2556   2557   2558   2559
2560   2561   2562   2563
2564   2565   2566   2567
2568   2569   2570   2571
2572   2573   2574   2575
2576   2577   2578   2579
2580   2581   2582   2583
2584   2585   2586   2587
2588   2589   2590   2591
2592   2593   2594   2595
2596   2597   2598   2599
2600   2601   2602   2603
2604   2605   2606   2607
2608   2609   2610   2611
2612   2613   2614   2615
2616   2617   2618   2619
2620   2621   2622   2623
2624   2625   2626   2627
2628   2629   2630   2631
2632   2633   2634   2635
2636   2637   2638   2639
2640   2641   2642   2643
2644   2645   2646   2647
2648   2649   2650   2651
2652   2653   2654   2655
2656   2657   2658   2659
2660   2661   2662   2663
2664   2665   2666   2667
2668   2669   2670   2671
2672   2673   2674   2675
2676   2677   2678   2679
2680   2681   2682   2683
2684   2685   2686   2687
2688   2689   2690   2691
2692   2693   2694   2695
2696   2697   2698   2699
2700   2701   2702   2703
2704   2705   2706   2707
2708   2709   2710   2711
2712   2713   2714   2715
2716   2717   2718   2719
2720   2721   2722   2723
2724   2725   2726   2727
2728   2729   2730   2731
2732   2733   2734   2735
2736   2737   2738   2739
2740   2741   2742   2743
2744   2745   2746   2747
2748   2749   2750   2751
2752   2753   2754   2755
2756   2757   2758   2759
2760   2761   2762   2763
2764   2765   2766   2767
2768   2769   2770   2771
2772   2773   2774   2775
2776   2777   2778   2779
2780   2781   2782   2783
2784   2785   2786   2787
2788   2789   2790   2791
2792   2793   2794   2795
2796   2797   2798   2799
2800   2801   2802   2803
2804   2805   2806   2807
2808   2809   2810   2811
2812   2813   2814   2815
2816   2817   2818   2819
2820   2821   2822   2823
2824   2825   2826   2827
2828   2829   2830   2831
2832   2833   2834   2835
2836   2837   2838   2839
2840   2841   2842   2843
2844   2845   2846   2847
2848   2849   2850   2851
2852   2853   2854   2855
2856   2857   2858   2859
2860   2861   2862   2863
2864   2865   2866   2867
2868   2869   2870   2871
2872   2873   2874   2875
2876   2877   2878   2879
2880   2881   2882   2883
2884   2885   2886   2887
2888   2889   2890   2891
2892   2893   2894   2895
2896   2897   2898   2899
2900   2901   2902   2903
2904   2905   2906   2907
2908   2909   2910   2911
2912   2913   2914   2915
2916   2917   2918   2919
2920   2921   2922   2923
2924   2925   2926   2927
2928   2929   2930   2931
2932   2933   2934   2935
2936   2937   2938   2939
2940   2941   2942   2943
2944   2945   2946   2947
2948   2949   2950   2951
2952   2953   2954   2955
2956   2957   2958   2959
2960   2961   2962   2963
2964   2965   2966   2967
2968   2969   2970   2971
2972   2973   2974   2975
2976   2977   2978   2979
2980   2981   2982   2983
2984   2985   2986   2987
2988   2989   2990   2991
2992   2993   2994   2995
2996   2997   2998   2999
3000   3001   3002   3003
3004   3005   3006   3007
3008   3009   3010   3011
3012   3013   3014   3015
3016   3017   3018   3019
3020   3021   3022   3023
3024   3025   3026   3027
3028   3029   3030   3031
3032   3033   3034   3035
3036   3037   3038   3039
3040   3041   3042   3043
3044   3045   3046   3047
3048   3049   3050   3051
3052   3053   3054   3055
3056   3057   3058   3059
3060   3061   3062   3063
3064   3065   3066   3067
3068   3069   3070   3071
3072   3073   3074   3075
3076   3077   3078   3079
3080   3081   3082   3083
3084   3085   3086   3087
3088   3089   3090   3091
3092   3093   3094   3095
3096   3097   3098   3099
3100   3101   3102   3103
3104   3105   3106   3107
3108   3109   3110   3111
3112   3113   3114   3115
3116   3117   3118   3119
3120   3121   3122   3123
3124   3125   3126   3127
3128   3129   3130   3131
3132   3133   3134   3135
3136   3137   3138   3139
3140   3141   3142   3143
3144   3145   3146   3147
3148   3149   3150   3151
3152   3153   3154   3155
3156   3157   3158   3159
3160   3161   3162   3163
3164   3165   3166   3167
3168   3169   3170   3171
3172   3173   3174   3175
3176   3177   3178   3179
3180   3181   3182   3183
3184   3185   3186   3187
3188   3189   3190   3191
3192   3193   3194   3195
3196   3197   3198   3199
3200   3201   3202   3203
3204   3205   3206   3207
3208   3209   3210   3211
3212   3213   3214   3215
3216   3217   3218   3219
3220   3221   3222   3223
3224   3225   3226   3227
3228   3229   3230   3231
3232   3233   3234   3235
3236   3237   3238   3239
3240   3241   3242   3243
3244   3245   3246   3247
3248   3249   3250   3251
3252   3253   3254   3255
3256   3257   3258   3259
3260   3261   3262   3263
3264   3265   3266   3267
3268   3269   3270   3271
3272   3273   3274   3275
3276   3277   3278   3279
3280   3281   3282   3283
3284   3285   3286   3287
3288   3289   3290   3291
3292   3293   3294   3295
3296   3297   3298   3299
3300   3301   3302   3303
3304   3305   3306   3307
3308   3309   3310   3311
3312   3313   3314   3315
3316   3317   3318   3319
3320   3321   3322   3323
3324   3325   3326   3327
3328   3329   3330   3331
3332   3333   3334   3335
3336   3337   3338   3339
3340   3341   3342   3343
3344   3345   3346   3347
3348   3349   3350   3351
3352   3353   3354   3355
3356   3357   3358   3359
3360   3361   3362   3363
3364   3365   3366   3367
3368   3369   3370   3371
3372   3373   3374   3375
3376   3377   3378   3379
3380   3381   3382   3383
3384   3385   3386   3387
3388   3389   3390   3391
3392   3393   3394   3395
3396   3397   3398   3399
3400   3401   3402   3403
3404   3405   3406   3407
3408   3409   3410   3411
3412   3413   3414   3415
3416   3417   3418   3419
3420   3421   3422   3423
3424   3425   3426   3427
3428   3429   3430   3431
3432   3433   3434   3435
3436   3437   3438   3439
3440   3441   3442   3443
3444   3445   3446   3447
3448   3449   3450   3451
3452   3453   3454   3455
3456   3457   3458   3459
3460   3461   3462   3463
3464   3465   3466   3467
3468   3469   3470   3471
3472   3473   3474   3475
3476   3477   3478   3479
3480   3481   3482   3483
3484   3485   3486   3487
3488   3489   3490   3491
3492   3493   3494   3495
3496   3497   3498   3499
3500   3501   3502   3503
3504   3505   3506   3507
3508   3509   3510   3511
3512   3513   3514   3515
3516   3517   3518   3519
3520   3521   3522   3523
3524   3525   3526   3527
3528   3529   3530   3531
3532   3533   3534   3535
3536   3537   3538   3539
3540   3541   3542   3543
3544   3545   3546   3547
3548   3549   3550   3551
3552   3553   3554   3555
3556   3557   3558   3559
3560   3561   3562   3563
3564   3565   3566   3567
3568   3569   3570   3571
3572   3573   3574   3575
3576   3577   3578   3579
3580   3581   3582   3583
3584   3585   3586   3587
3588   3589   3590   3591
3592   3593   3594   3595
3596   3597   3598   3599
3600   3601   3602   3603
3604   3605   3606   3607
3608   3609   3610   3611
3612   3613   3614   3615
3616   3617   3618   3619
3620   3621   3622   3623
3624   3625   3626   3627
3628   3629   3630   3631
3632   3633   3634   3635
3636   3637   3638   3639
3640   3641   3642   3643
3644   3645   3646   3647
3648   3649   3650   3651
3652   3653   3654   3655
3656   3657   3658   3659
3660   3661   3662   3663
3664   3665   3666   3667
3668   3669   3670   3671
3672   3673   3674   3675
3676   3677   3678   3679
3680   3681   3682   3683
3684   3685   3686   3687
3688   3689   3690   3691
3692   3693   3694   3695
3696   3697   3698   3699
3700   3701   3702   3703
3704   3705   3706   3707
3708   3709   3710   3711
3712   3713   3714   3715
3716   3717   3718   3719
3720   3721   3722   3723
3724   3725   3726   3727
3728   3729   3730   3731
3732   3733   3734   3735
3736   3737   3738   3739
3740   3741   3742   3743
3744   3745   3746   3747
3748   3749   3750   3751
3752   3753   3754   3755
3756   3757   3758   3759
3760   3761   3762   3763
3764   3765   3766   3767
3768   3769   3770   3771
3772   3773   3774   3775
3776   3777   3778   3779
3780   3781   3782   3783
3784   3785   3786   3787
3788   3789   3790   3791
3792   3793   3794   3795
3796   3797   3798   3799
3800   3801   3802   3803
3804   3805   3806   3807
3808   3809   3810   3811
3812   3813   3814   3815
3816   3817   3818   3819
3820   3821   3822   3823
3824   3825   3826   3827
3828   3829   3830   3831
3832   3833   3834   3835
3836   3837   3838   3839
3840   3841   3842   3843
3844   3845   3846   3847
3848   3849   3850   3851
3852   3853   3854   3855
3856   3857   3858   3859
3860   3861   3862   3863
3864   3865   3866   3867
3868   3869   3870   3871
3872   3873   3874   3875
3876   3877   3878   3879
3880   3881   3882   3883
3884   3885   3886   3887
3888   3889   3890   3891
3892   3893   3894   3895
3896   3897   3898   3899
3900   3901   3902   3903
3904   3905   3906   3907
3908   3909   3910   3911
3912   3913   3914   3915
3916   3917   3918   3919
3920   3921   3922   3923
3924   3925   3926   3927
3928   3929   3930   3931
3932   3933   3934   3935
3936   3937   3938   3939
3940   3941   3942   3943
3944   3945   3946   3947
3948   3949   3950   3951
3952   3953   3954   3955
3956   3957   3958   3959
3960   3961   3962   3963
3964   3965   3966   3967
3968   3969   3970   3971
3972   3973   3974   3975
3976   3977   3978   3979
3980   3981   3982   3983
3984   3985   3986   3987
3988   3989   3990   3991
3992   3993   3994   3995
3996   3997   3998   3999
4000   4001   4002   4003
4004   4005   4006   4007
4008   4009   4010   4011
4012   4013   4014   4015
4016   4017   4018   4019
4020   4021   4022   4023
4024   4025   4026   4027
4028   4029   4030   4031
4032   4033   4034   4035
4036   4037   4038   4039
4040   4041   4042   4043
4044   4045   4046   4047
4048   4049   4050   4051
4052   4053   4054   4055
4056   4057   4058   4059
4060   4061   4062   4063
4064   4065   4066   4067
4068   4069   4070   4071
4072   4073   4074   4075
4076   4077   4078   4079
4080   4081   4082   4083
4084   4085   4086   4087
4088   4089   4090   4091
4092   4093   4094   4095
4096   4097   4098   4099
4100   4101   4102   4103
4104   4105   4106   4107
4108   4109   4110   4111
4112   4113   4114   4115
4116   4117   4118   4119
4120   4121   4122   4123
4124   4125   4126   4127
4128   4129   4130   4131
4132   4133   4134   4135
4136   4137   4138   4139
4140   4141   4142   4143
4144   4145   4146   4147
4148   4149   4150   4151
4152   4153   4154   4155
4156   4157   4158   4159
4160   4161   4162   4163
4164   4165   4166   4167
4168   4169   4170   4171
4172   4173   4174   4175
4176   4177   4178   4179
4180   4181   4182   4183
4184   4185   4186   4187
4188   4189   4190   4191
4192   4193   4194   4195
4196   4197   4198   4199
4200   4201   4202   4203
4204   4205   4206   4207
4208   4209   4210   4211
4212   4213   4214   4215
4216   4217   4218   4219
4220   4221   4222   4223
4224   4225   4226   4227
4228   4229   4230   4231
4232   4233   4234   4235
4236   4237   4238   4239
4240   4241   4242   4243
4244   4245   4246   4247
4248   4249   4250   4251
4252   4253   4254   4255
4256   4257   4258   4259
4260   4261   4262   4263
4264   4265   4266   4267
4268   4269   4270   4271
4272   4273   4274   4275
4276   4277   4278   4279
4280   4281   4282   4283
4284   4285   4286   4287
4288   4289   4290   4291
4292   4293   4294   4295
4296   4297   4298   4299
4300   4301   4302   4303
4304   4305   4306   4307
4308   4309   4310   4311
4312   4313   4314   4315
4316   4317   4318   4319
4320   4321   4322   4323
4324   4325   4326   4327
4328   4329   4330   4331
4332   4333   4334   4335
4336   4337   4338   4339
4340   4341   4342   4343
4344   4345   4346   4347
4348   4349   4350   4351
4352   4353   4354   4355
4356   4357   4358   4359
4360   4361   4362   4363
4364   4365   4366   4367
4368   4369   4370   4371
4372   4373   4374   4375
4376   4377   4378   4379
4380   4381   4382   4383
4384   4385   4386   4387
4388   4389   4390   4391
4392   4393   4394   4395
4396   4397   4398   4399
4400   4401   4402   4403
4404   4405   4406   4407
4408   4409   4410   4411
4412   4413   4414   4415
4416   4417   4418   4419
4420   4421   4422   4423
4424   4425   4426   4427
4428   4429   4430   4431
4432   4433   4434   4435
4436   4437   4438   4439
4440   4441   4442   4443
4444   4445   4446   4447
4448   4449   4450   4451
4452   4453   4454   4455
4456   4457   4458   4459
4460   4461   4462   4463
4464   4465   4466   4467
4468   4469   4470   4471
4472   4473   4474   4475
4476   4477   4478   4479
4480   4481   4482   4483
4484   4485   4486   4487
4488   4489   4490   4491
4492   4493   4494   4495
4496   4497   4498   4499
4500   4501   4502   4503
4504   4505   4506   4507
4508   4509   4510   4511
4512   4513   4514   4515
4516   4517   4518   4519
4520   4521   4522   4523
4524   4525   4526   4527
4528   4529   4530   4531
4532   4533   4534   4535
4536   4537   4538   4539
4540   4541   4542   4543
4544   4545   4546   4547
4548   4549   4550   4551
4552   4553   4554   4555
4556   4557   4558   4559
4560   4561   4562   4563
4564   4565   4566   4567
4568   4569   4570   4571
4572   4573   4574   4575
4576   4577   4578   4579
4580   4581   4582   4583
4584   4585   4586   4587
4588   4589   4590   4591
4592   4593   4594   4595
4596   4597   4598   4599
4600   4601   4602   4603
4604   4605   4606   4607
4608   4609   4610   4611
4612   4613   4614   4615
4616   4617   4618   4619
4620   4621   4622   4623
4624   4625   4626   4627
4628   4629   4630   4631
4632   4633   4634   4635
4636   4637   4638   4639
4640   4641   4642   4643
4644   4645   4646   4647
4648   4649   4650   4651
4652   4653   4654   4655
4656   4657   4658   4659
4660   4661   4662   4663
4664   4665   4666   4667
4668   4669   4670   4671
4672   4673   4674   4675
4676   4677   4678   4679
4680   4681   4682   4683
4684   4685   4686   4687
4688   4689   4690   4691
4692   4693   4694   4695
4696   4697   4698   4699
4700   4701   4702   4703
4704   4705   4706   4707
4708   4709   4710   4711
4712   4713   4714   4715
4716   4717   4718   4719
4720   4721   4722   4723
4724   4725   4726   4727
4728   4729   4730   4731
4732   4733   4734   4735
4736   4737   4738   4739
4740   4741   4742   4743
4744   4745   4746   4747
4748   4749   4750   4751
4752   4753   4754   4755
4756   4757   4758   4759
4760   4761   4762   4763
4764   4765   4766   4767
4768   4769   4770   4771
4772   4773   4774   4775
4776   4777   4778   4779
4780   4781   4782   4783
4784   4785   4786   4787
4788   4789   4790   4791
4792   4793   4794   4795
4796   4797   4798   4799
4800   4801   4802   4803
4804   4805   4806   4807
4808   4809   4810   4811
4812   4813   4814   4815
4816   4817   4818   4819
4820   4821   4822   4823
4824   4825   4826   4827
4828   4829   4830   4831
4832   4833   4834   4835
4836   4837   4838   4839
4840   4841   4842   4843
4844   4845   4846   4847
4848   4849   4850   4851
4852   4853   4854   4855
4856   4857   4858   4859
4860   4861   4862   4863
4864   4865   4866   4867
4868   4869   4870   4871
4872   4873   4874   4875
4876   4877   4878   4879
4880   4881   4882   4883
4884   4885   4886   4887
4888   4889   4890   4891
4892   4893   4894   4895
4896   4897   4898   4899
4900   4901   4902   4903
4904   4905   4906   4907
4908   4909   4910   4911
4912   4913   4914   4915
4916   4917   4918   4919
4920   4921   4922   4923
4924   4925   4926   4927
4928   4929   4930   4931
4932   4933   4934   4935
4936   4937   4938   4939
4940   4941   4942   4943
4944   4945   4946   4947
4948   4949   4950   4951
4952   4953   4954   4955
4956   4957   4958   4959
4960   4961   4962   4963
4964   4965   4966   4967
4968   4969   4970   4971
4972   4973   4974   4975
4976   4977   4978   4979
4980   4981   4982   4983
4984   4985   4986   4987
4988   4989   4990   4991
4992   4993   4994   4995
4996   4997   4998   4999
5000   5001   5002   5003
5004   5005   5006   5007
5008   5009   5010   5011
5012   5013   5014   5015
5016   5017   5018   5019
5020   5021   5022   5023
5024   5025   5026   5027
5028   5029   5030   5031
5032   5033   5034   5035
5036   5037   5038   5039
5040   5041   5042   5043
5044   5045   5046   5047
5048   5049   5050   5051
5052   5053   5054   5055
5056   5057   5058   5059
5060   5061   5062   5063
5064   5065   5066   5067
5068   5069   5070   5071
5072   5073   5074   5075
5076   5077   5078   5079
5080   5081   5082   5083
5084   5085   5086   5087
5088   5089   5090   5091
5092   5093   5094   5095
5096   5097   5098   5099
5100   5101   5102   5103
5104   5105   5106   5107
5108   5109   5110   5111
5112   5113   5114   5115
5116   5117   5118   5119
5120   5121   5122   5123
5124   5125   5126   5127
5128   5129   5130   5131
5132   5133   5134   5135
5136   5137   5138   5139
5140   5141   5142   5143
5144   5145   5146   5147
5148   5149   5150   5151
5152   5153   5154   5155
5156   5157   5158   5159
5160   5161   5162   5163
5164   5165   5166   5167
5168   5169   5170   5171
5172   5173   5174   5175
5176   5177   5178   5179
5180   5181   5182   5183
5184   5185   5186   5187
5188   5189   5190   5191
5192   5193   5194   5195
5196   5197   5198   5199
5200   5201   5202   5203
5204   5205   5206   5207
5208   5209   5210   5211
5212   5213   5214   5215
5216   5217   5218   5219
5220   5221   5222   5223
5224   5225   5226   5227
5228   5229   5230   5231
5232   5233   5234   5235
5236   5237   5238   5239
5240   5241   5242   5243
5244   5245   5246   5247
5248   5249   5250   5251
5252   5253   5254   5255
5256   5257   5258   5259
5260   5261   5262   5263
5264   5265   5266   5267
5268   5269   5270   5271
5272   5273   5274   5275
5276   5277   5278   5279
5280   5281   5282   5283
5284   5285   5286   5287
5288   5289   5290   5291
5292   5293   5294   5295
5296   5297   5298   5299
5300   5301   5302   5303
5304   5305   5306   5307
5308   5309   5310   5311
5312   5313   5314   5315
5316   5317   5318   5319
5320   5321   5322   5323
5324   5325   5326   5327
5328   5329   5330   5331
5332   5333   5334   5335
5336   5337   5338   5339
5340   5341   5342   5343
5344   5345   5346   5347
5348   5349   5350   5351
5352   5353   5354   5355
5356   5357   5358   5359
5360   5361   5362   5363
5364   5365   5366   5367
5368   5369   5370   5371
5372   5373   5374   5375
5376   5377   5378   5379
5380   5381   5382   5383
5384   5385   5386   5387
5388   5389   5390   5391
5392   5393   5394   5395
5396   5397   5398   5399
5400   5401   5402   5403
5404   5405   5406   5407
5408   5409   5410   5411
5412   5413   5414   5415
5416   5417   5418   5419
5420   5421   5422   5423
5424   5425   5426   5427
5428   5429   5430   5431
5432   5433   5434   5435
5436   5437   5438   5439
5440   5441   5442   5443
5444   5445   5446   5447
5448   5449   5450   5451
5452   5453   5454   5455
5456   5457   5458   5459
5460   5461   5462   5463
5464   5465   5466   5467
5468   5469   5470   5471
5472   5473   5474   5475
5476   5477   5478   5479
5480   5481   5482   5483
5484   5485   5486   5487
5488   5489   5490   5491
5492   5493   5494   5495
5496   5497   5498   5499
5500   5501   5502   5503
5504   5505   5506   5507
5508   5509   5510   5511
5512   5513   5514   5515
5516   5517   5518   5519
5520   5521   5522   5523
5524   5525   5526   5527
5528   5529   5530   5531
5532   5533   5534   5535
5536   5537   5538   5539
5540   5541   5542   5543
5544   5545   5546   5547
5548   5549   5550   5551
5552   5553   5554   5555
5556   5557   5558   5559
5560   5561   5562   5563
5564   5565   5566   5567
5568   5569   5570   5571
5572   5573   5574   5575
5576   5577   5578   5579
5580   5581   5582   5583
5584   5585   5586   5587
5588   5589   5590   5591
5592   5593   5594   5595
5596   5597   5598   5599
5600   5601   5602   5603
5604   5605   5606   5607
5608   5609   5610   5611
5612   5613   5614   5615
5616   5617   5618   5619
5620   5621   5622   5623
5624   5625   5626   5627
5628   5629   5630   5631
5632   5633   5634   5635
5636   5637   5638   5639
5640   5641   5642   5643
5644   5645   5646   5647
5648   5649   5650   5651
5652   5653   5654   5655
5656   5657   5658   5659
5660   5661   5662   5663
5664   5665   5666   5667
5668   5669   5670   5671
5672   5673   5674   5675
5676   5677   5678   5679
5680   5681   5682   5683
5684   5685   5686   5687
5688   5689   5690   5691
5692   5693   5694   5695
5696   5697   5698   5699
5700   5701   5702   5703
5704   5705   5706   5707
5708   5709   5710   5711
5712   5713   5714   5715
5716   5717   5718   5719
5720   5721   5722   5723
5724   5725   5726   5727
5728   5729   5730   5731
5732   5733   5734   5735
5736   5737   5738   5739
5740   5741   5742   5743
5744   5745   5746   5747
5748   5749   5750   5751
5752   5753   5754   5755
5756   5757   5758   5759
5760   5761   5762   5763
5764   5765   5766   5767
5768   5769   5770   5771
5772   5773   5774   5775
5776   5777   5778   5779
5780   5781   5782   5783
5784   5785   5786   5787
5788   5789   5790   5791
5792   5793   5794   5795
5796   5797   5798   5799
5800   5801   5802   5803
5804   5805   5806   5807
5808   5809   5810   5811
5812   5813   5814   5815
5816   5817   5818   5819
5820   5821   5822   5823
5824   5825   5826   5827
5828   5829   5830   5831
5832   5833   5834   5835
5836   5837   5838   5839
5840   5841   5842   5843
5844   5845   5846   5847
5848   5849   5850   5851
5852   5853   5854   5855
5856   5857   5858   5859
5860   5861   5862   5863
5864   5865   5866   5867
5868   5869   5870   5871
5872   5873   5874   5875
5876   5877   5878   5879
5880   5881   5882   5883
5884   5885   5886   5887
5888   5889   5890   5891
5892   5893   5894   5895
5896   5897   5898   5899
5900   5901   5902   5903
5904   5905   5906   5907
5908   5909   5910   5911
5912   5913   5914   5915
5916   5917   5918   5919
5920   5921   5922   5923
5924   5925   5926   5927
5928   5929   5930   5931
5932   5933   5934   5935
5936   5937   5938   5939
5940   5941   5942   5943
5944   5945   5946   5947
5948   5949   5950   5951
5952   5953   5954   5955
5956   5957   5958   5959
5960   5961   5962   5963
5964   5965   5966   5967
5968   5969   5970   5971
5972   5973   5974   5975
5976   5977   5978   5979
5980   5981   5982   5983
5984   5985   5986   5987
5988   5989   5990   5991
5992   5993   5994   5995
5996   5997   5998   5999
              </DataArray>   
              <DataArray type="Int32" Name="offsets" format="ascii">   
4
8
12
16
20
24
28
32
36
40
44
48
52
56
60
64
68
72
76
80
84
88
92
96
100
104
108
112
116
120
124
128
132
136
140
144
148
152
156
160
164
168
172
176
180
184
188
192
196
200
204
208
212
216
220
224
228
232
236
240
244
248
252
256
260
264
268
272
276
280
284
288
292
296
300
304
308
312
316
320
324
328
332
336
340
344
348
352
356
360
364
368
372
376
380
384
388
392
396
400
404
408
412
416
420
424
428
432
436
440
444
448
452
456
460
464
468
472
476
480
484
488
492
496
500
504
508
512
516
520
524
528
532
536
540
544
548
552
556
560
564
568
572
576
580
584
588
592
596
600
604
608
612
616
620
624
628
632
636
640
644
648
652
656
660
664
668
672
676
680
684
688
692
696
700
704
708
712
716
720
724
728
732
736
740
744
748
752
756
760
764
768
772
776
780
784
788
792
796
800
804
808
812
816
820
824
828
832
836
840
844
848
852
856
860
864
868
872
876
880
884
888
892
896
900
904
908
912
916
920
924
928
932
936
940
944
948
952
956
960
964
968
972
976
980
984
988
992
996
1000
1004
1008
1012
1016
1020
1024
1028
1032
1036
1040
1044
1048
1052
1056
1060
1064
1068
1072
1076
1080
1084
1088
1092
1096
1100
1104
1108
1112
1116
1120
1124
1128
1132
1136
1140
1144
1148
1152
1156
1160
1164
1168
1172
1176
1180
1184
1188
1192
1196
1200
1204
1208
1212
1216
1220
1224
1228
1232
1236
1240
1244
1248
1252
1256
1260
1264
1268
1272
1276
1280
1284
1288
1292
1296
1300
1304
1308
1312
1316
1320
1324
1328
1332
1336
1340
1344
1348
1352
1356
1360
1364
1368
1372
1376
1380
1384
1388
1392
1396
1400
1404
1408
1412
1416
1420
1424
1428
1432
1436
1440
1444
1448
1452
1456
1460
1464
1468
1472
1476
1480
1484
1488
1492
1496
1500
1504
1508
1512
1516
1520
1524
1528
1532
1536
1540
1544
1548
1552
1556
1560
1564
1568
1572
1576
1580
1584
1588
1592
1596
1600
1604
1608
1612
1616
1620
1624
1628
1632
1636
1640
1644
1648
1652
1656
1660
1664
1668
1672
1676
1680
1684
1688
1692
1696
1700
1704
1708
1712
1716
1720
1724
1728
1732
1736
1740
1744
1748
1752
1756
1760
1764
1768
1772
1776
1780
1784
1788
1792
1796
1800
1804
1808
1812
1816
1820
1824
1828
1832
1836
1840
1844
1848
1852
1856
1860
1864
1868
1872
1876
1880
1884
1888
1892
1896
1900
1904
1908
1912
1916
1920
1924
1928
1932
1936
1940
1944
1948
1952
1956
1960
1964
1968
1972
1976
1980
1984
1988
1992
1996
2000
2004
2008
2012
2016
2020
2024
2028
2032
2036
2040
2044
2048
2052
2056
2060
2064
2068
2072
2076
2080
2084
2088
2092
2096
2100
2104
2108
2112
2116
2120
2124
2128
2132
2136
2140
2144
2148
2152
2156
2160
2164
2168
2172
2176
2180
2184
2188
2192
2196
2200
2204
2208
2212
2216
2220
2224
2228
2232
2236
2240
2244
2248
2252
2256
2260
2264
2268
2272
2276
2280
2284
2288
2292
2296
2300
2304
2308
2312
2316
2320
2324
2328
2332
2336
2340
2344
2348
2352
2356
2360
2364
2368
2372
2376
2380
2384
2388
2392
2396
2400
2404
2408
2412
2416
2420
2424
2428
2432
2436
2440
2444
2448
2452
2456
2460
2464
2468
2472
2476
2480
2484
2488
2492
2496
2500
2504
2508
2512
2516
2520
2524
2528
2532
2536
2540
2544
2548
2552
2556
2560
2564
2568
2572
2576
2580
2584
2588
2592
2596
2600
2604
2608
2612
2616
2620
2624
2628
2632
2636
2640
2644
2648
2652
2656
2660
2664
2668
2672
2676
2680
2684
2688
2692
2696
2700
2704
2708
2712
2716
2720
2724
2728
2732
2736
2740
2744
2748
2752
2756
2760
2764
2768
2772
2776
2780
2784
2788
2792
2796
2800
2804
2808
2812
2816
2820
2824
2828
2832
2836
2840
2844
2848
2852
2856
2860
2864
2868
2872
2876
2880
2884
2888
2892
2896
2900
2904
2908
2912
2916
2920
2924
2928
2932
2936
2940
2944
2948
2952
2956
2960
2964
2968
2972
2976
2980
2984
2988
2992
2996
3000
3004
3008
3012
3016
3020
3024
3028
3032
3036
3040
3044
3048
3052
3056
3060
3064
3068
3072
3076
3080
3084
3088
3092
3096
3100
3104
3108
3112
3116
3120
3124
3128
3132
3136
3140
3144
3148
3152
3156
3160
3164
3168
3172
3176
3180
3184
3188
3192
3196
3200
3204
3208
3212
3216
3220
3224
3228
3232
3236
3240
3244
3248
3252
3256
3260
3264
3268
3272
3276
3280
3284
3288
3292
3296
3300
3304
3308
3312
3316
3320
3324
3328
3332
3336
3340
3344
3348
3352
3356
3360
3364
3368
3372
3376
3380
3384
3388
3392
3396
3400
3404
3408
3412
3416
3420
3424
3428
3432
3436
3440
3444
3448
3452
3456
3460
3464
3468
3472
3476
3480
3484
3488
3492
3496
3500
3504
3508
3512
3516
3520
3524
3528
3532
3536
3540
3544
3548
3552
3556
3560
3564
3568
3572
3576
3580
3584
3588
3592
3596
3600
3604
3608
3612
3616
3620
3624
3628
3632
3636
3640
3644
3648
3652
3656
3660
3664
3668
3672
3676
3680
3684
3688
3692
3696
3700
3704
3708
3712
3716
3720
3724
3728
3732
3736
3740
3744
3748
3752
3756
3760
3764
3768
3772
3776
3780
3784
3788
3792
3796
3800
3804
3808
3812
3816
3820
3824
3828
3832
3836
3840
3844
3848
3852
3856
3860
3864
3868
3872
3876
3880
3884
3888
3892
3896
3900
3904
3908
3912
3916
3920
3924
3928
3932
3936
3940
3944
3948
3952
3956
3960
3964
3968
3972
3976
3980
3984
3988
3992
3996
4000
4004
4008
4012
4016
4020
4024
4028
4032
4036
4040
4044
4048
4052
4056
4060
4064
4068
4072
4076
4080
4084
4088
4092
4096
4100
4104
4108
4112
4116
4120
4124
4128
4132
4136
4140
4144
4148
4152
4156
4160
4164
4168
4172
4176
4180
4184
4188
4192
4196
4200
4204
4208
4212
4216
4220
4224
4228
4232
4236
4240
4244
4248
4252
4256
4260
4264
4268
4272
4276
4280
4284
4288
4292
4296
4300
4304
4308
4312
4316
4320
4324
4328
4332
4336
4340
4344
4348
4352
4356
4360
4364
4368
4372
4376
4380
4384
4388
4392
4396
4400
4404
4408
4412
4416
4420
4424
4428
4432
4436
4440
4444
4448
4452
4456
4460
4464
4468
4472
4476
4480
4484
4488
4492
4496
4500
4504
4508
4512
4516
4520
4524
4528
4532
4536
4540
4544
4548
4552
4556
4560
4564
4568
4572
4576
4580
4584
4588
4592
4596
4600
4604
4608
4612
4616
4620
4624
4628
4632
4636
4640
4644
4648
4652
4656
4660
4664
4668
4672
4676
4680
4684
4688
4692
4696
4700
4704
4708
4712
4716
4720
4724
4728
4732
4736
4740
4744
4748
4752
4756
4760
4764
4768
4772
4776
4780
4784
4788
4792
4796
4800
4804
4808
4812
4816
4820
4824
4828
4832
4836
4840
4844
4848
4852
4856
4860
4864
4868
4872
4876
4880
4884
4888
4892
4896
4900
4904
4908
4912
4916
4920
4924
4928
4932
4936
4940
4944
4948
4952
4956
4960
4964
4968
4972
4976
4980
4984
4988
4992
4996
5000
5004
5008
5012
5016
5020
5024
5028
5032
5036
5040
5044
5048
5052
5056
5060
5064
5068
5072
5076
5080
5084
5088
5092
5096
5100
5104
5108
5112
5116
5120
5124
5128
5132
5136
5140
5144
5148
5152
5156
5160
5164
5168
5172
5176
5180
5184
5188
5192
5196
5200
5204
5208
5212
5216
5220
5224
5228
5232
5236
5240
5244
5248
5252
5256
5260
5264
5268
5272
5276
5280
5284
5288
5292
5296
5300
5304
5308
5312
5316
5320
5324
5328
5332
5336
5340
5344
5348
5352
5356
5360
5364
5368
5372
5376
5380
5384
5388
5392
5396
5400
5404
5408
5412
5416
5420
5424
5428
5432
5436
5440
5444
5448
5452
5456
5460
5464
5468
5472
5476
5480
5484
5488
5492
5496
5500
5504
5508
5512
5516
5520
5524
5528
5532
5536
5540
5544
5548
5552
5556
5560
5564
5568
5572
5576
5580
5584
5588
5592
5596
5600
5604
5608
5612
5616
5620
5624
5628
5632
5636
5640
5644
5648
5652
5656
5660
5664
5668
5672
5676
5680
5684
5688
5692
5696
5700
5704
5708
5712
5716
5720
5724
5728
5732
5736
5740
5744
5748
5752
5756
5760
5764
5768
5772
5776
5780
5784
5788
5792
5796
5800
5804
5808
5812
5816
5820
5824
5828
5832
5836
5840
5844
5848
5852
5856
5860
5864
5868
5872
5876
5880
5884
5888
5892
5896
5900
5904
5908
5912
5916
5920
5924
5928
5932
5936
5940
5944
5948
5952
5956
5960
5964
5968
5972
5976
5980
5984
5988
5992
5996
6000
              </DataArray>   
              <DataArray type="UInt8" Name="types" format="ascii">   
10
10
10
10
10
10
10
10
10
10
10
10
10
10
10
10
10
10
10
10
10
10
10
10
10
10
10
10
10
10
10
10
10
10
10
10
10
10
10
10
10
10
10
10
10
10
10
10
10
10
10
10
10
10
10
10
10
10
10
10
10
10
10
10
10
10
10
10
10
10
10
10
10
10
10
10
10
10
10
10
10
10
10
10
10
10
10
10
10
10
10
10
10
10
10
10
10
10
10
10
10
10
10
10
10
10
10
10
10
10
10
10
10
10
10
10
10
10
10
10
10
10
10
10
10
10
10
10
10
10
10
10
10
10
10
10
10
10
10
10
10
10
10
10
10
10
10
10
10
10
10
10
10
10
10
10
10
10
10
10
10
10
10
10
10
10
10
10
10
10
10
10
10
10
10
10
10
10
10
10
10
10
10
10
10
10
10
10
10
10
10
10
10
10
10
10
10
10
10
10
10
10
10
10
10
10
10
10
10
10
10
10
10
10
10
10
10
10
10
10
10
10
10
10
10
10
10
10
10
10
10
10
10
10
10
10
10
10
10
10
10
10
10
10
10
10
10
10
10
10
10
10
10
10
10
10
10
10
10
10
10
10
10
10
10
10
10
10
10
10
10
10
10
10
10
10
10
10
10
10
10
10
10
10
10
10
10
10
10
10
10
10
10
10
10
10
10
10
10
10
10
10
10
10
10
10
10
10
10
10
10
10
10
10
10
10
10
10
10
10
10
10
10
10
10
10
10
10
10
10
10
10
10
10
10
10
10
10
10
10
10
10
10
10
10
10
10
10
10
10
10
10
10
10
10
10
10
10
10
10
10
10
10
10
10
10
10
10
10
10
10
10
10
10
10
10
10
10
10
10
10
10
10
10
10
10
10
10
10
10
10
10
10
10
10
10
10
10
10
10
10
10
10
10
10
10
10
10
10
10
10
10
10
10
10
10
10
10
10
10
10
10
10
10
10
10
10
10
10
10
10
10
10
10
10
10
10
10
10
10
10
10
10
10
10
10
10
10
10
10
10
10
10
10
10
10
10
10
10
10
10
10
10
10
10
10
10
10
10
10
10
10
10
10
10
10
10
10
10
10
10
10
10
10
10
10
10
10
10
10
10
10
10
10
10
10
10
10
10
10
10
10
10
10
10
10
10
10
10
10
10
10
10
10
10
10
10
10
10
10
10
10
10
10
10
10
10
10
10
10
10
10
10
10
10
10
10
10
10
10
10
10
10
10
10
10
10
10
10
10
10
10
10
10
10
10
10
10
10
10
10
10
10
10
10
10
10
10
10
10
10
10
10
10
10
10
10
10
10
10
10
10
10
10
10
10
10
10
10
10
10
10
10
10
10
10
10
10
10
10
10
10
10
10
10
10
10
10
10
10
10
10
10
10
10
10
10
10
10
10
10
10
10
10
10
10
10
10
10
10
10
10
10
10
10
10
10
10
10
10
10
10
10
10
10
10
10
10
10
10
10
10
10
10
10
10
10
10
10
10
10
10
10
10
10
10
10
10
10
10
10
10
10
10
10
10
10
10
10
10
10
10
10
10
10
10
10
10
10
10
10
10
10
10
10
10
10
10
10
10
10
10
10
10
10
10
10
10
10
10
10
10
10
10
10
10
10
10
10
10
10
10
10
10
10
10
10
10
10
10
10
10
10
10
10
10
10
10
10
10
10
10
10
10
10
10
10
10
10
10
10
10
10
10
10
10
10
10
10
10
10
10
10
10
10
10
10
10
10
10
10
10
10
10
10
10
10
10
10
10
10
10
10
10
10
10
10
10
10
10
10
10
10
10
10
10
10
10
10
10
10
10
10
10
10
10
10
10
10
10
10
10
10
10
10
10
10
10
10
10
10
10
10
10
10
10
10
10
10
10
10
10
10
10
10
10
10
10
10
10
10
10
10
10
10
10
10
10
10
10
10
10
10
10
10
10
10
10
10
10
10
10
10
10
10
10
10
10
10
10
10
10
10
10
10
10
10
10
10
10
10
10
10
10
10
10
10
10
10
10
10
10
10
10
10
10
10
10
10
10
10
10
10
10
10
10
10
10
10
10
10
10
10
10
10
10
10
10
10
10
10
10
10
10
10
10
10
10
10
10
10
10
10
10
10
10
10
10
10
10
10
10
10
10
10
10
10
10
10
10
10
10
10
10
10
10
10
10
10
10
10
10
10
10
10
10
10
10
10
10
10
10
10
10
10
10
10
10
10
10
10
10
10
10
10
10
10
10
10
10
10
10
10
10
10
10
10
10
10
10
10
10
10
10
10
10
10
10
10
10
10
10
10
10
10
10
10
10
10
10
10
10
10
10
10
10
10
10
10
10
10
10
10
10
10
10
10
10
10
10
10
10
10
10
10
10
10
10
10
10
10
10
10
10
10
10
10
10
10
10
10
10
10
10
10
10
10
10
10
10
10
10
10
10
10
10
10
10
10
10
10
10
10
10
10
10
10
10
10
10
10
10
10
10
10
10
10
10
10
10
10
10
10
10
10
10
10
10
10
10
10
10
10
10
10
10
10
10
10
10
10
10
10
10
10
10
10
10
10
10
10
10
10
10
10
10
10
10
10
10
10
10
10
10
10
10
10
10
10
10
10
10
10
10
10
10
10
10
10
10
10
10
10
10
10
10
10
10
10
10
10
10
10
10
10
10
10
10
10
10
10
10
10
10
10
10
10
10
10
10
10
10
10
10
10
10
10
10
10
10
10
10
10
10
10
10
10
10
10
10
10
10
10
10
10
10
10
10
10
10
10
10
10
10
10
10
10
10
10
10
10
10
10
10
10
10
10
10
10
10
10
10
10
10
10
10
10
10
10
10
10
10
10
10
10
10
10
10
10
10
10
10
10
10
10
10
10
10
10
10
10
10
10
10
10
10
10
10
10
10
10
10
10
10
10
10
10
10
10
10
10
10
10
10
10
10
10
10
10
10
10
10
10
10
10
10
10
10
10
10
10
10
10
10
10
10
10
10
10
10
10
10
10
10
10
10
10
10
10
10
10
10
10
10
10
10
10
10
10
10
10
10
10
10
10
10
10
10
10
10
10
10
10
10
10
10
10
10
10
10
10
10
10
10
10
10
10
10
10
10
10
10
10
10
10
10
10
10
10
10
10
10
10
10
10
10
10
10
10
10
10
10
10
10
10
10
10
10
10
10
10
10
10
10
10
10
10
10
10
10
10
10
10
10
10
10
10
10
10
10
10
10
10
10
10
10
10
10
10
10
10
10
10
10
10
10
10
10
10
10
10
10
10
10
10
10
10
10
10
10
10
10
10
10
10
10
10
10
10
10
10
10
10
10
10
10
10
10
10
10
10
10
10
10
10
10
10
10
10
10
10
10
10
10
10
10
10
10
10
10
10
10
10
10
10
10
10
10
10
10
              </DataArray>   
          </Cells>  
          <PointData>  
             <DataArray type="Float64" NumberOfComponents="3" Name="Strains" format="ascii">   
-0.00011314908742652609   0.0   -7.420835994025542e-05
-0.00011314908742652609   0.0   -7.420835994025542e-05
-0.00011314908742652609   0.0   -7.420835994025542e-05
-0.00011314908742652609   0.0   -7.420835994025542e-05
-7.200405950255234e-05   1.254159409352107e-05   1.8916430558133098e-06
-7.200405950255234e-05   1.254159409352107e-05   1.8916430558133098e-06
-7.200405950255234e-05   1.254159409352107e-05   1.8916430558133098e-06
-7.200405950255234e-05   1.254159409352107e-05   1.8916430558133098e-06
-7.05837890498656e-05   0.0   -7.00312578678042e-05
-7.05837890498656e-05   0.0   -7.00312578678042e-05
-7.05837890498656e-05   0.0   -7.00312578678042e-05
-7.05837890498656e-05   0.0   -7.00312578678042e-05
-0.00011842049591123408   1.5047285845796909e-05   6.682153936654427e-07
-0.00011842049591123408   1.5047285845796909e-05   6.682153936654427e-07
-0.00011842049591123408   1.5047285845796909e-05   6.682153936654427e-07
-0.00011842049591123408   1.5047285845796909e-05   6.682153936654427e-07
-9.186643823819568e-05   3.4809183937093487e-06   -3.6648726923479336e-05
-9.186643823819568e-05   3.4809183937093487e-06   -3.6648726923479336e-05
-9.186643823819568e-05   3.4809183937093487e-06   -3.6648726923479336e-05
-9.186643823819568e-05   3.4809183937093487e-06   -3.6648726923479336e-05
-0.0001184204959112343   0.0   -7.905962937528235e-05
-0.0001184204959112343   0.0   -7.905962937528235e-05
-0.0001184204959112343   0.0   -7.905962937528235e-05
-0.0001184204959112343   0.0   -7.905962937528235e-05
-7.05837890498656e-05   1.5047285845796923e-05   9.696586901143594e-06
-7.05837890498656e-05   1.5047285845796923e-05   9.696586901143594e-06
-7.05837890498656e-05   1.5047285845796923e-05   9.696586901143594e-06
-7.05837890498656e-05   1.5047285845796923e-05   9.696586901143594e-06
-7.078688856273723e-05   0.0   -7.174646460613922e-05
-7.078688856273723e-05   0.0   -7.174646460613922e-05
-7.078688856273723e-05   0.0   -7.174646460613922e-05
-7.078688856273723e-05   0.0   -7.174646460613922e-05
-0.00012212440946167042   1.6120008729440905e-05   4.144064987751867e-06
-0.00012212440946167042   1.6120008729440905e-05   4.144064987751867e-06
-0.00012212440946167042   1.6120008729440905e-05   4.144064987751867e-06
-0.00012212440946167042   1.6120008729440905e-05   4.144064987751867e-06
-9.46036922369856e-05   6.094303974285934e-06   -3.5708374200296486e-05
-9.46036922369856e-05   6.094303974285934e-06   -3.5708374200296486e-05
-9.46036922369856e-05   6.094303974285934e-06   -3.5708374200296486e-05
-9.46036922369856e-05   6.094303974285934e-06   -3.5708374200296486e-05
-0.00012212440946167064   0.0   -8.141846984380378e-05
-0.00012212440946167064   0.0   -8.141846984380378e-05
-0.00012212440946167064   0.0   -8.141846984380378e-05
-0.00012212440946167064   0.0   -8.141846984380378e-05
-7.078688856273723e-05   1.612000872944092e-05   1.3816070225416429e-05
-7.078688856273723e-05   1.612000872944092e-05   1.3816070225416429e-05
-7.078688856273723e-05   1.612000872944092e-05   1.3816070225416429e-05
-7.078688856273723e-05   1.612000872944092e-05   1.3816070225416429e-05
-7.075423645048972e-05   0.0   -7.218656714888316e-05
-7.075423645048972e-05   0.0   -7.218656714888316e-05
-7.075423645048972e-05   0.0   -7.218656714888316e-05
-7.075423645048972e-05   0.0   -7.218656714888316e-05
-0.00013009964965978265   1.83612140760883e-05   1.5705726420952416e-05
-0.00013009964965978265   1.83612140760883e-05   1.5705726420952416e-05
-0.00013009964965978265   1.83612140760883e-05   1.5705726420952416e-05
-0.00013009964965978265   1.83612140760883e-05   1.5705726420952416e-05
-9.643932295608001e-05   7.693252245767177e-06   -3.3994040987025934e-05
-9.643932295608001e-05   7.693252245767177e-06   -3.3994040987025934e-05
-9.643932295608001e-05   7.693252245767177e-06   -3.3994040987025934e-05
-9.643932295608001e-05   7.693252245767177e-06   -3.3994040987025934e-05
-7.200405950255247e-05   0.0   -6.668340348414277e-05
-7.200405950255247e-05   0.0   -6.668340348414277e-05
-7.200405950255247e-05   0.0   -6.668340348414277e-05
-7.200405950255247e-05   0.0   -6.668340348414277e-05
-3.278636524706756e-05   4.601084256259202e-06   1.440070828754218e-06
-3.278636524706756e-05   4.601084256259202e-06   1.440070828754218e-06
-3.278636524706756e-05   4.601084256259202e-06   1.440070828754218e-06
-3.278636524706756e-05   4.601084256259202e-06   1.440070828754218e-06
-3.153740051551573e-05   0.0   -6.610229958982957e-05
-3.153740051551573e-05   0.0   -6.610229958982957e-05
-3.153740051551573e-05   0.0   -6.610229958982957e-05
-3.153740051551573e-05   0.0   -6.610229958982957e-05
-7.05837890498656e-05   6.548263796624389e-06   -4.953943643887739e-06
-7.05837890498656e-05   6.548263796624389e-06   -4.953943643887739e-06
-7.05837890498656e-05   6.548263796624389e-06   -4.953943643887739e-06
-7.05837890498656e-05   6.548263796624389e-06   -4.953943643887739e-06
-5.1770730009034004e-05   4.842532452610016e-07   -3.2670635714455467e-05
-5.1770730009034004e-05   4.842532452610016e-07   -3.2670635714455467e-05
-5.1770730009034004e-05   4.842532452610016e-07   -3.2670635714455467e-05
-5.1770730009034004e-05   4.842532452610016e-07   -3.2670635714455467e-05
-7.058378904986555e-05   0.0   -7.003125786780413e-05
-7.058378904986555e-05   0.0   -7.003125786780413e-05
-7.058378904986555e-05   0.0   -7.003125786780413e-05
-7.058378904986555e-05   0.0   -7.003125786780413e-05
-3.153740051551573e-05   6.548263796624389e-06   -1.0249853659131274e-06
-3.153740051551573e-05   6.548263796624389e-06   -1.0249853659131274e-06
-3.153740051551573e-05   6.548263796624389e-06   -1.0249853659131274e-06
-3.153740051551573e-05   6.548263796624389e-06   -1.0249853659131274e-06
-3.083759521899621e-05   0.0   -6.693289741483972e-05
-3.083759521899621e-05   0.0   -6.693289741483972e-05
-3.083759521899621e-05   0.0   -6.693289741483972e-05
-3.083759521899621e-05   0.0   -6.693289741483972e-05
-7.078688856273723e-05   8.022611985499168e-06   -5.164309033237524e-06
-7.078688856273723e-05   8.022611985499168e-06   -5.164309033237524e-06
-7.078688856273723e-05   8.022611985499168e-06   -5.164309033237524e-06
-7.078688856273723e-05   8.022611985499168e-06   -5.164309033237524e-06
-5.0710692134430804e-05   2.581967044137057e-06   -3.5360249448930675e-05
-5.0710692134430804e-05   2.581967044137057e-06   -3.5360249448930675e-05
-5.0710692134430804e-05   2.581967044137057e-06   -3.5360249448930675e-05
-5.0710692134430804e-05   2.581967044137057e-06   -3.5360249448930675e-05
-7.078688856273723e-05   0.0   -7.174646460613922e-05
-7.078688856273723e-05   0.0   -7.174646460613922e-05
-7.078688856273723e-05   0.0   -7.174646460613922e-05
-7.078688856273723e-05   0.0   -7.174646460613922e-05
-3.083759521899621e-05   8.022611985499168e-06   -3.507418419380258e-07
-3.083759521899621e-05   8.022611985499168e-06   -3.507418419380258e-07
-3.083759521899621e-05   8.022611985499168e-06   -3.507418419380258e-07
-3.083759521899621e-05   8.022611985499168e-06   -3.507418419380258e-07
-3.020103518915206e-05   0.0   -6.658599500318117e-05
-3.020103518915206e-05   0.0   -6.658599500318117e-05
-3.020103518915206e-05   0.0   -6.658599500318117e-05
-3.020103518915206e-05   0.0   -6.658599500318117e-05
-7.075423645048954e-05   9.334286909503197e-06   -4.597898379987017e-06
-7.075423645048954e-05   9.334286909503197e-06   -4.597898379987017e-06
-7.075423645048954e-05   9.334286909503197e-06   -4.597898379987017e-06
-7.075423645048954e-05   9.334286909503197e-06   -4.597898379987017e-06
-5.0493961875944636e-05   4.300391335798337e-06   -3.534468532667255e-05
-5.0493961875944636e-05   4.300391335798337e-06   -3.534468532667255e-05
-5.0493961875944636e-05   4.300391335798337e-06   -3.534468532667255e-05
-5.0493961875944636e-05   4.300391335798337e-06   -3.534468532667255e-05
-3.278636524706761e-05   0.0   -6.392275293038724e-05
-3.278636524706761e-05   0.0   -6.392275293038724e-05
-3.278636524706761e-05   0.0   -6.392275293038724e-05
-3.278636524706761e-05   0.0   -6.392275293038724e-05
4.27044190677688e-06   -5.884724769176315e-07   -2.5144911601302672e-06
4.27044190677688e-06   -5.884724769176315e-07   -2.5144911601302672e-06
4.27044190677688e-06   -5.884724769176315e-07   -2.5144911601302672e-06
4.27044190677688e-06   -5.884724769176315e-07   -2.5144911601302672e-06
5.065780927413941e-06   0.0   -6.540601310508855e-05
5.065780927413941e-06   0.0   -6.540601310508855e-05
5.065780927413941e-06   0.0   -6.540601310508855e-05
5.065780927413941e-06   0.0   -6.540601310508855e-05
-3.153740051551573e-05   1.1604774745679766e-06   -5.096997184946765e-06
-3.153740051551573e-05   1.1604774745679766e-06   -5.096997184946765e-06
-3.153740051551573e-05   1.1604774745679766e-06   -5.096997184946765e-06
-3.153740051551573e-05   1.1604774745679766e-06   -5.096997184946765e-06
-1.3860292159826803e-05   -1.236050145584611e-06   -3.312092787233662e-05
-1.3860292159826803e-05   -1.236050145584611e-06   -3.312092787233662e-05
-1.3860292159826803e-05   -1.236050145584611e-06   -3.312092787233662e-05
-1.3860292159826803e-05   -1.236050145584611e-06   -3.312092787233662e-05
-3.153740051551573e-05   0.0   -6.610229958982957e-05
-3.153740051551573e-05   0.0   -6.610229958982957e-05
-3.153740051551573e-05   0.0   -6.610229958982957e-05
-3.153740051551573e-05   0.0   -6.610229958982957e-05
5.065780927413951e-06   1.1604774745679766e-06   -4.400710700205956e-06
5.065780927413951e-06   1.1604774745679766e-06   -4.400710700205956e-06
5.065780927413951e-06   1.1604774745679766e-06   -4.400710700205956e-06
5.065780927413951e-06   1.1604774745679766e-06   -4.400710700205956e-06
5.692978815543986e-06   0.0   -6.531275023970772e-05
5.692978815543986e-06   0.0   -6.531275023970772e-05
5.692978815543986e-06   0.0   -6.531275023970772e-05
5.692978815543986e-06   0.0   -6.531275023970772e-05
-3.083759521899616e-05   2.700245291886464e-06   -6.048607357272704e-06
-3.083759521899616e-05   2.700245291886464e-06   -6.048607357272704e-06
-3.083759521899616e-05   2.700245291886464e-06   -6.048607357272704e-06
-3.083759521899616e-05   2.700245291886464e-06   -6.048607357272704e-06
-1.2922210849985867e-05   6.579577917681083e-07   -3.468220880555225e-05
-1.2922210849985867e-05   6.579577917681083e-07   -3.468220880555225e-05
-1.2922210849985867e-05   6.579577917681083e-07   -3.468220880555225e-05
-1.2922210849985867e-05   6.579577917681083e-07   -3.468220880555225e-05
-3.083759521899621e-05   0.0   -6.693289741483972e-05
-3.083759521899621e-05   0.0   -6.693289741483972e-05
-3.083759521899621e-05   0.0   -6.693289741483972e-05
-3.083759521899621e-05   0.0   -6.693289741483972e-05
5.692978815543996e-06   2.7002452918864777e-06   -4.428460182140843e-06
5.692978815543996e-06   2.7002452918864777e-06   -4.428460182140843e-06
5.692978815543996e-06   2.7002452918864777e-06   -4.428460182140843e-06
5.692978815543996e-06   2.7002452918864777e-06   -4.428460182140843e-06
6.538217918131044e-06   0.0   -6.389563754402155e-05
6.538217918131044e-06   0.0   -6.389563754402155e-05
6.538217918131044e-06   0.0   -6.389563754402155e-05
6.538217918131044e-06   0.0   -6.389563754402155e-05
-3.0201035189152032e-05   4.483929098599276e-06   -5.353906491042658e-06
-3.0201035189152032e-05   4.483929098599276e-06   -5.353906491042658e-06
-3.0201035189152032e-05   4.483929098599276e-06   -5.353906491042658e-06
-3.0201035189152032e-05   4.483929098599276e-06   -5.353906491042658e-06
-1.2149688650432557e-05   2.5310498923483907e-06   -3.426775653182455e-05
-1.2149688650432557e-05   2.5310498923483907e-06   -3.426775653182455e-05
-1.2149688650432557e-05   2.5310498923483907e-06   -3.426775653182455e-05
-1.2149688650432557e-05   2.5310498923483907e-06   -3.426775653182455e-05
4.270441906776888e-06   0.0   -6.427583641653783e-05
4.270441906776888e-06   0.0   -6.427583641653783e-05
4.270441906776888e-06   0.0   -6.427583641653783e-05
4.270441906776888e-06   0.0   -6.427583641653783e-05
4.449160761435791e-05   -5.2183898416344545e-06   -3.715941422167355e-07
4.449160761435791e-05   -5.2183898416344545e-06   -3.715941422167355e-07
4.449160761435791e-05   -5.2183898416344545e-06   -3.715941422167355e-07
4.449160761435791e-05   -5.2183898416344545e-06   -3.715941422167355e-07
4.456496529891497e-05   0.0   -6.776708171273477e-05
4.456496529891497e-05   0.0   -6.776708171273477e-05
4.456496529891497e-05   0.0   -6.776708171273477e-05
4.456496529891497e-05   0.0   -6.776708171273477e-05
5.065780927413959e-06   -3.935114346076643e-06   4.259608474128919e-07
5.065780927413959e-06   -3.935114346076643e-06   4.259608474128919e-07
5.065780927413959e-06   -3.935114346076643e-06   4.259608474128919e-07
5.065780927413959e-06   -3.935114346076643e-06   4.259608474128919e-07
2.441770360284593e-05   -2.9093710801641234e-06   -3.244268957118787e-05
2.441770360284593e-05   -2.9093710801641234e-06   -3.244268957118787e-05
2.441770360284593e-05   -2.9093710801641234e-06   -3.244268957118787e-05
2.441770360284593e-05   -2.9093710801641234e-06   -3.244268957118787e-05
5.065780927413959e-06   0.0   -6.540601310508878e-05
5.065780927413959e-06   0.0   -6.540601310508878e-05
5.065780927413959e-06   0.0   -6.540601310508878e-05
5.065780927413959e-06   0.0   -6.540601310508878e-05
4.456496529891497e-05   -3.935114346076643e-06   -1.9351077602330972e-06
4.456496529891497e-05   -3.935114346076643e-06   -1.9351077602330972e-06
4.456496529891497e-05   -3.935114346076643e-06   -1.9351077602330972e-06
4.456496529891497e-05   -3.935114346076643e-06   -1.9351077602330972e-06
4.4369139708314404e-05   0.0   -6.679935213655679e-05
4.4369139708314404e-05   0.0   -6.679935213655679e-05
4.4369139708314404e-05   0.0   -6.679935213655679e-05
4.4369139708314404e-05   0.0   -6.679935213655679e-05
5.692978815543996e-06   -2.477669828081588e-06   -8.524820850905106e-07
5.692978815543996e-06   -2.477669828081588e-06   -8.524820850905106e-07
5.692978815543996e-06   -2.477669828081588e-06   -8.524820850905106e-07
5.692978815543996e-06   -2.477669828081588e-06   -8.524820850905106e-07
2.4717460317864183e-05   -1.161115859556674e-06   -3.334988363673906e-05
2.4717460317864183e-05   -1.161115859556674e-06   -3.334988363673906e-05
2.4717460317864183e-05   -1.161115859556674e-06   -3.334988363673906e-05
2.4717460317864183e-05   -1.161115859556674e-06   -3.334988363673906e-05
5.692978815543991e-06   0.0   -6.531275023970778e-05
5.692978815543991e-06   0.0   -6.531275023970778e-05
5.692978815543991e-06   0.0   -6.531275023970778e-05
5.692978815543991e-06   0.0   -6.531275023970778e-05
4.4369139708314404e-05   -2.477669828081588e-06   -2.339083981939464e-06
4.4369139708314404e-05   -2.477669828081588e-06   -2.339083981939464e-06
4.4369139708314404e-05   -2.477669828081588e-06   -2.339083981939464e-06
4.4369139708314404e-05   -2.477669828081588e-06   -2.339083981939464e-06
4.522367023923503e-05   0.0   -6.42069700695974e-05
4.522367023923503e-05   0.0   -6.42069700695974e-05
4.522367023923503e-05   0.0   -6.42069700695974e-05
4.522367023923503e-05   0.0   -6.42069700695974e-05
6.538217918131056e-06   -5.188875426262506e-07   5.801163244849476e-07
6.538217918131056e-06   -5.188875426262506e-07   5.801163244849476e-07
6.538217918131056e-06   -5.188875426262506e-07   5.801163244849476e-07
6.538217918131056e-06   -5.188875426262506e-07   5.801163244849476e-07
2.545832452738949e-05   9.214834750920334e-07   -3.181761730157671e-05
2.545832452738949e-05   9.214834750920334e-07   -3.181761730157671e-05
2.545832452738949e-05   9.214834750920334e-07   -3.181761730157671e-05
2.545832452738949e-05   9.214834750920334e-07   -3.181761730157671e-05
4.449160761435791e-05   0.0   -6.740687032151849e-05
4.449160761435791e-05   0.0   -6.740687032151849e-05
4.449160761435791e-05   0.0   -6.740687032151849e-05
4.449160761435791e-05   0.0   -6.740687032151849e-05
0.00010041572391738955   -1.3224721959967294e-05   1.786515700755441e-05
0.00010041572391738955   -1.3224721959967294e-05   1.786515700755441e-05
0.00010041572391738955   -1.3224721959967294e-05   1.786515700755441e-05
0.00010041572391738955   -1.3224721959967294e-05   1.786515700755441e-05
9.429909323384617e-05   0.0   -7.452018616348763e-05
9.429909323384617e-05   0.0   -7.452018616348763e-05
9.429909323384617e-05   0.0   -7.452018616348763e-05
9.429909323384617e-05   0.0   -7.452018616348763e-05
4.456496529891497e-05   -1.1255174084588121e-05   1.512313151215056e-05
4.456496529891497e-05   -1.1255174084588121e-05   1.512313151215056e-05
4.456496529891497e-05   -1.1255174084588121e-05   1.512313151215056e-05
4.456496529891497e-05   -1.1255174084588121e-05   1.512313151215056e-05
6.939535042410204e-05   -5.92776320164095e-06   -2.9457290226262808e-05
6.939535042410204e-05   -5.92776320164095e-06   -2.9457290226262808e-05
6.939535042410204e-05   -5.92776320164095e-06   -2.9457290226262808e-05
6.939535042410204e-05   -5.92776320164095e-06   -2.9457290226262808e-05
4.4564965298914934e-05   0.0   -6.776708171273471e-05
4.4564965298914934e-05   0.0   -6.776708171273471e-05
4.4564965298914934e-05   0.0   -6.776708171273471e-05
4.4564965298914934e-05   0.0   -6.776708171273471e-05
9.429909323384584e-05   -1.1255174084588067e-05   8.37002706139764e-06
9.429909323384584e-05   -1.1255174084588067e-05   8.37002706139764e-06
9.429909323384584e-05   -1.1255174084588067e-05   8.37002706139764e-06
9.429909323384584e-05   -1.1255174084588067e-05   8.37002706139764e-06
9.14762297343337e-05   0.0   -7.297081633630315e-05
9.14762297343337e-05   0.0   -7.297081633630315e-05
9.14762297343337e-05   0.0   -7.297081633630315e-05
9.14762297343337e-05   0.0   -7.297081633630315e-05
4.4369139708314404e-05   -1.0285773666243917e-05   1.1712464573475351e-05
4.4369139708314404e-05   -1.0285773666243917e-05   1.1712464573475351e-05
4.4369139708314404e-05   -1.0285773666243917e-05   1.1712464573475351e-05
4.4369139708314404e-05   -1.0285773666243917e-05   1.1712464573475351e-05
6.80205975166243e-05   -4.336445519640318e-06   -3.127622866166995e-05
6.80205975166243e-05   -4.336445519640318e-06   -3.127622866166995e-05
6.80205975166243e-05   -4.336445519640318e-06   -3.127622866166995e-05
6.80205975166243e-05   -4.336445519640318e-06   -3.127622866166995e-05
4.4369139708314404e-05   0.0   -6.679935213655679e-05
4.4369139708314404e-05   0.0   -6.679935213655679e-05
4.4369139708314404e-05   0.0   -6.679935213655679e-05
4.4369139708314404e-05   0.0   -6.679935213655679e-05
9.14762297343334e-05   -1.028577366624389e-05   5.541000373729009e-06
9.14762297343334e-05   -1.028577366624389e-05   5.541000373729009e-06
9.14762297343334e-05   -1.028577366624389e-05   5.541000373729009e-06
9.14762297343334e-05   -1.028577366624389e-05   5.541000373729009e-06
8.727724697417384e-05   0.0   -6.900572477574157e-05
8.727724697417384e-05   0.0   -6.900572477574157e-05
8.727724697417384e-05   0.0   -6.900572477574157e-05
8.727724697417384e-05   0.0   -6.900572477574157e-05
4.522367023923503e-05   -7.997924510240483e-06   5.882324488634187e-06
4.522367023923503e-05   -7.997924510240483e-06   5.882324488634187e-06
4.522367023923503e-05   -7.997924510240483e-06   5.882324488634187e-06
4.522367023923503e-05   -7.997924510240483e-06   5.882324488634187e-06
6.58231933412442e-05   -1.8386438659874209e-06   -3.214578240126622e-05
6.58231933412442e-05   -1.8386438659874209e-06   -3.214578240126622e-05
6.58231933412442e-05   -1.8386438659874209e-06   -3.214578240126622e-05
6.58231933412442e-05   -1.8386438659874209e-06   -3.214578240126622e-05
-9.821110394649244e-05   1.254159409352107e-05   -6.440486402494874e-05
-9.821110394649244e-05   1.254159409352107e-05   -6.440486402494874e-05
-9.821110394649244e-05   1.254159409352107e-05   -6.440486402494874e-05
-9.821110394649244e-05   1.254159409352107e-05   -6.440486402494874e-05
-6.28999766602814e-05   1.1280752619664684e-05   -6.3094900989107245e-06
-6.28999766602814e-05   1.1280752619664684e-05   -6.3094900989107245e-06
-6.28999766602814e-05   1.1280752619664684e-05   -6.3094900989107245e-06
-6.28999766602814e-05   1.1280752619664684e-05   -6.3094900989107245e-06
-6.448498037412537e-05   1.5047285845796895e-05   -5.408648522265216e-05
-6.448498037412537e-05   1.5047285845796895e-05   -5.408648522265216e-05
-6.448498037412537e-05   1.5047285845796895e-05   -5.408648522265216e-05
-6.448498037412537e-05   1.5047285845796895e-05   -5.408648522265216e-05
-9.927930442257494e-05   1.3537363517160156e-05   4.810008255279384e-06
-9.927930442257494e-05   1.3537363517160156e-05   4.810008255279384e-06
-9.927930442257494e-05   1.3537363517160156e-05   4.810008255279384e-06
-9.927930442257494e-05   1.3537363517160156e-05   4.810008255279384e-06
-7.800220269161152e-05   1.309909044741291e-05   -3.0388864121145225e-05
-7.800220269161152e-05   1.309909044741291e-05   -3.0388864121145225e-05
-7.800220269161152e-05   1.309909044741291e-05   -3.0388864121145225e-05
-7.800220269161152e-05   1.309909044741291e-05   -3.0388864121145225e-05
-9.927930442257494e-05   1.5047285845796895e-05   -5.3180531825470126e-05
-9.927930442257494e-05   1.5047285845796895e-05   -5.3180531825470126e-05
-9.927930442257494e-05   1.5047285845796895e-05   -5.3180531825470126e-05
-9.927930442257494e-05   1.5047285845796895e-05   -5.3180531825470126e-05
-6.448498037412559e-05   1.353736351716021e-05   3.904054858097281e-06
-6.448498037412559e-05   1.353736351716021e-05   3.904054858097281e-06
-6.448498037412559e-05   1.353736351716021e-05   3.904054858097281e-06
-6.448498037412559e-05   1.353736351716021e-05   3.904054858097281e-06
-6.481959001863294e-05   1.612000872944089e-05   -4.8624483306772086e-05
-6.481959001863294e-05   1.612000872944089e-05   -4.8624483306772086e-05
-6.481959001863294e-05   1.612000872944089e-05   -4.8624483306772086e-05
-6.481959001863294e-05   1.612000872944089e-05   -4.8624483306772086e-05
-9.998236125267418e-05   1.4555752544896758e-05   1.0918689127356151e-05
-9.998236125267418e-05   1.4555752544896758e-05   1.0918689127356151e-05
-9.998236125267418e-05   1.4555752544896758e-05   1.0918689127356151e-05
-9.998236125267418e-05   1.4555752544896758e-05   1.0918689127356151e-05
-8.029904020182173e-05   1.4518112667694197e-05   -2.1864262031076137e-05
-8.029904020182173e-05   1.4518112667694197e-05   -2.1864262031076137e-05
-8.029904020182173e-05   1.4518112667694197e-05   -2.1864262031076137e-05
-8.029904020182173e-05   1.4518112667694197e-05   -2.1864262031076137e-05
-9.9982361252674e-05   1.612000872944089e-05   -4.768592959604554e-05
-9.9982361252674e-05   1.612000872944089e-05   -4.768592959604554e-05
-9.9982361252674e-05   1.612000872944089e-05   -4.768592959604554e-05
-9.9982361252674e-05   1.612000872944089e-05   -4.768592959604554e-05
-6.481959001863306e-05   1.4555752544896758e-05   9.980135416629634e-06
-6.481959001863306e-05   1.4555752544896758e-05   9.980135416629634e-06
-6.481959001863306e-05   1.4555752544896758e-05   9.980135416629634e-06
-6.481959001863306e-05   1.4555752544896758e-05   9.980135416629634e-06
-6.445420210939267e-05   1.836121407608826e-05   -3.592057273224921e-05
-6.445420210939267e-05   1.836121407608826e-05   -3.592057273224921e-05
-6.445420210939267e-05   1.836121407608826e-05   -3.592057273224921e-05
-6.445420210939267e-05   1.836121407608826e-05   -3.592057273224921e-05
-9.721622990067344e-05   1.536441698832112e-05   2.048088517254547e-05
-9.721622990067344e-05   1.536441698832112e-05   2.048088517254547e-05
-9.721622990067344e-05   1.536441698832112e-05   2.048088517254547e-05
-9.721622990067344e-05   1.536441698832112e-05   2.048088517254547e-05
-7.821433552585361e-05   1.5923002802650896e-05   -1.152409027408536e-05
-7.821433552585361e-05   1.5923002802650896e-05   -1.152409027408536e-05
-7.821433552585361e-05   1.5923002802650896e-05   -1.152409027408536e-05
-7.821433552585361e-05   1.5923002802650896e-05   -1.152409027408536e-05
-6.28999766602814e-05   4.601084256259188e-06   -6.837359169007712e-05
-6.28999766602814e-05   4.601084256259188e-06   -6.837359169007712e-05
-6.28999766602814e-05   4.601084256259188e-06   -6.837359169007712e-05
-6.28999766602814e-05   4.601084256259188e-06   -6.837359169007712e-05
-2.9799446833379885e-05   5.249035383843184e-06   -1.2817271302024123e-05
-2.9799446833379885e-05   5.249035383843184e-06   -1.2817271302024123e-05
-2.9799446833379885e-05   5.249035383843184e-06   -1.2817271302024123e-05
-2.9799446833379885e-05   5.249035383843184e-06   -1.2817271302024123e-05
-3.051398357326212e-05   6.5482637966243616e-06   -6.827146295422e-05
-3.051398357326212e-05   6.5482637966243616e-06   -6.827146295422e-05
-3.051398357326212e-05   6.5482637966243616e-06   -6.827146295422e-05
-3.051398357326212e-05   6.5482637966243616e-06   -6.827146295422e-05
-6.448498037412537e-05   7.324185152396791e-06   -1.2118687766244599e-05
-6.448498037412537e-05   7.324185152396791e-06   -1.2118687766244599e-05
-6.448498037412537e-05   7.324185152396791e-06   -1.2118687766244599e-05
-6.448498037412537e-05   7.324185152396791e-06   -1.2118687766244599e-05
-4.6792632977339314e-05   5.8977059190101376e-06   -4.0750045887523044e-05
-4.6792632977339314e-05   5.8977059190101376e-06   -4.0750045887523044e-05
-4.6792632977339314e-05   5.8977059190101376e-06   -4.0750045887523044e-05
-4.6792632977339314e-05   5.8977059190101376e-06   -4.0750045887523044e-05
-6.448498037412531e-05   6.5482637966243616e-06   -6.873701576768337e-05
-6.448498037412531e-05   6.5482637966243616e-06   -6.873701576768337e-05
-6.448498037412531e-05   6.5482637966243616e-06   -6.873701576768337e-05
-6.448498037412531e-05   6.5482637966243616e-06   -6.873701576768337e-05
-3.051398357326216e-05   7.324185152396791e-06   -1.165313495278116e-05
-3.051398357326216e-05   7.324185152396791e-06   -1.165313495278116e-05
-3.051398357326216e-05   7.324185152396791e-06   -1.165313495278116e-05
-3.051398357326216e-05   7.324185152396791e-06   -1.165313495278116e-05
-3.074082125040507e-05   8.022611985499155e-06   -6.69934783401627e-05
-3.074082125040507e-05   8.022611985499155e-06   -6.69934783401627e-05
-3.074082125040507e-05   8.022611985499155e-06   -6.69934783401627e-05
-3.074082125040507e-05   8.022611985499155e-06   -6.69934783401627e-05
-6.481959001863294e-05   9.041585694271291e-06   -1.08069146183796e-05
-6.481959001863294e-05   9.041585694271291e-06   -1.08069146183796e-05
-6.481959001863294e-05   9.041585694271291e-06   -1.08069146183796e-05
-6.481959001863294e-05   9.041585694271291e-06   -1.08069146183796e-05
-4.716144840756969e-05   7.484351289841466e-06   -3.93028099941603e-05
-4.716144840756969e-05   7.484351289841466e-06   -3.93028099941603e-05
-4.716144840756969e-05   7.484351289841466e-06   -3.93028099941603e-05
-4.716144840756969e-05   7.484351289841466e-06   -3.93028099941603e-05
-6.481959001863294e-05   8.022611985499155e-06   -6.760486256542597e-05
-6.481959001863294e-05   8.022611985499155e-06   -6.760486256542597e-05
-6.481959001863294e-05   8.022611985499155e-06   -6.760486256542597e-05
-6.481959001863294e-05   8.022611985499155e-06   -6.760486256542597e-05
-3.074082125040518e-05   9.041585694271291e-06   -1.0195530393116329e-05
-3.074082125040518e-05   9.041585694271291e-06   -1.0195530393116329e-05
-3.074082125040518e-05   9.041585694271291e-06   -1.0195530393116329e-05
-3.074082125040518e-05   9.041585694271291e-06   -1.0195530393116329e-05
-3.066899662256595e-05   9.334286909503197e-06   -6.630797172776925e-05
-3.066899662256595e-05   9.334286909503197e-06   -6.630797172776925e-05
-3.066899662256595e-05   9.334286909503197e-06   -6.630797172776925e-05
-3.066899662256595e-05   9.334286909503197e-06   -6.630797172776925e-05
-6.44542021093926e-05   1.0889210661290207e-05   -1.093225016746374e-05
-6.44542021093926e-05   1.0889210661290207e-05   -1.093225016746374e-05
-6.44542021093926e-05   1.0889210661290207e-05   -1.093225016746374e-05
-6.44542021093926e-05   1.0889210661290207e-05   -1.093225016746374e-05
-4.7442339361801204e-05   8.920430815553062e-06   -3.810408683934066e-05
-4.7442339361801204e-05   8.920430815553062e-06   -3.810408683934066e-05
-4.7442339361801204e-05   8.920430815553062e-06   -3.810408683934066e-05
-4.7442339361801204e-05   8.920430815553062e-06   -3.810408683934066e-05
-2.9799446833379837e-05   -5.884724769176315e-07   -7.158629951626067e-05
-2.9799446833379837e-05   -5.884724769176315e-07   -7.158629951626067e-05
-2.9799446833379837e-05   -5.884724769176315e-07   -7.158629951626067e-05
-2.9799446833379837e-05   -5.884724769176315e-07   -7.158629951626067e-05
2.883983552489522e-06   -1.5573183398599104e-07   -1.6854271154052673e-05
2.883983552489522e-06   -1.5573183398599104e-07   -1.6854271154052673e-05
2.883983552489522e-06   -1.5573183398599104e-07   -1.6854271154052673e-05
2.883983552489522e-06   -1.5573183398599104e-07   -1.6854271154052673e-05
2.7464917010681346e-06   1.1604774745679766e-06   -7.198610194094693e-05
2.7464917010681346e-06   1.1604774745679766e-06   -7.198610194094693e-05
2.7464917010681346e-06   1.1604774745679766e-06   -7.198610194094693e-05
2.7464917010681346e-06   1.1604774745679766e-06   -7.198610194094693e-05
-3.051398357326212e-05   1.7560988617461022e-06   -1.6909349316036434e-05
-3.051398357326212e-05   1.7560988617461022e-06   -1.6909349316036434e-05
-3.051398357326212e-05   1.7560988617461022e-06   -1.6909349316036434e-05
-3.051398357326212e-05   1.7560988617461022e-06   -1.6909349316036434e-05
-1.3753290421613255e-05   5.82869521190539e-07   -4.413990029778472e-05
-1.3753290421613255e-05   5.82869521190539e-07   -4.413990029778472e-05
-1.3753290421613255e-05   5.82869521190539e-07   -4.413990029778472e-05
-1.3753290421613255e-05   5.82869521190539e-07   -4.413990029778472e-05
-3.051398357326212e-05   1.1604774745679766e-06   -7.234347477325365e-05
-3.051398357326212e-05   1.1604774745679766e-06   -7.234347477325365e-05
-3.051398357326212e-05   1.1604774745679766e-06   -7.234347477325365e-05
-3.051398357326212e-05   1.1604774745679766e-06   -7.234347477325365e-05
2.7464917010681346e-06   1.7560988617461022e-06   -1.655197648372962e-05
2.7464917010681346e-06   1.7560988617461022e-06   -1.655197648372962e-05
2.7464917010681346e-06   1.7560988617461022e-06   -1.655197648372962e-05
2.7464917010681346e-06   1.7560988617461022e-06   -1.655197648372962e-05
2.5601755222341983e-06   2.7002452918864505e-06   -7.213708275452725e-05
2.5601755222341983e-06   2.7002452918864505e-06   -7.213708275452725e-05
2.5601755222341983e-06   2.7002452918864505e-06   -7.213708275452725e-05
2.5601755222341983e-06   2.7002452918864505e-06   -7.213708275452725e-05
-3.074082125040507e-05   3.624013793503372e-06   -1.7189682567765303e-05
-3.074082125040507e-05   3.624013793503372e-06   -1.7189682567765303e-05
-3.074082125040507e-05   3.624013793503372e-06   -1.7189682567765303e-05
-3.074082125040507e-05   3.624013793503372e-06   -1.7189682567765303e-05
-1.4013207729708703e-05   2.203198354929181e-06   -4.421654917244793e-05
-1.4013207729708703e-05   2.203198354929181e-06   -4.421654917244793e-05
-1.4013207729708703e-05   2.203198354929181e-06   -4.421654917244793e-05
-1.4013207729708703e-05   2.203198354929181e-06   -4.421654917244793e-05
-3.074082125040507e-05   2.7002452918864505e-06   -7.269134385549739e-05
-3.074082125040507e-05   2.7002452918864505e-06   -7.269134385549739e-05
-3.074082125040507e-05   2.7002452918864505e-06   -7.269134385549739e-05
-3.074082125040507e-05   2.7002452918864505e-06   -7.269134385549739e-05
2.5601755222342033e-06   3.624013793503372e-06   -1.6635421466795186e-05
2.5601755222342033e-06   3.624013793503372e-06   -1.6635421466795186e-05
2.5601755222342033e-06   3.624013793503372e-06   -1.6635421466795186e-05
2.5601755222342033e-06   3.624013793503372e-06   -1.6635421466795186e-05
2.1883482536874734e-06   4.483929098599262e-06   -7.201272912972384e-05
2.1883482536874734e-06   4.483929098599262e-06   -7.201272912972384e-05
2.1883482536874734e-06   4.483929098599262e-06   -7.201272912972384e-05
2.1883482536874734e-06   4.483929098599262e-06   -7.201272912972384e-05
-3.066899662256598e-05   5.570300523270971e-06   -1.790231052410451e-05
-3.066899662256598e-05   5.570300523270971e-06   -1.790231052410451e-05
-3.066899662256598e-05   5.570300523270971e-06   -1.790231052410451e-05
-3.066899662256598e-05   5.570300523270971e-06   -1.790231052410451e-05
-1.4171896961987329e-05   3.867767421244508e-06   -4.437595676385299e-05
-1.4171896961987329e-05   3.867767421244508e-06   -4.437595676385299e-05
-1.4171896961987329e-05   3.867767421244508e-06   -4.437595676385299e-05
-1.4171896961987329e-05   3.867767421244508e-06   -4.437595676385299e-05
2.883983552489522e-06   -5.218389841634441e-06   -6.605272420760747e-05
2.883983552489522e-06   -5.218389841634441e-06   -6.605272420760747e-05
2.883983552489522e-06   -5.218389841634441e-06   -6.605272420760747e-05
2.883983552489522e-06   -5.218389841634441e-06   -6.605272420760747e-05
3.656488196224736e-05   -5.3652300718080815e-06   -1.0005997662781893e-05
3.656488196224736e-05   -5.3652300718080815e-06   -1.0005997662781893e-05
3.656488196224736e-05   -5.3652300718080815e-06   -1.0005997662781893e-05
3.656488196224736e-05   -5.3652300718080815e-06   -1.0005997662781893e-05
3.686095669203223e-05   -3.935114346076629e-06   -6.697548471165334e-05
3.686095669203223e-05   -3.935114346076629e-06   -6.697548471165334e-05
3.686095669203223e-05   -3.935114346076629e-06   -6.697548471165334e-05
3.686095669203223e-05   -3.935114346076629e-06   -6.697548471165334e-05
2.7464917010681346e-06   -3.628538209952503e-06   -1.0301988741720897e-05
2.7464917010681346e-06   -3.628538209952503e-06   -1.0301988741720897e-05
2.7464917010681346e-06   -3.628538209952503e-06   -1.0301988741720897e-05
2.7464917010681346e-06   -3.628538209952503e-06   -1.0301988741720897e-05
1.95114794542209e-05   -4.342967324893912e-06   -3.781497752801076e-05
1.95114794542209e-05   -4.342967324893912e-06   -3.781497752801076e-05
1.95114794542209e-05   -4.342967324893912e-06   -3.781497752801076e-05
1.95114794542209e-05   -4.342967324893912e-06   -3.781497752801076e-05
2.7464917010681304e-06   -3.935114346076629e-06   -6.715943039332795e-05
2.7464917010681304e-06   -3.935114346076629e-06   -6.715943039332795e-05
2.7464917010681304e-06   -3.935114346076629e-06   -6.715943039332795e-05
2.7464917010681304e-06   -3.935114346076629e-06   -6.715943039332795e-05
3.6860956692032285e-05   -3.628538209952503e-06   -1.0118043060046374e-05
3.6860956692032285e-05   -3.628538209952503e-06   -1.0118043060046374e-05
3.6860956692032285e-05   -3.628538209952503e-06   -1.0118043060046374e-05
3.6860956692032285e-05   -3.628538209952503e-06   -1.0118043060046374e-05
3.667491104478378e-05   -2.4776698280815746e-06   -6.823077209065906e-05
3.667491104478378e-05   -2.4776698280815746e-06   -6.823077209065906e-05
3.667491104478378e-05   -2.4776698280815746e-06   -6.823077209065906e-05
3.667491104478378e-05   -2.4776698280815746e-06   -6.823077209065906e-05
2.5601755222341983e-06   -1.9271155500519862e-06   -1.1703212119894218e-05
2.5601755222341983e-06   -1.9271155500519862e-06   -1.1703212119894218e-05
2.5601755222341983e-06   -1.9271155500519862e-06   -1.1703212119894218e-05
2.5601755222341983e-06   -1.9271155500519862e-06   -1.1703212119894218e-05
1.9299189633560688e-05   -2.9560886699514033e-06   -3.8984185100165296e-05
1.9299189633560688e-05   -2.9560886699514033e-06   -3.8984185100165296e-05
1.9299189633560688e-05   -2.9560886699514033e-06   -3.8984185100165296e-05
1.9299189633560688e-05   -2.9560886699514033e-06   -3.8984185100165296e-05
2.5601755222341966e-06   -2.4776698280815746e-06   -6.85611046574768e-05
2.5601755222341966e-06   -2.4776698280815746e-06   -6.85611046574768e-05
2.5601755222341966e-06   -2.4776698280815746e-06   -6.85611046574768e-05
2.5601755222341966e-06   -2.4776698280815746e-06   -6.85611046574768e-05
3.6674911044783906e-05   -1.9271155500519862e-06   -1.1372879553076502e-05
3.6674911044783906e-05   -1.9271155500519862e-06   -1.1372879553076502e-05
3.6674911044783906e-05   -1.9271155500519862e-06   -1.1372879553076502e-05
3.6674911044783906e-05   -1.9271155500519862e-06   -1.1372879553076502e-05
3.5599512172005086e-05   -5.18887542626237e-07   -6.835114516966505e-05
3.5599512172005086e-05   -5.18887542626237e-07   -6.835114516966505e-05
3.5599512172005086e-05   -5.18887542626237e-07   -6.835114516966505e-05
3.5599512172005086e-05   -5.18887542626237e-07   -6.835114516966505e-05
2.1883482536874734e-06   1.776434635247814e-07   -1.3083790576159767e-05
2.1883482536874734e-06   1.776434635247814e-07   -1.3083790576159767e-05
2.1883482536874734e-06   1.776434635247814e-07   -1.3083790576159767e-05
2.1883482536874734e-06   1.776434635247814e-07   -1.3083790576159767e-05
1.9084489561286447e-05   -1.3362172070851652e-06   -4.033570968645864e-05
1.9084489561286447e-05   -1.3362172070851652e-06   -4.033570968645864e-05
1.9084489561286447e-05   -1.3362172070851652e-06   -4.033570968645864e-05
1.9084489561286447e-05   -1.3362172070851652e-06   -4.033570968645864e-05
3.656488196224736e-05   -1.3224721959967294e-05   -3.996924401996012e-05
3.656488196224736e-05   -1.3224721959967294e-05   -3.996924401996012e-05
3.656488196224736e-05   -1.3224721959967294e-05   -3.996924401996012e-05
3.656488196224736e-05   -1.3224721959967294e-05   -3.996924401996012e-05
6.981223153429322e-05   -9.97427647301955e-06   1.7393272558951416e-05
6.981223153429322e-05   -9.97427647301955e-06   1.7393272558951416e-05
6.981223153429322e-05   -9.97427647301955e-06   1.7393272558951416e-05
6.981223153429322e-05   -9.97427647301955e-06   1.7393272558951416e-05
7.245770783221592e-05   -1.1255174084588108e-05   -4.859460940178808e-05
7.245770783221592e-05   -1.1255174084588108e-05   -4.859460940178808e-05
7.245770783221592e-05   -1.1255174084588108e-05   -4.859460940178808e-05
7.245770783221592e-05   -1.1255174084588108e-05   -4.859460940178808e-05
3.686095669203236e-05   -9.050780688785024e-06   9.410673127702835e-06
3.686095669203236e-05   -9.050780688785024e-06   9.410673127702835e-06
3.686095669203236e-05   -9.050780688785024e-06   9.410673127702835e-06
3.686095669203236e-05   -9.050780688785024e-06   9.410673127702835e-06
5.141630071318128e-05   -1.0830546440327723e-05   -1.3780374123286516e-05
5.141630071318128e-05   -1.0830546440327723e-05   -1.3780374123286516e-05
5.141630071318128e-05   -1.0830546440327723e-05   -1.3780374123286516e-05
5.141630071318128e-05   -1.0830546440327723e-05   -1.3780374123286516e-05
3.686095669203226e-05   -1.125517408458808e-05   -4.991724543926973e-05
3.686095669203226e-05   -1.125517408458808e-05   -4.991724543926973e-05
3.686095669203226e-05   -1.125517408458808e-05   -4.991724543926973e-05
3.686095669203226e-05   -1.125517408458808e-05   -4.991724543926973e-05
7.245770783221592e-05   -9.050780688785024e-06   1.0733309165184685e-05
7.245770783221592e-05   -9.050780688785024e-06   1.0733309165184685e-05
7.245770783221592e-05   -9.050780688785024e-06   1.0733309165184685e-05
7.245770783221592e-05   -9.050780688785024e-06   1.0733309165184685e-05
7.217913781400649e-05   -1.0285773666243917e-05   -5.285071753779833e-05
7.217913781400649e-05   -1.0285773666243917e-05   -5.285071753779833e-05
7.217913781400649e-05   -1.0285773666243917e-05   -5.285071753779833e-05
7.217913781400649e-05   -1.0285773666243917e-05   -5.285071753779833e-05
3.6674911044783906e-05   -8.071597003833696e-06   4.994487746793068e-06
3.6674911044783906e-05   -8.071597003833696e-06   4.994487746793068e-06
3.6674911044783906e-05   -8.071597003833696e-06   4.994487746793068e-06
3.6674911044783906e-05   -8.071597003833696e-06   4.994487746793068e-06
5.3206528298563396e-05   -9.56637019514526e-06   -2.1661343761385753e-05
5.3206528298563396e-05   -9.56637019514526e-06   -2.1661343761385753e-05
5.3206528298563396e-05   -9.56637019514526e-06   -2.1661343761385753e-05
5.3206528298563396e-05   -9.56637019514526e-06   -2.1661343761385753e-05
3.667491104478385e-05   -1.028577366624389e-05   -5.417922353524436e-05
3.667491104478385e-05   -1.028577366624389e-05   -5.417922353524436e-05
3.667491104478385e-05   -1.028577366624389e-05   -5.417922353524436e-05
3.667491104478385e-05   -1.028577366624389e-05   -5.417922353524436e-05
7.217913781400649e-05   -8.071597003833696e-06   6.322993744239198e-06
7.217913781400649e-05   -8.071597003833696e-06   6.322993744239198e-06
7.217913781400649e-05   -8.071597003833696e-06   6.322993744239198e-06
7.217913781400649e-05   -8.071597003833696e-06   6.322993744239198e-06
7.173410554685599e-05   -7.997924510240483e-06   -6.151739202049005e-05
7.173410554685599e-05   -7.997924510240483e-06   -6.151739202049005e-05
7.173410554685599e-05   -7.997924510240483e-06   -6.151739202049005e-05
7.173410554685599e-05   -7.997924510240483e-06   -6.151739202049005e-05
3.5599512172005215e-05   -5.964237077823369e-06   -2.513282188522408e-06
3.5599512172005215e-05   -5.964237077823369e-06   -2.513282188522408e-06
3.5599512172005215e-05   -5.964237077823369e-06   -2.513282188522408e-06
3.5599512172005215e-05   -5.964237077823369e-06   -2.513282188522408e-06
5.167775165027979e-05   -8.23822103277971e-06   -2.7945957612672838e-05
5.167775165027979e-05   -8.23822103277971e-06   -2.7945957612672838e-05
5.167775165027979e-05   -8.23822103277971e-06   -2.7945957612672838e-05
5.167775165027979e-05   -8.23822103277971e-06   -2.7945957612672838e-05
-7.826545518211696e-05   1.1280752619664684e-05   -5.399812953074001e-05
-7.826545518211696e-05   1.1280752619664684e-05   -5.399812953074001e-05
-7.826545518211696e-05   1.1280752619664684e-05   -5.399812953074001e-05
-7.826545518211696e-05   1.1280752619664684e-05   -5.399812953074001e-05
-5.130257078719659e-05   8.62234428888615e-06   -1.0655033871006625e-05
-5.130257078719659e-05   8.62234428888615e-06   -1.0655033871006625e-05
-5.130257078719659e-05   8.62234428888615e-06   -1.0655033871006625e-05
-5.130257078719659e-05   8.62234428888615e-06   -1.0655033871006625e-05
-5.155226225479439e-05   1.3537363517160156e-05   -4.483337807294479e-05
-5.155226225479439e-05   1.3537363517160156e-05   -4.483337807294479e-05
-5.155226225479439e-05   1.3537363517160156e-05   -4.483337807294479e-05
-5.155226225479439e-05   1.3537363517160156e-05   -4.483337807294479e-05
-7.708443034389617e-05   1.042909740865813e-05   -4.14804926007371e-07
-7.708443034389617e-05   1.042909740865813e-05   -4.14804926007371e-07
-7.708443034389617e-05   1.042909740865813e-05   -4.14804926007371e-07
-7.708443034389617e-05   1.042909740865813e-05   -4.14804926007371e-07
-6.182142086863897e-05   1.1470134700417348e-05   -2.6477776426491687e-05
-6.182142086863897e-05   1.1470134700417348e-05   -2.6477776426491687e-05
-6.182142086863897e-05   1.1470134700417348e-05   -2.6477776426491687e-05
-6.182142086863897e-05   1.1470134700417348e-05   -2.6477776426491687e-05
-7.708443034389617e-05   1.3537363517160156e-05   -4.296841840784361e-05
-7.708443034389617e-05   1.3537363517160156e-05   -4.296841840784361e-05
-7.708443034389617e-05   1.3537363517160156e-05   -4.296841840784361e-05
-7.708443034389617e-05   1.3537363517160156e-05   -4.296841840784361e-05
-5.155226225479439e-05   1.042909740865813e-05   -2.2797645911083048e-06
-5.155226225479439e-05   1.042909740865813e-05   -2.2797645911083048e-06
-5.155226225479439e-05   1.042909740865813e-05   -2.2797645911083048e-06
-5.155226225479439e-05   1.042909740865813e-05   -2.2797645911083048e-06
-5.150182028868929e-05   1.4555752544896758e-05   -3.83544649445426e-05
-5.150182028868929e-05   1.4555752544896758e-05   -3.83544649445426e-05
-5.150182028868929e-05   1.4555752544896758e-05   -3.83544649445426e-05
-5.150182028868929e-05   1.4555752544896758e-05   -3.83544649445426e-05
-7.593231782996595e-05   1.1222658166197943e-05   4.362887584804208e-06
-7.593231782996595e-05   1.1222658166197943e-05   4.362887584804208e-06
-7.593231782996595e-05   1.1222658166197943e-05   4.362887584804208e-06
-7.593231782996595e-05   1.1222658166197943e-05   4.362887584804208e-06
-6.235849470471464e-05   1.2517545329395873e-05   -1.9037083255199515e-05
-6.235849470471464e-05   1.2517545329395873e-05   -1.9037083255199515e-05
-6.235849470471464e-05   1.2517545329395873e-05   -1.9037083255199515e-05
-6.235849470471464e-05   1.2517545329395873e-05   -1.9037083255199515e-05
-7.593231782996595e-05   1.4555752544896758e-05   -3.635460831732338e-05
-7.593231782996595e-05   1.4555752544896758e-05   -3.635460831732338e-05
-7.593231782996595e-05   1.4555752544896758e-05   -3.635460831732338e-05
-7.593231782996595e-05   1.4555752544896758e-05   -3.635460831732338e-05
-5.150182028868937e-05   1.1222658166198051e-05   2.3630309575853087e-06
-5.150182028868937e-05   1.1222658166198051e-05   2.3630309575853087e-06
-5.150182028868937e-05   1.1222658166198051e-05   2.3630309575853087e-06
-5.150182028868937e-05   1.1222658166198051e-05   2.3630309575853087e-06
-5.155562520219872e-05   1.536441698832112e-05   -2.9279793029596095e-05
-5.155562520219872e-05   1.536441698832112e-05   -2.9279793029596095e-05
-5.155562520219872e-05   1.536441698832112e-05   -2.9279793029596095e-05
-5.155562520219872e-05   1.536441698832112e-05   -2.9279793029596095e-05
-7.442658239939138e-05   1.200294058180092e-05   1.0855354809636794e-05
-7.442658239939138e-05   1.200294058180092e-05   1.0855354809636794e-05
-7.442658239939138e-05   1.200294058180092e-05   1.0855354809636794e-05
-7.442658239939138e-05   1.200294058180092e-05   1.0855354809636794e-05
-6.094039708228269e-05   1.3068057412494224e-05   -1.2260690817292742e-05
-6.094039708228269e-05   1.3068057412494224e-05   -1.2260690817292742e-05
-6.094039708228269e-05   1.3068057412494224e-05   -1.2260690817292742e-05
-6.094039708228269e-05   1.3068057412494224e-05   -1.2260690817292742e-05
-5.130257078719659e-05   5.249035383843184e-06   -6.248972640887093e-05
-5.130257078719659e-05   5.249035383843184e-06   -6.248972640887093e-05
-5.130257078719659e-05   5.249035383843184e-06   -6.248972640887093e-05
-5.130257078719659e-05   5.249035383843184e-06   -6.248972640887093e-05
-2.6102923083282028e-05   4.29834458874265e-06   -2.1060728046073642e-05
-2.6102923083282028e-05   4.29834458874265e-06   -2.1060728046073642e-05
-2.6102923083282028e-05   4.29834458874265e-06   -2.1060728046073642e-05
-2.6102923083282028e-05   4.29834458874265e-06   -2.1060728046073642e-05
-2.642141037285489e-05   7.324185152396791e-06   -6.160559918237565e-05
-2.642141037285489e-05   7.324185152396791e-06   -6.160559918237565e-05
-2.642141037285489e-05   7.324185152396791e-06   -6.160559918237565e-05
-2.642141037285489e-05   7.324185152396791e-06   -6.160559918237565e-05
-5.155226225479428e-05   6.075054343915027e-06   -1.8971367560720797e-05
-5.155226225479428e-05   6.075054343915027e-06   -1.8971367560720797e-05
-5.155226225479428e-05   6.075054343915027e-06   -1.8971367560720797e-05
-5.155226225479428e-05   6.075054343915027e-06   -1.8971367560720797e-05
-3.851240995361238e-05   6.052325661273328e-06   -4.069081751977249e-05
-3.851240995361238e-05   6.052325661273328e-06   -4.069081751977249e-05
-3.851240995361238e-05   6.052325661273328e-06   -4.069081751977249e-05
-3.851240995361238e-05   6.052325661273328e-06   -4.069081751977249e-05
-5.1552262254794335e-05   7.324185152396791e-06   -6.085612069728653e-05
-5.1552262254794335e-05   7.324185152396791e-06   -6.085612069728653e-05
-5.1552262254794335e-05   7.324185152396791e-06   -6.085612069728653e-05
-5.1552262254794335e-05   7.324185152396791e-06   -6.085612069728653e-05
-2.6421410372854943e-05   6.075054343915027e-06   -1.9720846045809807e-05
-2.6421410372854943e-05   6.075054343915027e-06   -1.9720846045809807e-05
-2.6421410372854943e-05   6.075054343915027e-06   -1.9720846045809807e-05
-2.6421410372854943e-05   6.075054343915027e-06   -1.9720846045809807e-05
-2.6628442382387805e-05   9.041585694271291e-06   -5.997454715745131e-05
-2.6628442382387805e-05   9.041585694271291e-06   -5.997454715745131e-05
-2.6628442382387805e-05   9.041585694271291e-06   -5.997454715745131e-05
-2.6628442382387805e-05   9.041585694271291e-06   -5.997454715745131e-05
-5.150182028868929e-05   7.653198731105509e-06   -1.7685885135716273e-05
-5.150182028868929e-05   7.653198731105509e-06   -1.7685885135716273e-05
-5.150182028868929e-05   7.653198731105509e-06   -1.7685885135716273e-05
-5.150182028868929e-05   7.653198731105509e-06   -1.7685885135716273e-05
-3.8585013930213195e-05   7.513812294369796e-06   -3.913026387113421e-05
-3.8585013930213195e-05   7.513812294369796e-06   -3.913026387113421e-05
-3.8585013930213195e-05   7.513812294369796e-06   -3.913026387113421e-05
-3.8585013930213195e-05   7.513812294369796e-06   -3.913026387113421e-05
-5.150182028868929e-05   9.041585694271237e-06   -5.914151497955189e-05
-5.150182028868929e-05   9.041585694271237e-06   -5.914151497955189e-05
-5.150182028868929e-05   9.041585694271237e-06   -5.914151497955189e-05
-5.150182028868929e-05   9.041585694271237e-06   -5.914151497955189e-05
-2.66284423823879e-05   7.653198731105509e-06   -1.8518917313615504e-05
-2.66284423823879e-05   7.653198731105509e-06   -1.8518917313615504e-05
-2.66284423823879e-05   7.653198731105509e-06   -1.8518917313615504e-05
-2.66284423823879e-05   7.653198731105509e-06   -1.8518917313615504e-05
-2.6895802229770297e-05   1.0889210661290262e-05   -5.982940555352719e-05
-2.6895802229770297e-05   1.0889210661290262e-05   -5.982940555352719e-05
-2.6895802229770297e-05   1.0889210661290262e-05   -5.982940555352719e-05
-2.6895802229770297e-05   1.0889210661290262e-05   -5.982940555352719e-05
-5.1555625202198664e-05   9.331618266986553e-06   -1.7795145162897627e-05
-5.1555625202198664e-05   9.331618266986553e-06   -1.7795145162897627e-05
-5.1555625202198664e-05   9.331618266986553e-06   -1.7795145162897627e-05
-5.1555625202198664e-05   9.331618266986553e-06   -1.7795145162897627e-05
-3.904363894113202e-05   8.961121815863587e-06   -3.842615772733441e-05
-3.904363894113202e-05   8.961121815863587e-06   -3.842615772733441e-05
-3.904363894113202e-05   8.961121815863587e-06   -3.842615772733441e-05
-3.904363894113202e-05   8.961121815863587e-06   -3.842615772733441e-05
-2.6102923083281987e-05   -1.5573183398593683e-07   -6.73567851237188e-05
-2.6102923083281987e-05   -1.5573183398593683e-07   -6.73567851237188e-05
-2.6102923083281987e-05   -1.5573183398593683e-07   -6.73567851237188e-05
-2.6102923083281987e-05   -1.5573183398593683e-07   -6.73567851237188e-05
-1.1867302623492756e-06   2.2864393953170043e-07   -2.559917162472036e-05
-1.1867302623492756e-06   2.2864393953170043e-07   -2.559917162472036e-05
-1.1867302623492756e-06   2.2864393953170043e-07   -2.559917162472036e-05
-1.1867302623492756e-06   2.2864393953170043e-07   -2.559917162472036e-05
-1.442456898989505e-06   1.756098861746048e-06   -6.672911045426554e-05
-1.442456898989505e-06   1.756098861746048e-06   -6.672911045426554e-05
-1.442456898989505e-06   1.756098861746048e-06   -6.672911045426554e-05
-1.442456898989505e-06   1.756098861746048e-06   -6.672911045426554e-05
-2.642141037285489e-05   1.9772706806882702e-06   -2.5230224422522043e-05
-2.642141037285489e-05   1.9772706806882702e-06   -2.5230224422522043e-05
-2.642141037285489e-05   1.9772706806882702e-06   -2.5230224422522043e-05
-2.642141037285489e-05   1.9772706806882702e-06   -2.5230224422522043e-05
-1.371098040236271e-05   1.1518302140547465e-06   -4.5919010093362254e-05
-1.371098040236271e-05   1.1518302140547465e-06   -4.5919010093362254e-05
-1.371098040236271e-05   1.1518302140547465e-06   -4.5919010093362254e-05
-1.371098040236271e-05   1.1518302140547465e-06   -4.5919010093362254e-05
-2.642141037285489e-05   1.7560988617461022e-06   -6.686181354563104e-05
-2.642141037285489e-05   1.7560988617461022e-06   -6.686181354563104e-05
-2.642141037285489e-05   1.7560988617461022e-06   -6.686181354563104e-05
-2.642141037285489e-05   1.7560988617461022e-06   -6.686181354563104e-05
-1.4424568989895067e-06   1.9772706806882702e-06   -2.509752133115657e-05
-1.4424568989895067e-06   1.9772706806882702e-06   -2.509752133115657e-05
-1.4424568989895067e-06   1.9772706806882702e-06   -2.509752133115657e-05
-1.4424568989895067e-06   1.9772706806882702e-06   -2.509752133115657e-05
-1.6277450060098701e-06   3.624013793503372e-06   -6.691071348125476e-05
-1.6277450060098701e-06   3.624013793503372e-06   -6.691071348125476e-05
-1.6277450060098701e-06   3.624013793503372e-06   -6.691071348125476e-05
-1.6277450060098701e-06   3.624013793503372e-06   -6.691071348125476e-05
-2.6628442382387846e-05   3.720656878245833e-06   -2.530087037147058e-05
-2.6628442382387846e-05   3.720656878245833e-06   -2.530087037147058e-05
-2.6628442382387846e-05   3.720656878245833e-06   -2.530087037147058e-05
-2.6628442382387846e-05   3.720656878245833e-06   -2.530087037147058e-05
-1.4040620644472608e-05   2.6938701452724144e-06   -4.566450122821154e-05
-1.4040620644472608e-05   2.6938701452724144e-06   -4.566450122821154e-05
-1.4040620644472608e-05   2.6938701452724144e-06   -4.566450122821154e-05
-1.4040620644472608e-05   2.6938701452724144e-06   -4.566450122821154e-05
-2.6628442382387846e-05   3.624013793503372e-06   -6.696869933210041e-05
-2.6628442382387846e-05   3.624013793503372e-06   -6.696869933210041e-05
-2.6628442382387846e-05   3.624013793503372e-06   -6.696869933210041e-05
-2.6628442382387846e-05   3.624013793503372e-06   -6.696869933210041e-05
-1.6277450060098735e-06   3.720656878245833e-06   -2.524288452062482e-05
-1.6277450060098735e-06   3.720656878245833e-06   -2.524288452062482e-05
-1.6277450060098735e-06   3.720656878245833e-06   -2.524288452062482e-05
-1.6277450060098735e-06   3.720656878245833e-06   -2.524288452062482e-05
-1.9180446636106515e-06   5.570300523270971e-06   -6.777183888651028e-05
-1.9180446636106515e-06   5.570300523270971e-06   -6.777183888651028e-05
-1.9180446636106515e-06   5.570300523270971e-06   -6.777183888651028e-05
-1.9180446636106515e-06   5.570300523270971e-06   -6.777183888651028e-05
-2.6895802229770263e-05   5.504602647820461e-06   -2.610282421764085e-05
-2.6895802229770263e-05   5.504602647820461e-06   -2.610282421764085e-05
-2.6895802229770263e-05   5.504602647820461e-06   -2.610282421764085e-05
-2.6895802229770263e-05   5.504602647820461e-06   -2.610282421764085e-05
-1.4390729934820689e-05   4.254225340327646e-06   -4.6194384991394056e-05
-1.4390729934820689e-05   4.254225340327646e-06   -4.6194384991394056e-05
-1.4390729934820689e-05   4.254225340327646e-06   -4.6194384991394056e-05
-1.4390729934820689e-05   4.254225340327646e-06   -4.6194384991394056e-05
-1.1867302623492773e-06   -5.365230071808136e-06   -6.018978203023323e-05
-1.1867302623492773e-06   -5.365230071808136e-06   -6.018978203023323e-05
-1.1867302623492773e-06   -5.365230071808136e-06   -6.018978203023323e-05
-1.1867302623492773e-06   -5.365230071808136e-06   -6.018978203023323e-05
2.3605952497734537e-05   -3.5992325336587413e-06   -1.7809045573870664e-05
2.3605952497734537e-05   -3.5992325336587413e-06   -1.7809045573870664e-05
2.3605952497734537e-05   -3.5992325336587413e-06   -1.7809045573870664e-05
2.3605952497734537e-05   -3.5992325336587413e-06   -1.7809045573870664e-05
2.3586399394159713e-05   -3.628538209952503e-06   -5.950007143318566e-05
2.3586399394159713e-05   -3.628538209952503e-06   -5.950007143318566e-05
2.3586399394159713e-05   -3.628538209952503e-06   -5.950007143318566e-05
2.3586399394159713e-05   -3.628538209952503e-06   -5.950007143318566e-05
-1.4424568989895067e-06   -1.9967860781667374e-06   -1.8764362223675034e-05
-1.4424568989895067e-06   -1.9967860781667374e-06   -1.8764362223675034e-05
-1.4424568989895067e-06   -1.9967860781667374e-06   -1.8764362223675034e-05
-1.4424568989895067e-06   -1.9967860781667374e-06   -1.8764362223675034e-05
1.1055627188468344e-05   -3.521549261571537e-06   -3.8679644459395246e-05
1.1055627188468344e-05   -3.521549261571537e-06   -3.8679644459395246e-05
1.1055627188468344e-05   -3.521549261571537e-06   -3.8679644459395246e-05
1.1055627188468344e-05   -3.521549261571537e-06   -3.8679644459395246e-05
-1.4424568989895067e-06   -3.628538209952503e-06   -6.0479122712256916e-05
-1.4424568989895067e-06   -3.628538209952503e-06   -6.0479122712256916e-05
-1.4424568989895067e-06   -3.628538209952503e-06   -6.0479122712256916e-05
-1.4424568989895067e-06   -3.628538209952503e-06   -6.0479122712256916e-05
2.3586399394159713e-05   -1.9967860781667374e-06   -1.7785310944603433e-05
2.3586399394159713e-05   -1.9967860781667374e-06   -1.7785310944603433e-05
2.3586399394159713e-05   -1.9967860781667374e-06   -1.7785310944603433e-05
2.3586399394159713e-05   -1.9967860781667374e-06   -1.7785310944603433e-05
2.3695856919390287e-05   -1.9271155500519862e-06   -6.107534153360639e-05
2.3695856919390287e-05   -1.9271155500519862e-06   -6.107534153360639e-05
2.3695856919390287e-05   -1.9271155500519862e-06   -6.107534153360639e-05
2.3695856919390287e-05   -1.9271155500519862e-06   -6.107534153360639e-05
-1.6277450060098752e-06   -4.218445488059046e-07   -1.9772500925353955e-05
-1.6277450060098752e-06   -4.218445488059046e-07   -1.9772500925353955e-05
-1.6277450060098752e-06   -4.218445488059046e-07   -1.9772500925353955e-05
-1.6277450060098752e-06   -4.218445488059046e-07   -1.9772500925353955e-05
1.0715323536627809e-05   -2.1319634712025563e-06   -3.931821047631173e-05
1.0715323536627809e-05   -2.1319634712025563e-06   -3.931821047631173e-05
1.0715323536627809e-05   -2.1319634712025563e-06   -3.931821047631173e-05
1.0715323536627809e-05   -2.1319634712025563e-06   -3.931821047631173e-05
-1.6277450060098727e-06   -1.9271155500519862e-06   -6.19785041343537e-05
-1.6277450060098727e-06   -1.9271155500519862e-06   -6.19785041343537e-05
-1.6277450060098727e-06   -1.9271155500519862e-06   -6.19785041343537e-05
-1.6277450060098727e-06   -1.9271155500519862e-06   -6.19785041343537e-05
2.3695856919390287e-05   -4.218445488059046e-07   -1.8869338324605932e-05
2.3695856919390287e-05   -4.218445488059046e-07   -1.8869338324605932e-05
2.3695856919390287e-05   -4.218445488059046e-07   -1.8869338324605932e-05
2.3695856919390287e-05   -4.218445488059046e-07   -1.8869338324605932e-05
2.3512291941240755e-05   1.776434635248356e-07   -6.285974727198628e-05
2.3512291941240755e-05   1.776434635248356e-07   -6.285974727198628e-05
2.3512291941240755e-05   1.776434635248356e-07   -6.285974727198628e-05
2.3512291941240755e-05   1.776434635248356e-07   -6.285974727198628e-05
-1.918044663610655e-06   1.4199676658288758e-06   -2.1221247451949836e-05
-1.918044663610655e-06   1.4199676658288758e-06   -2.1221247451949836e-05
-1.918044663610655e-06   1.4199676658288758e-06   -2.1221247451949836e-05
-1.918044663610655e-06   1.4199676658288758e-06   -2.1221247451949836e-05
1.0595133379666183e-05   -6.448273025422844e-07   -4.08376672097215e-05
1.0595133379666183e-05   -6.448273025422844e-07   -4.08376672097215e-05
1.0595133379666183e-05   -6.448273025422844e-07   -4.08376672097215e-05
1.0595133379666183e-05   -6.448273025422844e-07   -4.08376672097215e-05
2.3605952497734496e-05   -9.97427647301955e-06   -3.3681180577778836e-05
2.3605952497734496e-05   -9.97427647301955e-06   -3.3681180577778836e-05
2.3605952497734496e-05   -9.97427647301955e-06   -3.3681180577778836e-05
2.3605952497734496e-05   -9.97427647301955e-06   -3.3681180577778836e-05
4.6829685747989204e-05   -6.530256369498906e-06   7.091453568091482e-06
4.6829685747989204e-05   -6.530256369498906e-06   7.091453568091482e-06
4.6829685747989204e-05   -6.530256369498906e-06   7.091453568091482e-06
4.6829685747989204e-05   -6.530256369498906e-06   7.091453568091482e-06
4.840391808769504e-05   -9.05078068878497e-06   -3.790534789500127e-05
4.840391808769504e-05   -9.05078068878497e-06   -3.790534789500127e-05
4.840391808769504e-05   -9.05078068878497e-06   -3.790534789500127e-05
4.840391808769504e-05   -9.05078068878497e-06   -3.790534789500127e-05
2.358639939415966e-05   -5.607435104726583e-06   1.3911759104560972e-06
2.358639939415966e-05   -5.607435104726583e-06   1.3911759104560972e-06
2.358639939415966e-05   -5.607435104726583e-06   1.3911759104560972e-06
2.358639939415966e-05   -5.607435104726583e-06   1.3911759104560972e-06
3.408464189273324e-05   -7.698519678638982e-06   -1.4851244176152548e-05
3.408464189273324e-05   -7.698519678638982e-06   -1.4851244176152548e-05
3.408464189273324e-05   -7.698519678638982e-06   -1.4851244176152548e-05
3.408464189273324e-05   -7.698519678638982e-06   -1.4851244176152548e-05
2.358639939415966e-05   -9.05078068878497e-06   -3.997135524543615e-05
2.358639939415966e-05   -9.05078068878497e-06   -3.997135524543615e-05
2.358639939415966e-05   -9.05078068878497e-06   -3.997135524543615e-05
2.358639939415966e-05   -9.05078068878497e-06   -3.997135524543615e-05
4.840391808769504e-05   -5.607435104726583e-06   3.457183260891167e-06
4.840391808769504e-05   -5.607435104726583e-06   3.457183260891167e-06
4.840391808769504e-05   -5.607435104726583e-06   3.457183260891167e-06
4.840391808769504e-05   -5.607435104726583e-06   3.457183260891167e-06
4.961304675757245e-05   -8.071597003833696e-06   -4.2754200493070135e-05
4.961304675757245e-05   -8.071597003833696e-06   -4.2754200493070135e-05
4.961304675757245e-05   -8.071597003833696e-06   -4.2754200493070135e-05
4.961304675757245e-05   -8.071597003833696e-06   -4.2754200493070135e-05
2.3695856919390206e-05   -4.815307436056133e-06   -1.5126578367664597e-06
2.3695856919390206e-05   -4.815307436056133e-06   -1.5126578367664597e-06
2.3695856919390206e-05   -4.815307436056133e-06   -1.5126578367664597e-06
2.3695856919390206e-05   -4.815307436056133e-06   -1.5126578367664597e-06
3.523994193592952e-05   -7.1030567195138e-06   -1.9380149960923827e-05
3.523994193592952e-05   -7.1030567195138e-06   -1.9380149960923827e-05
3.523994193592952e-05   -7.1030567195138e-06   -1.9380149960923827e-05
3.523994193592952e-05   -7.1030567195138e-06   -1.9380149960923827e-05
2.3695856919390246e-05   -8.071597003833696e-06   -4.470797423373671e-05
2.3695856919390246e-05   -8.071597003833696e-06   -4.470797423373671e-05
2.3695856919390246e-05   -8.071597003833696e-06   -4.470797423373671e-05
2.3695856919390246e-05   -8.071597003833696e-06   -4.470797423373671e-05
4.96130467575724e-05   -4.815307436056241e-06   4.411159039003059e-07
4.96130467575724e-05   -4.815307436056241e-06   4.411159039003059e-07
4.96130467575724e-05   -4.815307436056241e-06   4.411159039003059e-07
4.96130467575724e-05   -4.815307436056241e-06   4.411159039003059e-07
5.09008174857615e-05   -5.964237077823369e-06   -5.1002212340717896e-05
5.09008174857615e-05   -5.964237077823369e-06   -5.1002212340717896e-05
5.09008174857615e-05   -5.964237077823369e-06   -5.1002212340717896e-05
5.09008174857615e-05   -5.964237077823369e-06   -5.1002212340717896e-05
2.3512291941240674e-05   -3.122661832287584e-06   -7.059614913838315e-06
2.3512291941240674e-05   -3.122661832287584e-06   -7.059614913838315e-06
2.3512291941240674e-05   -3.122661832287584e-06   -7.059614913838315e-06
2.3512291941240674e-05   -3.122661832287584e-06   -7.059614913838315e-06
3.508676385984981e-05   -6.119856177962363e-06   -2.455208483744835e-05
3.508676385984981e-05   -6.119856177962363e-06   -2.455208483744835e-05
3.508676385984981e-05   -6.119856177962363e-06   -2.455208483744835e-05
3.508676385984981e-05   -6.119856177962363e-06   -2.455208483744835e-05
-5.626774209207012e-05   8.62234428888615e-06   -4.279204856121987e-05
-5.626774209207012e-05   8.62234428888615e-06   -4.279204856121987e-05
-5.626774209207012e-05   8.62234428888615e-06   -4.279204856121987e-05
-5.626774209207012e-05   8.62234428888615e-06   -4.279204856121987e-05
-3.83031373195449e-05   5.4873721059992085e-06   -1.4732023916743092e-05
-3.83031373195449e-05   5.4873721059992085e-06   -1.4732023916743092e-05
-3.83031373195449e-05   5.4873721059992085e-06   -1.4732023916743092e-05
-3.83031373195449e-05   5.4873721059992085e-06   -1.4732023916743092e-05
-3.8163896992056716e-05   1.042909740865813e-05   -3.635315104316391e-05
-3.8163896992056716e-05   1.042909740865813e-05   -3.635315104316391e-05
-3.8163896992056716e-05   1.042909740865813e-05   -3.635315104316391e-05
-3.8163896992056716e-05   1.042909740865813e-05   -3.635315104316391e-05
-5.4587028981991324e-05   6.983422728755765e-06   -6.913859585331401e-06
-5.4587028981991324e-05   6.983422728755765e-06   -6.913859585331401e-06
-5.4587028981991324e-05   6.983422728755765e-06   -6.913859585331401e-06
-5.4587028981991324e-05   6.983422728755765e-06   -6.913859585331401e-06
-4.4843739845155914e-05   8.302358511297868e-06   -2.3944036282915718e-05
-4.4843739845155914e-05   8.302358511297868e-06   -2.3944036282915718e-05
-4.4843739845155914e-05   8.302358511297868e-06   -2.3944036282915718e-05
-4.4843739845155914e-05   8.302358511297868e-06   -2.3944036282915718e-05
-5.4587028981991324e-05   1.042909740865813e-05   -3.4285746235222434e-05
-5.4587028981991324e-05   1.042909740865813e-05   -3.4285746235222434e-05
-5.4587028981991324e-05   1.042909740865813e-05   -3.4285746235222434e-05
-5.4587028981991324e-05   1.042909740865813e-05   -3.4285746235222434e-05
-3.816389699205677e-05   6.983422728755765e-06   -8.98126439327282e-06
-3.816389699205677e-05   6.983422728755765e-06   -8.98126439327282e-06
-3.816389699205677e-05   6.983422728755765e-06   -8.98126439327282e-06
-3.816389699205677e-05   6.983422728755765e-06   -8.98126439327282e-06
-3.787459588771501e-05   1.1222658166198051e-05   -3.169963873971937e-05
-3.787459588771501e-05   1.1222658166198051e-05   -3.169963873971937e-05
-3.787459588771501e-05   1.1222658166198051e-05   -3.169963873971937e-05
-3.787459588771501e-05   1.1222658166198051e-05   -3.169963873971937e-05
-5.3330265675491676e-05   7.680180609696179e-06   -3.814702559523783e-06
-5.3330265675491676e-05   7.680180609696179e-06   -3.814702559523783e-06
-5.3330265675491676e-05   7.680180609696179e-06   -3.814702559523783e-06
-5.3330265675491676e-05   7.680180609696179e-06   -3.814702559523783e-06
-4.484701709718772e-05   9.137091429054205e-06   -1.882759668164535e-05
-4.484701709718772e-05   9.137091429054205e-06   -1.882759668164535e-05
-4.484701709718772e-05   9.137091429054205e-06   -1.882759668164535e-05
-4.484701709718772e-05   9.137091429054205e-06   -1.882759668164535e-05
-5.3330265675491676e-05   1.1222658166198051e-05   -2.95741522058183e-05
-5.3330265675491676e-05   1.1222658166198051e-05   -2.95741522058183e-05
-5.3330265675491676e-05   1.1222658166198051e-05   -2.95741522058183e-05
-5.3330265675491676e-05   1.1222658166198051e-05   -2.95741522058183e-05
-3.7874595887715063e-05   7.680180609696179e-06   -5.9401890934247434e-06
-3.7874595887715063e-05   7.680180609696179e-06   -5.9401890934247434e-06
-3.7874595887715063e-05   7.680180609696179e-06   -5.9401890934247434e-06
-3.7874595887715063e-05   7.680180609696179e-06   -5.9401890934247434e-06
-3.775853629821215e-05   1.2002940581801028e-05   -2.525688559207285e-05
-3.775853629821215e-05   1.2002940581801028e-05   -2.525688559207285e-05
-3.775853629821215e-05   1.2002940581801028e-05   -2.525688559207285e-05
-3.775853629821215e-05   1.2002940581801028e-05   -2.525688559207285e-05
-5.1685447646379645e-05   8.555894970977036e-06   2.286068803399391e-08
-5.1685447646379645e-05   8.555894970977036e-06   2.286068803399391e-08
-5.1685447646379645e-05   8.555894970977036e-06   2.286068803399391e-08
-5.1685447646379645e-05   8.555894970977036e-06   2.286068803399391e-08
-4.352059672509435e-05   9.5888430472384e-06   -1.4204993026531746e-05
-4.352059672509435e-05   9.5888430472384e-06   -1.4204993026531746e-05
-4.352059672509435e-05   9.5888430472384e-06   -1.4204993026531746e-05
-4.352059672509435e-05   9.5888430472384e-06   -1.4204993026531746e-05
-3.8303137319544843e-05   4.29834458874265e-06   -5.450831156895861e-05
-3.8303137319544843e-05   4.29834458874265e-06   -5.450831156895861e-05
-3.8303137319544843e-05   4.29834458874265e-06   -5.450831156895861e-05
-3.8303137319544843e-05   4.29834458874265e-06   -5.450831156895861e-05
-2.202280160387296e-05   2.835475336907282e-06   -2.8252140260606772e-05
-2.202280160387296e-05   2.835475336907282e-06   -2.8252140260606772e-05
-2.202280160387296e-05   2.835475336907282e-06   -2.8252140260606772e-05
-2.202280160387296e-05   2.835475336907282e-06   -2.8252140260606772e-05
-2.203340886511025e-05   6.075054343915027e-06   -5.404096734760826e-05
-2.203340886511025e-05   6.075054343915027e-06   -5.404096734760826e-05
-2.203340886511025e-05   6.075054343915027e-06   -5.404096734760826e-05
-2.203340886511025e-05   6.075054343915027e-06   -5.404096734760826e-05
-3.8163896992056716e-05   4.4146987858617506e-06   -2.616060713453211e-05
-3.8163896992056716e-05   4.4146987858617506e-06   -2.616060713453211e-05
-3.8163896992056716e-05   4.4146987858617506e-06   -2.616060713453211e-05
-3.8163896992056716e-05   4.4146987858617506e-06   -2.616060713453211e-05
-2.985309037690177e-05   4.700645441271453e-06   -4.018351948636951e-05
-2.985309037690177e-05   4.700645441271453e-06   -4.018351948636951e-05
-2.985309037690177e-05   4.700645441271453e-06   -4.018351948636951e-05
-2.985309037690177e-05   4.700645441271453e-06   -4.018351948636951e-05
-3.816389699205669e-05   6.075054343915136e-06   -5.3044754012776074e-05
-3.816389699205669e-05   6.075054343915136e-06   -5.3044754012776074e-05
-3.816389699205669e-05   6.075054343915136e-06   -5.3044754012776074e-05
-3.816389699205669e-05   6.075054343915136e-06   -5.3044754012776074e-05
-2.203340886511025e-05   4.414698785861967e-06   -2.7156820469364102e-05
-2.203340886511025e-05   4.414698785861967e-06   -2.7156820469364102e-05
-2.203340886511025e-05   4.414698785861967e-06   -2.7156820469364102e-05
-2.203340886511025e-05   4.414698785861967e-06   -2.7156820469364102e-05
-2.201696113029318e-05   7.653198731105509e-06   -5.2829636667080064e-05
-2.201696113029318e-05   7.653198731105509e-06   -5.2829636667080064e-05
-2.201696113029318e-05   7.653198731105509e-06   -5.2829636667080064e-05
-2.201696113029318e-05   7.653198731105509e-06   -5.2829636667080064e-05
-3.787459588771501e-05   5.851395674339507e-06   -2.5319163570650832e-05
-3.787459588771501e-05   5.851395674339507e-06   -2.5319163570650832e-05
-3.787459588771501e-05   5.851395674339507e-06   -2.5319163570650832e-05
-3.787459588771501e-05   5.851395674339507e-06   -2.5319163570650832e-05
-2.971382766061604e-05   5.997275990704673e-06   -3.9007972138967796e-05
-2.971382766061604e-05   5.997275990704673e-06   -3.9007972138967796e-05
-2.971382766061604e-05   5.997275990704673e-06   -3.9007972138967796e-05
-2.971382766061604e-05   5.997275990704673e-06   -3.9007972138967796e-05
-3.787459588771501e-05   7.653198731105509e-06   -5.174855483302052e-05
-3.787459588771501e-05   7.653198731105509e-06   -5.174855483302052e-05
-3.787459588771501e-05   7.653198731105509e-06   -5.174855483302052e-05
-3.787459588771501e-05   7.653198731105509e-06   -5.174855483302052e-05
-2.2016961130293206e-05   5.8513956743397235e-06   -2.6400245404710297e-05
-2.2016961130293206e-05   5.8513956743397235e-06   -2.6400245404710297e-05
-2.2016961130293206e-05   5.8513956743397235e-06   -2.6400245404710297e-05
-2.2016961130293206e-05   5.8513956743397235e-06   -2.6400245404710297e-05
-2.203434242107069e-05   9.331618266986553e-06   -5.304247495509381e-05
-2.203434242107069e-05   9.331618266986553e-06   -5.304247495509381e-05
-2.203434242107069e-05   9.331618266986553e-06   -5.304247495509381e-05
-2.203434242107069e-05   9.331618266986553e-06   -5.304247495509381e-05
-3.775853629821223e-05   7.411659542989153e-06   -2.568350992545931e-05
-3.775853629821223e-05   7.411659542989153e-06   -2.568350992545931e-05
-3.775853629821223e-05   7.411659542989153e-06   -2.568350992545931e-05
-3.775853629821223e-05   7.411659542989153e-06   -2.568350992545931e-05
-2.9906074303231565e-05   7.279711588537127e-06   -3.869177781108912e-05
-2.9906074303231565e-05   7.279711588537127e-06   -3.869177781108912e-05
-2.9906074303231565e-05   7.279711588537127e-06   -3.869177781108912e-05
-2.9906074303231565e-05   7.279711588537127e-06   -3.869177781108912e-05
-2.202280160387292e-05   2.2864393953170043e-07   -6.0155102162817264e-05
-2.202280160387292e-05   2.2864393953170043e-07   -6.0155102162817264e-05
-2.202280160387292e-05   2.2864393953170043e-07   -6.0155102162817264e-05
-2.202280160387292e-05   2.2864393953170043e-07   -6.0155102162817264e-05
-5.970072376459464e-06   4.872264107646726e-07   -3.324540396772174e-05
-5.970072376459464e-06   4.872264107646726e-07   -3.324540396772174e-05
-5.970072376459464e-06   4.872264107646726e-07   -3.324540396772174e-05
-5.970072376459464e-06   4.872264107646726e-07   -3.324540396772174e-05
-5.981253995779921e-06   1.9772706806882702e-06   -5.9491879118490193e-05
-5.981253995779921e-06   1.9772706806882702e-06   -5.9491879118490193e-05
-5.981253995779921e-06   1.9772706806882702e-06   -5.9491879118490193e-05
-5.981253995779921e-06   1.9772706806882702e-06   -5.9491879118490193e-05
-2.2033408865110223e-05   2.074715023738698e-06   -3.27967542754366e-05
-2.2033408865110223e-05   2.074715023738698e-06   -3.27967542754366e-05
-2.2033408865110223e-05   2.074715023738698e-06   -3.27967542754366e-05
-2.2033408865110223e-05   2.074715023738698e-06   -3.27967542754366e-05
-1.3908937884587047e-05   1.3970600824953893e-06   -4.593094627822928e-05
-1.3908937884587047e-05   1.3970600824953893e-06   -4.593094627822928e-05
-1.3908937884587047e-05   1.3970600824953893e-06   -4.593094627822928e-05
-1.3908937884587047e-05   1.3970600824953893e-06   -4.593094627822928e-05
-2.2033408865110223e-05   1.9772706806882702e-06   -5.9550345724320385e-05
-2.2033408865110223e-05   1.9772706806882702e-06   -5.9550345724320385e-05
-2.2033408865110223e-05   1.9772706806882702e-06   -5.9550345724320385e-05
-2.2033408865110223e-05   1.9772706806882702e-06   -5.9550345724320385e-05
-5.981253995779921e-06   2.074715023738698e-06   -3.2738287669606435e-05
-5.981253995779921e-06   2.074715023738698e-06   -3.2738287669606435e-05
-5.981253995779921e-06   2.074715023738698e-06   -3.2738287669606435e-05
-5.981253995779921e-06   2.074715023738698e-06   -3.2738287669606435e-05
-5.960004959911776e-06   3.720656878245833e-06   -5.9643619550966585e-05
-5.960004959911776e-06   3.720656878245833e-06   -5.9643619550966585e-05
-5.960004959911776e-06   3.720656878245833e-06   -5.9643619550966585e-05
-5.960004959911776e-06   3.720656878245833e-06   -5.9643619550966585e-05
-2.201696113029318e-05   3.6672738348596853e-06   -3.284999610763257e-05
-2.201696113029318e-05   3.6672738348596853e-06   -3.284999610763257e-05
-2.201696113029318e-05   3.6672738348596853e-06   -3.284999610763257e-05
-2.201696113029318e-05   3.6672738348596853e-06   -3.284999610763257e-05
-1.4001877916294936e-05   2.7855994899949124e-06   -4.567946352404423e-05
-1.4001877916294936e-05   2.7855994899949124e-06   -4.567946352404423e-05
-1.4001877916294936e-05   2.7855994899949124e-06   -4.567946352404423e-05
-1.4001877916294936e-05   2.7855994899949124e-06   -4.567946352404423e-05
-2.201696113029318e-05   3.720656878245833e-06   -5.961158972493484e-05
-2.201696113029318e-05   3.720656878245833e-06   -5.961158972493484e-05
-2.201696113029318e-05   3.720656878245833e-06   -5.961158972493484e-05
-2.201696113029318e-05   3.720656878245833e-06   -5.961158972493484e-05
-5.9600049599117865e-06   3.6672738348596853e-06   -3.288202593366415e-05
-5.9600049599117865e-06   3.6672738348596853e-06   -3.288202593366415e-05
-5.9600049599117865e-06   3.6672738348596853e-06   -3.288202593366415e-05
-5.9600049599117865e-06   3.6672738348596853e-06   -3.288202593366415e-05
-5.969300476007397e-06   5.504602647820461e-06   -6.054575388631889e-05
-5.969300476007397e-06   5.504602647820461e-06   -6.054575388631889e-05
-5.969300476007397e-06   5.504602647820461e-06   -6.054575388631889e-05
-5.969300476007397e-06   5.504602647820461e-06   -6.054575388631889e-05
-2.2034342421070678e-05   5.28767712604716e-06   -3.3640528664815846e-05
-2.2034342421070678e-05   5.28767712604716e-06   -3.3640528664815846e-05
-2.2034342421070678e-05   5.28767712604716e-06   -3.3640528664815846e-05
-2.2034342421070678e-05   5.28767712604716e-06   -3.3640528664815846e-05
-1.4122087120080902e-05   4.1923716200205395e-06   -4.617043752951624e-05
-1.4122087120080902e-05   4.1923716200205395e-06   -4.617043752951624e-05
-1.4122087120080902e-05   4.1923716200205395e-06   -4.617043752951624e-05
-1.4122087120080902e-05   4.1923716200205395e-06   -4.617043752951624e-05
-5.970072376459454e-06   -3.5992325336587413e-06   -5.326942515211723e-05
-5.970072376459454e-06   -3.5992325336587413e-06   -5.326942515211723e-05
-5.970072376459454e-06   -3.5992325336587413e-06   -5.326942515211723e-05
-5.970072376459454e-06   -3.5992325336587413e-06   -5.326942515211723e-05
9.85112383727374e-06   -1.6606173492098465e-06   -2.573759568522615e-05
9.85112383727374e-06   -1.6606173492098465e-06   -2.573759568522615e-05
9.85112383727374e-06   -1.6606173492098465e-06   -2.573759568522615e-05
9.85112383727374e-06   -1.6606173492098465e-06   -2.573759568522615e-05
9.980377862208153e-06   -1.9967860781667374e-06   -5.2060051131148347e-05
9.980377862208153e-06   -1.9967860781667374e-06   -5.2060051131148347e-05
9.980377862208153e-06   -1.9967860781667374e-06   -5.2060051131148347e-05
9.980377862208153e-06   -1.9967860781667374e-06   -5.2060051131148347e-05
-5.981253995779921e-06   -1.65671278400158e-07   -2.6556000247694966e-05
-5.981253995779921e-06   -1.65671278400158e-07   -2.6556000247694966e-05
-5.981253995779921e-06   -1.65671278400158e-07   -2.6556000247694966e-05
-5.981253995779921e-06   -1.65671278400158e-07   -2.6556000247694966e-05
1.9790321319702138e-06   -1.717640369260586e-06   -3.8891962339428907e-05
1.9790321319702138e-06   -1.717640369260586e-06   -3.8891962339428907e-05
1.9790321319702138e-06   -1.717640369260586e-06   -3.8891962339428907e-05
1.9790321319702138e-06   -1.717640369260586e-06   -3.8891962339428907e-05
-5.981253995779921e-06   -1.9967860781667374e-06   -5.315872001100853e-05
-5.981253995779921e-06   -1.9967860781667374e-06   -5.315872001100853e-05
-5.981253995779921e-06   -1.9967860781667374e-06   -5.315872001100853e-05
-5.981253995779921e-06   -1.9967860781667374e-06   -5.315872001100853e-05
9.980377862208194e-06   -1.6567127839994117e-07   -2.5457331367835078e-05
9.980377862208194e-06   -1.6567127839994117e-07   -2.5457331367835078e-05
9.980377862208194e-06   -1.6567127839994117e-07   -2.5457331367835078e-05
9.980377862208194e-06   -1.6567127839994117e-07   -2.5457331367835078e-05
1.0284494095122576e-05   -4.218445488059046e-07   -5.315644563480684e-05
1.0284494095122576e-05   -4.218445488059046e-07   -5.315644563480684e-05
1.0284494095122576e-05   -4.218445488059046e-07   -5.315644563480684e-05
1.0284494095122576e-05   -4.218445488059046e-07   -5.315644563480684e-05
-5.9600049599117865e-06   1.2728059860084816e-06   -2.7099070863971425e-05
-5.9600049599117865e-06   1.2728059860084816e-06   -2.7099070863971425e-05
-5.9600049599117865e-06   1.2728059860084816e-06   -2.7099070863971425e-05
-5.9600049599117865e-06   1.2728059860084816e-06   -2.7099070863971425e-05
1.8876163922242572e-06   -4.7407650707637257e-07   -3.913031028834726e-05
1.8876163922242572e-06   -4.7407650707637257e-07   -3.913031028834726e-05
1.8876163922242572e-06   -4.7407650707637257e-07   -3.913031028834726e-05
1.8876163922242572e-06   -4.7407650707637257e-07   -3.913031028834726e-05
-5.960004959911781e-06   -4.218445488059046e-07   -5.417323595569522e-05
-5.960004959911781e-06   -4.218445488059046e-07   -5.417323595569522e-05
-5.960004959911781e-06   -4.218445488059046e-07   -5.417323595569522e-05
-5.960004959911781e-06   -4.218445488059046e-07   -5.417323595569522e-05
1.0284494095122603e-05   1.2728059860082647e-06   -2.6082280543082768e-05
1.0284494095122603e-05   1.2728059860082647e-06   -2.6082280543082768e-05
1.0284494095122603e-05   1.2728059860082647e-06   -2.6082280543082768e-05
1.0284494095122603e-05   1.2728059860082647e-06   -2.6082280543082768e-05
1.0433203193333334e-05   1.4199676658288758e-06   -5.472364511018859e-05
1.0433203193333334e-05   1.4199676658288758e-06   -5.472364511018859e-05
1.0433203193333334e-05   1.4199676658288758e-06   -5.472364511018859e-05
1.0433203193333334e-05   1.4199676658288758e-06   -5.472364511018859e-05
-5.969300476007387e-06   2.921823141110308e-06   -2.828725227978945e-05
-5.969300476007387e-06   2.921823141110308e-06   -2.828725227978945e-05
-5.969300476007387e-06   2.921823141110308e-06   -2.828725227978945e-05
-5.969300476007387e-06   2.921823141110308e-06   -2.828725227978945e-05
1.9428263684871475e-06   8.56422674832668e-07   -4.0234890074180383e-05
1.9428263684871475e-06   8.56422674832668e-07   -4.0234890074180383e-05
1.9428263684871475e-06   8.56422674832668e-07   -4.0234890074180383e-05
1.9428263684871475e-06   8.56422674832668e-07   -4.0234890074180383e-05
9.851123837273712e-06   -6.530256369498906e-06   -2.9272168961598402e-05
9.851123837273712e-06   -6.530256369498906e-06   -2.9272168961598402e-05
9.851123837273712e-06   -6.530256369498906e-06   -2.9272168961598402e-05
9.851123837273712e-06   -6.530256369498906e-06   -2.9272168961598402e-05
2.3910227616120457e-05   -3.05326819117005e-06   -3.7541364231897124e-06
2.3910227616120457e-05   -3.05326819117005e-06   -3.7541364231897124e-06
2.3910227616120457e-05   -3.05326819117005e-06   -3.7541364231897124e-06
2.3910227616120457e-05   -3.05326819117005e-06   -3.7541364231897124e-06
2.557738673920578e-05   -5.607435104726583e-06   -3.0743769340516004e-05
2.557738673920578e-05   -5.607435104726583e-06   -3.0743769340516004e-05
2.557738673920578e-05   -5.607435104726583e-06   -3.0743769340516004e-05
2.557738673920578e-05   -5.607435104726583e-06   -3.0743769340516004e-05
9.98037786220818e-06   -2.0411102121050025e-06   -6.888549481092956e-06
9.98037786220818e-06   -2.0411102121050025e-06   -6.888549481092956e-06
9.98037786220818e-06   -2.0411102121050025e-06   -6.888549481092956e-06
9.98037786220818e-06   -2.0411102121050025e-06   -6.888549481092956e-06
1.6590854609898537e-05   -4.174621946374194e-06   -1.6625903686682164e-05
1.6590854609898537e-05   -4.174621946374194e-06   -1.6625903686682164e-05
1.6590854609898537e-05   -4.174621946374194e-06   -1.6625903686682164e-05
1.6590854609898537e-05   -4.174621946374194e-06   -1.6625903686682164e-05
9.980377862208167e-06   -5.607435104726583e-06   -3.288356427608857e-05
9.980377862208167e-06   -5.607435104726583e-06   -3.288356427608857e-05
9.980377862208167e-06   -5.607435104726583e-06   -3.288356427608857e-05
9.980377862208167e-06   -5.607435104726583e-06   -3.288356427608857e-05
2.5577386739205672e-05   -2.0411102121052193e-06   -4.748754545519981e-06
2.5577386739205672e-05   -2.0411102121052193e-06   -4.748754545519981e-06
2.5577386739205672e-05   -2.0411102121052193e-06   -4.748754545519981e-06
2.5577386739205672e-05   -2.0411102121052193e-06   -4.748754545519981e-06
2.686032252882946e-05   -4.815307436056241e-06   -3.371577522908638e-05
2.686032252882946e-05   -4.815307436056241e-06   -3.371577522908638e-05
2.686032252882946e-05   -4.815307436056241e-06   -3.371577522908638e-05
2.686032252882946e-05   -4.815307436056241e-06   -3.371577522908638e-05
1.0284494095122603e-05   -1.3419909062548085e-06   -8.173384424122544e-06
1.0284494095122603e-05   -1.3419909062548085e-06   -8.173384424122544e-06
1.0284494095122603e-05   -1.3419909062548085e-06   -8.173384424122544e-06
1.0284494095122603e-05   -1.3419909062548085e-06   -8.173384424122544e-06
1.7610404627905633e-05   -3.6550315989640914e-06   -1.8995410896468492e-05
1.7610404627905633e-05   -3.6550315989640914e-06   -1.8995410896468492e-05
1.7610404627905633e-05   -3.6550315989640914e-06   -1.8995410896468492e-05
1.7610404627905633e-05   -3.6550315989640914e-06   -1.8995410896468492e-05
1.0284494095122603e-05   -4.815307436056133e-06   -3.579976514696715e-05
1.0284494095122603e-05   -4.815307436056133e-06   -3.579976514696715e-05
1.0284494095122603e-05   -4.815307436056133e-06   -3.579976514696715e-05
1.0284494095122603e-05   -4.815307436056133e-06   -3.579976514696715e-05
2.686032252882935e-05   -1.3419909062548085e-06   -6.0893945062413975e-06
2.686032252882935e-05   -1.3419909062548085e-06   -6.0893945062413975e-06
2.686032252882935e-05   -1.3419909062548085e-06   -6.0893945062413975e-06
2.686032252882935e-05   -1.3419909062548085e-06   -6.0893945062413975e-06
2.8564846029193472e-05   -3.122661832287584e-06   -3.941397927538826e-05
2.8564846029193472e-05   -3.122661832287584e-06   -3.941397927538826e-05
2.8564846029193472e-05   -3.122661832287584e-06   -3.941397927538826e-05
2.8564846029193472e-05   -3.122661832287584e-06   -3.941397927538826e-05
1.0433203193333334e-05   3.3051197831325194e-08   -1.10880023670259e-05
1.0433203193333334e-05   3.3051197831325194e-08   -1.10880023670259e-05
1.0433203193333334e-05   3.3051197831325194e-08   -1.10880023670259e-05
1.0433203193333334e-05   3.3051197831325194e-08   -1.10880023670259e-05
1.794876457260126e-05   -2.8810922701983602e-06   -2.1865451918321377e-05
1.794876457260126e-05   -2.8810922701983602e-06   -2.1865451918321377e-05
1.794876457260126e-05   -2.8810922701983602e-06   -2.1865451918321377e-05
1.794876457260126e-05   -2.8810922701983602e-06   -2.1865451918321377e-05
-3.4080538108141134e-05   5.4873721059992085e-06   -3.1925775848832476e-05
-3.4080538108141134e-05   5.4873721059992085e-06   -3.1925775848832476e-05
-3.4080538108141134e-05   5.4873721059992085e-06   -3.1925775848832476e-05
-3.4080538108141134e-05   5.4873721059992085e-06   -3.1925775848832476e-05
-2.5154239429709535e-05   2.237426853992459e-06   -1.8998578535983927e-05
-2.5154239429709535e-05   2.237426853992459e-06   -1.8998578535983927e-05
-2.5154239429709535e-05   2.237426853992459e-06   -1.8998578535983927e-05
-2.5154239429709535e-05   2.237426853992459e-06   -1.8998578535983927e-05
-2.4783711325776584e-05   6.983422728755982e-06   -2.8164239341215043e-05
-2.4783711325776584e-05   6.983422728755982e-06   -2.8164239341215043e-05
-2.4783711325776584e-05   6.983422728755982e-06   -2.8164239341215043e-05
-2.4783711325776584e-05   6.983422728755982e-06   -2.8164239341215043e-05
-3.222994766273604e-05   3.4826575195288055e-06   -1.3653386320746307e-05
-3.222994766273604e-05   3.4826575195288055e-06   -1.3653386320746307e-05
-3.222994766273604e-05   3.4826575195288055e-06   -1.3653386320746307e-05
-3.222994766273604e-05   3.4826575195288055e-06   -1.3653386320746307e-05
-2.783078141134673e-05   4.921835324801695e-06   -2.18488367562269e-05
-2.783078141134673e-05   4.921835324801695e-06   -2.18488367562269e-05
-2.783078141134673e-05   4.921835324801695e-06   -2.18488367562269e-05
-2.783078141134673e-05   4.921835324801695e-06   -2.18488367562269e-05
-3.222994766273604e-05   6.983422728755982e-06   -2.6063780215679062e-05
-3.222994766273604e-05   6.983422728755982e-06   -2.6063780215679062e-05
-3.222994766273604e-05   6.983422728755982e-06   -2.6063780215679062e-05
-3.222994766273604e-05   6.983422728755982e-06   -2.6063780215679062e-05
-2.478371132577661e-05   3.4826575195288055e-06   -1.5753845446282613e-05
-2.478371132577661e-05   3.4826575195288055e-06   -1.5753845446282613e-05
-2.478371132577661e-05   3.4826575195288055e-06   -1.5753845446282613e-05
-2.478371132577661e-05   3.4826575195288055e-06   -1.5753845446282613e-05
-2.4255052840294983e-05   7.680180609696396e-06   -2.514937508837174e-05
-2.4255052840294983e-05   7.680180609696396e-06   -2.514937508837174e-05
-2.4255052840294983e-05   7.680180609696396e-06   -2.514937508837174e-05
-2.4255052840294983e-05   7.680180609696396e-06   -2.514937508837174e-05
-3.0753298403619585e-05   4.11150795296745e-06   -1.2177762222126496e-05
-3.0753298403619585e-05   4.11150795296745e-06   -1.2177762222126496e-05
-3.0753298403619585e-05   4.11150795296745e-06   -1.2177762222126496e-05
-3.0753298403619585e-05   4.11150795296745e-06   -1.2177762222126496e-05
-2.7342436014928965e-05   5.593627507019354e-06   -1.8751804602375514e-05
-2.7342436014928965e-05   5.593627507019354e-06   -1.8751804602375514e-05
-2.7342436014928965e-05   5.593627507019354e-06   -1.8751804602375514e-05
-2.7342436014928965e-05   5.593627507019354e-06   -1.8751804602375514e-05
-3.075329840361948e-05   7.680180609696396e-06   -2.3008171494334284e-05
-3.075329840361948e-05   7.680180609696396e-06   -2.3008171494334284e-05
-3.075329840361948e-05   7.680180609696396e-06   -2.3008171494334284e-05
-3.075329840361948e-05   7.680180609696396e-06   -2.3008171494334284e-05
-2.425505284029501e-05   4.11150795296745e-06   -1.4318965816163842e-05
-2.425505284029501e-05   4.11150795296745e-06   -1.4318965816163842e-05
-2.425505284029501e-05   4.11150795296745e-06   -1.4318965816163842e-05
-2.425505284029501e-05   4.11150795296745e-06   -1.4318965816163842e-05
-2.389443625441573e-05   8.555894970977036e-06   -2.1281055544542654e-05
-2.389443625441573e-05   8.555894970977036e-06   -2.1281055544542654e-05
-2.389443625441573e-05   8.555894970977036e-06   -2.1281055544542654e-05
-2.389443625441573e-05   8.555894970977036e-06   -2.1281055544542654e-05
-2.8872875600919614e-05   5.107486783713453e-06   -1.0914611721344366e-05
-2.8872875600919614e-05   5.107486783713453e-06   -1.0914611721344366e-05
-2.8872875600919614e-05   5.107486783713453e-06   -1.0914611721344366e-05
-2.8872875600919614e-05   5.107486783713453e-06   -1.0914611721344366e-05
-2.6064442287064706e-05   6.058898187515441e-06   -1.616618075338445e-05
-2.6064442287064706e-05   6.058898187515441e-06   -1.616618075338445e-05
-2.6064442287064706e-05   6.058898187515441e-06   -1.616618075338445e-05
-2.6064442287064706e-05   6.058898187515441e-06   -1.616618075338445e-05
-2.5154239429709535e-05   2.8354753369070652e-06   -4.651813779279893e-05
-2.5154239429709535e-05   2.8354753369070652e-06   -4.651813779279893e-05
-2.5154239429709535e-05   2.8354753369070652e-06   -4.651813779279893e-05
-2.5154239429709535e-05   2.8354753369070652e-06   -4.651813779279893e-05
-1.790271132615227e-05   1.2829117416650413e-06   -3.5363795777348754e-05
-1.790271132615227e-05   1.2829117416650413e-06   -3.5363795777348754e-05
-1.790271132615227e-05   1.2829117416650413e-06   -3.5363795777348754e-05
-1.790271132615227e-05   1.2829117416650413e-06   -3.5363795777348754e-05
-1.765972286579282e-05   4.4146987858617506e-06   -4.636604317197332e-05
-1.765972286579282e-05   4.4146987858617506e-06   -4.636604317197332e-05
-1.765972286579282e-05   4.4146987858617506e-06   -4.636604317197332e-05
-1.765972286579282e-05   4.4146987858617506e-06   -4.636604317197332e-05
-2.4783711325776666e-05   2.7105969700304353e-06   -3.3470267982501115e-05
-2.4783711325776666e-05   2.7105969700304353e-06   -3.3470267982501115e-05
-2.4783711325776666e-05   2.7105969700304353e-06   -3.3470267982501115e-05
-2.4783711325776666e-05   2.7105969700304353e-06   -3.3470267982501115e-05
-2.116672222668811e-05   3.084446686896442e-06   -3.972289297776921e-05
-2.116672222668811e-05   3.084446686896442e-06   -3.972289297776921e-05
-2.116672222668811e-05   3.084446686896442e-06   -3.972289297776921e-05
-2.116672222668811e-05   3.084446686896442e-06   -3.972289297776921e-05
-2.4783711325776557e-05   4.4146987858617506e-06   -4.5343582082474116e-05
-2.4783711325776557e-05   4.4146987858617506e-06   -4.5343582082474116e-05
-2.4783711325776557e-05   4.4146987858617506e-06   -4.5343582082474116e-05
-2.4783711325776557e-05   4.4146987858617506e-06   -4.5343582082474116e-05
-1.765972286579282e-05   2.7105969700304353e-06   -3.4492729072000045e-05
-1.765972286579282e-05   2.7105969700304353e-06   -3.4492729072000045e-05
-1.765972286579282e-05   2.7105969700304353e-06   -3.4492729072000045e-05
-1.765972286579282e-05   2.7105969700304353e-06   -3.4492729072000045e-05
-1.7391416264971626e-05   5.8513956743397235e-06   -4.5616467587407655e-05
-1.7391416264971626e-05   5.8513956743397235e-06   -4.5616467587407655e-05
-1.7391416264971626e-05   5.8513956743397235e-06   -4.5616467587407655e-05
-1.7391416264971626e-05   5.8513956743397235e-06   -4.5616467587407655e-05
-2.4255052840295064e-05   4.037865637989812e-06   -3.308895527339177e-05
-2.4255052840295064e-05   4.037865637989812e-06   -3.308895527339177e-05
-2.4255052840295064e-05   4.037865637989812e-06   -3.308895527339177e-05
-2.4255052840295064e-05   4.037865637989812e-06   -3.308895527339177e-05
-2.0847389079577562e-05   4.23849065433286e-06   -3.8888769884393105e-05
-2.0847389079577562e-05   4.23849065433286e-06   -3.8888769884393105e-05
-2.0847389079577562e-05   4.23849065433286e-06   -3.8888769884393105e-05
-2.0847389079577562e-05   4.23849065433286e-06   -3.8888769884393105e-05
-2.4255052840294983e-05   5.851395674339507e-06   -4.4528349565597556e-05
-2.4255052840294983e-05   5.851395674339507e-06   -4.4528349565597556e-05
-2.4255052840294983e-05   5.851395674339507e-06   -4.4528349565597556e-05
-2.4255052840294983e-05   5.851395674339507e-06   -4.4528349565597556e-05
-1.73914162649716e-05   4.037865637989595e-06   -3.417707329520165e-05
-1.73914162649716e-05   4.037865637989595e-06   -3.417707329520165e-05
-1.73914162649716e-05   4.037865637989595e-06   -3.417707329520165e-05
-1.73914162649716e-05   4.037865637989595e-06   -3.417707329520165e-05
-1.715265852563978e-05   7.411659542989153e-06   -4.60587303269908e-05
-1.715265852563978e-05   7.411659542989153e-06   -4.60587303269908e-05
-1.715265852563978e-05   7.411659542989153e-06   -4.60587303269908e-05
-1.715265852563978e-05   7.411659542989153e-06   -4.60587303269908e-05
-2.3894436254415783e-05   5.512440317240403e-06   -3.368290257691457e-05
-2.3894436254415783e-05   5.512440317240403e-06   -3.368290257691457e-05
-2.3894436254415783e-05   5.512440317240403e-06   -3.368290257691457e-05
-2.3894436254415783e-05   5.512440317240403e-06   -3.368290257691457e-05
-2.0722181271946302e-05   5.407114721333369e-06   -3.8906798856820006e-05
-2.0722181271946302e-05   5.407114721333369e-06   -3.8906798856820006e-05
-2.0722181271946302e-05   5.407114721333369e-06   -3.8906798856820006e-05
-2.0722181271946302e-05   5.407114721333369e-06   -3.8906798856820006e-05
-1.790271132615219e-05   4.872264107646726e-07   -5.259808913979911e-05
-1.790271132615219e-05   4.872264107646726e-07   -5.259808913979911e-05
-1.790271132615219e-05   4.872264107646726e-07   -5.259808913979911e-05
-1.790271132615219e-05   4.872264107646726e-07   -5.259808913979911e-05
-1.0837465119494551e-05   7.341805351639228e-07   -4.067450632073001e-05
-1.0837465119494551e-05   7.341805351639228e-07   -4.067450632073001e-05
-1.0837465119494551e-05   7.341805351639228e-07   -4.067450632073001e-05
-1.0837465119494551e-05   7.341805351639228e-07   -4.067450632073001e-05
-1.0600565094993614e-05   2.0747150237384812e-06   -5.193799489907312e-05
-1.0600565094993614e-05   2.0747150237384812e-06   -5.193799489907312e-05
-1.0600565094993614e-05   2.0747150237384812e-06   -5.193799489907312e-05
-1.0600565094993614e-05   2.0747150237384812e-06   -5.193799489907312e-05
-1.765972286579282e-05   2.1880184886931883e-06   -4.024071402671333e-05
-1.765972286579282e-05   2.1880184886931883e-06   -4.024071402671333e-05
-1.765972286579282e-05   2.1880184886931883e-06   -4.024071402671333e-05
-1.765972286579282e-05   2.1880184886931883e-06   -4.024071402671333e-05
-1.415883547437515e-05   1.573263872861868e-06   -4.5706673576245086e-05
-1.415883547437515e-05   1.573263872861868e-06   -4.5706673576245086e-05
-1.415883547437515e-05   1.573263872861868e-06   -4.5706673576245086e-05
-1.415883547437515e-05   1.573263872861868e-06   -4.5706673576245086e-05
-1.7659722865792792e-05   2.0747150237384812e-06   -5.2005976978045706e-05
-1.7659722865792792e-05   2.0747150237384812e-06   -5.2005976978045706e-05
-1.7659722865792792e-05   2.0747150237384812e-06   -5.2005976978045706e-05
-1.7659722865792792e-05   2.0747150237384812e-06   -5.2005976978045706e-05
-1.0600565094993614e-05   2.1880184886931883e-06   -4.01727319477408e-05
-1.0600565094993614e-05   2.1880184886931883e-06   -4.01727319477408e-05
-1.0600565094993614e-05   2.1880184886931883e-06   -4.01727319477408e-05
-1.0600565094993614e-05   2.1880184886931883e-06   -4.01727319477408e-05
-1.0334191190342253e-05   3.6672738348596853e-06   -5.2073819106832737e-05
-1.0334191190342253e-05   3.6672738348596853e-06   -5.2073819106832737e-05
-1.0334191190342253e-05   3.6672738348596853e-06   -5.2073819106832737e-05
-1.0334191190342253e-05   3.6672738348596853e-06   -5.2073819106832737e-05
-1.73914162649716e-05   3.6546058073546554e-06   -4.030417649928067e-05
-1.73914162649716e-05   3.6546058073546554e-06   -4.030417649928067e-05
-1.73914162649716e-05   3.6546058073546554e-06   -4.030417649928067e-05
-1.73914162649716e-05   3.6546058073546554e-06   -4.030417649928067e-05
-1.3999727381325923e-05   2.822154747694674e-06   -4.545752066956074e-05
-1.3999727381325923e-05   2.822154747694674e-06   -4.545752066956074e-05
-1.3999727381325923e-05   2.822154747694674e-06   -4.545752066956074e-05
-1.3999727381325923e-05   2.822154747694674e-06   -4.545752066956074e-05
-1.7391416264971545e-05   3.6672738348596853e-06   -5.206621829032963e-05
-1.7391416264971545e-05   3.6672738348596853e-06   -5.206621829032963e-05
-1.7391416264971545e-05   3.6672738348596853e-06   -5.206621829032963e-05
-1.7391416264971545e-05   3.6672738348596853e-06   -5.206621829032963e-05
-1.0334191190342271e-05   3.6546058073546554e-06   -4.03117773157838e-05
-1.0334191190342271e-05   3.6546058073546554e-06   -4.03117773157838e-05
-1.0334191190342271e-05   3.6546058073546554e-06   -4.03117773157838e-05
-1.0334191190342271e-05   3.6546058073546554e-06   -4.03117773157838e-05
-1.009482946860988e-05   5.28767712604716e-06   -5.2950393445784375e-05
-1.009482946860988e-05   5.28767712604716e-06   -5.2950393445784375e-05
-1.009482946860988e-05   5.28767712604716e-06   -5.2950393445784375e-05
-1.009482946860988e-05   5.28767712604716e-06   -5.2950393445784375e-05
-1.7152658525639795e-05   5.143311102988194e-06   -4.110072540356534e-05
-1.7152658525639795e-05   5.143311102988194e-06   -4.110072540356534e-05
-1.7152658525639795e-05   5.143311102988194e-06   -4.110072540356534e-05
-1.7152658525639795e-05   5.143311102988194e-06   -4.110072540356534e-05
-1.3868036296380401e-05   4.087644599767718e-06   -4.594169588373261e-05
-1.3868036296380401e-05   4.087644599767718e-06   -4.594169588373261e-05
-1.3868036296380401e-05   4.087644599767718e-06   -4.594169588373261e-05
-1.3868036296380401e-05   4.087644599767718e-06   -4.594169588373261e-05
-1.0837465119494514e-05   -1.6606173492098465e-06   -4.610527749333306e-05
-1.0837465119494514e-05   -1.6606173492098465e-06   -4.610527749333306e-05
-1.0837465119494514e-05   -1.6606173492098465e-06   -4.610527749333306e-05
-1.0837465119494514e-05   -1.6606173492098465e-06   -4.610527749333306e-05
-3.983614763658104e-06   3.1188466372250416e-07   -3.349869235917994e-05
-3.983614763658104e-06   3.1188466372250416e-07   -3.349869235917994e-05
-3.983614763658104e-06   3.1188466372250416e-07   -3.349869235917994e-05
-3.983614763658104e-06   3.1188466372250416e-07   -3.349869235917994e-05
-3.630026368355244e-06   -1.65671278400158e-07   -4.462433860074851e-05
-3.630026368355244e-06   -1.65671278400158e-07   -4.462433860074851e-05
-3.630026368355244e-06   -1.65671278400158e-07   -4.462433860074851e-05
-3.630026368355244e-06   -1.65671278400158e-07   -4.462433860074851e-05
-1.0600565094993594e-05   1.719943515622038e-06   -3.413814293276403e-05
-1.0600565094993594e-05   1.719943515622038e-06   -3.413814293276403e-05
-1.0600565094993594e-05   1.719943515622038e-06   -3.413814293276403e-05
-1.0600565094993594e-05   1.719943515622038e-06   -3.413814293276403e-05
-7.18964853270157e-06   1.9847917661665326e-07   -3.891012526651491e-05
-7.18964853270157e-06   1.9847917661665326e-07   -3.891012526651491e-05
-7.18964853270157e-06   1.9847917661665326e-07   -3.891012526651491e-05
-7.18964853270157e-06   1.9847917661665326e-07   -3.891012526651491e-05
-1.0600565094993577e-05   -1.6567127839994117e-07   -4.575570747716146e-05
-1.0600565094993577e-05   -1.6567127839994117e-07   -4.575570747716146e-05
-1.0600565094993577e-05   -1.6567127839994117e-07   -4.575570747716146e-05
-1.0600565094993577e-05   -1.6567127839994117e-07   -4.575570747716146e-05
-3.6300263683552574e-06   1.719943515621821e-06   -3.3006774056351055e-05
-3.6300263683552574e-06   1.719943515621821e-06   -3.3006774056351055e-05
-3.6300263683552574e-06   1.719943515621821e-06   -3.3006774056351055e-05
-3.6300263683552574e-06   1.719943515621821e-06   -3.3006774056351055e-05
-3.1056533034682266e-06   1.2728059860082647e-06   -4.522631855188798e-05
-3.1056533034682266e-06   1.2728059860082647e-06   -4.522631855188798e-05
-3.1056533034682266e-06   1.2728059860082647e-06   -4.522631855188798e-05
-3.1056533034682266e-06   1.2728059860082647e-06   -4.522631855188798e-05
-1.0334191190342253e-05   3.0470484614279585e-06   -3.424330089234964e-05
-1.0334191190342253e-05   3.0470484614279585e-06   -3.424330089234964e-05
-1.0334191190342253e-05   3.0470484614279585e-06   -3.424330089234964e-05
-1.0334191190342253e-05   3.0470484614279585e-06   -3.424330089234964e-05
-6.975679258154856e-06   1.335197177431812e-06   -3.881371000893115e-05
-6.975679258154856e-06   1.335197177431812e-06   -3.881371000893115e-05
-6.975679258154856e-06   1.335197177431812e-06   -3.881371000893115e-05
-6.975679258154856e-06   1.335197177431812e-06   -3.881371000893115e-05
-1.0334191190342226e-05   1.2728059860082647e-06   -4.6290864037139734e-05
-1.0334191190342226e-05   1.2728059860082647e-06   -4.6290864037139734e-05
-1.0334191190342226e-05   1.2728059860082647e-06   -4.6290864037139734e-05
-1.0334191190342226e-05   1.2728059860082647e-06   -4.6290864037139734e-05
-3.1056533034682266e-06   3.0470484614279585e-06   -3.317875540709812e-05
-3.1056533034682266e-06   3.0470484614279585e-06   -3.317875540709812e-05
-3.1056533034682266e-06   3.0470484614279585e-06   -3.317875540709812e-05
-3.1056533034682266e-06   3.0470484614279585e-06   -3.317875540709812e-05
-2.7394341822064796e-06   2.921823141110308e-06   -4.6491296002266385e-05
-2.7394341822064796e-06   2.921823141110308e-06   -4.6491296002266385e-05
-2.7394341822064796e-06   2.921823141110308e-06   -4.6491296002266385e-05
-2.7394341822064796e-06   2.921823141110308e-06   -4.6491296002266385e-05
-1.009482946860988e-05   4.547932716822325e-06   -3.5207969603688006e-05
-1.009482946860988e-05   4.547932716822325e-06   -3.5207969603688006e-05
-1.009482946860988e-05   4.547932716822325e-06   -3.5207969603688006e-05
-1.009482946860988e-05   4.547932716822325e-06   -3.5207969603688006e-05
-6.751583127344827e-06   2.526872484482105e-06   -3.9567410699725716e-05
-6.751583127344827e-06   2.526872484482105e-06   -3.9567410699725716e-05
-6.751583127344827e-06   2.526872484482105e-06   -3.9567410699725716e-05
-6.751583127344827e-06   2.526872484482105e-06   -3.9567410699725716e-05
-3.98361476365809e-06   -3.05326819117005e-06   -2.5024509930534765e-05
-3.98361476365809e-06   -3.05326819117005e-06   -2.5024509930534765e-05
-3.98361476365809e-06   -3.05326819117005e-06   -2.5024509930534765e-05
-3.98361476365809e-06   -3.05326819117005e-06   -2.5024509930534765e-05
1.093731480984587e-06   4.3032242119612693e-07   -1.4472111822043995e-05
1.093731480984587e-06   4.3032242119612693e-07   -1.4472111822043995e-05
1.093731480984587e-06   4.3032242119612693e-07   -1.4472111822043995e-05
1.093731480984587e-06   4.3032242119612693e-07   -1.4472111822043995e-05
2.9555204165976345e-06   -2.0411102121052193e-06   -2.390511634797781e-05
2.9555204165976345e-06   -2.0411102121052193e-06   -2.390511634797781e-05
2.9555204165976345e-06   -2.0411102121052193e-06   -2.390511634797781e-05
2.9555204165976345e-06   -2.0411102121052193e-06   -2.390511634797781e-05
-3.630026368355244e-06   1.5429570646091975e-06   -1.5079645405751177e-05
-3.630026368355244e-06   1.5429570646091975e-06   -1.5079645405751177e-05
-3.630026368355244e-06   1.5429570646091975e-06   -1.5079645405751177e-05
-3.630026368355244e-06   1.5429570646091975e-06   -1.5079645405751177e-05
-8.684953027960233e-07   -6.29783079324946e-07   -1.8378553095323386e-05
-8.684953027960233e-07   -6.29783079324946e-07   -1.8378553095323386e-05
-8.684953027960233e-07   -6.29783079324946e-07   -1.8378553095323386e-05
-8.684953027960233e-07   -6.29783079324946e-07   -1.8378553095323386e-05
-3.630026368355244e-06   -2.0411102121052193e-06   -2.6055556714006255e-05
-3.630026368355244e-06   -2.0411102121052193e-06   -2.6055556714006255e-05
-3.630026368355244e-06   -2.0411102121052193e-06   -2.6055556714006255e-05
-3.630026368355244e-06   -2.0411102121052193e-06   -2.6055556714006255e-05
2.9555204165976345e-06   1.5429570646091975e-06   -1.2929205039722896e-05
2.9555204165976345e-06   1.5429570646091975e-06   -1.2929205039722896e-05
2.9555204165976345e-06   1.5429570646091975e-06   -1.2929205039722896e-05
2.9555204165976345e-06   1.5429570646091975e-06   -1.2929205039722896e-05
4.42549189163166e-06   -1.3419909062548085e-06   -2.5210916655723885e-05
4.42549189163166e-06   -1.3419909062548085e-06   -2.5210916655723885e-05
4.42549189163166e-06   -1.3419909062548085e-06   -2.5210916655723885e-05
4.42549189163166e-06   -1.3419909062548085e-06   -2.5210916655723885e-05
-3.10565330346824e-06   2.168852055751567e-06   -1.4765513774427623e-05
-3.10565330346824e-06   2.168852055751567e-06   -1.4765513774427623e-05
-3.10565330346824e-06   2.168852055751567e-06   -1.4765513774427623e-05
-3.10565330346824e-06   2.168852055751567e-06   -1.4765513774427623e-05
7.719697237969046e-08   -9.730665156016532e-08   -1.871056900978722e-05
7.719697237969046e-08   -9.730665156016532e-08   -1.871056900978722e-05
7.719697237969046e-08   -9.730665156016532e-08   -1.871056900978722e-05
7.719697237969046e-08   -9.730665156016532e-08   -1.871056900978722e-05
-3.1056533034682266e-06   -1.3419909062548085e-06   -2.7317422432927623e-05
-3.1056533034682266e-06   -1.3419909062548085e-06   -2.7317422432927623e-05
-3.1056533034682266e-06   -1.3419909062548085e-06   -2.7317422432927623e-05
-3.1056533034682266e-06   -1.3419909062548085e-06   -2.7317422432927623e-05
4.42549189163166e-06   2.168852055751567e-06   -1.2659007997223911e-05
4.42549189163166e-06   2.168852055751567e-06   -1.2659007997223911e-05
4.42549189163166e-06   2.168852055751567e-06   -1.2659007997223911e-05
4.42549189163166e-06   2.168852055751567e-06   -1.2659007997223911e-05
6.279739805539378e-06   3.3051197831325194e-08   -2.824528726493757e-05
6.279739805539378e-06   3.3051197831325194e-08   -2.824528726493757e-05
6.279739805539378e-06   3.3051197831325194e-08   -2.824528726493757e-05
6.279739805539378e-06   3.3051197831325194e-08   -2.824528726493757e-05
-2.739434182206466e-06   3.279504714055184e-06   -1.5161202728428526e-05
-2.739434182206466e-06   3.279504714055184e-06   -1.5161202728428526e-05
-2.739434182206466e-06   3.279504714055184e-06   -1.5161202728428526e-05
-2.739434182206466e-06   3.279504714055184e-06   -1.5161202728428526e-05
8.89044962555439e-07   5.111935871132678e-07   -1.9547681293533492e-05
8.89044962555439e-07   5.111935871132678e-07   -1.9547681293533492e-05
8.89044962555439e-07   5.111935871132678e-07   -1.9547681293533492e-05
8.89044962555439e-07   5.111935871132678e-07   -1.9547681293533492e-05
-1.1892297405920367e-05   2.237426853992459e-06   -2.129508885682929e-05
-1.1892297405920367e-05   2.237426853992459e-06   -2.129508885682929e-05
-1.1892297405920367e-05   2.237426853992459e-06   -2.129508885682929e-05
-1.1892297405920367e-05   2.237426853992459e-06   -2.129508885682929e-05
-1.2033539103444501e-05   -1.0377812720140534e-06   -2.3495616561640398e-05
-1.2033539103444501e-05   -1.0377812720140534e-06   -2.3495616561640398e-05
-1.2033539103444501e-05   -1.0377812720140534e-06   -2.3495616561640398e-05
-1.2033539103444501e-05   -1.0377812720140534e-06   -2.3495616561640398e-05
-1.1429715954458183e-05   3.4826575195290223e-06   -2.000782969456159e-05
-1.1429715954458183e-05   3.4826575195290223e-06   -2.000782969456159e-05
-1.1429715954458183e-05   3.4826575195290223e-06   -2.000782969456159e-05
-1.1429715954458183e-05   3.4826575195290223e-06   -2.000782969456159e-05
-9.818028698279138e-06   -3.0072661962639996e-08   -2.05863370126313e-05
-9.818028698279138e-06   -3.0072661962639996e-08   -2.05863370126313e-05
-9.818028698279138e-06   -3.0072661962639996e-08   -2.05863370126313e-05
-9.818028698279138e-06   -3.0072661962639996e-08   -2.05863370126313e-05
-1.0799694545313192e-05   1.5402244473274387e-06   -1.9892405533149466e-05
-1.0799694545313192e-05   1.5402244473274387e-06   -1.9892405533149466e-05
-1.0799694545313192e-05   1.5402244473274387e-06   -1.9892405533149466e-05
-1.0799694545313192e-05   1.5402244473274387e-06   -1.9892405533149466e-05
-9.818028698279138e-06   3.4826575195290223e-06   -1.790019158566644e-05
-9.818028698279138e-06   3.4826575195290223e-06   -1.790019158566644e-05
-9.818028698279138e-06   3.4826575195290223e-06   -1.790019158566644e-05
-9.818028698279138e-06   3.4826575195290223e-06   -1.790019158566644e-05
-1.1429715954458183e-05   -3.0072661962639996e-08   -2.2693975121526502e-05
-1.1429715954458183e-05   -3.0072661962639996e-08   -2.2693975121526502e-05
-1.1429715954458183e-05   -3.0072661962639996e-08   -2.2693975121526502e-05
-1.1429715954458183e-05   -3.0072661962639996e-08   -2.2693975121526502e-05
-1.06682521897492e-05   4.111507952967233e-06   -1.8567583559797422e-05
-1.06682521897492e-05   4.111507952967233e-06   -1.8567583559797422e-05
-1.06682521897492e-05   4.111507952967233e-06   -1.8567583559797422e-05
-1.06682521897492e-05   4.111507952967233e-06   -1.8567583559797422e-05
-8.102088360716867e-06   5.396253873160735e-07   -2.070139373546039e-05
-8.102088360716867e-06   5.396253873160735e-07   -2.070139373546039e-05
-8.102088360716867e-06   5.396253873160735e-07   -2.070139373546039e-05
-8.102088360716867e-06   5.396253873160735e-07   -2.070139373546039e-05
-9.817071594245036e-06   2.05739817511286e-06   -1.875375201892569e-05
-9.817071594245036e-06   2.05739817511286e-06   -1.875375201892569e-05
-9.817071594245036e-06   2.05739817511286e-06   -1.875375201892569e-05
-9.817071594245036e-06   2.05739817511286e-06   -1.875375201892569e-05
-8.102088360716867e-06   4.111507952967233e-06   -1.6424454020406683e-05
-8.102088360716867e-06   4.111507952967233e-06   -1.6424454020406683e-05
-8.102088360716867e-06   4.111507952967233e-06   -1.6424454020406683e-05
-8.102088360716867e-06   4.111507952967233e-06   -1.6424454020406683e-05
-1.06682521897492e-05   5.396253873160735e-07   -2.284452327485113e-05
-1.06682521897492e-05   5.396253873160735e-07   -2.284452327485113e-05
-1.06682521897492e-05   5.396253873160735e-07   -2.284452327485113e-05
-1.06682521897492e-05   5.396253873160735e-07   -2.284452327485113e-05
-1.0073818031240819e-05   5.107486783713453e-06   -1.722768546240632e-05
-1.0073818031240819e-05   5.107486783713453e-06   -1.722768546240632e-05
-1.0073818031240819e-05   5.107486783713453e-06   -1.722768546240632e-05
-1.0073818031240819e-05   5.107486783713453e-06   -1.722768546240632e-05
-5.983454000929719e-06   1.6759718811135919e-06   -2.1986049904697768e-05
-5.983454000929719e-06   1.6759718811135919e-06   -2.1986049904697768e-05
-5.983454000929719e-06   1.6759718811135919e-06   -2.1986049904697768e-05
-5.983454000929719e-06   1.6759718811135919e-06   -2.1986049904697768e-05
-8.58843126243621e-06   2.552576906833569e-06   -1.8170384150952446e-05
-8.58843126243621e-06   2.552576906833569e-06   -1.8170384150952446e-05
-8.58843126243621e-06   2.552576906833569e-06   -1.8170384150952446e-05
-8.58843126243621e-06   2.552576906833569e-06   -1.8170384150952446e-05
-1.2033539103444501e-05   1.2829117416648245e-06   -3.8693892816652766e-05
-1.2033539103444501e-05   1.2829117416648245e-06   -3.8693892816652766e-05
-1.2033539103444501e-05   1.2829117416648245e-06   -3.8693892816652766e-05
-1.2033539103444501e-05   1.2829117416648245e-06   -3.8693892816652766e-05
-1.3850678368310782e-05   -2.2595011092566356e-07   -4.262777536965102e-05
-1.3850678368310782e-05   -2.2595011092566356e-07   -4.262777536965102e-05
-1.3850678368310782e-05   -2.2595011092566356e-07   -4.262777536965102e-05
-1.3850678368310782e-05   -2.2595011092566356e-07   -4.262777536965102e-05
-1.3362400984701442e-05   2.7105969700304353e-06   -3.8723433381666113e-05
-1.3362400984701442e-05   2.7105969700304353e-06   -3.8723433381666113e-05
-1.3362400984701442e-05   2.7105969700304353e-06   -3.8723433381666113e-05
-1.3362400984701442e-05   2.7105969700304353e-06   -3.8723433381666113e-05
-1.1429715954458183e-05   1.0452950518873017e-06   -4.094539394785212e-05
-1.1429715954458183e-05   1.0452950518873017e-06   -4.094539394785212e-05
-1.1429715954458183e-05   1.0452950518873017e-06   -4.094539394785212e-05
-1.1429715954458183e-05   1.0452950518873017e-06   -4.094539394785212e-05
-1.2521480944796667e-05   1.4818897203462342e-06   -3.9387742431697494e-05
-1.2521480944796667e-05   1.4818897203462342e-06   -3.9387742431697494e-05
-1.2521480944796667e-05   1.4818897203462342e-06   -3.9387742431697494e-05
-1.2521480944796667e-05   1.4818897203462342e-06   -3.9387742431697494e-05
-1.1429715954458183e-05   2.7105969700302185e-06   -3.772425223077971e-05
-1.1429715954458183e-05   2.7105969700302185e-06   -3.772425223077971e-05
-1.1429715954458183e-05   2.7105969700302185e-06   -3.772425223077971e-05
-1.1429715954458183e-05   2.7105969700302185e-06   -3.772425223077971e-05
-1.3362400984701442e-05   1.0452950518873017e-06   -4.194457509873787e-05
-1.3362400984701442e-05   1.0452950518873017e-06   -4.194457509873787e-05
-1.3362400984701442e-05   1.0452950518873017e-06   -4.194457509873787e-05
-1.3362400984701442e-05   1.0452950518873017e-06   -4.194457509873787e-05
-1.2854605737304197e-05   4.037865637989595e-06   -3.839889848972233e-05
-1.2854605737304197e-05   4.037865637989595e-06   -3.839889848972233e-05
-1.2854605737304197e-05   4.037865637989595e-06   -3.839889848972233e-05
-1.2854605737304197e-05   4.037865637989595e-06   -3.839889848972233e-05
-1.0668252189749254e-05   2.2689898501616207e-06   -4.0981495596283514e-05
-1.0668252189749254e-05   2.2689898501616207e-06   -4.0981495596283514e-05
-1.0668252189749254e-05   2.2689898501616207e-06   -4.0981495596283514e-05
-1.0668252189749254e-05   2.2689898501616207e-06   -4.0981495596283514e-05
-1.2032162072414784e-05   2.5064739397067e-06   -3.885080291223485e-05
-1.2032162072414784e-05   2.5064739397067e-06   -3.885080291223485e-05
-1.2032162072414784e-05   2.5064739397067e-06   -3.885080291223485e-05
-1.2032162072414784e-05   2.5064739397067e-06   -3.885080291223485e-05
-1.06682521897492e-05   4.037865637989812e-06   -3.733757301702535e-05
-1.06682521897492e-05   4.037865637989812e-06   -3.733757301702535e-05
-1.06682521897492e-05   4.037865637989812e-06   -3.733757301702535e-05
-1.06682521897492e-05   4.037865637989812e-06   -3.733757301702535e-05
-1.285460573730417e-05   2.268989850161404e-06   -4.204282106898044e-05
-1.285460573730417e-05   2.268989850161404e-06   -4.204282106898044e-05
-1.285460573730417e-05   2.268989850161404e-06   -4.204282106898044e-05
-1.285460573730417e-05   2.268989850161404e-06   -4.204282106898044e-05
-1.2376214573907204e-05   5.512440317240403e-06   -3.903474737627986e-05
-1.2376214573907204e-05   5.512440317240403e-06   -3.903474737627986e-05
-1.2376214573907204e-05   5.512440317240403e-06   -3.903474737627986e-05
-1.2376214573907204e-05   5.512440317240403e-06   -3.903474737627986e-05
-1.0073818031240819e-05   3.6660803661373986e-06   -4.176425897672859e-05
-1.0073818031240819e-05   3.6660803661373986e-06   -4.176425897672859e-05
-1.0073818031240819e-05   3.6660803661373986e-06   -4.176425897672859e-05
-1.0073818031240819e-05   3.6660803661373986e-06   -4.176425897672859e-05
-1.160148839408082e-05   3.5809938233825195e-06   -3.916708977967577e-05
-1.160148839408082e-05   3.5809938233825195e-06   -3.916708977967577e-05
-1.160148839408082e-05   3.5809938233825195e-06   -3.916708977967577e-05
-1.160148839408082e-05   3.5809938233825195e-06   -3.916708977967577e-05
-1.3850678368310755e-05   7.341805351641396e-07   -4.505809294622792e-05
-1.3850678368310755e-05   7.341805351641396e-07   -4.505809294622792e-05
-1.3850678368310755e-05   7.341805351641396e-07   -4.505809294622792e-05
-1.3850678368310755e-05   7.341805351641396e-07   -4.505809294622792e-05
-1.576609781449388e-05   1.0526362402333254e-06   -4.8059385266825206e-05
-1.576609781449388e-05   1.0526362402333254e-06   -4.8059385266825206e-05
-1.576609781449388e-05   1.0526362402333254e-06   -4.8059385266825206e-05
-1.576609781449388e-05   1.0526362402333254e-06   -4.8059385266825206e-05
-1.528614346497296e-05   2.1880184886931883e-06   -4.436446404484798e-05
-1.528614346497296e-05   2.1880184886931883e-06   -4.436446404484798e-05
-1.528614346497296e-05   2.1880184886931883e-06   -4.436446404484798e-05
-1.528614346497296e-05   2.1880184886931883e-06   -4.436446404484798e-05
-1.3362400984701442e-05   2.3662756412454623e-06   -4.767765580349851e-05
-1.3362400984701442e-05   2.3662756412454623e-06   -4.767765580349851e-05
-1.3362400984701442e-05   2.3662756412454623e-06   -4.767765580349851e-05
-1.3362400984701442e-05   2.3662756412454623e-06   -4.767765580349851e-05
-1.4478652398373308e-05   1.7897943789984324e-06   -4.5471348023364466e-05
-1.4478652398373308e-05   1.7897943789984324e-06   -4.5471348023364466e-05
-1.4478652398373308e-05   1.7897943789984324e-06   -4.5471348023364466e-05
-1.4478652398373308e-05   1.7897943789984324e-06   -4.5471348023364466e-05
-1.3362400984701415e-05   2.1880184886931883e-06   -4.447141833637935e-05
-1.3362400984701415e-05   2.1880184886931883e-06   -4.447141833637935e-05
-1.3362400984701415e-05   2.1880184886931883e-06   -4.447141833637935e-05
-1.3362400984701415e-05   2.1880184886931883e-06   -4.447141833637935e-05
-1.5286143464972984e-05   2.3662756412454623e-06   -4.7570701511967365e-05
-1.5286143464972984e-05   2.3662756412454623e-06   -4.7570701511967365e-05
-1.5286143464972984e-05   2.3662756412454623e-06   -4.7570701511967365e-05
-1.5286143464972984e-05   2.3662756412454623e-06   -4.7570701511967365e-05
-1.4781479528161553e-05   3.6546058073546554e-06   -4.449346107153018e-05
-1.4781479528161553e-05   3.6546058073546554e-06   -4.449346107153018e-05
-1.4781479528161553e-05   3.6546058073546554e-06   -4.449346107153018e-05
-1.4781479528161553e-05   3.6546058073546554e-06   -4.449346107153018e-05
-1.2854605737304197e-05   3.7088401778065036e-06   -4.773745801189678e-05
-1.2854605737304197e-05   3.7088401778065036e-06   -4.773745801189678e-05
-1.2854605737304197e-05   3.7088401778065036e-06   -4.773745801189678e-05
-1.2854605737304197e-05   3.7088401778065036e-06   -4.773745801189678e-05
-1.4075676957774837e-05   2.9133229280180976e-06   -4.522502896123985e-05
-1.4075676957774837e-05   2.9133229280180976e-06   -4.522502896123985e-05
-1.4075676957774837e-05   2.9133229280180976e-06   -4.522502896123985e-05
-1.4075676957774837e-05   2.9133229280180976e-06   -4.522502896123985e-05
-1.285460573730417e-05   3.6546058073546554e-06   -4.4526001693801377e-05
-1.285460573730417e-05   3.6546058073546554e-06   -4.4526001693801377e-05
-1.285460573730417e-05   3.6546058073546554e-06   -4.4526001693801377e-05
-1.285460573730417e-05   3.6546058073546554e-06   -4.4526001693801377e-05
-1.4781479528161553e-05   3.7088401778065036e-06   -4.7704917389625504e-05
-1.4781479528161553e-05   3.7088401778065036e-06   -4.7704917389625504e-05
-1.4781479528161553e-05   3.7088401778065036e-06   -4.7704917389625504e-05
-1.4781479528161553e-05   3.7088401778065036e-06   -4.7704917389625504e-05
-1.4305476536633973e-05   5.143311102988194e-06   -4.535704796350057e-05
-1.4305476536633973e-05   5.143311102988194e-06   -4.535704796350057e-05
-1.4305476536633973e-05   5.143311102988194e-06   -4.535704796350057e-05
-1.4305476536633973e-05   5.143311102988194e-06   -4.535704796350057e-05
-1.2376214573907204e-05   5.069962276289591e-06   -4.852847527202599e-05
-1.2376214573907204e-05   5.069962276289591e-06   -4.852847527202599e-05
-1.2376214573907204e-05   5.069962276289591e-06   -4.852847527202599e-05
-1.2376214573907204e-05   5.069962276289591e-06   -4.852847527202599e-05
-1.3704652575358476e-05   4.052562781503739e-06   -4.5703972239402314e-05
-1.3704652575358476e-05   4.052562781503739e-06   -4.5703972239402314e-05
-1.3704652575358476e-05   4.052562781503739e-06   -4.5703972239402314e-05
-1.3704652575358476e-05   4.052562781503739e-06   -4.5703972239402314e-05
-1.5766097814493827e-05   3.1188466372250416e-07   -3.8874706769395444e-05
-1.5766097814493827e-05   3.1188466372250416e-07   -3.8874706769395444e-05
-1.5766097814493827e-05   3.1188466372250416e-07   -3.8874706769395444e-05
-1.5766097814493827e-05   3.1188466372250416e-07   -3.8874706769395444e-05
-1.778730795743837e-05   2.340248838868979e-06   -4.102637183588196e-05
-1.778730795743837e-05   2.340248838868979e-06   -4.102637183588196e-05
-1.778730795743837e-05   2.340248838868979e-06   -4.102637183588196e-05
-1.778730795743837e-05   2.340248838868979e-06   -4.102637183588196e-05
-1.7206844355306306e-05   1.719943515621821e-06   -3.716694179473382e-05
-1.7206844355306306e-05   1.719943515621821e-06   -3.716694179473382e-05
-1.7206844355306306e-05   1.719943515621821e-06   -3.716694179473382e-05
-1.7206844355306306e-05   1.719943515621821e-06   -3.716694179473382e-05
-1.528614346497296e-05   3.6581655741847047e-06   -4.1531043180426736e-05
-1.528614346497296e-05   3.6581655741847047e-06   -4.1531043180426736e-05
-1.528614346497296e-05   3.6581655741847047e-06   -4.1531043180426736e-05
-1.528614346497296e-05   3.6581655741847047e-06   -4.1531043180426736e-05
-1.6384029688275822e-05   2.15449213348878e-06   -3.879902874383863e-05
-1.6384029688275822e-05   2.15449213348878e-06   -3.879902874383863e-05
-1.6384029688275822e-05   2.15449213348878e-06   -3.879902874383863e-05
-1.6384029688275822e-05   2.15449213348878e-06   -3.879902874383863e-05
-1.5286143464972933e-05   1.719943515621821e-06   -3.832987502987151e-05
-1.5286143464972933e-05   1.719943515621821e-06   -3.832987502987151e-05
-1.5286143464972933e-05   1.719943515621821e-06   -3.832987502987151e-05
-1.5286143464972933e-05   1.719943515621821e-06   -3.832987502987151e-05
-1.7206844355306306e-05   3.6581655741847047e-06   -4.036810994528946e-05
-1.7206844355306306e-05   3.6581655741847047e-06   -4.036810994528946e-05
-1.7206844355306306e-05   3.6581655741847047e-06   -4.036810994528946e-05
-1.7206844355306306e-05   3.6581655741847047e-06   -4.036810994528946e-05
-1.6457326201922863e-05   3.0470484614279585e-06   -3.7328719477022114e-05
-1.6457326201922863e-05   3.0470484614279585e-06   -3.7328719477022114e-05
-1.6457326201922863e-05   3.0470484614279585e-06   -3.7328719477022114e-05
-1.6457326201922863e-05   3.0470484614279585e-06   -3.7328719477022114e-05
-1.478147952816153e-05   4.8741570798846705e-06   -4.121806243769815e-05
-1.478147952816153e-05   4.8741570798846705e-06   -4.121806243769815e-05
-1.478147952816153e-05   4.8741570798846705e-06   -4.121806243769815e-05
-1.478147952816153e-05   4.8741570798846705e-06   -4.121806243769815e-05
-1.586530531225402e-05   3.199932501471176e-06   -3.840715138382972e-05
-1.586530531225402e-05   3.199932501471176e-06   -3.840715138382972e-05
-1.586530531225402e-05   3.199932501471176e-06   -3.840715138382972e-05
-1.586530531225402e-05   3.199932501471176e-06   -3.840715138382972e-05
-1.478147952816149e-05   3.0470484614279585e-06   -3.8424984648095816e-05
-1.478147952816149e-05   3.0470484614279585e-06   -3.8424984648095816e-05
-1.478147952816149e-05   3.0470484614279585e-06   -3.8424984648095816e-05
-1.478147952816149e-05   3.0470484614279585e-06   -3.8424984648095816e-05
-1.645732620192289e-05   4.8741570798846705e-06   -4.01217972666242e-05
-1.645732620192289e-05   4.8741570798846705e-06   -4.01217972666242e-05
-1.645732620192289e-05   4.8741570798846705e-06   -4.01217972666242e-05
-1.645732620192289e-05   4.8741570798846705e-06   -4.01217972666242e-05
-1.5868352916061546e-05   4.547932716822325e-06   -3.8364104231396775e-05
-1.5868352916061546e-05   4.547932716822325e-06   -3.8364104231396775e-05
-1.5868352916061546e-05   4.547932716822325e-06   -3.8364104231396775e-05
-1.5868352916061546e-05   4.547932716822325e-06   -3.8364104231396775e-05
-1.4305476536633973e-05   6.2372132474737985e-06   -4.198246651550017e-05
-1.4305476536633973e-05   6.2372132474737985e-06   -4.198246651550017e-05
-1.4305476536633973e-05   6.2372132474737985e-06   -4.198246651550017e-05
-1.4305476536633973e-05   6.2372132474737985e-06   -4.198246651550017e-05
-1.5476257963417292e-05   4.268617995557052e-06   -3.885000698637752e-05
-1.5476257963417292e-05   4.268617995557052e-06   -3.885000698637752e-05
-1.5476257963417292e-05   4.268617995557052e-06   -3.885000698637752e-05
-1.5476257963417292e-05   4.268617995557052e-06   -3.885000698637752e-05
-1.7787307957438316e-05   4.3032242119612693e-07   -2.0721262094591493e-05
-1.7787307957438316e-05   4.3032242119612693e-07   -2.0721262094591493e-05
-1.7787307957438316e-05   4.3032242119612693e-07   -2.0721262094591493e-05
-1.7787307957438316e-05   4.3032242119612693e-07   -2.0721262094591493e-05
-2.1530745462929198e-05   3.931443586625751e-06   -2.4859651904485377e-05
-2.1530745462929198e-05   3.931443586625751e-06   -2.4859651904485377e-05
-2.1530745462929198e-05   3.931443586625751e-06   -2.4859651904485377e-05
-2.1530745462929198e-05   3.931443586625751e-06   -2.4859651904485377e-05
-1.9473062053260528e-05   1.5429570646091975e-06   -1.7089990963712752e-05
-1.9473062053260528e-05   1.5429570646091975e-06   -1.7089990963712752e-05
-1.9473062053260528e-05   1.5429570646091975e-06   -1.7089990963712752e-05
-1.9473062053260528e-05   1.5429570646091975e-06   -1.7089990963712752e-05
-1.7206844355306292e-05   5.125994031978396e-06   -2.3016842640724284e-05
-1.7206844355306292e-05   5.125994031978396e-06   -2.3016842640724284e-05
-1.7206844355306292e-05   5.125994031978396e-06   -2.3016842640724284e-05
-1.7206844355306292e-05   5.125994031978396e-06   -2.3016842640724284e-05
-1.8230532864460144e-05   2.902554182830641e-06   -1.997663121597982e-05
-1.8230532864460144e-05   2.902554182830641e-06   -1.997663121597982e-05
-1.8230532864460144e-05   2.902554182830641e-06   -1.997663121597982e-05
-1.8230532864460144e-05   2.902554182830641e-06   -1.997663121597982e-05
-1.7206844355306238e-05   1.5429570646094144e-06   -1.9239813144133837e-05
-1.7206844355306238e-05   1.5429570646094144e-06   -1.9239813144133837e-05
-1.7206844355306238e-05   1.5429570646094144e-06   -1.9239813144133837e-05
-1.7206844355306238e-05   1.5429570646094144e-06   -1.9239813144133837e-05
-1.94730620532605e-05   5.125994031978179e-06   -2.086702046030309e-05
-1.94730620532605e-05   5.125994031978179e-06   -2.086702046030309e-05
-1.94730620532605e-05   5.125994031978179e-06   -2.086702046030309e-05
-1.94730620532605e-05   5.125994031978179e-06   -2.086702046030309e-05
-1.7799424036261735e-05   2.1688520557513503e-06   -1.6813008064041042e-05
-1.7799424036261735e-05   2.1688520557513503e-06   -1.6813008064041042e-05
-1.7799424036261735e-05   2.1688520557513503e-06   -1.6813008064041042e-05
-1.7799424036261735e-05   2.1688520557513503e-06   -1.6813008064041042e-05
-1.6457326201922863e-05   5.6729683562692715e-06   -2.115230756824979e-05
-1.6457326201922863e-05   5.6729683562692715e-06   -2.115230756824979e-05
-1.6457326201922863e-05   5.6729683562692715e-06   -2.115230756824979e-05
-1.6457326201922863e-05   5.6729683562692715e-06   -2.115230756824979e-05
-1.735087077996902e-05   3.4552881941038623e-06   -1.8332458507540664e-05
-1.735087077996902e-05   3.4552881941038623e-06   -1.8332458507540664e-05
-1.735087077996902e-05   3.4552881941038623e-06   -1.8332458507540664e-05
-1.735087077996902e-05   3.4552881941038623e-06   -1.8332458507540664e-05
-1.6457326201922836e-05   2.1688520557513503e-06   -1.8915477844351752e-05
-1.6457326201922836e-05   2.1688520557513503e-06   -1.8915477844351752e-05
-1.6457326201922836e-05   2.1688520557513503e-06   -1.8915477844351752e-05
-1.6457326201922836e-05   2.1688520557513503e-06   -1.8915477844351752e-05
-1.7799424036261735e-05   5.672968356269488e-06   -1.9049837787939e-05
-1.7799424036261735e-05   5.672968356269488e-06   -1.9049837787939e-05
-1.7799424036261735e-05   5.672968356269488e-06   -1.9049837787939e-05
-1.7799424036261735e-05   5.672968356269488e-06   -1.9049837787939e-05
-1.575313998026544e-05   3.2795047140554007e-06   -1.7347952169590808e-05
-1.575313998026544e-05   3.2795047140554007e-06   -1.7347952169590808e-05
-1.575313998026544e-05   3.2795047140554007e-06   -1.7347952169590808e-05
-1.575313998026544e-05   3.2795047140554007e-06   -1.7347952169590808e-05
-1.5868352916061532e-05   6.521256267345236e-06   -1.910098154190429e-05
-1.5868352916061532e-05   6.521256267345236e-06   -1.910098154190429e-05
-1.5868352916061532e-05   6.521256267345236e-06   -1.910098154190429e-05
-1.5868352916061532e-05   6.521256267345236e-06   -1.910098154190429e-05
-1.6059216983251296e-05   3.90262725875239e-06   -1.7211697358098888e-05
-1.6059216983251296e-05   3.90262725875239e-06   -1.7211697358098888e-05
-1.6059216983251296e-05   3.90262725875239e-06   -1.7211697358098888e-05
-1.6059216983251296e-05   3.90262725875239e-06   -1.7211697358098888e-05
1.048631591608998e-05   -1.0377812720142703e-06   -1.0799487338763233e-05
1.048631591608998e-05   -1.0377812720142703e-06   -1.0799487338763233e-05
1.048631591608998e-05   -1.0377812720142703e-06   -1.0799487338763233e-05
1.048631591608998e-05   -1.0377812720142703e-06   -1.0799487338763233e-05
1.0725096570658103e-06   -4.373077681222356e-06   -2.8490342282661463e-05
1.0725096570658103e-06   -4.373077681222356e-06   -2.8490342282661463e-05
1.0725096570658103e-06   -4.373077681222356e-06   -2.8490342282661463e-05
1.0725096570658103e-06   -4.373077681222356e-06   -2.8490342282661463e-05
1.9005923646340617e-06   -3.0072661962856836e-08   -1.1927089244714384e-05
1.9005923646340617e-06   -3.0072661962856836e-08   -1.1927089244714384e-05
1.9005923646340617e-06   -3.0072661962856836e-08   -1.1927089244714384e-05
1.9005923646340617e-06   -3.0072661962856836e-08   -1.1927089244714384e-05
1.279610558707373e-05   -3.5932700763064568e-06   -2.7948359500174175e-05
1.279610558707373e-05   -3.5932700763064568e-06   -2.7948359500174175e-05
1.279610558707373e-05   -3.5932700763064568e-06   -2.7948359500174175e-05
1.279610558707373e-05   -3.5932700763064568e-06   -2.7948359500174175e-05
6.319543495910676e-06   -1.8238434318050556e-06   -1.8215745334936593e-05
6.319543495910676e-06   -1.8238434318050556e-06   -1.8215745334936593e-05
6.319543495910676e-06   -1.8238434318050556e-06   -1.8215745334936593e-05
6.319543495910676e-06   -1.8238434318050556e-06   -1.8215745334936593e-05
1.2796105587073784e-05   -3.0072661962856836e-08   -9.789170796108007e-06
1.2796105587073784e-05   -3.0072661962856836e-08   -9.789170796108007e-06
1.2796105587073784e-05   -3.0072661962856836e-08   -9.789170796108007e-06
1.2796105587073784e-05   -3.0072661962856836e-08   -9.789170796108007e-06
1.9005923646341159e-06   -3.5932700763068905e-06   -3.0086277948780768e-05
1.9005923646341159e-06   -3.5932700763068905e-06   -3.0086277948780768e-05
1.9005923646341159e-06   -3.5932700763068905e-06   -3.0086277948780768e-05
1.9005923646341159e-06   -3.5932700763068905e-06   -3.0086277948780768e-05
2.8765694130799104e-06   5.396253873160735e-07   -1.2017130721761558e-05
2.8765694130799104e-06   5.396253873160735e-07   -1.2017130721761558e-05
2.8765694130799104e-06   5.396253873160735e-07   -1.2017130721761558e-05
2.8765694130799104e-06   5.396253873160735e-07   -1.2017130721761558e-05
1.4749125174241947e-05   -3.073802186270673e-06   -2.963666711287957e-05
1.4749125174241947e-05   -3.073802186270673e-06   -2.963666711287957e-05
1.4749125174241947e-05   -3.073802186270673e-06   -2.963666711287957e-05
1.4749125174241947e-05   -3.073802186270673e-06   -2.963666711287957e-05
7.785168063419255e-06   -1.4597195846528105e-06   -1.899852148914635e-05
7.785168063419255e-06   -1.4597195846528105e-06   -1.899852148914635e-05
7.785168063419255e-06   -1.4597195846528105e-06   -1.899852148914635e-05
7.785168063419255e-06   -1.4597195846528105e-06   -1.899852148914635e-05
1.4749125174242002e-05   5.396253873160735e-07   -9.849074177609727e-06
1.4749125174242002e-05   5.396253873160735e-07   -9.849074177609727e-06
1.4749125174242002e-05   5.396253873160735e-07   -9.849074177609727e-06
1.4749125174242002e-05   5.396253873160735e-07   -9.849074177609727e-06
2.876569413079856e-06   -3.0738021862702393e-06   -3.180472365703162e-05
2.876569413079856e-06   -3.0738021862702393e-06   -3.180472365703162e-05
2.876569413079856e-06   -3.0738021862702393e-06   -3.180472365703162e-05
2.876569413079856e-06   -3.0738021862702393e-06   -3.180472365703162e-05
3.6804862939159347e-06   1.6759718811135919e-06   -1.3164142888558812e-05
3.6804862939159347e-06   1.6759718811135919e-06   -1.3164142888558812e-05
3.6804862939159347e-06   1.6759718811135919e-06   -1.3164142888558812e-05
3.6804862939159347e-06   1.6759718811135919e-06   -1.3164142888558812e-05
1.709513667872201e-05   -1.7644666828026644e-06   -3.3457630391552735e-05
1.709513667872201e-05   -1.7644666828026644e-06   -3.3457630391552735e-05
1.709513667872201e-05   -1.7644666828026644e-06   -3.3457630391552735e-05
1.709513667872201e-05   -1.7644666828026644e-06   -3.3457630391552735e-05
8.95222756698219e-06   -9.25374827419681e-07   -2.0389570318550304e-05
8.95222756698219e-06   -9.25374827419681e-07   -2.0389570318550304e-05
8.95222756698219e-06   -9.25374827419681e-07   -2.0389570318550304e-05
8.95222756698219e-06   -9.25374827419681e-07   -2.0389570318550304e-05
1.0725096570657561e-06   -2.2595011092566356e-07   -3.102750688074407e-05
1.0725096570657561e-06   -2.2595011092566356e-07   -3.102750688074407e-05
1.0725096570657561e-06   -2.2595011092566356e-07   -3.102750688074407e-05
1.0725096570657561e-06   -2.2595011092566356e-07   -3.102750688074407e-05
-9.921127823106458e-06   -1.7314809382332902e-06   -5.025355451074927e-05
-9.921127823106458e-06   -1.7314809382332902e-06   -5.025355451074927e-05
-9.921127823106458e-06   -1.7314809382332902e-06   -5.025355451074927e-05
-9.921127823106458e-06   -1.7314809382332902e-06   -5.025355451074927e-05
-9.194387216901467e-06   1.0452950518873017e-06   -3.1203364700938116e-05
-9.194387216901467e-06   1.0452950518873017e-06   -3.1203364700938116e-05
-9.194387216901467e-06   1.0452950518873017e-06   -3.1203364700938116e-05
-9.194387216901467e-06   1.0452950518873017e-06   -3.1203364700938116e-05
1.9005923646341159e-06   -6.627993312758804e-07   -4.8670140706932766e-05
1.9005923646341159e-06   -6.627993312758804e-07   -4.8670140706932766e-05
1.9005923646341159e-06   -6.627993312758804e-07   -4.8670140706932766e-05
1.9005923646341159e-06   -6.627993312758804e-07   -4.8670140706932766e-05
-3.942222563330013e-06   -6.664298131354648e-08   -3.9289809636969904e-05
-3.942222563330013e-06   -6.664298131354648e-08   -3.9289809636969904e-05
-3.942222563330013e-06   -6.664298131354648e-08   -3.9289809636969904e-05
-3.942222563330013e-06   -6.664298131354648e-08   -3.9289809636969904e-05
1.9005923646341159e-06   1.0452950518873017e-06   -3.017850807103973e-05
1.9005923646341159e-06   1.0452950518873017e-06   -3.017850807103973e-05
1.9005923646341159e-06   1.0452950518873017e-06   -3.017850807103973e-05
1.9005923646341159e-06   1.0452950518873017e-06   -3.017850807103973e-05
-9.194387216901467e-06   -6.627993312758804e-07   -4.9694997336830935e-05
-9.194387216901467e-06   -6.627993312758804e-07   -4.9694997336830935e-05
-9.194387216901467e-06   -6.627993312758804e-07   -4.9694997336830935e-05
-9.194387216901467e-06   -6.627993312758804e-07   -4.9694997336830935e-05
-8.46351707878447e-06   2.268989850161404e-06   -3.125023998966966e-05
-8.46351707878447e-06   2.268989850161404e-06   -3.125023998966966e-05
-8.46351707878447e-06   2.268989850161404e-06   -3.125023998966966e-05
-8.46351707878447e-06   2.268989850161404e-06   -3.125023998966966e-05
2.8765694130799104e-06   4.420949393678028e-07   -4.905424719630101e-05
2.8765694130799104e-06   4.420949393678028e-07   -4.905424719630101e-05
2.8765694130799104e-06   4.420949393678028e-07   -4.905424719630101e-05
2.8765694130799104e-06   4.420949393678028e-07   -4.905424719630101e-05
-3.29829784226464e-06   8.107977554697166e-07   -3.898402346038776e-05
-3.29829784226464e-06   8.107977554697166e-07   -3.898402346038776e-05
-3.29829784226464e-06   8.107977554697166e-07   -3.898402346038776e-05
-3.29829784226464e-06   8.107977554697166e-07   -3.898402346038776e-05
2.8765694130799104e-06   2.2689898501616207e-06   -3.015410304319367e-05
2.8765694130799104e-06   2.2689898501616207e-06   -3.015410304319367e-05
2.8765694130799104e-06   2.2689898501616207e-06   -3.015410304319367e-05
2.8765694130799104e-06   2.2689898501616207e-06   -3.015410304319367e-05
-8.46351707878447e-06   4.420949393678028e-07   -5.0150384142777266e-05
-8.46351707878447e-06   4.420949393678028e-07   -5.0150384142777266e-05
-8.46351707878447e-06   4.420949393678028e-07   -5.0150384142777266e-05
-8.46351707878447e-06   4.420949393678028e-07   -5.0150384142777266e-05
-7.765060194535247e-06   3.6660803661373986e-06   -3.203288368189045e-05
-7.765060194535247e-06   3.6660803661373986e-06   -3.203288368189045e-05
-7.765060194535247e-06   3.6660803661373986e-06   -3.203288368189045e-05
-7.765060194535247e-06   3.6660803661373986e-06   -3.203288368189045e-05
3.6804862939159347e-06   1.7503459280362316e-06   -4.995935383311518e-05
3.6804862939159347e-06   1.7503459280362316e-06   -4.995935383311518e-05
3.6804862939159347e-06   1.7503459280362316e-06   -4.995935383311518e-05
3.6804862939159347e-06   1.7503459280362316e-06   -4.995935383311518e-05
-2.5815219005360202e-06   1.783208214257894e-06   -3.9542390880762215e-05
-2.5815219005360202e-06   1.783208214257894e-06   -3.9542390880762215e-05
-2.5815219005360202e-06   1.783208214257894e-06   -3.9542390880762215e-05
-2.5815219005360202e-06   1.783208214257894e-06   -3.9542390880762215e-05
-9.921127823106485e-06   1.0526362402335423e-06   -3.755350869734451e-05
-9.921127823106485e-06   1.0526362402335423e-06   -3.755350869734451e-05
-9.921127823106485e-06   1.0526362402335423e-06   -3.755350869734451e-05
-9.921127823106485e-06   1.0526362402335423e-06   -3.755350869734451e-05
-2.08199787348272e-05   1.3270317875432695e-06   -5.555362288849281e-05
-2.08199787348272e-05   1.3270317875432695e-06   -5.555362288849281e-05
-2.08199787348272e-05   1.3270317875432695e-06   -5.555362288849281e-05
-2.08199787348272e-05   1.3270317875432695e-06   -5.555362288849281e-05
-2.008799361322901e-05   2.3662756412454623e-06   -3.688175426992289e-05
-2.008799361322901e-05   2.3662756412454623e-06   -3.688175426992289e-05
-2.008799361322901e-05   2.3662756412454623e-06   -3.688175426992289e-05
-2.008799361322901e-05   2.3662756412454623e-06   -3.688175426992289e-05
-9.194387216901467e-06   2.457427534205067e-06   -5.5092456066244523e-05
-9.194387216901467e-06   2.457427534205067e-06   -5.5092456066244523e-05
-9.194387216901467e-06   2.457427534205067e-06   -5.5092456066244523e-05
-9.194387216901467e-06   2.457427534205067e-06   -5.5092456066244523e-05
-1.4918963716943426e-05   2.0314818490784273e-06   -4.52959278217654e-05
-1.4918963716943426e-05   2.0314818490784273e-06   -4.52959278217654e-05
-1.4918963716943426e-05   2.0314818490784273e-06   -4.52959278217654e-05
-1.4918963716943426e-05   2.0314818490784273e-06   -4.52959278217654e-05
-9.194387216901467e-06   2.3662756412454623e-06   -3.693644540569865e-05
-9.194387216901467e-06   2.3662756412454623e-06   -3.693644540569865e-05
-9.194387216901467e-06   2.3662756412454623e-06   -3.693644540569865e-05
-9.194387216901467e-06   2.3662756412454623e-06   -3.693644540569865e-05
-2.008799361322901e-05   2.457427534205067e-06   -5.503776493046898e-05
-2.008799361322901e-05   2.457427534205067e-06   -5.503776493046898e-05
-2.008799361322901e-05   2.457427534205067e-06   -5.503776493046898e-05
-2.008799361322901e-05   2.457427534205067e-06   -5.503776493046898e-05
-1.934436119063199e-05   3.7088401778065036e-06   -3.697757847422067e-05
-1.934436119063199e-05   3.7088401778065036e-06   -3.697757847422067e-05
-1.934436119063199e-05   3.7088401778065036e-06   -3.697757847422067e-05
-1.934436119063199e-05   3.7088401778065036e-06   -3.697757847422067e-05
-8.463517078784497e-06   3.65433760841612e-06   -5.507961711899857e-05
-8.463517078784497e-06   3.65433760841612e-06   -5.507961711899857e-05
-8.463517078784497e-06   3.65433760841612e-06   -5.507961711899857e-05
-8.463517078784497e-06   3.65433760841612e-06   -5.507961711899857e-05
-1.4274676560402973e-05   3.018009120857746e-06   -4.5012554223766715e-05
-1.4274676560402973e-05   3.018009120857746e-06   -4.5012554223766715e-05
-1.4274676560402973e-05   3.018009120857746e-06   -4.5012554223766715e-05
-1.4274676560402973e-05   3.018009120857746e-06   -4.5012554223766715e-05
-8.463517078784497e-06   3.7088401778065036e-06   -3.6944876932586135e-05
-8.463517078784497e-06   3.7088401778065036e-06   -3.6944876932586135e-05
-8.463517078784497e-06   3.7088401778065036e-06   -3.6944876932586135e-05
-8.463517078784497e-06   3.7088401778065036e-06   -3.6944876932586135e-05
-1.9344361190631948e-05   3.65433760841612e-06   -5.511231866063321e-05
-1.9344361190631948e-05   3.65433760841612e-06   -5.511231866063321e-05
-1.9344361190631948e-05   3.65433760841612e-06   -5.511231866063321e-05
-1.9344361190631948e-05   3.65433760841612e-06   -5.511231866063321e-05
-1.86352417312243e-05   5.069962276289591e-06   -3.780810886375185e-05
-1.86352417312243e-05   5.069962276289591e-06   -3.780810886375185e-05
-1.86352417312243e-05   5.069962276289591e-06   -3.780810886375185e-05
-1.86352417312243e-05   5.069962276289591e-06   -3.780810886375185e-05
-7.765060194535274e-06   4.871920847580088e-06   -5.5806253234341144e-05
-7.765060194535274e-06   4.871920847580088e-06   -5.5806253234341144e-05
-7.765060194535274e-06   4.871920847580088e-06   -5.5806253234341144e-05
-7.765060194535274e-06   4.871920847580088e-06   -5.5806253234341144e-05
-1.3675184929328495e-05   4.019501074198264e-06   -4.544459347899065e-05
-1.3675184929328495e-05   4.019501074198264e-06   -4.544459347899065e-05
-1.3675184929328495e-05   4.019501074198264e-06   -4.544459347899065e-05
-1.3675184929328495e-05   4.019501074198264e-06   -4.544459347899065e-05
-2.0819978734827235e-05   2.340248838868979e-06   -3.1572876443103316e-05
-2.0819978734827235e-05   2.340248838868979e-06   -3.1572876443103316e-05
-2.0819978734827235e-05   2.340248838868979e-06   -3.1572876443103316e-05
-2.0819978734827235e-05   2.340248838868979e-06   -3.1572876443103316e-05
-3.1586570564199625e-05   4.2948539520624475e-06   -4.834443309080787e-05
-3.1586570564199625e-05   4.2948539520624475e-06   -4.834443309080787e-05
-3.1586570564199625e-05   4.2948539520624475e-06   -4.834443309080787e-05
-3.1586570564199625e-05   4.2948539520624475e-06   -4.834443309080787e-05
-3.075040320791706e-05   3.6581655741847047e-06   -2.9736144238359363e-05
-3.075040320791706e-05   3.6581655741847047e-06   -2.9736144238359363e-05
-3.075040320791706e-05   3.6581655741847047e-06   -2.9736144238359363e-05
-3.075040320791706e-05   3.6581655741847047e-06   -2.9736144238359363e-05
-2.008799361322901e-05   5.501418407557069e-06   -4.8612778596196076e-05
-2.008799361322901e-05   5.501418407557069e-06   -4.8612778596196076e-05
-2.008799361322901e-05   5.501418407557069e-06   -4.8612778596196076e-05
-2.008799361322901e-05   5.501418407557069e-06   -4.8612778596196076e-05
-2.563249494844228e-05   4.105661757897519e-06   -3.853448904771143e-05
-2.563249494844228e-05   4.105661757897519e-06   -3.853448904771143e-05
-2.563249494844228e-05   4.105661757897519e-06   -3.853448904771143e-05
-2.563249494844228e-05   4.105661757897519e-06   -3.853448904771143e-05
-2.0087993613229047e-05   3.6581655741849215e-06   -3.0842095938382564e-05
-2.0087993613229047e-05   3.6581655741849215e-06   -3.0842095938382564e-05
-2.0087993613229047e-05   3.6581655741849215e-06   -3.0842095938382564e-05
-2.0087993613229047e-05   3.6581655741849215e-06   -3.0842095938382564e-05
-3.075040320791713e-05   5.501418407557069e-06   -4.750682689617274e-05
-3.075040320791713e-05   5.501418407557069e-06   -4.750682689617274e-05
-3.075040320791713e-05   5.501418407557069e-06   -4.750682689617274e-05
-3.075040320791713e-05   5.501418407557069e-06   -4.750682689617274e-05
-2.9749808908749123e-05   4.8741570798846705e-06   -2.9462181302815273e-05
-2.9749808908749123e-05   4.8741570798846705e-06   -2.9462181302815273e-05
-2.9749808908749123e-05   4.8741570798846705e-06   -2.9462181302815273e-05
-2.9749808908749123e-05   4.8741570798846705e-06   -2.9462181302815273e-05
-1.934436119063199e-05   6.588394112347438e-06   -4.783313638582168e-05
-1.934436119063199e-05   6.588394112347438e-06   -4.783313638582168e-05
-1.934436119063199e-05   6.588394112347438e-06   -4.783313638582168e-05
-1.934436119063199e-05   6.588394112347438e-06   -4.783313638582168e-05
-2.4790044631509193e-05   5.058155108118249e-06   -3.783885391515584e-05
-2.4790044631509193e-05   5.058155108118249e-06   -3.783885391515584e-05
-2.4790044631509193e-05   5.058155108118249e-06   -3.783885391515584e-05
-2.4790044631509193e-05   5.058155108118249e-06   -3.783885391515584e-05
-1.934436119063197e-05   4.8741570798846705e-06   -3.0490723522292847e-05
-1.934436119063197e-05   4.8741570798846705e-06   -3.0490723522292847e-05
-1.934436119063197e-05   4.8741570798846705e-06   -3.0490723522292847e-05
-1.934436119063197e-05   4.8741570798846705e-06   -3.0490723522292847e-05
-2.9749808908749123e-05   6.588394112347438e-06   -4.680459416634428e-05
-2.9749808908749123e-05   6.588394112347438e-06   -4.680459416634428e-05
-2.9749808908749123e-05   6.588394112347438e-06   -4.680459416634428e-05
-2.9749808908749123e-05   6.588394112347438e-06   -4.680459416634428e-05
-2.8916044565576048e-05   6.2372132474737985e-06   -3.0277483365583448e-05
-2.8916044565576048e-05   6.2372132474737985e-06   -3.0277483365583448e-05
-2.8916044565576048e-05   6.2372132474737985e-06   -3.0277483365583448e-05
-2.8916044565576048e-05   6.2372132474737985e-06   -3.0277483365583448e-05
-1.86352417312243e-05   7.804892323512967e-06   -4.8352762201793204e-05
-1.86352417312243e-05   7.804892323512967e-06   -4.8352762201793204e-05
-1.86352417312243e-05   7.804892323512967e-06   -4.8352762201793204e-05
-1.86352417312243e-05   7.804892323512967e-06   -4.8352762201793204e-05
-2.4225059472242844e-05   5.996875833544878e-06   -3.7951589406114305e-05
-2.4225059472242844e-05   5.996875833544878e-06   -3.7951589406114305e-05
-2.4225059472242844e-05   5.996875833544878e-06   -3.7951589406114305e-05
-2.4225059472242844e-05   5.996875833544878e-06   -3.7951589406114305e-05
-3.1586570564199625e-05   3.931443586625751e-06   -1.6334066143048297e-05
-3.1586570564199625e-05   3.931443586625751e-06   -1.6334066143048297e-05
-3.1586570564199625e-05   3.931443586625751e-06   -1.6334066143048297e-05
-3.1586570564199625e-05   3.931443586625751e-06   -1.6334066143048297e-05
-4.3854451521492494e-05   7.383418842293009e-06   -3.470934925180278e-05
-4.3854451521492494e-05   7.383418842293009e-06   -3.470934925180278e-05
-4.3854451521492494e-05   7.383418842293009e-06   -3.470934925180278e-05
-4.3854451521492494e-05   7.383418842293009e-06   -3.470934925180278e-05
-4.1559995329970746e-05   5.125994031978179e-06   -1.0278984662393572e-05
-4.1559995329970746e-05   5.125994031978179e-06   -1.0278984662393572e-05
-4.1559995329970746e-05   5.125994031978179e-06   -1.0278984662393572e-05
-4.1559995329970746e-05   5.125994031978179e-06   -1.0278984662393572e-05
-3.075040320791706e-05   8.63581448431322e-06   -3.040086380388395e-05
-3.075040320791706e-05   8.63581448431322e-06   -3.040086380388395e-05
-3.075040320791706e-05   8.63581448431322e-06   -3.040086380388395e-05
-3.075040320791706e-05   8.63581448431322e-06   -3.040086380388395e-05
-3.5435020902427564e-05   6.412781030242995e-06   -2.1259347573924348e-05
-3.5435020902427564e-05   6.412781030242995e-06   -2.1259347573924348e-05
-3.5435020902427564e-05   6.412781030242995e-06   -2.1259347573924348e-05
-3.5435020902427564e-05   6.412781030242995e-06   -2.1259347573924348e-05
-3.075040320791709e-05   5.125994031978179e-06   -1.238487693379451e-05
-3.075040320791709e-05   5.125994031978179e-06   -1.238487693379451e-05
-3.075040320791709e-05   5.125994031978179e-06   -1.238487693379451e-05
-3.075040320791709e-05   5.125994031978179e-06   -1.238487693379451e-05
-4.155999532997064e-05   8.63581448431322e-06   -2.8294971532483257e-05
-4.155999532997064e-05   8.63581448431322e-06   -2.8294971532483257e-05
-4.155999532997064e-05   8.63581448431322e-06   -2.8294971532483257e-05
-4.155999532997064e-05   8.63581448431322e-06   -2.8294971532483257e-05
-3.966358461380236e-05   5.6729683562692715e-06   -8.445789524480453e-06
-3.966358461380236e-05   5.6729683562692715e-06   -8.445789524480453e-06
-3.966358461380236e-05   5.6729683562692715e-06   -8.445789524480453e-06
-3.966358461380236e-05   5.6729683562692715e-06   -8.445789524480453e-06
-2.9749808908749055e-05   9.084471822870619e-06   -2.7015651112863263e-05
-2.9749808908749055e-05   9.084471822870619e-06   -2.7015651112863263e-05
-2.9749808908749055e-05   9.084471822870619e-06   -2.7015651112863263e-05
-2.9749808908749055e-05   9.084471822870619e-06   -2.7015651112863263e-05
-3.459267056323702e-05   6.9756002918216695e-06   -1.7678892103420625e-05
-3.459267056323702e-05   6.9756002918216695e-06   -1.7678892103420625e-05
-3.459267056323702e-05   6.9756002918216695e-06   -1.7678892103420625e-05
-3.459267056323702e-05   6.9756002918216695e-06   -1.7678892103420625e-05
-2.9749808908749123e-05   5.6729683562692715e-06   -1.0492691604441218e-05
-2.9749808908749123e-05   5.6729683562692715e-06   -1.0492691604441218e-05
-2.9749808908749123e-05   5.6729683562692715e-06   -1.0492691604441218e-05
-2.9749808908749123e-05   5.6729683562692715e-06   -1.0492691604441218e-05
-3.9663584613802277e-05   9.084471822870185e-06   -2.4968749032902755e-05
-3.9663584613802277e-05   9.084471822870185e-06   -2.4968749032902755e-05
-3.9663584613802277e-05   9.084471822870185e-06   -2.4968749032902755e-05
-3.9663584613802277e-05   9.084471822870185e-06   -2.4968749032902755e-05
-3.742160933551002e-05   6.521256267345453e-06   -6.52976558329502e-06
-3.742160933551002e-05   6.521256267345453e-06   -6.52976558329502e-06
-3.742160933551002e-05   6.521256267345453e-06   -6.52976558329502e-06
-3.742160933551002e-05   6.521256267345453e-06   -6.52976558329502e-06
-2.8916044565576048e-05   9.654258145818089e-06   -2.2585507993601802e-05
-2.8916044565576048e-05   9.654258145818089e-06   -2.2585507993601802e-05
-2.8916044565576048e-05   9.654258145818089e-06   -2.2585507993601802e-05
-2.8916044565576048e-05   9.654258145818089e-06   -2.2585507993601802e-05
-3.281103762921916e-05   7.2476854046776146e-06   -1.4649909242845825e-05
-3.281103762921916e-05   7.2476854046776146e-06   -1.4649909242845825e-05
-3.281103762921916e-05   7.2476854046776146e-06   -1.4649909242845825e-05
-3.281103762921916e-05   7.2476854046776146e-06   -1.4649909242845825e-05
3.3328033463261516e-05   -4.373077681221922e-06   -2.832152567106873e-07
3.3328033463261516e-05   -4.373077681221922e-06   -2.832152567106873e-07
3.3328033463261516e-05   -4.373077681221922e-06   -2.832152567106873e-07
3.3328033463261516e-05   -4.373077681221922e-06   -2.832152567106873e-07
1.4209336243421397e-05   -7.892663779741037e-06   -3.425946228222175e-05
1.4209336243421397e-05   -7.892663779741037e-06   -3.425946228222175e-05
1.4209336243421397e-05   -7.892663779741037e-06   -3.425946228222175e-05
1.4209336243421397e-05   -7.892663779741037e-06   -3.425946228222175e-05
1.5219535484302155e-05   -3.5932700763064568e-06   -3.793099380380643e-06
1.5219535484302155e-05   -3.5932700763064568e-06   -3.793099380380643e-06
1.5219535484302155e-05   -3.5932700763064568e-06   -3.793099380380643e-06
1.5219535484302155e-05   -3.5932700763064568e-06   -3.793099380380643e-06
3.585481695153988e-05   -7.339726876413096e-06   -3.593736107904621e-05
3.585481695153988e-05   -7.339726876413096e-06   -3.593736107904621e-05
3.585481695153988e-05   -7.339726876413096e-06   -3.593736107904621e-05
3.585481695153988e-05   -7.339726876413096e-06   -3.593736107904621e-05
2.3659020347622646e-05   -5.2003991869355864e-06   -1.6894630019536694e-05
2.3659020347622646e-05   -5.2003991869355864e-06   -1.6894630019536694e-05
2.3659020347622646e-05   -5.2003991869355864e-06   -1.6894630019536694e-05
2.3659020347622646e-05   -5.2003991869355864e-06   -1.6894630019536694e-05
3.585481695153993e-05   -3.5932700763064568e-06   -1.5452253003165294e-06
3.585481695153993e-05   -3.5932700763064568e-06   -1.5452253003165294e-06
3.585481695153993e-05   -3.5932700763064568e-06   -1.5452253003165294e-06
3.585481695153993e-05   -3.5932700763064568e-06   -1.5452253003165294e-06
1.5219535484302073e-05   -7.3397268764126625e-06   -3.818523515910989e-05
1.5219535484302073e-05   -7.3397268764126625e-06   -3.818523515910989e-05
1.5219535484302073e-05   -7.3397268764126625e-06   -3.818523515910989e-05
1.5219535484302073e-05   -7.3397268764126625e-06   -3.818523515910989e-05
1.633843678157596e-05   -3.0738021862702393e-06   -5.330999233340173e-06
1.633843678157596e-05   -3.0738021862702393e-06   -5.330999233340173e-06
1.633843678157596e-05   -3.0738021862702393e-06   -5.330999233340173e-06
1.633843678157596e-05   -3.0738021862702393e-06   -5.330999233340173e-06
3.7978195807459854e-05   -6.86517137254419e-06   -3.912244276471589e-05
3.7978195807459854e-05   -6.86517137254419e-06   -3.912244276471589e-05
3.7978195807459854e-05   -6.86517137254419e-06   -3.912244276471589e-05
3.7978195807459854e-05   -6.86517137254419e-06   -3.912244276471589e-05
2.555693616053914e-05   -4.98920689208978e-06   -1.954592204145419e-05
2.555693616053914e-05   -4.98920689208978e-06   -1.954592204145419e-05
2.555693616053914e-05   -4.98920689208978e-06   -1.954592204145419e-05
2.555693616053914e-05   -4.98920689208978e-06   -1.954592204145419e-05
3.797819580745991e-05   -3.0738021862702393e-06   -3.056177721575933e-06
3.797819580745991e-05   -3.0738021862702393e-06   -3.056177721575933e-06
3.797819580745991e-05   -3.0738021862702393e-06   -3.056177721575933e-06
3.797819580745991e-05   -3.0738021862702393e-06   -3.056177721575933e-06
1.633843678157596e-05   -6.86517137254419e-06   -4.139726427648024e-05
1.633843678157596e-05   -6.86517137254419e-06   -4.139726427648024e-05
1.633843678157596e-05   -6.86517137254419e-06   -4.139726427648024e-05
1.633843678157596e-05   -6.86517137254419e-06   -4.139726427648024e-05
1.7263905842564912e-05   -1.7644666828026644e-06   -8.882555094099362e-06
1.7263905842564912e-05   -1.7644666828026644e-06   -8.882555094099362e-06
1.7263905842564912e-05   -1.7644666828026644e-06   -8.882555094099362e-06
1.7263905842564912e-05   -1.7644666828026644e-06   -8.882555094099362e-06
4.0443571076839875e-05   -5.3637081030184774e-06   -4.535578563242832e-05
4.0443571076839875e-05   -5.3637081030184774e-06   -4.535578563242832e-05
4.0443571076839875e-05   -5.3637081030184774e-06   -4.535578563242832e-05
4.0443571076839875e-05   -5.3637081030184774e-06   -4.535578563242832e-05
2.658742534609364e-05   -4.403267025754852e-06   -2.2838474060876723e-05
2.658742534609364e-05   -4.403267025754852e-06   -2.2838474060876723e-05
2.658742534609364e-05   -4.403267025754852e-06   -2.2838474060876723e-05
2.658742534609364e-05   -4.403267025754852e-06   -2.2838474060876723e-05
1.4209336243421451e-05   -1.7314809382332902e-06   -2.3254860647524715e-05
1.4209336243421451e-05   -1.7314809382332902e-06   -2.3254860647524715e-05
1.4209336243421451e-05   -1.7314809382332902e-06   -2.3254860647524715e-05
1.4209336243421451e-05   -1.7314809382332902e-06   -2.3254860647524715e-05
-6.034699463216138e-06   -3.699546134113864e-06   -5.817575927611566e-05
-6.034699463216138e-06   -3.699546134113864e-06   -5.817575927611566e-05
-6.034699463216138e-06   -3.699546134113864e-06   -5.817575927611566e-05
-6.034699463216138e-06   -3.699546134113864e-06   -5.817575927611566e-05
-5.094375030345187e-06   -6.62799331276314e-07   -2.3738812944668758e-05
-5.094375030345187e-06   -6.62799331276314e-07   -2.3738812944668758e-05
-5.094375030345187e-06   -6.62799331276314e-07   -2.3738812944668758e-05
-5.094375030345187e-06   -6.62799331276314e-07   -2.3738812944668758e-05
1.5219535484302073e-05   -2.9325506748362207e-06   -5.6233479662944335e-05
1.5219535484302073e-05   -2.9325506748362207e-06   -5.6233479662944335e-05
1.5219535484302073e-05   -2.9325506748362207e-06   -5.6233479662944335e-05
1.5219535484302073e-05   -2.9325506748362207e-06   -5.6233479662944335e-05
4.625525772444276e-06   -1.7894480654470288e-06   -3.9262658375481714e-05
4.625525772444276e-06   -1.7894480654470288e-06   -3.9262658375481714e-05
4.625525772444276e-06   -1.7894480654470288e-06   -3.9262658375481714e-05
4.625525772444276e-06   -1.7894480654470288e-06   -3.9262658375481714e-05
1.52195354843021e-05   -6.62799331276314e-07   -2.2376962138532207e-05
1.52195354843021e-05   -6.62799331276314e-07   -2.2376962138532207e-05
1.52195354843021e-05   -6.62799331276314e-07   -2.2376962138532207e-05
1.52195354843021e-05   -6.62799331276314e-07   -2.2376962138532207e-05
-5.09437503034516e-06   -2.9325506748362207e-06   -5.759533046908083e-05
-5.09437503034516e-06   -2.9325506748362207e-06   -5.759533046908083e-05
-5.09437503034516e-06   -2.9325506748362207e-06   -5.759533046908083e-05
-5.09437503034516e-06   -2.9325506748362207e-06   -5.759533046908083e-05
-4.196544316879938e-06   4.420949393682365e-07   -2.4042725583589466e-05
-4.196544316879938e-06   4.420949393682365e-07   -2.4042725583589466e-05
-4.196544316879938e-06   4.420949393682365e-07   -2.4042725583589466e-05
-4.196544316879938e-06   4.420949393682365e-07   -2.4042725583589466e-05
1.633843678157596e-05   -1.99490974559912e-06   -5.680549127003604e-05
1.633843678157596e-05   -1.99490974559912e-06   -5.680549127003604e-05
1.633843678157596e-05   -1.99490974559912e-06   -5.680549127003604e-05
1.633843678157596e-05   -1.99490974559912e-06   -5.680549127003604e-05
5.3721066433572466e-06   -1.1112968991856126e-06   -3.9058442080852195e-05
5.3721066433572466e-06   -1.1112968991856126e-06   -3.9058442080852195e-05
5.3721066433572466e-06   -1.1112968991856126e-06   -3.9058442080852195e-05
5.3721066433572466e-06   -1.1112968991856126e-06   -3.9058442080852195e-05
1.633843678157596e-05   4.420949393678028e-07   -2.2580522772609616e-05
1.633843678157596e-05   4.420949393678028e-07   -2.2580522772609616e-05
1.633843678157596e-05   4.420949393678028e-07   -2.2580522772609616e-05
1.633843678157596e-05   4.420949393678028e-07   -2.2580522772609616e-05
-4.196544316879938e-06   -1.99490974559912e-06   -5.826769408101627e-05
-4.196544316879938e-06   -1.99490974559912e-06   -5.826769408101627e-05
-4.196544316879938e-06   -1.99490974559912e-06   -5.826769408101627e-05
-4.196544316879938e-06   -1.99490974559912e-06   -5.826769408101627e-05
-3.353060147736692e-06   1.7503459280362316e-06   -2.485943825216775e-05
-3.353060147736692e-06   1.7503459280362316e-06   -2.485943825216775e-05
-3.353060147736692e-06   1.7503459280362316e-06   -2.485943825216775e-05
-3.353060147736692e-06   1.7503459280362316e-06   -2.485943825216775e-05
1.7263905842564912e-05   -8.153588300567442e-07   -5.768162538114809e-05
1.7263905842564912e-05   -8.153588300567442e-07   -5.768162538114809e-05
1.7263905842564912e-05   -8.153588300567442e-07   -5.768162538114809e-05
1.7263905842564912e-05   -8.153588300567442e-07   -5.768162538114809e-05
6.302681808817881e-06   -2.7507994342611253e-07   -3.973708599021552e-05
6.302681808817881e-06   -2.7507994342611253e-07   -3.973708599021552e-05
6.302681808817881e-06   -2.7507994342611253e-07   -3.973708599021552e-05
6.302681808817881e-06   -2.7507994342611253e-07   -3.973708599021552e-05
-6.034699463216138e-06   1.3270317875432695e-06   -2.9900405471183127e-05
-6.034699463216138e-06   1.3270317875432695e-06   -2.9900405471183127e-05
-6.034699463216138e-06   1.3270317875432695e-06   -2.9900405471183127e-05
-6.034699463216138e-06   1.3270317875432695e-06   -2.9900405471183127e-05
-2.5922186518030167e-05   6.667429198830253e-07   -6.344239054980293e-05
-2.5922186518030167e-05   6.667429198830253e-07   -6.344239054980293e-05
-2.5922186518030167e-05   6.667429198830253e-07   -6.344239054980293e-05
-2.5922186518030167e-05   6.667429198830253e-07   -6.344239054980293e-05
-2.491001510275688e-05   2.4574275342046335e-06   -2.9693948216362107e-05
-2.491001510275688e-05   2.4574275342046335e-06   -2.9693948216362107e-05
-2.491001510275688e-05   2.4574275342046335e-06   -2.9693948216362107e-05
-2.491001510275688e-05   2.4574275342046335e-06   -2.9693948216362107e-05
-5.09437503034516e-06   1.5279666304053585e-06   -6.216233846143536e-05
-5.09437503034516e-06   1.5279666304053585e-06   -6.216233846143536e-05
-5.09437503034516e-06   1.5279666304053585e-06   -6.216233846143536e-05
-5.09437503034516e-06   1.5279666304053585e-06   -6.216233846143536e-05
-1.538413802406557e-05   1.8192238762219405e-06   -4.518748781939141e-05
-1.538413802406557e-05   1.8192238762219405e-06   -4.518748781939141e-05
-1.538413802406557e-05   1.8192238762219405e-06   -4.518748781939141e-05
-1.538413802406557e-05   1.8192238762219405e-06   -4.518748781939141e-05
-5.094375030345187e-06   2.457427534205067e-06   -2.913627167408267e-05
-5.094375030345187e-06   2.457427534205067e-06   -2.913627167408267e-05
-5.094375030345187e-06   2.457427534205067e-06   -2.913627167408267e-05
-5.094375030345187e-06   2.457427534205067e-06   -2.913627167408267e-05
-2.491001510275688e-05   1.5279666304053585e-06   -6.272001500371512e-05
-2.491001510275688e-05   1.5279666304053585e-06   -6.272001500371512e-05
-2.491001510275688e-05   1.5279666304053585e-06   -6.272001500371512e-05
-2.491001510275688e-05   1.5279666304053585e-06   -6.272001500371512e-05
-2.393384225814401e-05   3.6543376084156864e-06   -2.9649192416507722e-05
-2.393384225814401e-05   3.6543376084156864e-06   -2.9649192416507722e-05
-2.393384225814401e-05   3.6543376084156864e-06   -2.9649192416507722e-05
-2.393384225814401e-05   3.6543376084156864e-06   -2.9649192416507722e-05
-4.196544316879938e-06   2.5256145139208354e-06   -6.186745512858479e-05
-4.196544316879938e-06   2.5256145139208354e-06   -6.186745512858479e-05
-4.196544316879938e-06   2.5256145139208354e-06   -6.186745512858479e-05
-4.196544316879938e-06   2.5256145139208354e-06   -6.186745512858479e-05
-1.45130298586408e-05   2.6254519926117645e-06   -4.473321504619752e-05
-1.45130298586408e-05   2.6254519926117645e-06   -4.473321504619752e-05
-1.45130298586408e-05   2.6254519926117645e-06   -4.473321504619752e-05
-1.45130298586408e-05   2.6254519926117645e-06   -4.473321504619752e-05
-4.196544316879938e-06   3.65433760841612e-06   -2.897195855981142e-05
-4.196544316879938e-06   3.65433760841612e-06   -2.897195855981142e-05
-4.196544316879938e-06   3.65433760841612e-06   -2.897195855981142e-05
-4.196544316879938e-06   3.65433760841612e-06   -2.897195855981142e-05
-2.393384225814401e-05   2.525614513921269e-06   -6.254468898528147e-05
-2.393384225814401e-05   2.525614513921269e-06   -6.254468898528147e-05
-2.393384225814401e-05   2.525614513921269e-06   -6.254468898528147e-05
-2.393384225814401e-05   2.525614513921269e-06   -6.254468898528147e-05
-2.3031791460126383e-05   4.8719208475805215e-06   -3.0346021280908348e-05
-2.3031791460126383e-05   4.8719208475805215e-06   -3.0346021280908348e-05
-2.3031791460126383e-05   4.8719208475805215e-06   -3.0346021280908348e-05
-2.3031791460126383e-05   4.8719208475805215e-06   -3.0346021280908348e-05
-3.353060147736692e-06   3.556713696954445e-06   -6.235478251118251e-05
-3.353060147736692e-06   3.556713696954445e-06   -6.235478251118251e-05
-3.353060147736692e-06   3.556713696954445e-06   -6.235478251118251e-05
-3.353060147736692e-06   3.556713696954445e-06   -6.235478251118251e-05
-1.3734642125248015e-05   3.4527276180406144e-06   -4.498975423464921e-05
-1.3734642125248015e-05   3.4527276180406144e-06   -4.498975423464921e-05
-1.3734642125248015e-05   3.4527276180406144e-06   -4.498975423464921e-05
-1.3734642125248015e-05   3.4527276180406144e-06   -4.498975423464921e-05
-2.592218651803022e-05   4.2948539520624475e-06   -2.426015206201046e-05
-2.592218651803022e-05   4.2948539520624475e-06   -2.426015206201046e-05
-2.592218651803022e-05   4.2948539520624475e-06   -2.426015206201046e-05
-2.592218651803022e-05   4.2948539520624475e-06   -2.426015206201046e-05
-4.543754699894685e-05   5.189132432930135e-06   -5.624918577501752e-05
-4.543754699894685e-05   5.189132432930135e-06   -5.624918577501752e-05
-4.543754699894685e-05   5.189132432930135e-06   -5.624918577501752e-05
-4.543754699894685e-05   5.189132432930135e-06   -5.624918577501752e-05
-4.4217798162121405e-05   5.501418407557069e-06   -2.2799887621074945e-05
-4.4217798162121405e-05   5.501418407557069e-06   -2.2799887621074945e-05
-4.4217798162121405e-05   5.501418407557069e-06   -2.2799887621074945e-05
-4.4217798162121405e-05   5.501418407557069e-06   -2.2799887621074945e-05
-2.491001510275692e-05   6.283208842580972e-06   -5.544860031436383e-05
-2.491001510275692e-05   6.283208842580972e-06   -5.544860031436383e-05
-2.491001510275692e-05   6.283208842580972e-06   -5.544860031436383e-05
-2.491001510275692e-05   6.283208842580972e-06   -5.544860031436383e-05
-3.4865205199803844e-05   5.546170046499821e-06   -3.841439354163713e-05
-3.4865205199803844e-05   5.546170046499821e-06   -3.841439354163713e-05
-3.4865205199803844e-05   5.546170046499821e-06   -3.841439354163713e-05
-3.4865205199803844e-05   5.546170046499821e-06   -3.841439354163713e-05
-2.491001510275692e-05   5.501418407557069e-06   -2.3268961882089503e-05
-2.491001510275692e-05   5.501418407557069e-06   -2.3268961882089503e-05
-2.491001510275692e-05   5.501418407557069e-06   -2.3268961882089503e-05
-2.491001510275692e-05   5.501418407557069e-06   -2.3268961882089503e-05
-4.421779816212148e-05   6.283208842580972e-06   -5.497952605334924e-05
-4.421779816212148e-05   6.283208842580972e-06   -5.497952605334924e-05
-4.421779816212148e-05   6.283208842580972e-06   -5.497952605334924e-05
-4.421779816212148e-05   6.283208842580972e-06   -5.497952605334924e-05
-4.2868606036919836e-05   6.588394112347438e-06   -2.1987752792405023e-05
-4.2868606036919836e-05   6.588394112347438e-06   -2.1987752792405023e-05
-4.2868606036919836e-05   6.588394112347438e-06   -2.1987752792405023e-05
-4.2868606036919836e-05   6.588394112347438e-06   -2.1987752792405023e-05
-2.3933842258144037e-05   7.225489694500688e-06   -5.3927949772989925e-05
-2.3933842258144037e-05   7.225489694500688e-06   -5.3927949772989925e-05
-2.3933842258144037e-05   7.225489694500688e-06   -5.3927949772989925e-05
-2.3933842258144037e-05   7.225489694500688e-06   -5.3927949772989925e-05
-3.3631973002073014e-05   6.397753924230337e-06   -3.7267757070946014e-05
-3.3631973002073014e-05   6.397753924230337e-06   -3.7267757070946014e-05
-3.3631973002073014e-05   6.397753924230337e-06   -3.7267757070946014e-05
-3.3631973002073014e-05   6.397753924230337e-06   -3.7267757070946014e-05
-2.3933842258144024e-05   6.588394112347438e-06   -2.2370010141696366e-05
-2.3933842258144024e-05   6.588394112347438e-06   -2.2370010141696366e-05
-2.3933842258144024e-05   6.588394112347438e-06   -2.2370010141696366e-05
-2.3933842258144024e-05   6.588394112347438e-06   -2.2370010141696366e-05
-4.2868606036919836e-05   7.225489694500688e-06   -5.354569242369835e-05
-4.2868606036919836e-05   7.225489694500688e-06   -5.354569242369835e-05
-4.2868606036919836e-05   7.225489694500688e-06   -5.354569242369835e-05
-4.2868606036919836e-05   7.225489694500688e-06   -5.354569242369835e-05
-4.17284052110725e-05   7.804892323512967e-06   -2.2495692434120005e-05
-4.17284052110725e-05   7.804892323512967e-06   -2.2495692434120005e-05
-4.17284052110725e-05   7.804892323512967e-06   -2.2495692434120005e-05
-4.17284052110725e-05   7.804892323512967e-06   -2.2495692434120005e-05
-2.303179146012643e-05   8.268247251871398e-06   -5.3934728309378385e-05
-2.303179146012643e-05   8.268247251871398e-06   -5.3934728309378385e-05
-2.303179146012643e-05   8.268247251871398e-06   -5.3934728309378385e-05
-2.303179146012643e-05   8.268247251871398e-06   -5.3934728309378385e-05
-3.286365788686443e-05   7.18228061939892e-06   -3.689670428533183e-05
-3.286365788686443e-05   7.18228061939892e-06   -3.689670428533183e-05
-3.286365788686443e-05   7.18228061939892e-06   -3.689670428533183e-05
-3.286365788686443e-05   7.18228061939892e-06   -3.689670428533183e-05
-4.543754699894685e-05   7.3834188422934426e-06   -1.2159686287885113e-05
-4.543754699894685e-05   7.3834188422934426e-06   -1.2159686287885113e-05
-4.543754699894685e-05   7.3834188422934426e-06   -1.2159686287885113e-05
-4.543754699894685e-05   7.3834188422934426e-06   -1.2159686287885113e-05
-6.598831450744867e-05   1.020392108301918e-05   -4.4718664124286395e-05
-6.598831450744867e-05   1.020392108301918e-05   -4.4718664124286395e-05
-6.598831450744867e-05   1.020392108301918e-05   -4.4718664124286395e-05
-6.598831450744867e-05   1.020392108301918e-05   -4.4718664124286395e-05
-6.319029216188156e-05   8.63581448431322e-06   -3.880892573053388e-06
-6.319029216188156e-05   8.63581448431322e-06   -3.880892573053388e-06
-6.319029216188156e-05   8.63581448431322e-06   -3.880892573053388e-06
-6.319029216188156e-05   8.63581448431322e-06   -3.880892573053388e-06
-4.4217798162121405e-05   1.1657534410534475e-05   -3.731474786171962e-05
-4.4217798162121405e-05   1.1657534410534475e-05   -3.731474786171962e-05
-4.4217798162121405e-05   1.1657534410534475e-05   -3.731474786171962e-05
-4.4217798162121405e-05   1.1657534410534475e-05   -3.731474786171962e-05
-5.244651311813686e-05   9.721371252670395e-06   -2.2438525040308977e-05
-5.244651311813686e-05   9.721371252670395e-06   -2.2438525040308977e-05
-5.244651311813686e-05   9.721371252670395e-06   -2.2438525040308977e-05
-5.244651311813686e-05   9.721371252670395e-06   -2.2438525040308977e-05
-4.421779816212144e-05   8.63581448431322e-06   -5.6939245287861845e-06
-4.421779816212144e-05   8.63581448431322e-06   -5.6939245287861845e-06
-4.421779816212144e-05   8.63581448431322e-06   -5.6939245287861845e-06
-4.421779816212144e-05   8.63581448431322e-06   -5.6939245287861845e-06
-6.319029216188145e-05   1.1657534410534475e-05   -3.55017159059869e-05
-6.319029216188145e-05   1.1657534410534475e-05   -3.55017159059869e-05
-6.319029216188145e-05   1.1657534410534475e-05   -3.55017159059869e-05
-6.319029216188145e-05   1.1657534410534475e-05   -3.55017159059869e-05
-6.088775187085055e-05   9.084471822870619e-06   -4.2567670713788627e-07
-6.088775187085055e-05   9.084471822870619e-06   -4.2567670713788627e-07
-6.088775187085055e-05   9.084471822870619e-06   -4.2567670713788627e-07
-6.088775187085055e-05   9.084471822870619e-06   -4.2567670713788627e-07
-4.2868606036919836e-05   1.2039693542514798e-05   -3.2230719462142296e-05
-4.2868606036919836e-05   1.2039693542514798e-05   -3.2230719462142296e-05
-4.2868606036919836e-05   1.2039693542514798e-05   -3.2230719462142296e-05
-4.2868606036919836e-05   1.2039693542514798e-05   -3.2230719462142296e-05
-5.1490543460363134e-05   1.0299706460179924e-05   -1.6816831507001772e-05
-5.1490543460363134e-05   1.0299706460179924e-05   -1.6816831507001772e-05
-5.1490543460363134e-05   1.0299706460179924e-05   -1.6816831507001772e-05
-5.1490543460363134e-05   1.0299706460179924e-05   -1.6816831507001772e-05
-4.2868606036919836e-05   9.084471822870619e-06   -2.19880973892448e-06
-4.2868606036919836e-05   9.084471822870619e-06   -2.19880973892448e-06
-4.2868606036919836e-05   9.084471822870619e-06   -2.19880973892448e-06
-4.2868606036919836e-05   9.084471822870619e-06   -2.19880973892448e-06
-6.088775187085036e-05   1.2039693542514798e-05   -3.0457586430355458e-05
-6.088775187085036e-05   1.2039693542514798e-05   -3.0457586430355458e-05
-6.088775187085036e-05   1.2039693542514798e-05   -3.0457586430355458e-05
-6.088775187085036e-05   1.2039693542514798e-05   -3.0457586430355458e-05
-5.84045936161955e-05   9.654258145818089e-06   3.960334217550021e-06
-5.84045936161955e-05   9.654258145818089e-06   3.960334217550021e-06
-5.84045936161955e-05   9.654258145818089e-06   3.960334217550021e-06
-5.84045936161955e-05   9.654258145818089e-06   3.960334217550021e-06
-4.17284052110725e-05   1.2369891294320822e-05   -2.5462693013423707e-05
-4.17284052110725e-05   1.2369891294320822e-05   -2.5462693013423707e-05
-4.17284052110725e-05   1.2369891294320822e-05   -2.5462693013423707e-05
-4.17284052110725e-05   1.2369891294320822e-05   -2.5462693013423707e-05
-4.915782286608756e-05   1.039427116898868e-05   -1.189495817986605e-05
-4.915782286608756e-05   1.039427116898868e-05   -1.189495817986605e-05
-4.915782286608756e-05   1.039427116898868e-05   -1.189495817986605e-05
-4.915782286608756e-05   1.039427116898868e-05   -1.189495817986605e-05
5.658799512751368e-05   -7.892663779741037e-06   1.1185735538134234e-05
5.658799512751368e-05   -7.892663779741037e-06   1.1185735538134234e-05
5.658799512751368e-05   -7.892663779741037e-06   1.1185735538134234e-05
5.658799512751368e-05   -7.892663779741037e-06   1.1185735538134234e-05
2.727804116205859e-05   -1.1691758666019635e-05   -3.9943644669391404e-05
2.727804116205859e-05   -1.1691758666019635e-05   -3.9943644669391404e-05
2.727804116205859e-05   -1.1691758666019635e-05   -3.9943644669391404e-05
2.727804116205859e-05   -1.1691758666019635e-05   -3.9943644669391404e-05
2.83978068420361e-05   -7.339726876413096e-06   5.376740481578476e-06
2.83978068420361e-05   -7.339726876413096e-06   5.376740481578476e-06
2.83978068420361e-05   -7.339726876413096e-06   5.376740481578476e-06
2.83978068420361e-05   -7.339726876413096e-06   5.376740481578476e-06
5.918462503538076e-05   -1.1418119475422196e-05   -4.34875876145906e-05
5.918462503538076e-05   -1.1418119475422196e-05   -4.34875876145906e-05
5.918462503538076e-05   -1.1418119475422196e-05   -4.34875876145906e-05
5.918462503538076e-05   -1.1418119475422196e-05   -4.34875876145906e-05
4.111984473491685e-05   -8.642979403379256e-06   -1.5044704490376544e-05
4.111984473491685e-05   -8.642979403379256e-06   -1.5044704490376544e-05
4.111984473491685e-05   -8.642979403379256e-06   -1.5044704490376544e-05
4.111984473491685e-05   -8.642979403379256e-06   -1.5044704490376544e-05
5.918462503538087e-05   -7.339726876413096e-06   7.82377604098398e-06
5.918462503538087e-05   -7.339726876413096e-06   7.82377604098398e-06
5.918462503538087e-05   -7.339726876413096e-06   7.82377604098398e-06
5.918462503538087e-05   -7.339726876413096e-06   7.82377604098398e-06
2.8397806842036047e-05   -1.1418119475422196e-05   -4.593462317399621e-05
2.8397806842036047e-05   -1.1418119475422196e-05   -4.593462317399621e-05
2.8397806842036047e-05   -1.1418119475422196e-05   -4.593462317399621e-05
2.8397806842036047e-05   -1.1418119475422196e-05   -4.593462317399621e-05
2.9511650037541612e-05   -6.86517137254419e-06   2.5361408390518238e-06
2.9511650037541612e-05   -6.86517137254419e-06   2.5361408390518238e-06
2.9511650037541612e-05   -6.86517137254419e-06   2.5361408390518238e-06
2.9511650037541612e-05   -6.86517137254419e-06   2.5361408390518238e-06
6.117819542948217e-05   -1.1021915182145292e-05   -4.7747388528421894e-05
6.117819542948217e-05   -1.1021915182145292e-05   -4.7747388528421894e-05
6.117819542948217e-05   -1.1021915182145292e-05   -4.7747388528421894e-05
6.117819542948217e-05   -1.1021915182145292e-05   -4.7747388528421894e-05
4.330620805111942e-05   -8.614563222361649e-06   -1.9405154073687573e-05
4.330620805111942e-05   -8.614563222361649e-06   -1.9405154073687573e-05
4.330620805111942e-05   -8.614563222361649e-06   -1.9405154073687573e-05
4.330620805111942e-05   -8.614563222361649e-06   -1.9405154073687573e-05
6.117819542948217e-05   -6.86517137254419e-06   5.030187124812442e-06
6.117819542948217e-05   -6.86517137254419e-06   5.030187124812442e-06
6.117819542948217e-05   -6.86517137254419e-06   5.030187124812442e-06
6.117819542948217e-05   -6.86517137254419e-06   5.030187124812442e-06
2.9511650037541612e-05   -1.1021915182145292e-05   -5.024143481418262e-05
2.9511650037541612e-05   -1.1021915182145292e-05   -5.024143481418262e-05
2.9511650037541612e-05   -1.1021915182145292e-05   -5.024143481418262e-05
2.9511650037541612e-05   -1.1021915182145292e-05   -5.024143481418262e-05
3.0268690379556056e-05   -5.363708103018044e-06   -3.187816005680976e-06
3.0268690379556056e-05   -5.363708103018044e-06   -3.187816005680976e-06
3.0268690379556056e-05   -5.363708103018044e-06   -3.187816005680976e-06
3.0268690379556056e-05   -5.363708103018044e-06   -3.187816005680976e-06
6.328609662615685e-05   -9.475804691270323e-06   -5.574956846373069e-05
6.328609662615685e-05   -9.475804691270323e-06   -5.574956846373069e-05
6.328609662615685e-05   -9.475804691270323e-06   -5.574956846373069e-05
6.328609662615685e-05   -9.475804691270323e-06   -5.574956846373069e-05
4.391986432140489e-05   -7.952835171208972e-06   -2.438629633451497e-05
4.391986432140489e-05   -7.952835171208972e-06   -2.438629633451497e-05
4.391986432140489e-05   -7.952835171208972e-06   -2.438629633451497e-05
4.391986432140489e-05   -7.952835171208972e-06   -2.438629633451497e-05
2.7278041162058644e-05   -3.699546134113864e-06   -1.382917926999851e-05
2.7278041162058644e-05   -3.699546134113864e-06   -1.382917926999851e-05
2.7278041162058644e-05   -3.699546134113864e-06   -1.382917926999851e-05
2.7278041162058644e-05   -3.699546134113864e-06   -1.382917926999851e-05
-1.6369093009043303e-06   -7.585433713695657e-06   -6.435229592268604e-05
-1.6369093009043303e-06   -7.585433713695657e-06   -6.435229592268604e-05
-1.6369093009043303e-06   -7.585433713695657e-06   -6.435229592268604e-05
-1.6369093009043303e-06   -7.585433713695657e-06   -6.435229592268604e-05
-4.871695619416603e-07   -2.9325506748362207e-06   -1.5246073828147164e-05
-4.871695619416603e-07   -2.9325506748362207e-06   -1.5246073828147164e-05
-4.871695619416603e-07   -2.9325506748362207e-06   -1.5246073828147164e-05
-4.871695619416603e-07   -2.9325506748362207e-06   -1.5246073828147164e-05
2.83978068420361e-05   -7.223500351320484e-06   -6.08131313622195e-05
2.83978068420361e-05   -7.223500351320484e-06   -6.08131313622195e-05
2.83978068420361e-05   -7.223500351320484e-06   -6.08131313622195e-05
2.83978068420361e-05   -7.223500351320484e-06   -6.08131313622195e-05
1.34285435619598e-05   -4.588759874879847e-06   -3.744520351462322e-05
1.34285435619598e-05   -4.588759874879847e-06   -3.744520351462322e-05
1.34285435619598e-05   -4.588759874879847e-06   -3.744520351462322e-05
1.34285435619598e-05   -4.588759874879847e-06   -3.744520351462322e-05
2.8397806842036074e-05   -2.9325506748362207e-06   -1.2671504022256346e-05
2.8397806842036074e-05   -2.9325506748362207e-06   -1.2671504022256346e-05
2.8397806842036074e-05   -2.9325506748362207e-06   -1.2671504022256346e-05
2.8397806842036074e-05   -2.9325506748362207e-06   -1.2671504022256346e-05
-4.871695619416603e-07   -7.223500351320484e-06   -6.338770116811015e-05
-4.871695619416603e-07   -7.223500351320484e-06   -6.338770116811015e-05
-4.871695619416603e-07   -7.223500351320484e-06   -6.338770116811015e-05
-4.871695619416603e-07   -7.223500351320484e-06   -6.338770116811015e-05
5.259128129357518e-07   -1.99490974559912e-06   -1.5604402069299304e-05
5.259128129357518e-07   -1.99490974559912e-06   -1.5604402069299304e-05
5.259128129357518e-07   -1.99490974559912e-06   -1.5604402069299304e-05
5.259128129357518e-07   -1.99490974559912e-06   -1.5604402069299304e-05
2.9511650037541612e-05   -6.548769603590809e-06   -6.118164819551397e-05
2.9511650037541612e-05   -6.548769603590809e-06   -6.118164819551397e-05
2.9511650037541612e-05   -6.548769603590809e-06   -6.118164819551397e-05
2.9511650037541612e-05   -6.548769603590809e-06   -6.118164819551397e-05
1.4211935595227773e-05   -4.2135779375921875e-06   -3.708323912458958e-05
1.4211935595227773e-05   -4.2135779375921875e-06   -3.708323912458958e-05
1.4211935595227773e-05   -4.2135779375921875e-06   -3.708323912458958e-05
1.4211935595227773e-05   -4.2135779375921875e-06   -3.708323912458958e-05
2.9511650037541612e-05   -1.99490974559912e-06   -1.2872086154504248e-05
2.9511650037541612e-05   -1.99490974559912e-06   -1.2872086154504248e-05
2.9511650037541612e-05   -1.99490974559912e-06   -1.2872086154504248e-05
2.9511650037541612e-05   -1.99490974559912e-06   -1.2872086154504248e-05
5.259128129357518e-07   -6.548769603590809e-06   -6.391396411030903e-05
5.259128129357518e-07   -6.548769603590809e-06   -6.391396411030903e-05
5.259128129357518e-07   -6.548769603590809e-06   -6.391396411030903e-05
5.259128129357518e-07   -6.548769603590809e-06   -6.391396411030903e-05
1.2475019417002638e-06   -8.153588300567442e-07   -1.6218205382666738e-05
1.2475019417002638e-06   -8.153588300567442e-07   -1.6218205382666738e-05
1.2475019417002638e-06   -8.153588300567442e-07   -1.6218205382666738e-05
1.2475019417002638e-06   -8.153588300567442e-07   -1.6218205382666738e-05
3.0268690379556138e-05   -5.5888496307164234e-06   -6.17227582986976e-05
3.0268690379556138e-05   -5.5888496307164234e-06   -6.17227582986976e-05
3.0268690379556138e-05   -5.5888496307164234e-06   -6.17227582986976e-05
3.0268690379556138e-05   -5.5888496307164234e-06   -6.17227582986976e-05
1.5148577035596305e-05   -3.551903216784426e-06   -3.774473724045741e-05
1.5148577035596305e-05   -3.551903216784426e-06   -3.774473724045741e-05
1.5148577035596305e-05   -3.551903216784426e-06   -3.774473724045741e-05
1.5148577035596305e-05   -3.551903216784426e-06   -3.774473724045741e-05
-1.6369093009043303e-06   6.667429198825917e-07   -2.103116977083836e-05
-1.6369093009043303e-06   6.667429198825917e-07   -2.103116977083836e-05
-1.6369093009043303e-06   6.667429198825917e-07   -2.103116977083836e-05
-1.6369093009043303e-06   6.667429198825917e-07   -2.103116977083836e-05
-3.0124677373755148e-05   -3.99670291854155e-06   -7.130885072864396e-05
-3.0124677373755148e-05   -3.99670291854155e-06   -7.130885072864396e-05
-3.0124677373755148e-05   -3.99670291854155e-06   -7.130885072864396e-05
-3.0124677373755148e-05   -3.99670291854155e-06   -7.130885072864396e-05
-2.874532154771304e-05   1.5279666304057922e-06   -2.287224323311069e-05
-2.874532154771304e-05   1.5279666304057922e-06   -2.287224323311069e-05
-2.874532154771304e-05   1.5279666304057922e-06   -2.287224323311069e-05
-2.874532154771304e-05   1.5279666304057922e-06   -2.287224323311069e-05
-4.871695619416603e-07   -3.570635723943588e-06   -6.69100017967871e-05
-4.871695619416603e-07   -3.570635723943588e-06   -6.69100017967871e-05
-4.871695619416603e-07   -3.570635723943588e-06   -6.69100017967871e-05
-4.871695619416603e-07   -3.570635723943588e-06   -6.69100017967871e-05
-1.5066972674186564e-05   -7.817140826446231e-07   -4.428368292782475e-05
-1.5066972674186564e-05   -7.817140826446231e-07   -4.428368292782475e-05
-1.5066972674186564e-05   -7.817140826446231e-07   -4.428368292782475e-05
-1.5066972674186564e-05   -7.817140826446231e-07   -4.428368292782475e-05
-4.871695619416603e-07   1.5279666304057922e-06   -1.9813081820501365e-05
-4.871695619416603e-07   1.5279666304057922e-06   -1.9813081820501365e-05
-4.871695619416603e-07   1.5279666304057922e-06   -1.9813081820501365e-05
-4.871695619416603e-07   1.5279666304057922e-06   -1.9813081820501365e-05
-2.874532154771304e-05   -3.5706357239431545e-06   -6.996916320939632e-05
-2.874532154771304e-05   -3.5706357239431545e-06   -6.996916320939632e-05
-2.874532154771304e-05   -3.5706357239431545e-06   -6.996916320939632e-05
-2.874532154771304e-05   -3.5706357239431545e-06   -6.996916320939632e-05
-2.7479819013853955e-05   2.525614513921269e-06   -2.246317249006793e-05
-2.7479819013853955e-05   2.525614513921269e-06   -2.246317249006793e-05
-2.7479819013853955e-05   2.525614513921269e-06   -2.246317249006793e-05
-2.7479819013853955e-05   2.525614513921269e-06   -2.246317249006793e-05
5.259128129357518e-07   -2.90606777474502e-06   -6.588038282818402e-05
5.259128129357518e-07   -2.90606777474502e-06   -6.588038282818402e-05
5.259128129357518e-07   -2.90606777474502e-06   -6.588038282818402e-05
5.259128129357518e-07   -2.90606777474502e-06   -6.588038282818402e-05
-1.3943244436720199e-05   -2.934234613017825e-07   -4.333270733349032e-05
-1.3943244436720199e-05   -2.934234613017825e-07   -4.333270733349032e-05
-1.3943244436720199e-05   -2.934234613017825e-07   -4.333270733349032e-05
-1.3943244436720199e-05   -2.934234613017825e-07   -4.333270733349032e-05
5.259128129357518e-07   2.525614513921269e-06   -1.9204163116867765e-05
5.259128129357518e-07   2.525614513921269e-06   -1.9204163116867765e-05
5.259128129357518e-07   2.525614513921269e-06   -1.9204163116867765e-05
5.259128129357518e-07   2.525614513921269e-06   -1.9204163116867765e-05
-2.747981901385401e-05   -2.9060677747454536e-06   -6.913939220138396e-05
-2.747981901385401e-05   -2.9060677747454536e-06   -6.913939220138396e-05
-2.747981901385401e-05   -2.9060677747454536e-06   -6.913939220138396e-05
-2.747981901385401e-05   -2.9060677747454536e-06   -6.913939220138396e-05
-2.662643925108445e-05   3.556713696954445e-06   -2.285159496964186e-05
-2.662643925108445e-05   3.556713696954445e-06   -2.285159496964186e-05
-2.662643925108445e-05   3.556713696954445e-06   -2.285159496964186e-05
-2.662643925108445e-05   3.556713696954445e-06   -2.285159496964186e-05
1.2475019417002638e-06   -2.2760451560397722e-06   -6.580850831248677e-05
1.2475019417002638e-06   -2.2760451560397722e-06   -6.580850831248677e-05
1.2475019417002638e-06   -2.2760451560397722e-06   -6.580850831248677e-05
1.2475019417002638e-06   -2.2760451560397722e-06   -6.580850831248677e-05
-1.3141454141382027e-05   2.5494567897944853e-07   -4.334550934169526e-05
-1.3141454141382027e-05   2.5494567897944853e-07   -4.334550934169526e-05
-1.3141454141382027e-05   2.5494567897944853e-07   -4.334550934169526e-05
-1.3141454141382027e-05   2.5494567897944853e-07   -4.334550934169526e-05
-3.0124677373755108e-05   5.189132432930135e-06   -1.717259958762779e-05
-3.0124677373755108e-05   5.189132432930135e-06   -1.717259958762779e-05
-3.0124677373755108e-05   5.189132432930135e-06   -1.717259958762779e-05
-3.0124677373755108e-05   5.189132432930135e-06   -1.717259958762779e-05
-5.900785053440907e-05   9.852325192844305e-07   -6.783356147023857e-05
-5.900785053440907e-05   9.852325192844305e-07   -6.783356147023857e-05
-5.900785053440907e-05   9.852325192844305e-07   -6.783356147023857e-05
-5.900785053440907e-05   9.852325192844305e-07   -6.783356147023857e-05
-5.704432649353063e-05   6.283208842580972e-06   -1.8305810009855558e-05
-5.704432649353063e-05   6.283208842580972e-06   -1.8305810009855558e-05
-5.704432649353063e-05   6.283208842580972e-06   -1.8305810009855558e-05
-5.704432649353063e-05   6.283208842580972e-06   -1.8305810009855558e-05
-2.8745321547712986e-05   1.7749063990881234e-06   -6.276583678678892e-05
-2.8745321547712986e-05   1.7749063990881234e-06   -6.276583678678892e-05
-2.8745321547712986e-05   1.7749063990881234e-06   -6.276583678678892e-05
-2.8745321547712986e-05   1.7749063990881234e-06   -6.276583678678892e-05
-4.327592608259482e-05   3.934673477432385e-06   -3.98440228089927e-05
-4.327592608259482e-05   3.934673477432385e-06   -3.98440228089927e-05
-4.327592608259482e-05   3.934673477432385e-06   -3.98440228089927e-05
-4.327592608259482e-05   3.934673477432385e-06   -3.98440228089927e-05
-2.8745321547712986e-05   6.283208842580972e-06   -1.560082854375959e-05
-2.8745321547712986e-05   6.283208842580972e-06   -1.560082854375959e-05
-2.8745321547712986e-05   6.283208842580972e-06   -1.560082854375959e-05
-2.8745321547712986e-05   6.283208842580972e-06   -1.560082854375959e-05
-5.704432649353072e-05   1.7749063990876897e-06   -6.547081825288535e-05
-5.704432649353072e-05   1.7749063990876897e-06   -6.547081825288535e-05
-5.704432649353072e-05   1.7749063990876897e-06   -6.547081825288535e-05
-5.704432649353072e-05   1.7749063990876897e-06   -6.547081825288535e-05
-5.51468075017679e-05   7.225489694500254e-06   -1.6680500943234847e-05
-5.51468075017679e-05   7.225489694500254e-06   -1.6680500943234847e-05
-5.51468075017679e-05   7.225489694500254e-06   -1.6680500943234847e-05
-5.51468075017679e-05   7.225489694500254e-06   -1.6680500943234847e-05
-2.747981901385401e-05   2.5020435854014936e-06   -5.9958080757632526e-05
-2.747981901385401e-05   2.5020435854014936e-06   -5.9958080757632526e-05
-2.747981901385401e-05   2.5020435854014936e-06   -5.9958080757632526e-05
-2.747981901385401e-05   2.5020435854014936e-06   -5.9958080757632526e-05
-4.150221731668069e-05   4.621713357700827e-06   -3.785921878296736e-05
-4.150221731668069e-05   4.621713357700827e-06   -3.785921878296736e-05
-4.150221731668069e-05   4.621713357700827e-06   -3.785921878296736e-05
-4.150221731668069e-05   4.621713357700827e-06   -3.785921878296736e-05
-2.747981901385394e-05   7.225489694500254e-06   -1.3846433277775938e-05
-2.747981901385394e-05   7.225489694500254e-06   -1.3846433277775938e-05
-2.747981901385394e-05   7.225489694500254e-06   -1.3846433277775938e-05
-2.747981901385394e-05   7.225489694500254e-06   -1.3846433277775938e-05
-5.5146807501768e-05   2.5020435854019273e-06   -6.279214842309206e-05
-5.5146807501768e-05   2.5020435854019273e-06   -6.279214842309206e-05
-5.5146807501768e-05   2.5020435854019273e-06   -6.279214842309206e-05
-5.5146807501768e-05   2.5020435854019273e-06   -6.279214842309206e-05
-5.3706522317178573e-05   8.268247251871398e-06   -1.6732842296322955e-05
-5.3706522317178573e-05   8.268247251871398e-06   -1.6732842296322955e-05
-5.3706522317178573e-05   8.268247251871398e-06   -1.6732842296322955e-05
-5.3706522317178573e-05   8.268247251871398e-06   -1.6732842296322955e-05
-2.6626439251084492e-05   3.11753755376969e-06   -5.877588825428572e-05
-2.6626439251084492e-05   3.11753755376969e-06   -5.877588825428572e-05
-2.6626439251084492e-05   3.11753755376969e-06   -5.877588825428572e-05
-2.6626439251084492e-05   3.11753755376969e-06   -5.877588825428572e-05
-4.050662980385755e-05   5.101136342009708e-06   -3.683239660594133e-05
-4.050662980385755e-05   5.101136342009708e-06   -3.683239660594133e-05
-4.050662980385755e-05   5.101136342009708e-06   -3.683239660594133e-05
-4.050662980385755e-05   5.101136342009708e-06   -3.683239660594133e-05
-5.900785053440907e-05   1.0203921083019613e-05   -9.856719229519835e-06
-5.900785053440907e-05   1.0203921083019613e-05   -9.856719229519835e-06
-5.900785053440907e-05   1.0203921083019613e-05   -9.856719229519835e-06
-5.900785053440907e-05   1.0203921083019613e-05   -9.856719229519835e-06
-8.917939851527501e-05   9.627649095464343e-06   -6.048839572349654e-05
-8.917939851527501e-05   9.627649095464343e-06   -6.048839572349654e-05
-8.917939851527501e-05   9.627649095464343e-06   -6.048839572349654e-05
-8.917939851527501e-05   9.627649095464343e-06   -6.048839572349654e-05
-8.531069019993015e-05   1.1657534410534475e-05   -3.1823339773084935e-07
-8.531069019993015e-05   1.1657534410534475e-05   -3.1823339773084935e-07
-8.531069019993015e-05   1.1657534410534475e-05   -3.1823339773084935e-07
-8.531069019993015e-05   1.1657534410534475e-05   -3.1823339773084935e-07
-5.7044326493530526e-05   1.2195531778026562e-05   -4.775163799555897e-05
-5.7044326493530526e-05   1.2195531778026562e-05   -4.775163799555897e-05
-5.7044326493530526e-05   1.2195531778026562e-05   -4.775163799555897e-05
-5.7044326493530526e-05   1.2195531778026562e-05   -4.775163799555897e-05
-6.95027271505214e-05   1.1500179227022338e-05   -2.6570425369971883e-05
-6.95027271505214e-05   1.1500179227022338e-05   -2.6570425369971883e-05
-6.95027271505214e-05   1.1500179227022338e-05   -2.6570425369971883e-05
-6.95027271505214e-05   1.1500179227022338e-05   -2.6570425369971883e-05
-5.7044326493530675e-05   1.1657534410534475e-05   -6.41031818226015e-07
-5.7044326493530675e-05   1.1657534410534475e-05   -6.41031818226015e-07
-5.7044326493530675e-05   1.1657534410534475e-05   -6.41031818226015e-07
-5.7044326493530675e-05   1.1657534410534475e-05   -6.41031818226015e-07
-8.531069019993015e-05   1.2195531778026562e-05   -4.742883957506352e-05
-8.531069019993015e-05   1.2195531778026562e-05   -4.742883957506352e-05
-8.531069019993015e-05   1.2195531778026562e-05   -4.742883957506352e-05
-8.531069019993015e-05   1.2195531778026562e-05   -4.742883957506352e-05
-8.210127937814137e-05   1.2039693542515231e-05   5.074031113348537e-06
-8.210127937814137e-05   1.2039693542515231e-05   5.074031113348537e-06
-8.210127937814137e-05   1.2039693542515231e-05   5.074031113348537e-06
-8.210127937814137e-05   1.2039693542515231e-05   5.074031113348537e-06
-5.51468075017679e-05   1.2772292034227833e-05   -4.0289647775634904e-05
-5.51468075017679e-05   1.2772292034227833e-05   -4.0289647775634904e-05
-5.51468075017679e-05   1.2772292034227833e-05   -4.0289647775634904e-05
-5.51468075017679e-05   1.2772292034227833e-05   -4.0289647775634904e-05
-6.803389729679834e-05   1.2336428533287792e-05   -1.854964668335285e-05
-6.803389729679834e-05   1.2336428533287792e-05   -1.854964668335285e-05
-6.803389729679834e-05   1.2336428533287792e-05   -1.854964668335285e-05
-6.803389729679834e-05   1.2336428533287792e-05   -1.854964668335285e-05
-5.5146807501768e-05   1.2039693542514798e-05   4.634472018320802e-06
-5.5146807501768e-05   1.2039693542514798e-05   4.634472018320802e-06
-5.5146807501768e-05   1.2039693542514798e-05   4.634472018320802e-06
-5.5146807501768e-05   1.2039693542514798e-05   4.634472018320802e-06
-8.21012793781412e-05   1.2772292034228267e-05   -3.985008868060704e-05
-8.21012793781412e-05   1.2772292034228267e-05   -3.985008868060704e-05
-8.21012793781412e-05   1.2772292034228267e-05   -3.985008868060704e-05
-8.21012793781412e-05   1.2772292034228267e-05   -3.985008868060704e-05
-7.874546971706068e-05   1.2369891294320822e-05   1.2298317151949014e-05
-7.874546971706068e-05   1.2369891294320822e-05   1.2298317151949014e-05
-7.874546971706068e-05   1.2369891294320822e-05   1.2298317151949014e-05
-7.874546971706068e-05   1.2369891294320822e-05   1.2298317151949014e-05
-5.3706522317178573e-05   1.3765119809874913e-05   -3.0270398957186914e-05
-5.3706522317178573e-05   1.3765119809874913e-05   -3.0270398957186914e-05
-5.3706522317178573e-05   1.3765119809874913e-05   -3.0270398957186914e-05
-5.3706522317178573e-05   1.3765119809874913e-05   -3.0270398957186914e-05
-6.479588293454048e-05   1.2618397599568551e-05   -1.1100097935400755e-05
-6.479588293454048e-05   1.2618397599568551e-05   -1.1100097935400755e-05
-6.479588293454048e-05   1.2618397599568551e-05   -1.1100097935400755e-05
-6.479588293454048e-05   1.2618397599568551e-05   -1.1100097935400755e-05
7.78179595345113e-05   -1.1691758666019635e-05   2.652120549287754e-05
7.78179595345113e-05   -1.1691758666019635e-05   2.652120549287754e-05
7.78179595345113e-05   -1.1691758666019635e-05   2.652120549287754e-05
7.78179595345113e-05   -1.1691758666019635e-05   2.652120549287754e-05
3.912412850756876e-05   -1.4790076379458082e-05   -3.982750351342332e-05
3.912412850756876e-05   -1.4790076379458082e-05   -3.982750351342332e-05
3.912412850756876e-05   -1.4790076379458082e-05   -3.982750351342332e-05
3.912412850756876e-05   -1.4790076379458082e-05   -3.982750351342332e-05
4.008276640268647e-05   -1.1418119475422196e-05   1.9017263186877752e-05
4.008276640268647e-05   -1.1418119475422196e-05   1.9017263186877752e-05
4.008276640268647e-05   -1.1418119475422196e-05   1.9017263186877752e-05
4.008276640268647e-05   -1.1418119475422196e-05   1.9017263186877752e-05
7.976061762776527e-05   -1.5160038267135294e-05   -4.48673375798924e-05
7.976061762776527e-05   -1.5160038267135294e-05   -4.48673375798924e-05
7.976061762776527e-05   -1.5160038267135294e-05   -4.48673375798924e-05
7.976061762776527e-05   -1.5160038267135294e-05   -4.48673375798924e-05
5.683887460479603e-05   -1.1942978870712814e-05   -8.594668179463696e-06
5.683887460479603e-05   -1.1942978870712814e-05   -8.594668179463696e-06
5.683887460479603e-05   -1.1942978870712814e-05   -8.594668179463696e-06
5.683887460479603e-05   -1.1942978870712814e-05   -8.594668179463696e-06
7.976061762776527e-05   -1.1418119475422196e-05   2.126241446190574e-05
7.976061762776527e-05   -1.1418119475422196e-05   2.126241446190574e-05
7.976061762776527e-05   -1.1418119475422196e-05   2.126241446190574e-05
7.976061762776527e-05   -1.1418119475422196e-05   2.126241446190574e-05
4.008276640268647e-05   -1.5160038267135294e-05   -4.711248885491985e-05
4.008276640268647e-05   -1.5160038267135294e-05   -4.711248885491985e-05
4.008276640268647e-05   -1.5160038267135294e-05   -4.711248885491985e-05
4.008276640268647e-05   -1.5160038267135294e-05   -4.711248885491985e-05
4.089311571721073e-05   -1.1021915182145292e-05   1.5002093983174612e-05
4.089311571721073e-05   -1.1021915182145292e-05   1.5002093983174612e-05
4.089311571721073e-05   -1.1021915182145292e-05   1.5002093983174612e-05
4.089311571721073e-05   -1.1021915182145292e-05   1.5002093983174612e-05
8.097157859944258e-05   -1.502322791031548e-05   -4.939455651697651e-05
8.097157859944258e-05   -1.502322791031548e-05   -4.939455651697651e-05
8.097157859944258e-05   -1.502322791031548e-05   -4.939455651697651e-05
8.097157859944258e-05   -1.502322791031548e-05   -4.939455651697651e-05
5.884507358784828e-05   -1.232085915928334e-05   -1.413846941493896e-05
5.884507358784828e-05   -1.232085915928334e-05   -1.413846941493896e-05
5.884507358784828e-05   -1.232085915928334e-05   -1.413846941493896e-05
5.884507358784828e-05   -1.232085915928334e-05   -1.413846941493896e-05
8.097157859944258e-05   -1.1021915182145292e-05   1.740288162007655e-05
8.097157859944258e-05   -1.1021915182145292e-05   1.740288162007655e-05
8.097157859944258e-05   -1.1021915182145292e-05   1.740288162007655e-05
8.097157859944258e-05   -1.1021915182145292e-05   1.740288162007655e-05
4.089311571721073e-05   -1.502322791031548e-05   -5.179534415387867e-05
4.089311571721073e-05   -1.502322791031548e-05   -5.179534415387867e-05
4.089311571721073e-05   -1.502322791031548e-05   -5.179534415387867e-05
4.089311571721073e-05   -1.502322791031548e-05   -5.179534415387867e-05
4.174014415016147e-05   -9.47580469126989e-06   7.208138054533818e-06
4.174014415016147e-05   -9.47580469126989e-06   7.208138054533818e-06
4.174014415016147e-05   -9.47580469126989e-06   7.208138054533818e-06
4.174014415016147e-05   -9.47580469126989e-06   7.208138054533818e-06
8.216392577086289e-05   -1.4189014861847385e-05   -5.733690521095579e-05
8.216392577086289e-05   -1.4189014861847385e-05   -5.733690521095579e-05
8.216392577086289e-05   -1.4189014861847385e-05   -5.733690521095579e-05
8.216392577086289e-05   -1.4189014861847385e-05   -5.733690521095579e-05
5.8876852364357627e-05   -1.1858343434536893e-05   -1.9923519056499962e-05
5.8876852364357627e-05   -1.1858343434536893e-05   -1.9923519056499962e-05
5.8876852364357627e-05   -1.1858343434536893e-05   -1.9923519056499962e-05
5.8876852364357627e-05   -1.1858343434536893e-05   -1.9923519056499962e-05
3.912412850756876e-05   -7.585433713695657e-06   2.5850961592687426e-06
3.912412850756876e-05   -7.585433713695657e-06   2.5850961592687426e-06
3.912412850756876e-05   -7.585433713695657e-06   2.5850961592687426e-06
3.912412850756876e-05   -7.585433713695657e-06   2.5850961592687426e-06
4.6642772650009245e-06   -1.4859449884325419e-05   -5.921239894738869e-05
4.6642772650009245e-06   -1.4859449884325419e-05   -5.921239894738869e-05
4.6642772650009245e-06   -1.4859449884325419e-05   -5.921239894738869e-05
4.6642772650009245e-06   -1.4859449884325419e-05   -5.921239894738869e-05
5.781828226466147e-06   -7.2235003513209176e-06   -3.976176122604501e-07
5.781828226466147e-06   -7.2235003513209176e-06   -3.976176122604501e-07
5.781828226466147e-06   -7.2235003513209176e-06   -3.976176122604501e-07
5.781828226466147e-06   -7.2235003513209176e-06   -3.976176122604501e-07
4.0082766402686526e-05   -1.4784121369513722e-05   -5.302947529504557e-05
4.0082766402686526e-05   -1.4784121369513722e-05   -5.302947529504557e-05
4.0082766402686526e-05   -1.4784121369513722e-05   -5.302947529504557e-05
4.0082766402686526e-05   -1.4784121369513722e-05   -5.302947529504557e-05
2.2501073158411356e-05   -1.0023658484876932e-05   -2.658293095203555e-05
2.2501073158411356e-05   -1.0023658484876932e-05   -2.658293095203555e-05
2.2501073158411356e-05   -1.0023658484876932e-05   -2.658293095203555e-05
2.2501073158411356e-05   -1.0023658484876932e-05   -2.658293095203555e-05
4.0082766402686445e-05   -7.2235003513209176e-06   4.138754998655276e-06
4.0082766402686445e-05   -7.2235003513209176e-06   4.138754998655276e-06
4.0082766402686445e-05   -7.2235003513209176e-06   4.138754998655276e-06
4.0082766402686445e-05   -7.2235003513209176e-06   4.138754998655276e-06
5.78182822646612e-06   -1.4784121369513289e-05   -5.7565847905961245e-05
5.78182822646612e-06   -1.4784121369513289e-05   -5.7565847905961245e-05
5.78182822646612e-06   -1.4784121369513289e-05   -5.7565847905961245e-05
5.78182822646612e-06   -1.4784121369513289e-05   -5.7565847905961245e-05
6.790635197029721e-06   -6.548769603590809e-06   -7.609892249968789e-07
6.790635197029721e-06   -6.548769603590809e-06   -7.609892249968789e-07
6.790635197029721e-06   -6.548769603590809e-06   -7.609892249968789e-07
6.790635197029721e-06   -6.548769603590809e-06   -7.609892249968789e-07
4.089311571721073e-05   -1.458688598165699e-05   -5.277558693179198e-05
4.089311571721073e-05   -1.458688598165699e-05   -5.277558693179198e-05
4.089311571721073e-05   -1.458688598165699e-05   -5.277558693179198e-05
4.089311571721073e-05   -1.458688598165699e-05   -5.277558693179198e-05
2.3136396157285934e-05   -1.0135075601131784e-05   -2.585214056023173e-05
2.3136396157285934e-05   -1.0135075601131784e-05   -2.585214056023173e-05
2.3136396157285934e-05   -1.0135075601131784e-05   -2.585214056023173e-05
2.3136396157285934e-05   -1.0135075601131784e-05   -2.585214056023173e-05
4.089311571721073e-05   -6.548769603590809e-06   4.061880601843046e-06
4.089311571721073e-05   -6.548769603590809e-06   4.061880601843046e-06
4.089311571721073e-05   -6.548769603590809e-06   4.061880601843046e-06
4.089311571721073e-05   -6.548769603590809e-06   4.061880601843046e-06
6.790635197029694e-06   -1.458688598165699e-05   -5.759845675863185e-05
6.790635197029694e-06   -1.458688598165699e-05   -5.759845675863185e-05
6.790635197029694e-06   -1.458688598165699e-05   -5.759845675863185e-05
6.790635197029694e-06   -1.458688598165699e-05   -5.759845675863185e-05
8.296032534761618e-06   -5.58884963071599e-06   -1.4597164637330552e-06
8.296032534761618e-06   -5.58884963071599e-06   -1.4597164637330552e-06
8.296032534761618e-06   -5.58884963071599e-06   -1.4597164637330552e-06
8.296032534761618e-06   -5.58884963071599e-06   -1.4597164637330552e-06
4.174014415016147e-05   -1.419205402446817e-05   -5.203797985314833e-05
4.174014415016147e-05   -1.419205402446817e-05   -5.203797985314833e-05
4.174014415016147e-05   -1.419205402446817e-05   -5.203797985314833e-05
4.174014415016147e-05   -1.419205402446817e-05   -5.203797985314833e-05
2.4345849565336563e-05   -9.979238947773698e-06   -2.557517792445708e-05
2.4345849565336563e-05   -9.979238947773698e-06   -2.557517792445708e-05
2.4345849565336563e-05   -9.979238947773698e-06   -2.557517792445708e-05
2.4345849565336563e-05   -9.979238947773698e-06   -2.557517792445708e-05
4.6642772650009245e-06   -3.99670291854155e-06   -5.937800846012465e-06
4.6642772650009245e-06   -3.99670291854155e-06   -5.937800846012465e-06
4.6642772650009245e-06   -3.99670291854155e-06   -5.937800846012465e-06
4.6642772650009245e-06   -3.99670291854155e-06   -5.937800846012465e-06
-2.9440188688726742e-05   -1.794881690101932e-05   -7.114984582504516e-05
-2.9440188688726742e-05   -1.794881690101932e-05   -7.114984582504516e-05
-2.9440188688726742e-05   -1.794881690101932e-05   -7.114984582504516e-05
-2.9440188688726742e-05   -1.794881690101932e-05   -7.114984582504516e-05
-2.7699629325073885e-05   -3.5706357239431545e-06   -1.2785874653968576e-05
-2.7699629325073885e-05   -3.5706357239431545e-06   -1.2785874653968576e-05
-2.7699629325073885e-05   -3.5706357239431545e-06   -1.2785874653968576e-05
-2.7699629325073885e-05   -3.5706357239431545e-06   -1.2785874653968576e-05
5.78182822646612e-06   -1.8347229745661886e-05   -5.972234749350436e-05
5.78182822646612e-06   -1.8347229745661886e-05   -5.972234749350436e-05
5.78182822646612e-06   -1.8347229745661886e-05   -5.972234749350436e-05
5.78182822646612e-06   -1.8347229745661886e-05   -5.972234749350436e-05
-1.127872523637466e-05   -1.0154149699155048e-05   -3.6203939750006876e-05
-1.127872523637466e-05   -1.0154149699155048e-05   -3.6203939750006876e-05
-1.127872523637466e-05   -1.0154149699155048e-05   -3.6203939750006876e-05
-1.127872523637466e-05   -1.0154149699155048e-05   -3.6203939750006876e-05
5.78182822646612e-06   -3.5706357239431545e-06   -3.919918240937728e-06
5.78182822646612e-06   -3.5706357239431545e-06   -3.919918240937728e-06
5.78182822646612e-06   -3.5706357239431545e-06   -3.919918240937728e-06
5.78182822646612e-06   -3.5706357239431545e-06   -3.919918240937728e-06
-2.7699629325073926e-05   -1.8347229745661886e-05   -6.858830390653586e-05
-2.7699629325073926e-05   -1.8347229745661886e-05   -6.858830390653586e-05
-2.7699629325073926e-05   -1.8347229745661886e-05   -6.858830390653586e-05
-2.7699629325073926e-05   -1.8347229745661886e-05   -6.858830390653586e-05
-2.620002565310681e-05   -2.9060677747454536e-06   -1.1941669663618083e-05
-2.620002565310681e-05   -2.9060677747454536e-06   -1.1941669663618083e-05
-2.620002565310681e-05   -2.9060677747454536e-06   -1.1941669663618083e-05
-2.620002565310681e-05   -2.9060677747454536e-06   -1.1941669663618083e-05
6.790635197029694e-06   -1.8263170642655955e-05   -5.771184269309947e-05
6.790635197029694e-06   -1.8263170642655955e-05   -5.771184269309947e-05
6.790635197029694e-06   -1.8263170642655955e-05   -5.771184269309947e-05
6.790635197029694e-06   -1.8263170642655955e-05   -5.771184269309947e-05
-1.0042638782651953e-05   -1.038553329787929e-05   -3.438296846716276e-05
-1.0042638782651953e-05   -1.038553329787929e-05   -3.438296846716276e-05
-1.0042638782651953e-05   -1.038553329787929e-05   -3.438296846716276e-05
-1.0042638782651953e-05   -1.038553329787929e-05   -3.438296846716276e-05
6.790635197029694e-06   -2.9060677747454536e-06   -2.7274079428718685e-06
6.790635197029694e-06   -2.9060677747454536e-06   -2.7274079428718685e-06
6.790635197029694e-06   -2.9060677747454536e-06   -2.7274079428718685e-06
6.790635197029694e-06   -2.9060677747454536e-06   -2.7274079428718685e-06
-2.6200025653106904e-05   -1.8263170642655955e-05   -6.692610441384598e-05
-2.6200025653106904e-05   -1.8263170642655955e-05   -6.692610441384598e-05
-2.6200025653106904e-05   -1.8263170642655955e-05   -6.692610441384598e-05
-2.6200025653106904e-05   -1.8263170642655955e-05   -6.692610441384598e-05
-2.3612831383589743e-05   -2.2760451560393385e-06   -1.1890651009725806e-05
-2.3612831383589743e-05   -2.2760451560393385e-06   -1.1890651009725806e-05
-2.3612831383589743e-05   -2.2760451560393385e-06   -1.1890651009725806e-05
-2.3612831383589743e-05   -2.2760451560393385e-06   -1.1890651009725806e-05
8.296032534761618e-06   -1.76248435103713e-05   -5.586281186104576e-05
8.296032534761618e-06   -1.76248435103713e-05   -5.586281186104576e-05
8.296032534761618e-06   -1.76248435103713e-05   -5.586281186104576e-05
8.296032534761618e-06   -1.76248435103713e-05   -5.586281186104576e-05
-8.436393698585226e-06   -1.0156826784145367e-05   -3.245624484120345e-05
-8.436393698585226e-06   -1.0156826784145367e-05   -3.245624484120345e-05
-8.436393698585226e-06   -1.0156826784145367e-05   -3.245624484120345e-05
-8.436393698585226e-06   -1.0156826784145367e-05   -3.245624484120345e-05
-2.9440188688726674e-05   9.852325192844305e-07   -8.311440028906103e-06
-2.9440188688726674e-05   9.852325192844305e-07   -8.311440028906103e-06
-2.9440188688726674e-05   9.852325192844305e-07   -8.311440028906103e-06
-2.9440188688726674e-05   9.852325192844305e-07   -8.311440028906103e-06
-6.749899597052419e-05   -2.240203066499781e-05   -8.577514340913825e-05
-6.749899597052419e-05   -2.240203066499781e-05   -8.577514340913825e-05
-6.749899597052419e-05   -2.240203066499781e-05   -8.577514340913825e-05
-6.749899597052419e-05   -2.240203066499781e-05   -8.577514340913825e-05
-6.542208854901085e-05   1.7749063990881234e-06   -2.1650430922434466e-05
-6.542208854901085e-05   1.7749063990881234e-06   -2.1650430922434466e-05
-6.542208854901085e-05   1.7749063990881234e-06   -2.1650430922434466e-05
-6.542208854901085e-05   1.7749063990881234e-06   -2.1650430922434466e-05
-2.7699629325073885e-05   -2.500489808603427e-05   -6.845331360458954e-05
-2.7699629325073885e-05   -2.500489808603427e-05   -6.845331360458954e-05
-2.7699629325073885e-05   -2.500489808603427e-05   -6.845331360458954e-05
-2.7699629325073885e-05   -2.500489808603427e-05   -6.845331360458954e-05
-4.683047866040256e-05   -1.1404256170049597e-05   -4.472894986196595e-05
-4.683047866040256e-05   -1.1404256170049597e-05   -4.472894986196595e-05
-4.683047866040256e-05   -1.1404256170049597e-05   -4.472894986196595e-05
-4.683047866040256e-05   -1.1404256170049597e-05   -4.472894986196595e-05
-2.7699629325073885e-05   1.7749063990876897e-06   -5.582548231361419e-06
-2.7699629325073885e-05   1.7749063990876897e-06   -5.582548231361419e-06
-2.7699629325073885e-05   1.7749063990876897e-06   -5.582548231361419e-06
-2.7699629325073885e-05   1.7749063990876897e-06   -5.582548231361419e-06
-6.542208854901085e-05   -2.5004898086033837e-05   -8.452119629566283e-05
-6.542208854901085e-05   -2.5004898086033837e-05   -8.452119629566283e-05
-6.542208854901085e-05   -2.5004898086033837e-05   -8.452119629566283e-05
-6.542208854901085e-05   -2.5004898086033837e-05   -8.452119629566283e-05
-6.34309870684949e-05   2.5020435854014936e-06   -1.934930959892841e-05
-6.34309870684949e-05   2.5020435854014936e-06   -1.934930959892841e-05
-6.34309870684949e-05   2.5020435854014936e-06   -1.934930959892841e-05
-6.34309870684949e-05   2.5020435854014936e-06   -1.934930959892841e-05
-2.6200025653106863e-05   -2.5146208713034898e-05   -6.481196057884662e-05
-2.6200025653106863e-05   -2.5146208713034898e-05   -6.481196057884662e-05
-2.6200025653106863e-05   -2.5146208713034898e-05   -6.481196057884662e-05
-2.6200025653106863e-05   -2.5146208713034898e-05   -6.481196057884662e-05
-4.48054527597728e-05   -1.1444535694648574e-05   -4.202391921210159e-05
-4.48054527597728e-05   -1.1444535694648574e-05   -4.202391921210159e-05
-4.48054527597728e-05   -1.1444535694648574e-05   -4.202391921210159e-05
-4.48054527597728e-05   -1.1444535694648574e-05   -4.202391921210159e-05
-2.6200025653106836e-05   2.5020435854014936e-06   -2.760358219866402e-06
-2.6200025653106836e-05   2.5020435854014936e-06   -2.760358219866402e-06
-2.6200025653106836e-05   2.5020435854014936e-06   -2.760358219866402e-06
-2.6200025653106836e-05   2.5020435854014936e-06   -2.760358219866402e-06
-6.343098706849501e-05   -2.5146208713034898e-05   -8.140091195790863e-05
-6.343098706849501e-05   -2.5146208713034898e-05   -8.140091195790863e-05
-6.343098706849501e-05   -2.5146208713034898e-05   -8.140091195790863e-05
-6.343098706849501e-05   -2.5146208713034898e-05   -8.140091195790863e-05
-6.0168728757566185e-05   3.11753755376969e-06   -1.700455349929581e-05
-6.0168728757566185e-05   3.11753755376969e-06   -1.700455349929581e-05
-6.0168728757566185e-05   3.11753755376969e-06   -1.700455349929581e-05
-6.0168728757566185e-05   3.11753755376969e-06   -1.700455349929581e-05
-2.3612831383589824e-05   -2.2959425545509334e-05   -6.228487126302255e-05
-2.3612831383589824e-05   -2.2959425545509334e-05   -6.228487126302255e-05
-2.3612831383589824e-05   -2.2959425545509334e-05   -6.228487126302255e-05
-2.3612831383589824e-05   -2.2959425545509334e-05   -6.228487126302255e-05
-4.280438363276787e-05   -1.0115909864851641e-05   -3.8005060256119484e-05
-4.280438363276787e-05   -1.0115909864851641e-05   -3.8005060256119484e-05
-4.280438363276787e-05   -1.0115909864851641e-05   -3.8005060256119484e-05
-4.280438363276787e-05   -1.0115909864851641e-05   -3.8005060256119484e-05
-6.749899597052419e-05   9.627649095464777e-06   -1.4652869000200772e-05
-6.749899597052419e-05   9.627649095464777e-06   -1.4652869000200772e-05
-6.749899597052419e-05   9.627649095464777e-06   -1.4652869000200772e-05
-6.749899597052419e-05   9.627649095464777e-06   -1.4652869000200772e-05
-0.00011626157991697508   0.0   -0.0001017004317015644
-0.00011626157991697508   0.0   -0.0001017004317015644
-0.00011626157991697508   0.0   -0.0001017004317015644
-0.00011626157991697508   0.0   -0.0001017004317015644
-0.00011322116702368329   1.2195531778026996e-05   -1.1248569731924776e-05
-0.00011322116702368329   1.2195531778026996e-05   -1.1248569731924776e-05
-0.00011322116702368329   1.2195531778026996e-05   -1.1248569731924776e-05
-0.00011322116702368329   1.2195531778026996e-05   -1.1248569731924776e-05
-6.542208854901075e-05   0.0   -8.359638145622955e-05
-6.542208854901075e-05   0.0   -8.359638145622955e-05
-6.542208854901075e-05   0.0   -8.359638145622955e-05
-6.542208854901075e-05   0.0   -8.359638145622955e-05
-8.675094614322217e-05   3.7231305106376344e-06   -5.0282163772260026e-05
-8.675094614322217e-05   3.7231305106376344e-06   -5.0282163772260026e-05
-8.675094614322217e-05   3.7231305106376344e-06   -5.0282163772260026e-05
-8.675094614322217e-05   3.7231305106376344e-06   -5.0282163772260026e-05
-6.54220885490108e-05   1.2195531778026562e-05   -3.931250665108448e-06
-6.54220885490108e-05   1.2195531778026562e-05   -3.931250665108448e-06
-6.54220885490108e-05   1.2195531778026562e-05   -3.931250665108448e-06
-6.54220885490108e-05   1.2195531778026562e-05   -3.931250665108448e-06
-0.0001132211670236831   0.0   -9.091370052304558e-05
-0.0001132211670236831   0.0   -9.091370052304558e-05
-0.0001132211670236831   0.0   -9.091370052304558e-05
-0.0001132211670236831   0.0   -9.091370052304558e-05
-0.00011065008000163739   1.2772292034228267e-05   -4.510184172008477e-06
-0.00011065008000163739   1.2772292034228267e-05   -4.510184172008477e-06
-0.00011065008000163739   1.2772292034228267e-05   -4.510184172008477e-06
-0.00011065008000163739   1.2772292034228267e-05   -4.510184172008477e-06
-6.343098706849501e-05   0.0   -7.554529717337605e-05
-6.343098706849501e-05   0.0   -7.554529717337605e-05
-6.343098706849501e-05   0.0   -7.554529717337605e-05
-6.343098706849501e-05   0.0   -7.554529717337605e-05
-8.584123272127325e-05   5.90465744468088e-06   -4.173768221888629e-05
-8.584123272127325e-05   5.90465744468088e-06   -4.173768221888629e-05
-8.584123272127325e-05   5.90465744468088e-06   -4.173768221888629e-05
-8.584123272127325e-05   5.90465744468088e-06   -4.173768221888629e-05
-6.343098706849501e-05   1.2772292034227833e-05   3.1531910485282227e-06
-6.343098706849501e-05   1.2772292034227833e-05   3.1531910485282227e-06
-6.343098706849501e-05   1.2772292034227833e-05   3.1531910485282227e-06
-6.343098706849501e-05   1.2772292034227833e-05   3.1531910485282227e-06
-0.00011065008000163718   0.0   -8.320867239391266e-05
-0.00011065008000163718   0.0   -8.320867239391266e-05
-0.00011065008000163718   0.0   -8.320867239391266e-05
-0.00011065008000163718   0.0   -8.320867239391266e-05
-0.00010552120853085678   1.376511980987448e-05   6.332289730738919e-06
-0.00010552120853085678   1.376511980987448e-05   6.332289730738919e-06
-0.00010552120853085678   1.376511980987448e-05   6.332289730738919e-06
-0.00010552120853085678   1.376511980987448e-05   6.332289730738919e-06
-6.0168728757566294e-05   0.0   -6.099610467215401e-05
-6.0168728757566294e-05   0.0   -6.099610467215401e-05
-6.0168728757566294e-05   0.0   -6.099610467215401e-05
-6.0168728757566294e-05   0.0   -6.099610467215401e-05
-8.136807988655637e-05   7.284571731895097e-06   -3.0034595829640635e-05
-8.136807988655637e-05   7.284571731895097e-06   -3.0034595829640635e-05
-8.136807988655637e-05   7.284571731895097e-06   -3.0034595829640635e-05
-8.136807988655637e-05   7.284571731895097e-06   -3.0034595829640635e-05
8.609372845997182e-05   -1.4790076379458082e-05   5.1403241898751676e-05
8.609372845997182e-05   -1.4790076379458082e-05   5.1403241898751676e-05
8.609372845997182e-05   -1.4790076379458082e-05   5.1403241898751676e-05
8.609372845997182e-05   -1.4790076379458082e-05   5.1403241898751676e-05
4.467674037409713e-05   -1.139055112331323e-05   -1.558535642401924e-05
4.467674037409713e-05   -1.139055112331323e-05   -1.558535642401924e-05
4.467674037409713e-05   -1.139055112331323e-05   -1.558535642401924e-05
4.467674037409713e-05   -1.139055112331323e-05   -1.558535642401924e-05
4.3551073826010237e-05   -1.5160038267135294e-05   4.540603087349647e-05
4.3551073826010237e-05   -1.5160038267135294e-05   4.540603087349647e-05
4.3551073826010237e-05   -1.5160038267135294e-05   4.540603087349647e-05
4.3551073826010237e-05   -1.5160038267135294e-05   4.540603087349647e-05
8.517056093376026e-05   -1.2524683609807085e-05   -2.554099376715009e-05
8.517056093376026e-05   -1.2524683609807085e-05   -2.554099376715009e-05
8.517056093376026e-05   -1.2524683609807085e-05   -2.554099376715009e-05
8.517056093376026e-05   -1.2524683609807085e-05   -2.554099376715009e-05
6.221890268012004e-05   -1.2740793003034132e-05   1.2841435624853228e-05
6.221890268012004e-05   -1.2740793003034132e-05   1.2841435624853228e-05
6.221890268012004e-05   -1.2740793003034132e-05   1.2841435624853228e-05
6.221890268012004e-05   -1.2740793003034132e-05   1.2841435624853228e-05
8.517056093376026e-05   -1.5160038267135294e-05   4.3824818079100155e-05
8.517056093376026e-05   -1.5160038267135294e-05   4.3824818079100155e-05
8.517056093376026e-05   -1.5160038267135294e-05   4.3824818079100155e-05
8.517056093376026e-05   -1.5160038267135294e-05   4.3824818079100155e-05
4.3551073826010237e-05   -1.2524683609807085e-05   -2.395978097275331e-05
4.3551073826010237e-05   -1.2524683609807085e-05   -2.395978097275331e-05
4.3551073826010237e-05   -1.2524683609807085e-05   -2.395978097275331e-05
4.3551073826010237e-05   -1.2524683609807085e-05   -2.395978097275331e-05
4.2532926407170966e-05   -1.502322791031548e-05   4.077071064697473e-05
4.2532926407170966e-05   -1.502322791031548e-05   4.077071064697473e-05
4.2532926407170966e-05   -1.502322791031548e-05   4.077071064697473e-05
4.2532926407170966e-05   -1.502322791031548e-05   4.077071064697473e-05
8.410349723118422e-05   -1.262950072319349e-05   -2.994981037198743e-05
8.410349723118422e-05   -1.262950072319349e-05   -2.994981037198743e-05
8.410349723118422e-05   -1.262950072319349e-05   -2.994981037198743e-05
8.410349723118422e-05   -1.262950072319349e-05   -2.994981037198743e-05
6.216964475724937e-05   -1.2964225634340062e-05   6.807445364591998e-06
6.216964475724937e-05   -1.2964225634340062e-05   6.807445364591998e-06
6.216964475724937e-05   -1.2964225634340062e-05   6.807445364591998e-06
6.216964475724937e-05   -1.2964225634340062e-05   6.807445364591998e-06
8.410349723118436e-05   -1.502322791031548e-05   3.9334474334701535e-05
8.410349723118436e-05   -1.502322791031548e-05   3.9334474334701535e-05
8.410349723118436e-05   -1.502322791031548e-05   3.9334474334701535e-05
8.410349723118436e-05   -1.502322791031548e-05   3.9334474334701535e-05
4.2532926407170966e-05   -1.262950072319349e-05   -2.8513574059714237e-05
4.2532926407170966e-05   -1.262950072319349e-05   -2.8513574059714237e-05
4.2532926407170966e-05   -1.262950072319349e-05   -2.8513574059714237e-05
4.2532926407170966e-05   -1.262950072319349e-05   -2.8513574059714237e-05
4.1290844317425795e-05   -1.4189014861847385e-05   3.322947785441843e-05
4.1290844317425795e-05   -1.4189014861847385e-05   3.322947785441843e-05
4.1290844317425795e-05   -1.4189014861847385e-05   3.322947785441843e-05
4.1290844317425795e-05   -1.4189014861847385e-05   3.322947785441843e-05
8.243165249084161e-05   -1.2367532899488533e-05   -3.643142494535605e-05
8.243165249084161e-05   -1.2367532899488533e-05   -3.643142494535605e-05
8.243165249084161e-05   -1.2367532899488533e-05   -3.643142494535605e-05
8.243165249084161e-05   -1.2367532899488533e-05   -3.643142494535605e-05
6.0045502394625866e-05   -1.2327872953874462e-05   8.550292476350394e-07
6.0045502394625866e-05   -1.2327872953874462e-05   8.550292476350394e-07
6.0045502394625866e-05   -1.2327872953874462e-05   8.550292476350394e-07
6.0045502394625866e-05   -1.2327872953874462e-05   8.550292476350394e-07
4.467674037409713e-05   -1.4859449884325419e-05   3.842247132085103e-05
4.467674037409713e-05   -1.4859449884325419e-05   3.842247132085103e-05
4.467674037409713e-05   -1.4859449884325419e-05   3.842247132085103e-05
4.467674037409713e-05   -1.4859449884325419e-05   3.842247132085103e-05
9.539916493421253e-06   -7.050321691723805e-06   -1.545342489804786e-05
9.539916493421253e-06   -7.050321691723805e-06   -1.545342489804786e-05
9.539916493421253e-06   -7.050321691723805e-06   -1.545342489804786e-05
9.539916493421253e-06   -7.050321691723805e-06   -1.545342489804786e-05
7.758358387128882e-06   -1.4784121369513289e-05   4.387249986983208e-05
7.758358387128882e-06   -1.4784121369513289e-05   4.387249986983208e-05
7.758358387128882e-06   -1.4784121369513289e-05   4.387249986983208e-05
7.758358387128882e-06   -1.4784121369513289e-05   4.387249986983208e-05
4.3551073826010237e-05   -7.478362308745504e-06   -2.0165481298097887e-05
4.3551073826010237e-05   -7.478362308745504e-06   -2.0165481298097887e-05
4.3551073826010237e-05   -7.478362308745504e-06   -2.0165481298097887e-05
4.3551073826010237e-05   -7.478362308745504e-06   -2.0165481298097887e-05
2.6345100705180664e-05   -1.0634404404345332e-05   1.0404765827311496e-05
2.6345100705180664e-05   -1.0634404404345332e-05   1.0404765827311496e-05
2.6345100705180664e-05   -1.0634404404345332e-05   1.0404765827311496e-05
2.6345100705180664e-05   -1.0634404404345332e-05   1.0404765827311496e-05
4.3551073826010264e-05   -1.4784121369513722e-05   3.9489044433371236e-05
4.3551073826010264e-05   -1.4784121369513722e-05   3.9489044433371236e-05
4.3551073826010264e-05   -1.4784121369513722e-05   3.9489044433371236e-05
4.3551073826010264e-05   -1.4784121369513722e-05   3.9489044433371236e-05
7.758358387128882e-06   -7.478362308745504e-06   -1.5782025861637043e-05
7.758358387128882e-06   -7.478362308745504e-06   -1.5782025861637043e-05
7.758358387128882e-06   -7.478362308745504e-06   -1.5782025861637043e-05
7.758358387128882e-06   -7.478362308745504e-06   -1.5782025861637043e-05
6.488166520183055e-06   -1.458688598165699e-05   4.3941026930126564e-05
6.488166520183055e-06   -1.458688598165699e-05   4.3941026930126564e-05
6.488166520183055e-06   -1.458688598165699e-05   4.3941026930126564e-05
6.488166520183055e-06   -1.458688598165699e-05   4.3941026930126564e-05
4.2532926407170966e-05   -7.669287546547415e-06   -2.0284131942585354e-05
4.2532926407170966e-05   -7.669287546547415e-06   -2.0284131942585354e-05
4.2532926407170966e-05   -7.669287546547415e-06   -2.0284131942585354e-05
4.2532926407170966e-05   -7.669287546547415e-06   -2.0284131942585354e-05
2.4818544358544086e-05   -1.041697433230935e-05   1.0888450209917437e-05
2.4818544358544086e-05   -1.041697433230935e-05   1.0888450209917437e-05
2.4818544358544086e-05   -1.041697433230935e-05   1.0888450209917437e-05
2.4818544358544086e-05   -1.041697433230935e-05   1.0888450209917437e-05
4.253292640717105e-05   -1.458688598165699e-05   3.979046786906125e-05
4.253292640717105e-05   -1.458688598165699e-05   3.979046786906125e-05
4.253292640717105e-05   -1.458688598165699e-05   3.979046786906125e-05
4.253292640717105e-05   -1.458688598165699e-05   3.979046786906125e-05
6.488166520183055e-06   -7.669287546547415e-06   -1.6133572881519556e-05
6.488166520183055e-06   -7.669287546547415e-06   -1.6133572881519556e-05
6.488166520183055e-06   -7.669287546547415e-06   -1.6133572881519556e-05
6.488166520183055e-06   -7.669287546547415e-06   -1.6133572881519556e-05
5.075094676239289e-06   -1.419205402446817e-05   4.537311843867426e-05
5.075094676239289e-06   -1.419205402446817e-05   4.537311843867426e-05
5.075094676239289e-06   -1.419205402446817e-05   4.537311843867426e-05
5.075094676239289e-06   -1.419205402446817e-05   4.537311843867426e-05
4.129084431742574e-05   -7.4974054842980205e-06   -1.9003253420738788e-05
4.129084431742574e-05   -7.4974054842980205e-06   -1.9003253420738788e-05
4.129084431742574e-05   -7.4974054842980205e-06   -1.9003253420738788e-05
4.129084431742574e-05   -7.4974054842980205e-06   -1.9003253420738788e-05
2.388447043344612e-05   -9.960760894331747e-06   1.1485382965248126e-05
2.388447043344612e-05   -9.960760894331747e-06   1.1485382965248126e-05
2.388447043344612e-05   -9.960760894331747e-06   1.1485382965248126e-05
2.388447043344612e-05   -9.960760894331747e-06   1.1485382965248126e-05
9.53991649342128e-06   -1.794881690101932e-05   3.9541769748242285e-05
9.53991649342128e-06   -1.794881690101932e-05   3.9541769748242285e-05
9.53991649342128e-06   -1.794881690101932e-05   3.9541769748242285e-05
9.53991649342128e-06   -1.794881690101932e-05   3.9541769748242285e-05
-2.4211750115440657e-05   -2.975921001399824e-06   -7.727270393422404e-06
-2.4211750115440657e-05   -2.975921001399824e-06   -7.727270393422404e-06
-2.4211750115440657e-05   -2.975921001399824e-06   -7.727270393422404e-06
-2.4211750115440657e-05   -2.975921001399824e-06   -7.727270393422404e-06
-2.698336423846183e-05   -1.8347229745661886e-05   5.083867765478872e-05
-2.698336423846183e-05   -1.8347229745661886e-05   5.083867765478872e-05
-2.698336423846183e-05   -1.8347229745661886e-05   5.083867765478872e-05
-2.698336423846183e-05   -1.8347229745661886e-05   5.083867765478872e-05
7.758358387128855e-06   -3.14276745816194e-06   -1.6186870760362453e-05
7.758358387128855e-06   -3.14276745816194e-06   -1.6186870760362453e-05
7.758358387128855e-06   -3.14276745816194e-06   -1.6186870760362453e-05
7.758358387128855e-06   -3.14276745816194e-06   -1.6186870760362453e-05
-8.171268877764658e-06   -1.0262975053317198e-05   1.4634632571553484e-05
-8.171268877764658e-06   -1.0262975053317198e-05   1.4634632571553484e-05
-8.171268877764658e-06   -1.0262975053317198e-05   1.4634632571553484e-05
-8.171268877764658e-06   -1.0262975053317198e-05   1.4634632571553484e-05
7.758358387128882e-06   -1.8347229745661886e-05   4.171600028228875e-05
7.758358387128882e-06   -1.8347229745661886e-05   4.171600028228875e-05
7.758358387128882e-06   -1.8347229745661886e-05   4.171600028228875e-05
7.758358387128882e-06   -1.8347229745661886e-05   4.171600028228875e-05
-2.6983364238461802e-05   -3.14276745816194e-06   -7.064193387862567e-06
-2.6983364238461802e-05   -3.14276745816194e-06   -7.064193387862567e-06
-2.6983364238461802e-05   -3.14276745816194e-06   -7.064193387862567e-06
-2.6983364238461802e-05   -3.14276745816194e-06   -7.064193387862567e-06
-2.8676972120992856e-05   -1.8263170642655955e-05   5.277736482740521e-05
-2.8676972120992856e-05   -1.8263170642655955e-05   5.277736482740521e-05
-2.8676972120992856e-05   -1.8263170642655955e-05   5.277736482740521e-05
-2.8676972120992856e-05   -1.8263170642655955e-05   5.277736482740521e-05
6.488166520183055e-06   -3.3469642564134226e-06   -1.4780923406300389e-05
6.488166520183055e-06   -3.3469642564134226e-06   -1.4780923406300389e-05
6.488166520183055e-06   -3.3469642564134226e-06   -1.4780923406300389e-05
6.488166520183055e-06   -3.3469642564134226e-06   -1.4780923406300389e-05
-1.004744858556181e-05   -1.023144718814619e-05   1.6909124862313804e-05
-1.004744858556181e-05   -1.023144718814619e-05   1.6909124862313804e-05
-1.004744858556181e-05   -1.023144718814619e-05   1.6909124862313804e-05
-1.004744858556181e-05   -1.023144718814619e-05   1.6909124862313804e-05
6.488166520183001e-06   -1.8263170642655955e-05   4.38276409956593e-05
6.488166520183001e-06   -1.8263170642655955e-05   4.38276409956593e-05
6.488166520183001e-06   -1.8263170642655955e-05   4.38276409956593e-05
6.488166520183001e-06   -1.8263170642655955e-05   4.38276409956593e-05
-2.867697212099279e-05   -3.3469642564134226e-06   -5.831199574554994e-06
-2.867697212099279e-05   -3.3469642564134226e-06   -5.831199574554994e-06
-2.867697212099279e-05   -3.3469642564134226e-06   -5.831199574554994e-06
-2.867697212099279e-05   -3.3469642564134226e-06   -5.831199574554994e-06
-3.066939148812264e-05   -1.76248435103713e-05   5.5288269139212344e-05
-3.066939148812264e-05   -1.76248435103713e-05   5.5288269139212344e-05
-3.066939148812264e-05   -1.76248435103713e-05   5.5288269139212344e-05
-3.066939148812264e-05   -1.76248435103713e-05   5.5288269139212344e-05
5.075094676239289e-06   -3.3280767233983925e-06   -1.2863934540241419e-05
5.075094676239289e-06   -3.3280767233983925e-06   -1.2863934540241419e-05
5.075094676239289e-06   -3.3280767233983925e-06   -1.2863934540241419e-05
5.075094676239289e-06   -3.3280767233983925e-06   -1.2863934540241419e-05
-1.1575009623382363e-05   -9.825713791851778e-06   1.878482153353303e-05
-1.1575009623382363e-05   -9.825713791851778e-06   1.878482153353303e-05
-1.1575009623382363e-05   -9.825713791851778e-06   1.878482153353303e-05
-1.1575009623382363e-05   -9.825713791851778e-06   1.878482153353303e-05
-2.4211750115440685e-05   -2.240203066499781e-05   4.7932567614490445e-05
-2.4211750115440685e-05   -2.240203066499781e-05   4.7932567614490445e-05
-2.4211750115440685e-05   -2.240203066499781e-05   4.7932567614490445e-05
-2.4211750115440685e-05   -2.240203066499781e-05   4.7932567614490445e-05
-6.265838589697617e-05   3.1680919718277308e-06   -8.030851059730084e-07
-6.265838589697617e-05   3.1680919718277308e-06   -8.030851059730084e-07
-6.265838589697617e-05   3.1680919718277308e-06   -8.030851059730084e-07
-6.265838589697617e-05   3.1680919718277308e-06   -8.030851059730084e-07
-6.598744201864531e-05   -2.5004898086033837e-05   6.776221934492945e-05
-6.598744201864531e-05   -2.5004898086033837e-05   6.776221934492945e-05
-6.598744201864531e-05   -2.5004898086033837e-05   6.776221934492945e-05
-6.598744201864531e-05   -2.5004898086033837e-05   6.776221934492945e-05
-2.6983364238461802e-05   2.9760208942906582e-06   -1.4033128343570898e-05
-2.6983364238461802e-05   2.9760208942906582e-06   -1.4033128343570898e-05
-2.6983364238461802e-05   2.9760208942906582e-06   -1.4033128343570898e-05
-2.6983364238461802e-05   2.9760208942906582e-06   -1.4033128343570898e-05
-4.433076207964658e-05   -9.314404565140353e-06   2.2253456667395514e-05
-4.433076207964658e-05   -9.314404565140353e-06   2.2253456667395514e-05
-4.433076207964658e-05   -9.314404565140353e-06   2.2253456667395514e-05
-4.433076207964658e-05   -9.314404565140353e-06   2.2253456667395514e-05
-2.698336423846183e-05   -2.5004898086033837e-05   5.097366795673501e-05
-2.698336423846183e-05   -2.5004898086033837e-05   5.097366795673501e-05
-2.698336423846183e-05   -2.5004898086033837e-05   5.097366795673501e-05
-2.698336423846183e-05   -2.5004898086033837e-05   5.097366795673501e-05
-6.598744201864531e-05   2.9760208942902246e-06   2.755423044623973e-06
-6.598744201864531e-05   2.9760208942902246e-06   2.755423044623973e-06
-6.598744201864531e-05   2.9760208942902246e-06   2.755423044623973e-06
-6.598744201864531e-05   2.9760208942902246e-06   2.755423044623973e-06
-6.80168469699842e-05   -2.5146208713034898e-05   7.155362995252702e-05
-6.80168469699842e-05   -2.5146208713034898e-05   7.155362995252702e-05
-6.80168469699842e-05   -2.5146208713034898e-05   7.155362995252702e-05
-6.80168469699842e-05   -2.5146208713034898e-05   7.155362995252702e-05
-2.867697212099279e-05   2.6239934371699754e-06   -1.0674949419248365e-05
-2.867697212099279e-05   2.6239934371699754e-06   -1.0674949419248365e-05
-2.867697212099279e-05   2.6239934371699754e-06   -1.0674949419248365e-05
-2.867697212099279e-05   2.6239934371699754e-06   -1.0674949419248365e-05
-4.649450126293694e-05   -1.0718930462168957e-05   2.702668682359532e-05
-4.649450126293694e-05   -1.0718930462168957e-05   2.702668682359532e-05
-4.649450126293694e-05   -1.0718930462168957e-05   2.702668682359532e-05
-4.649450126293694e-05   -1.0718930462168957e-05   2.702668682359532e-05
-2.867697212099276e-05   -2.5146208713034898e-05   5.48915086624037e-05
-2.867697212099276e-05   -2.5146208713034898e-05   5.48915086624037e-05
-2.867697212099276e-05   -2.5146208713034898e-05   5.48915086624037e-05
-2.867697212099276e-05   -2.5146208713034898e-05   5.48915086624037e-05
-6.801684696998409e-05   2.6239934371699754e-06   5.98717187087457e-06
-6.801684696998409e-05   2.6239934371699754e-06   5.98717187087457e-06
-6.801684696998409e-05   2.6239934371699754e-06   5.98717187087457e-06
-6.801684696998409e-05   2.6239934371699754e-06   5.98717187087457e-06
-7.020308287716236e-05   -2.2959425545509334e-05   7.318655424333551e-05
-7.020308287716236e-05   -2.2959425545509334e-05   7.318655424333551e-05
-7.020308287716236e-05   -2.2959425545509334e-05   7.318655424333551e-05
-7.020308287716236e-05   -2.2959425545509334e-05   7.318655424333551e-05
-3.066939148812253e-05   2.2256836103252617e-06   -7.813996898564933e-06
-3.066939148812253e-05   2.2256836103252617e-06   -7.813996898564933e-06
-3.066939148812253e-05   2.2256836103252617e-06   -7.813996898564933e-06
-3.066939148812253e-05   2.2256836103252617e-06   -7.813996898564933e-06
-4.8722501905803e-05   -1.0800072459813369e-05   3.0089974106320145e-05
-4.8722501905803e-05   -1.0800072459813369e-05   3.0089974106320145e-05
-4.8722501905803e-05   -1.0800072459813369e-05   3.0089974106320145e-05
-4.8722501905803e-05   -1.0800072459813369e-05   3.0089974106320145e-05
-6.265838589697596e-05   0.0   5.312594236143802e-05
-6.265838589697596e-05   0.0   5.312594236143802e-05
-6.265838589697596e-05   0.0   5.312594236143802e-05
-6.265838589697596e-05   0.0   5.312594236143802e-05
-0.00011039229888372889   1.4470367581778318e-05   -1.7748358734083394e-05
-0.00011039229888372889   1.4470367581778318e-05   -1.7748358734083394e-05
-0.00011039229888372889   1.4470367581778318e-05   -1.7748358734083394e-05
-0.00011039229888372889   1.4470367581778318e-05   -1.7748358734083394e-05
-0.00011498635573202081   0.0   7.706469527542616e-05
-0.00011498635573202081   0.0   7.706469527542616e-05
-0.00011498635573202081   0.0   7.706469527542616e-05
-0.00011498635573202081   0.0   7.706469527542616e-05
-6.598744201864519e-05   1.3962768485106022e-05   -1.2977822004597156e-05
-6.598744201864519e-05   1.3962768485106022e-05   -1.2977822004597156e-05
-6.598744201864519e-05   1.3962768485106022e-05   -1.2977822004597156e-05
-6.598744201864519e-05   1.3962768485106022e-05   -1.2977822004597156e-05
-8.47314827247277e-05   8.585382734515711e-06   2.1488677289227965e-05
-8.47314827247277e-05   8.585382734515711e-06   2.1488677289227965e-05
-8.47314827247277e-05   8.585382734515711e-06   2.1488677289227965e-05
-8.47314827247277e-05   8.585382734515711e-06   2.1488677289227965e-05
-6.59874420186451e-05   0.0   6.868703418436259e-05
-6.59874420186451e-05   0.0   6.868703418436259e-05
-6.59874420186451e-05   0.0   6.868703418436259e-05
-6.59874420186451e-05   0.0   6.868703418436259e-05
-0.00011498635573202103   1.3962768485106022e-05   -4.6001609135333695e-06
-0.00011498635573202103   1.3962768485106022e-05   -4.6001609135333695e-06
-0.00011498635573202103   1.3962768485106022e-05   -4.6001609135333695e-06
-0.00011498635573202103   1.3962768485106022e-05   -4.6001609135333695e-06
-0.00011730043107719323   0.0   8.557129257136817e-05
-0.00011730043107719323   0.0   8.557129257136817e-05
-0.00011730043107719323   0.0   8.557129257136817e-05
-0.00011730043107719323   0.0   8.557129257136817e-05
-6.801684696998409e-05   1.3603413057181827e-05   -4.7300621082895845e-06
-6.801684696998409e-05   1.3603413057181827e-05   -4.7300621082895845e-06
-6.801684696998409e-05   1.3603413057181827e-05   -4.7300621082895845e-06
-6.801684696998409e-05   1.3603413057181827e-05   -4.7300621082895845e-06
-8.91590922231034e-05   7.167869975794293e-06   3.436833916240937e-05
-8.91590922231034e-05   7.167869975794293e-06   3.436833916240937e-05
-8.91590922231034e-05   7.167869975794293e-06   3.436833916240937e-05
-8.91590922231034e-05   7.167869975794293e-06   3.436833916240937e-05
-6.801684696998409e-05   0.0   7.740924473705925e-05
-6.801684696998409e-05   0.0   7.740924473705925e-05
-6.801684696998409e-05   0.0   7.740924473705925e-05
-6.801684696998409e-05   0.0   7.740924473705925e-05
-0.00011730043107719363   1.3603413057181827e-05   3.4319857260196093e-06
-0.00011730043107719363   1.3603413057181827e-05   3.4319857260196093e-06
-0.00011730043107719363   1.3603413057181827e-05   3.4319857260196093e-06
-0.00011730043107719363   1.3603413057181827e-05   3.4319857260196093e-06
-0.00011987868148144825   0.0   9.691541718986072e-05
-0.00011987868148144825   0.0   9.691541718986072e-05
-0.00011987868148144825   0.0   9.691541718986072e-05
-0.00011987868148144825   0.0   9.691541718986072e-05
-7.020308287716236e-05   1.1323197493482654e-05   7.3288343532943215e-06
-7.020308287716236e-05   1.1323197493482654e-05   7.3288343532943215e-06
-7.020308287716236e-05   1.1323197493482654e-05   7.3288343532943215e-06
-7.020308287716236e-05   1.1323197493482654e-05   7.3288343532943215e-06
-8.990643973267085e-05   5.029242341096987e-06   4.394413553723977e-05
-8.990643973267085e-05   5.029242341096987e-06   4.394413553723977e-05
-8.990643973267085e-05   5.029242341096987e-06   4.394413553723977e-05
-8.990643973267085e-05   5.029242341096987e-06   4.394413553723977e-05
7.569620544363694e-05   -1.139055112331323e-05   5.3765467267387866e-05
7.569620544363694e-05   -1.139055112331323e-05   5.3765467267387866e-05
7.569620544363694e-05   -1.139055112331323e-05   5.3765467267387866e-05
7.569620544363694e-05   -1.139055112331323e-05   5.3765467267387866e-05
3.8289835054166845e-05   -8.585551177538262e-06   -6.895483414263732e-06
3.8289835054166845e-05   -8.585551177538262e-06   -6.895483414263732e-06
3.8289835054166845e-05   -8.585551177538262e-06   -6.895483414263732e-06
3.8289835054166845e-05   -8.585551177538262e-06   -6.895483414263732e-06
3.7277748640586076e-05   -1.2524683609807085e-05   4.69358121747553e-05
3.7277748640586076e-05   -1.2524683609807085e-05   4.69358121747553e-05
3.7277748640586076e-05   -1.2524683609807085e-05   4.69358121747553e-05
3.7277748640586076e-05   -1.2524683609807085e-05   4.69358121747553e-05
7.388855512982363e-05   -9.732130215264062e-06   -1.57577306773663e-05
7.388855512982363e-05   -9.732130215264062e-06   -1.57577306773663e-05
7.388855512982363e-05   -9.732130215264062e-06   -1.57577306773663e-05
7.388855512982363e-05   -9.732130215264062e-06   -1.57577306773663e-05
5.378222906830289e-05   -1.0135807794285547e-05   1.7995019305914594e-05
5.378222906830289e-05   -1.0135807794285547e-05   1.7995019305914594e-05
5.378222906830289e-05   -1.0135807794285547e-05   1.7995019305914594e-05
5.378222906830289e-05   -1.0135807794285547e-05   1.7995019305914594e-05
7.388855512982349e-05   -1.2524683609807085e-05   4.5260280138029185e-05
7.388855512982349e-05   -1.2524683609807085e-05   4.5260280138029185e-05
7.388855512982349e-05   -1.2524683609807085e-05   4.5260280138029185e-05
7.388855512982349e-05   -1.2524683609807085e-05   4.5260280138029185e-05
3.7277748640586144e-05   -9.732130215264062e-06   -1.4082198640640508e-05
3.7277748640586144e-05   -9.732130215264062e-06   -1.4082198640640508e-05
3.7277748640586144e-05   -9.732130215264062e-06   -1.4082198640640508e-05
3.7277748640586144e-05   -9.732130215264062e-06   -1.4082198640640508e-05
3.5973582185905485e-05   -1.262950072319349e-05   4.21328471033077e-05
3.5973582185905485e-05   -1.262950072319349e-05   4.21328471033077e-05
3.5973582185905485e-05   -1.262950072319349e-05   4.21328471033077e-05
3.5973582185905485e-05   -1.262950072319349e-05   4.21328471033077e-05
7.206069005858277e-05   -9.902905246735212e-06   -1.964828997036292e-05
7.206069005858277e-05   -9.902905246735212e-06   -1.964828997036292e-05
7.206069005858277e-05   -9.902905246735212e-06   -1.964828997036292e-05
7.206069005858277e-05   -9.902905246735212e-06   -1.964828997036292e-05
5.32734278865166e-05   -1.0578728663912865e-05   1.2069307700054098e-05
5.32734278865166e-05   -1.0578728663912865e-05   1.2069307700054098e-05
5.32734278865166e-05   -1.0578728663912865e-05   1.2069307700054098e-05
5.32734278865166e-05   -1.0578728663912865e-05   1.2069307700054098e-05
7.206069005858277e-05   -1.262950072319349e-05   4.049688981743252e-05
7.206069005858277e-05   -1.262950072319349e-05   4.049688981743252e-05
7.206069005858277e-05   -1.262950072319349e-05   4.049688981743252e-05
7.206069005858277e-05   -1.262950072319349e-05   4.049688981743252e-05
3.5973582185905485e-05   -9.902905246735212e-06   -1.801233268448779e-05
3.5973582185905485e-05   -9.902905246735212e-06   -1.801233268448779e-05
3.5973582185905485e-05   -9.902905246735212e-06   -1.801233268448779e-05
3.5973582185905485e-05   -9.902905246735212e-06   -1.801233268448779e-05
3.46054032227048e-05   -1.2367532899488533e-05   3.500970298636499e-05
3.46054032227048e-05   -1.2367532899488533e-05   3.500970298636499e-05
3.46054032227048e-05   -1.2367532899488533e-05   3.500970298636499e-05
3.46054032227048e-05   -1.2367532899488533e-05   3.500970298636499e-05
6.977269633128073e-05   -9.84181065644867e-06   -2.5117885540419073e-05
6.977269633128073e-05   -9.84181065644867e-06   -2.5117885540419073e-05
6.977269633128073e-05   -9.84181065644867e-06   -2.5117885540419073e-05
6.977269633128073e-05   -9.84181065644867e-06   -2.5117885540419073e-05
5.089625958626346e-05   -1.030231957506152e-05   6.619147719111979e-06
5.089625958626346e-05   -1.030231957506152e-05   6.619147719111979e-06
5.089625958626346e-05   -1.030231957506152e-05   6.619147719111979e-06
5.089625958626346e-05   -1.030231957506152e-05   6.619147719111979e-06
3.828983505416691e-05   -7.050321691723805e-06   5.089492184526343e-05
3.828983505416691e-05   -7.050321691723805e-06   5.089492184526343e-05
3.828983505416691e-05   -7.050321691723805e-06   5.089492184526343e-05
3.828983505416691e-05   -7.050321691723805e-06   5.089492184526343e-05
4.2119723653503516e-06   -3.0311703148005846e-06   -3.490025143276657e-06
4.2119723653503516e-06   -3.0311703148005846e-06   -3.490025143276657e-06
4.2119723653503516e-06   -3.0311703148005846e-06   -3.490025143276657e-06
4.2119723653503516e-06   -3.0311703148005846e-06   -3.490025143276657e-06
3.2067451348205273e-06   -7.478362308745937e-06   5.3028548371472466e-05
3.2067451348205273e-06   -7.478362308745937e-06   5.3028548371472466e-05
3.2067451348205273e-06   -7.478362308745937e-06   5.3028548371472466e-05
3.2067451348205273e-06   -7.478362308745937e-06   5.3028548371472466e-05
3.7277748640586144e-05   -3.6476347719761534e-06   -6.054893993531947e-06
3.7277748640586144e-05   -3.6476347719761534e-06   -6.054893993531947e-06
3.7277748640586144e-05   -3.6476347719761534e-06   -6.054893993531947e-06
3.7277748640586144e-05   -3.6476347719761534e-06   -6.054893993531947e-06
2.0547895639958565e-05   -4.92966863246307e-06   2.2597414657139477e-05
2.0547895639958565e-05   -4.92966863246307e-06   2.2597414657139477e-05
2.0547895639958565e-05   -4.92966863246307e-06   2.2597414657139477e-05
2.0547895639958565e-05   -4.92966863246307e-06   2.2597414657139477e-05
3.727774864058612e-05   -7.478362308745937e-06   5.073011184941094e-05
3.727774864058612e-05   -7.478362308745937e-06   5.073011184941094e-05
3.727774864058612e-05   -7.478362308745937e-06   5.073011184941094e-05
3.727774864058612e-05   -7.478362308745937e-06   5.073011184941094e-05
3.2067451348205273e-06   -3.6476347719761534e-06   -3.7564574714701524e-06
3.2067451348205273e-06   -3.6476347719761534e-06   -3.7564574714701524e-06
3.2067451348205273e-06   -3.6476347719761534e-06   -3.7564574714701524e-06
3.2067451348205273e-06   -3.6476347719761534e-06   -3.7564574714701524e-06
1.9233638246911875e-06   -7.669287546547849e-06   5.253247055081217e-05
1.9233638246911875e-06   -7.669287546547849e-06   5.253247055081217e-05
1.9233638246911875e-06   -7.669287546547849e-06   5.253247055081217e-05
1.9233638246911875e-06   -7.669287546547849e-06   5.253247055081217e-05
3.5973582185905485e-05   -4.052318662588119e-06   -6.388074714920578e-06
3.5973582185905485e-05   -4.052318662588119e-06   -6.388074714920578e-06
3.5973582185905485e-05   -4.052318662588119e-06   -6.388074714920578e-06
3.5973582185905485e-05   -4.052318662588119e-06   -6.388074714920578e-06
1.927345819403283e-05   -5.163253680351334e-06   2.2112026282192535e-05
1.927345819403283e-05   -5.163253680351334e-06   2.2112026282192535e-05
1.927345819403283e-05   -5.163253680351334e-06   2.2112026282192535e-05
1.927345819403283e-05   -5.163253680351334e-06   2.2112026282192535e-05
3.5973582185905404e-05   -7.669287546547849e-06   5.036228922043642e-05
3.5973582185905404e-05   -7.669287546547849e-06   5.036228922043642e-05
3.5973582185905404e-05   -7.669287546547849e-06   5.036228922043642e-05
3.5973582185905404e-05   -7.669287546547849e-06   5.036228922043642e-05
1.9233638246911875e-06   -4.052318662588119e-06   -4.217893384544881e-06
1.9233638246911875e-06   -4.052318662588119e-06   -4.217893384544881e-06
1.9233638246911875e-06   -4.052318662588119e-06   -4.217893384544881e-06
1.9233638246911875e-06   -4.052318662588119e-06   -4.217893384544881e-06
5.056092085210958e-07   -7.497405484297587e-06   5.330762767709199e-05
5.056092085210958e-07   -7.497405484297587e-06   5.330762767709199e-05
5.056092085210958e-07   -7.497405484297587e-06   5.330762767709199e-05
5.056092085210958e-07   -7.497405484297587e-06   5.330762767709199e-05
3.460540322270476e-05   -4.226334911756283e-06   -5.488004690072331e-06
3.460540322270476e-05   -4.226334911756283e-06   -5.488004690072331e-06
3.460540322270476e-05   -4.226334911756283e-06   -5.488004690072331e-06
3.460540322270476e-05   -4.226334911756283e-06   -5.488004690072331e-06
1.8234560711854987e-05   -5.114911731101714e-06   2.2329878919618993e-05
1.8234560711854987e-05   -5.114911731101714e-06   2.2329878919618993e-05
1.8234560711854987e-05   -5.114911731101714e-06   2.2329878919618993e-05
1.8234560711854987e-05   -5.114911731101714e-06   2.2329878919618993e-05
4.2119723653503516e-06   -2.975921001399824e-06   5.2048829636270775e-05
4.2119723653503516e-06   -2.975921001399824e-06   5.2048829636270775e-05
4.2119723653503516e-06   -2.975921001399824e-06   5.2048829636270775e-05
4.2119723653503516e-06   -2.975921001399824e-06   5.2048829636270775e-05
-2.8800671482356557e-05   2.690050005513256e-06   4.27339160907151e-07
-2.8800671482356557e-05   2.690050005513256e-06   4.27339160907151e-07
-2.8800671482356557e-05   2.690050005513256e-06   4.27339160907151e-07
-2.8800671482356557e-05   2.690050005513256e-06   4.27339160907151e-07
-2.9933212120749025e-05   -3.14276745816194e-06   5.5839981628720385e-05
-2.9933212120749025e-05   -3.14276745816194e-06   5.5839981628720385e-05
-2.9933212120749025e-05   -3.14276745816194e-06   5.5839981628720385e-05
-2.9933212120749025e-05   -3.14276745816194e-06   5.5839981628720385e-05
3.2067451348205273e-06   2.217696135127078e-06   -2.6095586198687207e-06
3.2067451348205273e-06   2.217696135127078e-06   -2.6095586198687207e-06
3.2067451348205273e-06   2.217696135127078e-06   -2.6095586198687207e-06
3.2067451348205273e-06   2.217696135127078e-06   -2.6095586198687207e-06
-1.2805192891308066e-05   -5.401475382639867e-08   2.5440031290384075e-05
-1.2805192891308066e-05   -5.401475382639867e-08   2.5440031290384075e-05
-1.2805192891308066e-05   -5.401475382639867e-08   2.5440031290384075e-05
-1.2805192891308066e-05   -5.401475382639867e-08   2.5440031290384075e-05
3.2067451348205816e-06   -3.14276745816194e-06   5.2623703472746974e-05
3.2067451348205816e-06   -3.14276745816194e-06   5.2623703472746974e-05
3.2067451348205816e-06   -3.14276745816194e-06   5.2623703472746974e-05
3.2067451348205816e-06   -3.14276745816194e-06   5.2623703472746974e-05
-2.9933212120749025e-05   2.217696135127078e-06   6.067195361043106e-07
-2.9933212120749025e-05   2.217696135127078e-06   6.067195361043106e-07
-2.9933212120749025e-05   2.217696135127078e-06   6.067195361043106e-07
-2.9933212120749025e-05   2.217696135127078e-06   6.067195361043106e-07
-3.145193632622152e-05   -3.3469642564134226e-06   5.696008927580853e-05
-3.145193632622152e-05   -3.3469642564134226e-06   5.696008927580853e-05
-3.145193632622152e-05   -3.3469642564134226e-06   5.696008927580853e-05
-3.145193632622152e-05   -3.3469642564134226e-06   5.696008927580853e-05
1.9233638246911875e-06   1.7779844932149305e-06   -1.7403802254895148e-06
1.9233638246911875e-06   1.7779844932149305e-06   -1.7403802254895148e-06
1.9233638246911875e-06   1.7779844932149305e-06   -1.7403802254895148e-06
1.9233638246911875e-06   1.7779844932149305e-06   -1.7403802254895148e-06
-1.392244532212292e-05   -1.8718400356283749e-07   2.5848402783933892e-05
-1.392244532212292e-05   -1.8718400356283749e-07   2.5848402783933892e-05
-1.392244532212292e-05   -1.8718400356283749e-07   2.5848402783933892e-05
-1.392244532212292e-05   -1.8718400356283749e-07   2.5848402783933892e-05
1.9233638246911875e-06   -3.3469642564134226e-06   5.3885120026031475e-05
1.9233638246911875e-06   -3.3469642564134226e-06   5.3885120026031475e-05
1.9233638246911875e-06   -3.3469642564134226e-06   5.3885120026031475e-05
1.9233638246911875e-06   -3.3469642564134226e-06   5.3885120026031475e-05
-3.1451936326221493e-05   1.7779844932149305e-06   1.3345890242872152e-06
-3.1451936326221493e-05   1.7779844932149305e-06   1.3345890242872152e-06
-3.1451936326221493e-05   1.7779844932149305e-06   1.3345890242872152e-06
-3.1451936326221493e-05   1.7779844932149305e-06   1.3345890242872152e-06
-3.307003711778276e-05   -3.3280767233983925e-06   5.83036833958976e-05
-3.307003711778276e-05   -3.3280767233983925e-06   5.83036833958976e-05
-3.307003711778276e-05   -3.3280767233983925e-06   5.83036833958976e-05
-3.307003711778276e-05   -3.3280767233983925e-06   5.83036833958976e-05
5.056092085210686e-07   1.4611332139523661e-06   -5.292531103525094e-07
5.056092085210686e-07   1.4611332139523661e-06   -5.292531103525094e-07
5.056092085210686e-07   1.4611332139523661e-06   -5.292531103525094e-07
5.056092085210686e-07   1.4611332139523661e-06   -5.292531103525094e-07
-1.5347407547551358e-05   -2.829651788898227e-07   2.693890051880756e-05
-1.5347407547551358e-05   -2.829651788898227e-07   2.693890051880756e-05
-1.5347407547551358e-05   -2.829651788898227e-07   2.693890051880756e-05
-1.5347407547551358e-05   -2.829651788898227e-07   2.693890051880756e-05
-2.8800671482356475e-05   3.1680919718281644e-06   4.703052394577261e-05
-2.8800671482356475e-05   3.1680919718281644e-06   4.703052394577261e-05
-2.8800671482356475e-05   3.1680919718281644e-06   4.703052394577261e-05
-2.8800671482356475e-05   3.1680919718281644e-06   4.703052394577261e-05
-6.113782508419664e-05   8.768369601688374e-06   -3.5045654793782605e-06
-6.113782508419664e-05   8.768369601688374e-06   -3.5045654793782605e-06
-6.113782508419664e-05   8.768369601688374e-06   -3.5045654793782605e-06
-6.113782508419664e-05   8.768369601688374e-06   -3.5045654793782605e-06
-6.278809008564102e-05   2.9760208942906582e-06   5.206215644743906e-05
-6.278809008564102e-05   2.9760208942906582e-06   5.206215644743906e-05
-6.278809008564102e-05   2.9760208942906582e-06   5.206215644743906e-05
-6.278809008564102e-05   2.9760208942906582e-06   5.206215644743906e-05
-2.9933212120748917e-05   8.29453718500248e-06   -5.887083268474628e-06
-2.9933212120748917e-05   8.29453718500248e-06   -5.887083268474628e-06
-2.9933212120748917e-05   8.29453718500248e-06   -5.887083268474628e-06
-2.9933212120748917e-05   8.29453718500248e-06   -5.887083268474628e-06
-4.530426779592629e-05   5.9036585509132655e-06   2.1165870037274232e-05
-4.530426779592629e-05   5.9036585509132655e-06   2.1165870037274232e-05
-4.530426779592629e-05   5.9036585509132655e-06   2.1165870037274232e-05
-4.530426779592629e-05   5.9036585509132655e-06   2.1165870037274232e-05
-2.9933212120748944e-05   2.9760208942902246e-06   4.887104667301184e-05
-2.9933212120748944e-05   2.9760208942902246e-06   4.887104667301184e-05
-2.9933212120748944e-05   2.9760208942902246e-06   4.887104667301184e-05
-2.9933212120748944e-05   2.9760208942902246e-06   4.887104667301184e-05
-6.278809008564091e-05   8.29453718500248e-06   -2.6959734940477844e-06
-6.278809008564091e-05   8.29453718500248e-06   -2.6959734940477844e-06
-6.278809008564091e-05   8.29453718500248e-06   -2.6959734940477844e-06
-6.278809008564091e-05   8.29453718500248e-06   -2.6959734940477844e-06
-6.481022427547934e-05   2.6239934371699754e-06   5.525589236269647e-05
-6.481022427547934e-05   2.6239934371699754e-06   5.525589236269647e-05
-6.481022427547934e-05   2.6239934371699754e-06   5.525589236269647e-05
-6.481022427547934e-05   2.6239934371699754e-06   5.525589236269647e-05
-3.1451936326221493e-05   7.856581656473082e-06   -3.4808071509813475e-06
-3.1451936326221493e-05   7.856581656473082e-06   -3.4808071509813475e-06
-3.1451936326221493e-05   7.856581656473082e-06   -3.4808071509813475e-06
-3.1451936326221493e-05   7.856581656473082e-06   -3.4808071509813475e-06
-4.653401239123211e-05   5.793751332461988e-06   2.2893684485109718e-05
-4.653401239123211e-05   5.793751332461988e-06   2.2893684485109718e-05
-4.653401239123211e-05   5.793751332461988e-06   2.2893684485109718e-05
-4.653401239123211e-05   5.793751332461988e-06   2.2893684485109718e-05
-3.1451936326221466e-05   2.6239934371699754e-06   5.2116339431115e-05
-3.1451936326221466e-05   2.6239934371699754e-06   5.2116339431115e-05
-3.1451936326221466e-05   2.6239934371699754e-06   5.2116339431115e-05
-3.1451936326221466e-05   2.6239934371699754e-06   5.2116339431115e-05
-6.481022427547934e-05   7.856581656473082e-06   -3.412542193997111e-07
-6.481022427547934e-05   7.856581656473082e-06   -3.412542193997111e-07
-6.481022427547934e-05   7.856581656473082e-06   -3.412542193997111e-07
-6.481022427547934e-05   7.856581656473082e-06   -3.412542193997111e-07
-6.695011842321977e-05   2.2256836103252617e-06   5.780103473236511e-05
-6.695011842321977e-05   2.2256836103252617e-06   5.780103473236511e-05
-6.695011842321977e-05   2.2256836103252617e-06   5.780103473236511e-05
-6.695011842321977e-05   2.2256836103252617e-06   5.780103473236511e-05
-3.307003711778265e-05   7.26813988861626e-06   -1.6912412103381696e-06
-3.307003711778265e-05   7.26813988861626e-06   -1.6912412103381696e-06
-3.307003711778265e-05   7.26813988861626e-06   -1.6912412103381696e-06
-3.307003711778265e-05   7.26813988861626e-06   -1.6912412103381696e-06
-4.85804100514703e-05   5.438147599095677e-06   2.5257375719522218e-05
-4.85804100514703e-05   5.438147599095677e-06   2.5257375719522218e-05
-4.85804100514703e-05   5.438147599095677e-06   2.5257375719522218e-05
-4.85804100514703e-05   5.438147599095677e-06   2.5257375719522218e-05
-6.113782508419664e-05   1.4470367581777884e-05   2.4763196346511227e-05
-6.113782508419664e-05   1.4470367581777884e-05   2.4763196346511227e-05
-6.113782508419664e-05   1.4470367581777884e-05   2.4763196346511227e-05
-6.113782508419664e-05   1.4470367581777884e-05   2.4763196346511227e-05
-9.210196733298824e-05   1.4260198949923256e-05   -2.696980858058742e-05
-9.210196733298824e-05   1.4260198949923256e-05   -2.696980858058742e-05
-9.210196733298824e-05   1.4260198949923256e-05   -2.696980858058742e-05
-9.210196733298824e-05   1.4260198949923256e-05   -2.696980858058742e-05
-9.506392306296991e-05   1.3962768485106455e-05   3.6670691612654665e-05
-9.506392306296991e-05   1.3962768485106455e-05   3.6670691612654665e-05
-9.506392306296991e-05   1.3962768485106455e-05   3.6670691612654665e-05
-9.506392306296991e-05   1.3962768485106455e-05   3.6670691612654665e-05
-6.278809008564091e-05   1.4532402175833695e-05   -1.7464143563997137e-05
-6.278809008564091e-05   1.4532402175833695e-05   -1.7464143563997137e-05
-6.278809008564091e-05   1.4532402175833695e-05   -1.7464143563997137e-05
-6.278809008564091e-05   1.4532402175833695e-05   -1.7464143563997137e-05
-7.464248634712397e-05   1.4532848181729972e-05   2.2929159349369295e-06
-7.464248634712397e-05   1.4532848181729972e-05   2.2929159349369295e-06
-7.464248634712397e-05   1.4532848181729972e-05   2.2929159349369295e-06
-7.464248634712397e-05   1.4532848181729972e-05   2.2929159349369295e-06
-6.278809008564086e-05   1.3962768485106455e-05   3.632891139821815e-05
-6.278809008564086e-05   1.3962768485106455e-05   3.632891139821815e-05
-6.278809008564086e-05   1.3962768485106455e-05   3.632891139821815e-05
-6.278809008564086e-05   1.3962768485106455e-05   3.632891139821815e-05
-9.506392306296991e-05   1.4532402175833695e-05   -1.7122363349560566e-05
-9.506392306296991e-05   1.4532402175833695e-05   -1.7122363349560566e-05
-9.506392306296991e-05   1.4532402175833695e-05   -1.7122363349560566e-05
-9.506392306296991e-05   1.4532402175833695e-05   -1.7122363349560566e-05
-9.796859732590207e-05   1.360341305718226e-05   4.5032968139278786e-05
-9.796859732590207e-05   1.360341305718226e-05   4.5032968139278786e-05
-9.796859732590207e-05   1.360341305718226e-05   4.5032968139278786e-05
-9.796859732590207e-05   1.360341305718226e-05   4.5032968139278786e-05
-6.481022427547921e-05   1.4427262650091796e-05   -1.0725296700506072e-05
-6.481022427547921e-05   1.4427262650091796e-05   -1.0725296700506072e-05
-6.481022427547921e-05   1.4427262650091796e-05   -1.0725296700506072e-05
-6.481022427547921e-05   1.4427262650091796e-05   -1.0725296700506072e-05
-7.803583457787241e-05   1.452950158897532e-05   1.1256043773487292e-05
-7.803583457787241e-05   1.452950158897532e-05   1.1256043773487292e-05
-7.803583457787241e-05   1.452950158897532e-05   1.1256043773487292e-05
-7.803583457787241e-05   1.452950158897532e-05   1.1256043773487292e-05
-6.481022427547921e-05   1.3603413057181827e-05   4.453865838353259e-05
-6.481022427547921e-05   1.3603413057181827e-05   4.453865838353259e-05
-6.481022427547921e-05   1.3603413057181827e-05   4.453865838353259e-05
-6.481022427547921e-05   1.3603413057181827e-05   4.453865838353259e-05
-9.796859732590207e-05   1.442726265009223e-05   -1.0230986944760037e-05
-9.796859732590207e-05   1.442726265009223e-05   -1.0230986944760037e-05
-9.796859732590207e-05   1.442726265009223e-05   -1.0230986944760037e-05
-9.796859732590207e-05   1.442726265009223e-05   -1.0230986944760037e-05
-0.00010139400544427726   1.1323197493483088e-05   5.900683781516437e-05
-0.00010139400544427726   1.1323197493483088e-05   5.900683781516437e-05
-0.00010139400544427726   1.1323197493483088e-05   5.900683781516437e-05
-0.00010139400544427726   1.1323197493483088e-05   5.900683781516437e-05
-6.695011842321956e-05   1.3279926367551834e-05   4.263221222934512e-07
-6.695011842321956e-05   1.3279926367551834e-05   4.263221222934512e-07
-6.695011842321956e-05   1.3279926367551834e-05   4.263221222934512e-07
-6.695011842321956e-05   1.3279926367551834e-05   4.263221222934512e-07
-7.925679761537136e-05   1.3838684678063335e-05   2.0602199122907118e-05
-7.925679761537136e-05   1.3838684678063335e-05   2.0602199122907118e-05
-7.925679761537136e-05   1.3838684678063335e-05   2.0602199122907118e-05
-7.925679761537136e-05   1.3838684678063335e-05   2.0602199122907118e-05
6.136052322194687e-05   -8.585551177538262e-06   4.737443951954531e-05
6.136052322194687e-05   -8.585551177538262e-06   4.737443951954531e-05
6.136052322194687e-05   -8.585551177538262e-06   4.737443951954531e-05
6.136052322194687e-05   -8.585551177538262e-06   4.737443951954531e-05
3.0383985015946843e-05   -6.2905803524088665e-06   -2.876141662044038e-06
3.0383985015946843e-05   -6.2905803524088665e-06   -2.876141662044038e-06
3.0383985015946843e-05   -6.2905803524088665e-06   -2.876141662044038e-06
3.0383985015946843e-05   -6.2905803524088665e-06   -2.876141662044038e-06
2.9218235128304865e-05   -9.732130215263628e-06   4.120049471137356e-05
2.9218235128304865e-05   -9.732130215263628e-06   4.120049471137356e-05
2.9218235128304865e-05   -9.732130215263628e-06   4.120049471137356e-05
2.9218235128304865e-05   -9.732130215263628e-06   4.120049471137356e-05
5.9216347297134624e-05   -7.300113153075032e-06   -1.025556914065603e-05
5.9216347297134624e-05   -7.300113153075032e-06   -1.025556914065603e-05
5.9216347297134624e-05   -7.300113153075032e-06   -1.025556914065603e-05
5.9216347297134624e-05   -7.300113153075032e-06   -1.025556914065603e-05
4.298241315143349e-05   -7.895555748509663e-06   1.71582533261067e-05
4.298241315143349e-05   -7.895555748509663e-06   1.71582533261067e-05
4.298241315143349e-05   -7.895555748509663e-06   1.71582533261067e-05
4.298241315143349e-05   -7.895555748509663e-06   1.71582533261067e-05
5.921634729713452e-05   -9.732130215263628e-06   3.9741284474060015e-05
5.921634729713452e-05   -9.732130215263628e-06   3.9741284474060015e-05
5.921634729713452e-05   -9.732130215263628e-06   3.9741284474060015e-05
5.921634729713452e-05   -9.732130215263628e-06   3.9741284474060015e-05
2.9218235128304973e-05   -7.300113153075032e-06   -8.796358903342743e-06
2.9218235128304973e-05   -7.300113153075032e-06   -8.796358903342743e-06
2.9218235128304973e-05   -7.300113153075032e-06   -8.796358903342743e-06
2.9218235128304973e-05   -7.300113153075032e-06   -8.796358903342743e-06
2.7923010164204354e-05   -9.902905246734778e-06   3.6925648219603363e-05
2.7923010164204354e-05   -9.902905246734778e-06   3.6925648219603363e-05
2.7923010164204354e-05   -9.902905246734778e-06   3.6925648219603363e-05
2.7923010164204354e-05   -9.902905246734778e-06   3.6925648219603363e-05
5.727503242238958e-05   -7.503171871927564e-06   -1.3434228902256477e-05
5.727503242238958e-05   -7.503171871927564e-06   -1.3434228902256477e-05
5.727503242238958e-05   -7.503171871927564e-06   -1.3434228902256477e-05
5.727503242238958e-05   -7.503171871927564e-06   -1.3434228902256477e-05
4.217388726760167e-05   -8.286682767858454e-06   1.2204452893282034e-05
4.217388726760167e-05   -8.286682767858454e-06   1.2204452893282034e-05
4.217388726760167e-05   -8.286682767858454e-06   1.2204452893282034e-05
4.217388726760167e-05   -8.286682767858454e-06   1.2204452893282034e-05
5.7275032422389375e-05   -9.902905246735212e-06   3.5485808194718645e-05
5.7275032422389375e-05   -9.902905246735212e-06   3.5485808194718645e-05
5.7275032422389375e-05   -9.902905246735212e-06   3.5485808194718645e-05
5.7275032422389375e-05   -9.902905246735212e-06   3.5485808194718645e-05
2.792301016420441e-05   -7.503171871927564e-06   -1.1994388877371691e-05
2.792301016420441e-05   -7.503171871927564e-06   -1.1994388877371691e-05
2.792301016420441e-05   -7.503171871927564e-06   -1.1994388877371691e-05
2.792301016420441e-05   -7.503171871927564e-06   -1.1994388877371691e-05
2.667739862839649e-05   -9.84181065644867e-06   3.096645198295291e-05
2.667739862839649e-05   -9.84181065644867e-06   3.096645198295291e-05
2.667739862839649e-05   -9.84181065644867e-06   3.096645198295291e-05
2.667739862839649e-05   -9.84181065644867e-06   3.096645198295291e-05
5.5076618447734856e-05   -7.586515260274082e-06   -1.77187582869823e-05
5.5076618447734856e-05   -7.586515260274082e-06   -1.77187582869823e-05
5.5076618447734856e-05   -7.586515260274082e-06   -1.77187582869823e-05
5.5076618447734856e-05   -7.586515260274082e-06   -1.77187582869823e-05
3.9999335853063304e-05   -8.147155704923796e-06   7.74643030426099e-06
3.9999335853063304e-05   -8.147155704923796e-06   7.74643030426099e-06
3.9999335853063304e-05   -8.147155704923796e-06   7.74643030426099e-06
3.9999335853063304e-05   -8.147155704923796e-06   7.74643030426099e-06
3.0383985015946843e-05   -3.0311703148010183e-06   4.97453894594557e-05
3.0383985015946843e-05   -3.0311703148010183e-06   4.97453894594557e-05
3.0383985015946843e-05   -3.0311703148010183e-06   4.97453894594557e-05
3.0383985015946843e-05   -3.0311703148010183e-06   4.97453894594557e-05
1.3080621250497284e-06   -1.2026937703350782e-06   2.3826039013067745e-06
1.3080621250497284e-06   -1.2026937703350782e-06   2.3826039013067745e-06
1.3080621250497284e-06   -1.2026937703350782e-06   2.3826039013067745e-06
1.3080621250497284e-06   -1.2026937703350782e-06   2.3826039013067745e-06
1.8912991413643616e-07   -3.647634771976587e-06   5.026506478930334e-05
1.8912991413643616e-07   -3.647634771976587e-06   5.026506478930334e-05
1.8912991413643616e-07   -3.647634771976587e-06   5.026506478930334e-05
1.8912991413643616e-07   -3.647634771976587e-06   5.026506478930334e-05
2.9218235128304973e-05   -1.9188590539408884e-06   8.45957334867978e-07
2.9218235128304973e-05   -1.9188590539408884e-06   8.45957334867978e-07
2.9218235128304973e-05   -1.9188590539408884e-06   8.45957334867978e-07
2.9218235128304973e-05   -1.9188590539408884e-06   8.45957334867978e-07
1.5089592602031964e-05   -2.3592151490443684e-06   2.465790853571818e-05
1.5089592602031964e-05   -2.3592151490443684e-06   2.465790853571818e-05
1.5089592602031964e-05   -2.3592151490443684e-06   2.465790853571818e-05
1.5089592602031964e-05   -2.3592151490443684e-06   2.465790853571818e-05
2.9218235128304946e-05   -3.647634771976587e-06   4.922779935848196e-05
2.9218235128304946e-05   -3.647634771976587e-06   4.922779935848196e-05
2.9218235128304946e-05   -3.647634771976587e-06   4.922779935848196e-05
2.9218235128304946e-05   -3.647634771976587e-06   4.922779935848196e-05
1.8912991413640905e-07   -1.9188590539408884e-06   1.883222765689625e-06
1.8912991413640905e-07   -1.9188590539408884e-06   1.883222765689625e-06
1.8912991413640905e-07   -1.9188590539408884e-06   1.883222765689625e-06
1.8912991413640905e-07   -1.9188590539408884e-06   1.883222765689625e-06
-9.73917520512372e-07   -4.052318662588553e-06   4.9510542412420106e-05
-9.73917520512372e-07   -4.052318662588553e-06   4.9510542412420106e-05
-9.73917520512372e-07   -4.052318662588553e-06   4.9510542412420106e-05
-9.73917520512372e-07   -4.052318662588553e-06   4.9510542412420106e-05
2.792301016420441e-05   -2.451258290504972e-06   3.883600479760767e-07
2.792301016420441e-05   -2.451258290504972e-06   3.883600479760767e-07
2.792301016420441e-05   -2.451258290504972e-06   3.883600479760767e-07
2.792301016420441e-05   -2.451258290504972e-06   3.883600479760767e-07
1.3805453337566096e-05   -2.7346200991941114e-06   2.408763851092057e-05
1.3805453337566096e-05   -2.7346200991941114e-06   2.408763851092057e-05
1.3805453337566096e-05   -2.7346200991941114e-06   2.408763851092057e-05
1.3805453337566096e-05   -2.7346200991941114e-06   2.408763851092057e-05
2.7923010164204354e-05   -4.052318662588119e-06   4.854990618917052e-05
2.7923010164204354e-05   -4.052318662588119e-06   4.854990618917052e-05
2.7923010164204354e-05   -4.052318662588119e-06   4.854990618917052e-05
2.7923010164204354e-05   -4.052318662588119e-06   4.854990618917052e-05
-9.73917520512372e-07   -2.451258290504972e-06   1.3489962712254309e-06
-9.73917520512372e-07   -2.451258290504972e-06   1.3489962712254309e-06
-9.73917520512372e-07   -2.451258290504972e-06   1.3489962712254309e-06
-9.73917520512372e-07   -2.451258290504972e-06   1.3489962712254309e-06
-2.1847270148628805e-06   -4.226334911756717e-06   4.989366823845336e-05
-2.1847270148628805e-06   -4.226334911756717e-06   4.989366823845336e-05
-2.1847270148628805e-06   -4.226334911756717e-06   4.989366823845336e-05
-2.1847270148628805e-06   -4.226334911756717e-06   4.989366823845336e-05
2.6677398628396557e-05   -2.8717203267932152e-06   9.77356748709581e-07
2.6677398628396557e-05   -2.8717203267932152e-06   9.77356748709581e-07
2.6677398628396557e-05   -2.8717203267932152e-06   9.77356748709581e-07
2.6677398628396557e-05   -2.8717203267932152e-06   9.77356748709581e-07
1.2839318762827681e-05   -2.93668393542678e-06   2.4079801356505605e-05
1.2839318762827681e-05   -2.93668393542678e-06   2.4079801356505605e-05
1.2839318762827681e-05   -2.93668393542678e-06   2.4079801356505605e-05
1.2839318762827681e-05   -2.93668393542678e-06   2.4079801356505605e-05
1.3080621250497284e-06   2.690050005513256e-06   5.136025708617122e-05
1.3080621250497284e-06   2.690050005513256e-06   5.136025708617122e-05
1.3080621250497284e-06   2.690050005513256e-06   5.136025708617122e-05
1.3080621250497284e-06   2.690050005513256e-06   5.136025708617122e-05
-2.691754160563786e-05   3.907859384172808e-06   5.0482698288876506e-06
-2.691754160563786e-05   3.907859384172808e-06   5.0482698288876506e-06
-2.691754160563786e-05   3.907859384172808e-06   5.0482698288876506e-06
-2.691754160563786e-05   3.907859384172808e-06   5.0482698288876506e-06
-2.8086562535492338e-05   2.217696135127078e-06   5.2068224499530026e-05
-2.8086562535492338e-05   2.217696135127078e-06   5.2068224499530026e-05
-2.8086562535492338e-05   2.217696135127078e-06   5.2068224499530026e-05
-2.8086562535492338e-05   2.217696135127078e-06   5.2068224499530026e-05
1.8912991413640905e-07   3.311464232835532e-06   4.285809558190237e-06
1.8912991413640905e-07   3.311464232835532e-06   4.285809558190237e-06
1.8912991413640905e-07   3.311464232835532e-06   4.285809558190237e-06
1.8912991413640905e-07   3.311464232835532e-06   4.285809558190237e-06
-1.339747992276137e-05   3.0667062412854246e-06   2.7077014081282986e-05
-1.339747992276137e-05   3.0667062412854246e-06   2.7077014081282986e-05
-1.339747992276137e-05   3.0667062412854246e-06   2.7077014081282986e-05
-1.339747992276137e-05   3.0667062412854246e-06   2.7077014081282986e-05
1.8912991413643616e-07   2.217696135127078e-06   5.1411963640904824e-05
1.8912991413643616e-07   2.217696135127078e-06   5.1411963640904824e-05
1.8912991413643616e-07   2.217696135127078e-06   5.1411963640904824e-05
1.8912991413643616e-07   2.217696135127078e-06   5.1411963640904824e-05
-2.8086562535492338e-05   3.311464232835532e-06   4.942070416815358e-06
-2.8086562535492338e-05   3.311464232835532e-06   4.942070416815358e-06
-2.8086562535492338e-05   3.311464232835532e-06   4.942070416815358e-06
-2.8086562535492338e-05   3.311464232835532e-06   4.942070416815358e-06
-2.9321136673173605e-05   1.7779844932149305e-06   5.2560671512863e-05
-2.9321136673173605e-05   1.7779844932149305e-06   5.2560671512863e-05
-2.9321136673173605e-05   1.7779844932149305e-06   5.2560671512863e-05
-2.9321136673173605e-05   1.7779844932149305e-06   5.2560671512863e-05
-9.73917520512372e-07   2.7323443955265016e-06   4.742690317040472e-06
-9.73917520512372e-07   2.7323443955265016e-06   4.742690317040472e-06
-9.73917520512372e-07   2.7323443955265016e-06   4.742690317040472e-06
-9.73917520512372e-07   2.7323443955265016e-06   4.742690317040472e-06
-1.4483524553612627e-05   2.725989024397399e-06   2.726251526155186e-05
-1.4483524553612627e-05   2.725989024397399e-06   2.726251526155186e-05
-1.4483524553612627e-05   2.725989024397399e-06   2.726251526155186e-05
-1.4483524553612627e-05   2.725989024397399e-06   2.726251526155186e-05
-9.73917520512372e-07   1.7779844932149305e-06   5.198805557147558e-05
-9.73917520512372e-07   1.7779844932149305e-06   5.198805557147558e-05
-9.73917520512372e-07   1.7779844932149305e-06   5.198805557147558e-05
-9.73917520512372e-07   1.7779844932149305e-06   5.198805557147558e-05
-2.932113667317366e-05   2.7323443955265016e-06   5.315306258427566e-06
-2.932113667317366e-05   2.7323443955265016e-06   5.315306258427566e-06
-2.932113667317366e-05   2.7323443955265016e-06   5.315306258427566e-06
-2.932113667317366e-05   2.7323443955265016e-06   5.315306258427566e-06
-3.0595180952677444e-05   1.4611332139523661e-06   5.334319548911878e-05
-3.0595180952677444e-05   1.4611332139523661e-06   5.334319548911878e-05
-3.0595180952677444e-05   1.4611332139523661e-06   5.334319548911878e-05
-3.0595180952677444e-05   1.4611332139523661e-06   5.334319548911878e-05
-2.1847270148628805e-06   2.216829904736709e-06   5.539020911624038e-06
-2.1847270148628805e-06   2.216829904736709e-06   5.539020911624038e-06
-2.1847270148628805e-06   2.216829904736709e-06   5.539020911624038e-06
-2.1847270148628805e-06   2.216829904736709e-06   5.539020911624038e-06
-1.5658793225296108e-05   2.3995198646792337e-06   2.788618395304775e-05
-1.5658793225296108e-05   2.3995198646792337e-06   2.788618395304775e-05
-1.5658793225296108e-05   2.3995198646792337e-06   2.788618395304775e-05
-1.5658793225296108e-05   2.3995198646792337e-06   2.788618395304775e-05
-2.691754160563797e-05   8.768369601688374e-06   4.479887149516572e-05
-2.691754160563797e-05   8.768369601688374e-06   4.479887149516572e-05
-2.691754160563797e-05   8.768369601688374e-06   4.479887149516572e-05
-2.691754160563797e-05   8.768369601688374e-06   4.479887149516572e-05
-5.424949393130103e-05   8.879239577591104e-06   -6.878603953978067e-07
-5.424949393130103e-05   8.879239577591104e-06   -6.878603953978067e-07
-5.424949393130103e-05   8.879239577591104e-06   -6.878603953978067e-07
-5.424949393130103e-05   8.879239577591104e-06   -6.878603953978067e-07
-5.560670797122617e-05   8.29453718500248e-06   4.558328604138814e-05
-5.560670797122617e-05   8.29453718500248e-06   4.558328604138814e-05
-5.560670797122617e-05   8.29453718500248e-06   4.558328604138814e-05
-5.560670797122617e-05   8.29453718500248e-06   4.558328604138814e-05
-2.8086562535492392e-05   8.309311095731822e-06   -2.924873646056392e-07
-2.8086562535492392e-05   8.309311095731822e-06   -2.924873646056392e-07
-2.8086562535492392e-05   8.309311095731822e-06   -2.924873646056392e-07
-2.8086562535492392e-05   8.309311095731822e-06   -2.924873646056392e-07
-4.1030873981885444e-05   8.542768830346013e-06   2.114129040528106e-05
-4.1030873981885444e-05   8.542768830346013e-06   2.114129040528106e-05
-4.1030873981885444e-05   8.542768830346013e-06   2.114129040528106e-05
-4.1030873981885444e-05   8.542768830346013e-06   2.114129040528106e-05
-2.8086562535492392e-05   8.29453718500248e-06   4.557442169495071e-05
-2.8086562535492392e-05   8.29453718500248e-06   4.557442169495071e-05
-2.8086562535492392e-05   8.29453718500248e-06   4.557442169495071e-05
-2.8086562535492392e-05   8.29453718500248e-06   4.557442169495071e-05
-5.560670797122609e-05   8.309311095731822e-06   -2.8362301816788234e-07
-5.560670797122609e-05   8.309311095731822e-06   -2.8362301816788234e-07
-5.560670797122609e-05   8.309311095731822e-06   -2.8362301816788234e-07
-5.560670797122609e-05   8.309311095731822e-06   -2.8362301816788234e-07
-5.7111153274077826e-05   7.856581656473082e-06   4.770188187153308e-05
-5.7111153274077826e-05   7.856581656473082e-06   4.770188187153308e-05
-5.7111153274077826e-05   7.856581656473082e-06   4.770188187153308e-05
-5.7111153274077826e-05   7.856581656473082e-06   4.770188187153308e-05
-2.932113667317366e-05   7.784259213037582e-06   1.4285810027539784e-06
-2.932113667317366e-05   7.784259213037582e-06   1.4285810027539784e-06
-2.932113667317366e-05   7.784259213037582e-06   1.4285810027539784e-06
-2.932113667317366e-05   7.784259213037582e-06   1.4285810027539784e-06
-4.2012857090085946e-05   8.220662860391765e-06   2.231960617586176e-05
-4.2012857090085946e-05   8.220662860391765e-06   2.231960617586176e-05
-4.2012857090085946e-05   8.220662860391765e-06   2.231960617586176e-05
-4.2012857090085946e-05   8.220662860391765e-06   2.231960617586176e-05
-2.9321136673173605e-05   7.856581656473082e-06   4.7745275337594166e-05
-2.9321136673173605e-05   7.856581656473082e-06   4.7745275337594166e-05
-2.9321136673173605e-05   7.856581656473082e-06   4.7745275337594166e-05
-2.9321136673173605e-05   7.856581656473082e-06   4.7745275337594166e-05
-5.7111153274077745e-05   7.784259213037582e-06   1.385187536692787e-06
-5.7111153274077745e-05   7.784259213037582e-06   1.385187536692787e-06
-5.7111153274077745e-05   7.784259213037582e-06   1.385187536692787e-06
-5.7111153274077745e-05   7.784259213037582e-06   1.385187536692787e-06
-5.854508851181497e-05   7.268139888616694e-06   4.9232821752068483e-05
-5.854508851181497e-05   7.268139888616694e-06   4.9232821752068483e-05
-5.854508851181497e-05   7.268139888616694e-06   4.9232821752068483e-05
-5.854508851181497e-05   7.268139888616694e-06   4.9232821752068483e-05
-3.059518095267755e-05   7.143373764192159e-06   2.7245021614940917e-06
-3.059518095267755e-05   7.143373764192159e-06   2.7245021614940917e-06
-3.059518095267755e-05   7.143373764192159e-06   2.7245021614940917e-06
-3.059518095267755e-05   7.143373764192159e-06   2.7245021614940917e-06
-4.357339194733353e-05   7.802758770273505e-06   2.3959222815607753e-05
-4.357339194733353e-05   7.802758770273505e-06   2.3959222815607753e-05
-4.357339194733353e-05   7.802758770273505e-06   2.3959222815607753e-05
-4.357339194733353e-05   7.802758770273505e-06   2.3959222815607753e-05
-5.4249493931300945e-05   1.4260198949923256e-05   2.1526251558610975e-05
-5.4249493931300945e-05   1.4260198949923256e-05   2.1526251558610975e-05
-5.4249493931300945e-05   1.4260198949923256e-05   2.1526251558610975e-05
-5.4249493931300945e-05   1.4260198949923256e-05   2.1526251558610975e-05
-8.021204839218704e-05   1.2779750077566987e-05   -2.2632941866279708e-05
-8.021204839218704e-05   1.2779750077566987e-05   -2.2632941866279708e-05
-8.021204839218704e-05   1.2779750077566987e-05   -2.2632941866279708e-05
-8.021204839218704e-05   1.2779750077566987e-05   -2.2632941866279708e-05
-8.234925404288824e-05   1.4532402175833695e-05   2.984402620165999e-05
-8.234925404288824e-05   1.4532402175833695e-05   2.984402620165999e-05
-8.234925404288824e-05   1.4532402175833695e-05   2.984402620165999e-05
-8.234925404288824e-05   1.4532402175833695e-05   2.984402620165999e-05
-5.560670797122617e-05   1.2913919226203215e-05   -1.3755794147998399e-05
-5.560670797122617e-05   1.2913919226203215e-05   -1.3755794147998399e-05
-5.560670797122617e-05   1.2913919226203215e-05   -1.3755794147998399e-05
-5.560670797122617e-05   1.2913919226203215e-05   -1.3755794147998399e-05
-6.5496831624904e-05   1.3542939537112674e-05   2.350333088252648e-06
-6.5496831624904e-05   1.3542939537112674e-05   2.350333088252648e-06
-6.5496831624904e-05   1.3542939537112674e-05   2.350333088252648e-06
-6.5496831624904e-05   1.3542939537112674e-05   2.350333088252648e-06
-5.560670797122603e-05   1.4532402175833695e-05   3.0815115971438625e-05
-5.560670797122603e-05   1.4532402175833695e-05   3.0815115971438625e-05
-5.560670797122603e-05   1.4532402175833695e-05   3.0815115971438625e-05
-5.560670797122603e-05   1.4532402175833695e-05   3.0815115971438625e-05
-8.234925404288846e-05   1.2913919226203215e-05   -1.4726883917776708e-05
-8.234925404288846e-05   1.2913919226203215e-05   -1.4726883917776708e-05
-8.234925404288846e-05   1.2913919226203215e-05   -1.4726883917776708e-05
-8.234925404288846e-05   1.2913919226203215e-05   -1.4726883917776708e-05
-8.443645704847065e-05   1.442726265009223e-05   3.632432114242029e-05
-8.443645704847065e-05   1.442726265009223e-05   3.632432114242029e-05
-8.443645704847065e-05   1.442726265009223e-05   3.632432114242029e-05
-8.443645704847065e-05   1.442726265009223e-05   3.632432114242029e-05
-5.7111153274077826e-05   1.2771398903415037e-05   -8.224333566894952e-06
-5.7111153274077826e-05   1.2771398903415037e-05   -8.224333566894952e-06
-5.7111153274077826e-05   1.2771398903415037e-05   -8.224333566894952e-06
-5.7111153274077826e-05   1.2771398903415037e-05   -8.224333566894952e-06
-6.812034341849617e-05   1.3789617023913896e-05   9.513385801503756e-06
-6.812034341849617e-05   1.3789617023913896e-05   9.513385801503756e-06
-6.812034341849617e-05   1.3789617023913896e-05   9.513385801503756e-06
-6.812034341849617e-05   1.3789617023913896e-05   9.513385801503756e-06
-5.7111153274077826e-05   1.442726265009223e-05   3.7317839390426776e-05
-5.7111153274077826e-05   1.442726265009223e-05   3.7317839390426776e-05
-5.7111153274077826e-05   1.442726265009223e-05   3.7317839390426776e-05
-5.7111153274077826e-05   1.442726265009223e-05   3.7317839390426776e-05
-8.443645704847092e-05   1.2771398903415037e-05   -9.217851814901333e-06
-8.443645704847092e-05   1.2771398903415037e-05   -9.217851814901333e-06
-8.443645704847092e-05   1.2771398903415037e-05   -9.217851814901333e-06
-8.443645704847092e-05   1.2771398903415037e-05   -9.217851814901333e-06
-8.687439264280225e-05   1.3279926367551834e-05   4.742833854327541e-05
-8.687439264280225e-05   1.3279926367551834e-05   4.742833854327541e-05
-8.687439264280225e-05   1.3279926367551834e-05   4.742833854327541e-05
-8.687439264280225e-05   1.3279926367551834e-05   4.742833854327541e-05
-5.854508851181497e-05   1.1785638410135788e-05   1.1094044327461961e-06
-5.854508851181497e-05   1.1785638410135788e-05   1.1094044327461961e-06
-5.854508851181497e-05   1.1785638410135788e-05   1.1094044327461961e-06
-5.854508851181497e-05   1.1785638410135788e-05   1.1094044327461961e-06
-6.879021269925046e-05   1.3383009749560158e-05   1.7226188608152277e-05
-6.879021269925046e-05   1.3383009749560158e-05   1.7226188608152277e-05
-6.879021269925046e-05   1.3383009749560158e-05   1.7226188608152277e-05
-6.879021269925046e-05   1.3383009749560158e-05   1.7226188608152277e-05
4.654905851601265e-05   -6.2905803524088665e-06   3.9530743909398786e-05
4.654905851601265e-05   -6.2905803524088665e-06   3.9530743909398786e-05
4.654905851601265e-05   -6.2905803524088665e-06   3.9530743909398786e-05
4.654905851601265e-05   -6.2905803524088665e-06   3.9530743909398786e-05
2.1917074709375934e-05   -4.153298271959444e-06   -2.401931867262574e-07
2.1917074709375934e-05   -4.153298271959444e-06   -2.401931867262574e-07
2.1917074709375934e-05   -4.153298271959444e-06   -2.401931867262574e-07
2.1917074709375934e-05   -4.153298271959444e-06   -2.401931867262574e-07
2.0876186050208884e-05   -7.300113153075032e-06   3.4737611782323114e-05
2.0876186050208884e-05   -7.300113153075032e-06   3.4737611782323114e-05
2.0876186050208884e-05   -7.300113153075032e-06   3.4737611782323114e-05
2.0876186050208884e-05   -7.300113153075032e-06   3.4737611782323114e-05
4.453539818355081e-05   -5.042489906193978e-06   -6.0489823880412565e-06
4.453539818355081e-05   -5.042489906193978e-06   -6.0489823880412565e-06
4.453539818355081e-05   -5.042489906193978e-06   -6.0489823880412565e-06
4.453539818355081e-05   -5.042489906193978e-06   -6.0489823880412565e-06
3.189486927800363e-05   -5.740309622229503e-06   1.5437257617491644e-05
3.189486927800363e-05   -5.740309622229503e-06   1.5437257617491644e-05
3.189486927800363e-05   -5.740309622229503e-06   1.5437257617491644e-05
3.189486927800363e-05   -5.740309622229503e-06   1.5437257617491644e-05
4.453539818355081e-05   -7.300113153075032e-06   3.3383037834195306e-05
4.453539818355081e-05   -7.300113153075032e-06   3.3383037834195306e-05
4.453539818355081e-05   -7.300113153075032e-06   3.3383037834195306e-05
4.453539818355081e-05   -7.300113153075032e-06   3.3383037834195306e-05
2.0876186050208918e-05   -5.042489906193978e-06   -4.694408439912933e-06
2.0876186050208918e-05   -5.042489906193978e-06   -4.694408439912933e-06
2.0876186050208918e-05   -5.042489906193978e-06   -4.694408439912933e-06
2.0876186050208918e-05   -5.042489906193978e-06   -4.694408439912933e-06
1.9727546593261547e-05   -7.503171871927564e-06   3.136804848526196e-05
1.9727546593261547e-05   -7.503171871927564e-06   3.136804848526196e-05
1.9727546593261547e-05   -7.503171871927564e-06   3.136804848526196e-05
1.9727546593261547e-05   -7.503171871927564e-06   3.136804848526196e-05
4.277095253499616e-05   -5.28026411076828e-06   -8.371372740990991e-06
4.277095253499616e-05   -5.28026411076828e-06   -8.371372740990991e-06
4.277095253499616e-05   -5.28026411076828e-06   -8.371372740990991e-06
4.277095253499616e-05   -5.28026411076828e-06   -8.371372740990991e-06
3.105872588066062e-05   -6.100948892873333e-06   1.1641415885498415e-05
3.105872588066062e-05   -6.100948892873333e-06   1.1641415885498415e-05
3.105872588066062e-05   -6.100948892873333e-06   1.1641415885498415e-05
3.105872588066062e-05   -6.100948892873333e-06   1.1641415885498415e-05
4.277095253499608e-05   -7.503171871927131e-06   3.0034303828566436e-05
4.277095253499608e-05   -7.503171871927131e-06   3.0034303828566436e-05
4.277095253499608e-05   -7.503171871927131e-06   3.0034303828566436e-05
4.277095253499608e-05   -7.503171871927131e-06   3.0034303828566436e-05
1.972754659326158e-05   -5.28026411076828e-06   -7.037628084295396e-06
1.972754659326158e-05   -5.28026411076828e-06   -7.037628084295396e-06
1.972754659326158e-05   -5.28026411076828e-06   -7.037628084295396e-06
1.972754659326158e-05   -5.28026411076828e-06   -7.037628084295396e-06
1.8667072483178235e-05   -7.586515260274082e-06   2.6806628380781966e-05
1.8667072483178235e-05   -7.586515260274082e-06   2.6806628380781966e-05
1.8667072483178235e-05   -7.586515260274082e-06   2.6806628380781966e-05
1.8667072483178235e-05   -7.586515260274082e-06   2.6806628380781966e-05
4.080000590083933e-05   -5.5035336583527696e-06   -1.1331382943139293e-05
4.080000590083933e-05   -5.5035336583527696e-06   -1.1331382943139293e-05
4.080000590083933e-05   -5.5035336583527696e-06   -1.1331382943139293e-05
4.080000590083933e-05   -5.5035336583527696e-06   -1.1331382943139293e-05
2.9218534056180908e-05   -6.066577403402752e-06   8.308896378321967e-06
2.9218534056180908e-05   -6.066577403402752e-06   8.308896378321967e-06
2.9218534056180908e-05   -6.066577403402752e-06   8.308896378321967e-06
2.9218534056180908e-05   -6.066577403402752e-06   8.308896378321967e-06
2.191707470937586e-05   -1.2026937703346445e-06   4.49747727943393e-05
2.191707470937586e-05   -1.2026937703346445e-06   4.49747727943393e-05
2.191707470937586e-05   -1.2026937703346445e-06   4.49747727943393e-05
2.191707470937586e-05   -1.2026937703346445e-06   4.49747727943393e-05
-1.3992259905271998e-06   -1.9157022908972143e-08   6.82439367628981e-06
-1.3992259905271998e-06   -1.9157022908972143e-08   6.82439367628981e-06
-1.3992259905271998e-06   -1.9157022908972143e-08   6.82439367628981e-06
-1.3992259905271998e-06   -1.9157022908972143e-08   6.82439367628981e-06
-2.3776677180098926e-06   -1.9188590539408884e-06   4.5055440997502196e-05
-2.3776677180098926e-06   -1.9188590539408884e-06   4.5055440997502196e-05
-2.3776677180098926e-06   -1.9188590539408884e-06   4.5055440997502196e-05
-2.3776677180098926e-06   -1.9188590539408884e-06   4.5055440997502196e-05
2.0876186050208918e-05   -7.930040923269724e-07   5.623505073502563e-06
2.0876186050208918e-05   -7.930040923269724e-07   5.623505073502563e-06
2.0876186050208918e-05   -7.930040923269724e-07   5.623505073502563e-06
2.0876186050208918e-05   -7.930040923269724e-07   5.623505073502563e-06
9.596147471037647e-06   -1.01145284104329e-06   2.4554638621350987e-05
9.596147471037647e-06   -1.01145284104329e-06   2.4554638621350987e-05
9.596147471037647e-06   -1.01145284104329e-06   2.4554638621350987e-05
9.596147471037647e-06   -1.01145284104329e-06   2.4554638621350987e-05
2.0876186050208857e-05   -1.9188590539404547e-06   4.437992802053367e-05
2.0876186050208857e-05   -1.9188590539404547e-06   4.437992802053367e-05
2.0876186050208857e-05   -1.9188590539404547e-06   4.437992802053367e-05
2.0876186050208857e-05   -1.9188590539404547e-06   4.437992802053367e-05
-2.3776677180098926e-06   -7.930040923269724e-07   6.299018050471032e-06
-2.3776677180098926e-06   -7.930040923269724e-07   6.299018050471032e-06
-2.3776677180098926e-06   -7.930040923269724e-07   6.299018050471032e-06
-2.3776677180098926e-06   -7.930040923269724e-07   6.299018050471032e-06
-3.3768700701168955e-06   -2.451258290504972e-06   4.437951690770608e-05
-3.3768700701168955e-06   -2.451258290504972e-06   4.437951690770608e-05
-3.3768700701168955e-06   -2.451258290504972e-06   4.437951690770608e-05
-3.3768700701168955e-06   -2.451258290504972e-06   4.437951690770608e-05
1.972754659326158e-05   -1.4033924620113214e-06   5.243436304979034e-06
1.972754659326158e-05   -1.4033924620113214e-06   5.243436304979034e-06
1.972754659326158e-05   -1.4033924620113214e-06   5.243436304979034e-06
1.972754659326158e-05   -1.4033924620113214e-06   5.243436304979034e-06
8.499041288441695e-06   -1.4892437617884495e-06   2.400912259287977e-05
8.499041288441695e-06   -1.4892437617884495e-06   2.400912259287977e-05
8.499041288441695e-06   -1.4892437617884495e-06   2.400912259287977e-05
8.499041288441695e-06   -1.4892437617884495e-06   2.400912259287977e-05
1.9727546593261547e-05   -2.4512582905054058e-06   4.375079741060972e-05
1.9727546593261547e-05   -2.4512582905054058e-06   4.375079741060972e-05
1.9727546593261547e-05   -2.4512582905054058e-06   4.375079741060972e-05
1.9727546593261547e-05   -2.4512582905054058e-06   4.375079741060972e-05
-3.3768700701168955e-06   -1.4033924620113214e-06   5.872155802075533e-06
-3.3768700701168955e-06   -1.4033924620113214e-06   5.872155802075533e-06
-3.3768700701168955e-06   -1.4033924620113214e-06   5.872155802075533e-06
-3.3768700701168955e-06   -1.4033924620113214e-06   5.872155802075533e-06
-4.381458445814105e-06   -2.8717203267932152e-06   4.469107789212929e-05
-4.381458445814105e-06   -2.8717203267932152e-06   4.469107789212929e-05
-4.381458445814105e-06   -2.8717203267932152e-06   4.469107789212929e-05
-4.381458445814105e-06   -2.8717203267932152e-06   4.469107789212929e-05
1.866707248317827e-05   -1.9692008045263214e-06   5.735347963781864e-06
1.866707248317827e-05   -1.9692008045263214e-06   5.735347963781864e-06
1.866707248317827e-05   -1.9692008045263214e-06   5.735347963781864e-06
1.866707248317827e-05   -1.9692008045263214e-06   5.735347963781864e-06
7.660622282609337e-06   -1.843417265397218e-06   2.4003961507920084e-05
7.660622282609337e-06   -1.843417265397218e-06   2.4003961507920084e-05
7.660622282609337e-06   -1.843417265397218e-06   2.4003961507920084e-05
7.660622282609337e-06   -1.843417265397218e-06   2.4003961507920084e-05
-1.3992259905271998e-06   3.907859384172808e-06   4.761987514318041e-05
-1.3992259905271998e-06   3.907859384172808e-06   4.761987514318041e-05
-1.3992259905271998e-06   3.907859384172808e-06   4.761987514318041e-05
-1.3992259905271998e-06   3.907859384172808e-06   4.761987514318041e-05
-2.4226398124331565e-05   4.021453539365671e-06   9.642744746622255e-06
-2.4226398124331565e-05   4.021453539365671e-06   9.642744746622255e-06
-2.4226398124331565e-05   4.021453539365671e-06   9.642744746622255e-06
-2.4226398124331565e-05   4.021453539365671e-06   9.642744746622255e-06
-2.5209968771080712e-05   3.311464232835532e-06   4.747576855258068e-05
-2.5209968771080712e-05   3.311464232835532e-06   4.747576855258068e-05
-2.5209968771080712e-05   3.311464232835532e-06   4.747576855258068e-05
-2.5209968771080712e-05   3.311464232835532e-06   4.747576855258068e-05
-2.3776677180099197e-06   3.341032170464664e-06   9.404192701551703e-06
-2.3776677180099197e-06   3.341032170464664e-06   9.404192701551703e-06
-2.3776677180099197e-06   3.341032170464664e-06   9.404192701551703e-06
-2.3776677180099197e-06   3.341032170464664e-06   9.404192701551703e-06
-1.3337871457814586e-05   3.582000974700593e-06   2.7526617652018066e-05
-1.3337871457814586e-05   3.582000974700593e-06   2.7526617652018066e-05
-1.3337871457814586e-05   3.582000974700593e-06   2.7526617652018066e-05
-1.3337871457814586e-05   3.582000974700593e-06   2.7526617652018066e-05
-2.3776677180099197e-06   3.3114642328350985e-06   4.745802779000316e-05
-2.3776677180099197e-06   3.3114642328350985e-06   4.745802779000316e-05
-2.3776677180099197e-06   3.3114642328350985e-06   4.745802779000316e-05
-2.3776677180099197e-06   3.3114642328350985e-06   4.745802779000316e-05
-2.5209968771080712e-05   3.341032170464664e-06   9.421933464129253e-06
-2.5209968771080712e-05   3.341032170464664e-06   9.421933464129253e-06
-2.5209968771080712e-05   3.341032170464664e-06   9.421933464129253e-06
-2.5209968771080712e-05   3.341032170464664e-06   9.421933464129253e-06
-2.6218176228081497e-05   2.7323443955265016e-06   4.773663751407391e-05
-2.6218176228081497e-05   2.7323443955265016e-06   4.773663751407391e-05
-2.6218176228081497e-05   2.7323443955265016e-06   4.773663751407391e-05
-2.6218176228081497e-05   2.7323443955265016e-06   4.773663751407391e-05
-3.3768700701168955e-06   2.671388663115677e-06   9.704367356912766e-06
-3.3768700701168955e-06   2.671388663115677e-06   9.704367356912766e-06
-3.3768700701168955e-06   2.671388663115677e-06   9.704367356912766e-06
-3.3768700701168955e-06   2.671388663115677e-06   9.704367356912766e-06
-1.4251206498655967e-05   3.1243138776033443e-06   2.7556506275786463e-05
-1.4251206498655967e-05   3.1243138776033443e-06   2.7556506275786463e-05
-1.4251206498655967e-05   3.1243138776033443e-06   2.7556506275786463e-05
-1.4251206498655967e-05   3.1243138776033443e-06   2.7556506275786463e-05
-3.3768700701168955e-06   2.7323443955265016e-06   4.777321095352058e-05
-3.3768700701168955e-06   2.7323443955265016e-06   4.777321095352058e-05
-3.3768700701168955e-06   2.7323443955265016e-06   4.777321095352058e-05
-3.3768700701168955e-06   2.7323443955265016e-06   4.777321095352058e-05
-2.6218176228081497e-05   2.671388663115677e-06   9.667793917466153e-06
-2.6218176228081497e-05   2.671388663115677e-06   9.667793917466153e-06
-2.6218176228081497e-05   2.671388663115677e-06   9.667793917466153e-06
-2.6218176228081497e-05   2.671388663115677e-06   9.667793917466153e-06
-2.7226051163071e-05   2.216829904736709e-06   4.833142599855629e-05
-2.7226051163071e-05   2.216829904736709e-06   4.833142599855629e-05
-2.7226051163071e-05   2.216829904736709e-06   4.833142599855629e-05
-2.7226051163071e-05   2.216829904736709e-06   4.833142599855629e-05
-4.381458445814105e-06   2.0359177288872994e-06   1.0365652108637353e-05
-4.381458445814105e-06   2.0359177288872994e-06   1.0365652108637353e-05
-4.381458445814105e-06   2.0359177288872994e-06   1.0365652108637353e-05
-4.381458445814105e-06   2.0359177288872994e-06   1.0365652108637353e-05
-1.520732199787184e-05   2.6782701912121676e-06   2.8023346551339938e-05
-1.520732199787184e-05   2.6782701912121676e-06   2.8023346551339938e-05
-1.520732199787184e-05   2.6782701912121676e-06   2.8023346551339938e-05
-1.520732199787184e-05   2.6782701912121676e-06   2.8023346551339938e-05
-2.422639812433151e-05   8.879239577591104e-06   4.188537942646916e-05
-2.422639812433151e-05   8.879239577591104e-06   4.188537942646916e-05
-2.422639812433151e-05   8.879239577591104e-06   4.188537942646916e-05
-2.422639812433151e-05   8.879239577591104e-06   4.188537942646916e-05
-4.654545225041479e-05   7.909208139442701e-06   4.1049370201077726e-06
-4.654545225041479e-05   7.909208139442701e-06   4.1049370201077726e-06
-4.654545225041479e-05   7.909208139442701e-06   4.1049370201077726e-06
-4.654545225041479e-05   7.909208139442701e-06   4.1049370201077726e-06
-4.7603677155898044e-05   8.309311095731822e-06   4.1609924285856796e-05
-4.7603677155898044e-05   8.309311095731822e-06   4.1609924285856796e-05
-4.7603677155898044e-05   8.309311095731822e-06   4.1609924285856796e-05
-4.7603677155898044e-05   8.309311095731822e-06   4.1609924285856796e-05
-2.520996877108074e-05   7.257166953559581e-06   4.918363463130872e-06
-2.520996877108074e-05   7.257166953559581e-06   4.918363463130872e-06
-2.520996877108074e-05   7.257166953559581e-06   4.918363463130872e-06
-2.520996877108074e-05   7.257166953559581e-06   4.918363463130872e-06
-3.5777883388603526e-05   7.983745354175117e-06   2.209560745196625e-05
-3.5777883388603526e-05   7.983745354175117e-06   2.209560745196625e-05
-3.5777883388603526e-05   7.983745354175117e-06   2.209560745196625e-05
-3.5777883388603526e-05   7.983745354175117e-06   2.209560745196625e-05
-2.5209968771080712e-05   8.309311095731822e-06   4.2241210771159794e-05
-2.5209968771080712e-05   8.309311095731822e-06   4.2241210771159794e-05
-2.5209968771080712e-05   8.309311095731822e-06   4.2241210771159794e-05
-2.5209968771080712e-05   8.309311095731822e-06   4.2241210771159794e-05
-4.7603677155898044e-05   7.257166953559581e-06   4.287076977827712e-06
-4.7603677155898044e-05   7.257166953559581e-06   4.287076977827712e-06
-4.7603677155898044e-05   7.257166953559581e-06   4.287076977827712e-06
-4.7603677155898044e-05   7.257166953559581e-06   4.287076977827712e-06
-4.876881363893252e-05   7.784259213037582e-06   4.316936192043635e-05
-4.876881363893252e-05   7.784259213037582e-06   4.316936192043635e-05
-4.876881363893252e-05   7.784259213037582e-06   4.316936192043635e-05
-4.876881363893252e-05   7.784259213037582e-06   4.316936192043635e-05
-2.621817622808155e-05   6.650008649763603e-06   6.26551657364891e-06
-2.621817622808155e-05   6.650008649763603e-06   6.26551657364891e-06
-2.621817622808155e-05   6.650008649763603e-06   6.26551657364891e-06
-2.621817622808155e-05   6.650008649763603e-06   6.26551657364891e-06
-3.653832597289261e-05   7.567285467354606e-06   2.2915400057780015e-05
-3.653832597289261e-05   7.567285467354606e-06   2.2915400057780015e-05
-3.653832597289261e-05   7.567285467354606e-06   2.2915400057780015e-05
-3.653832597289261e-05   7.567285467354606e-06   2.2915400057780015e-05
-2.6218176228081524e-05   7.784259213037582e-06   4.384991225840065e-05
-2.6218176228081524e-05   7.784259213037582e-06   4.384991225840065e-05
-2.6218176228081524e-05   7.784259213037582e-06   4.384991225840065e-05
-2.6218176228081524e-05   7.784259213037582e-06   4.384991225840065e-05
-4.876881363893252e-05   6.650008649763603e-06   5.584966235684446e-06
-4.876881363893252e-05   6.650008649763603e-06   5.584966235684446e-06
-4.876881363893252e-05   6.650008649763603e-06   5.584966235684446e-06
-4.876881363893252e-05   6.650008649763603e-06   5.584966235684446e-06
-4.9834394983624486e-05   7.143373764192159e-06   4.4343456776451155e-05
-4.9834394983624486e-05   7.143373764192159e-06   4.4343456776451155e-05
-4.9834394983624486e-05   7.143373764192159e-06   4.4343456776451155e-05
-4.9834394983624486e-05   7.143373764192159e-06   4.4343456776451155e-05
-2.7226051163071053e-05   5.943319668351259e-06   7.382916199700151e-06
-2.7226051163071053e-05   5.943319668351259e-06   7.382916199700151e-06
-2.7226051163071053e-05   5.943319668351259e-06   7.382916199700151e-06
-2.7226051163071053e-05   5.943319668351259e-06   7.382916199700151e-06
-3.7746510439808775e-05   7.097950347980178e-06   2.4224236586487262e-05
-3.7746510439808775e-05   7.097950347980178e-06   2.4224236586487262e-05
-3.7746510439808775e-05   7.097950347980178e-06   2.4224236586487262e-05
-3.7746510439808775e-05   7.097950347980178e-06   2.4224236586487262e-05
-4.654545225041479e-05   1.2779750077566987e-05   2.0246548416111808e-05
-4.654545225041479e-05   1.2779750077566987e-05   2.0246548416111808e-05
-4.654545225041479e-05   1.2779750077566987e-05   2.0246548416111808e-05
-4.654545225041479e-05   1.2779750077566987e-05   2.0246548416111808e-05
-6.773047468939928e-05   1.0895047413969801e-05   -1.6192643913687504e-05
-6.773047468939928e-05   1.0895047413969801e-05   -1.6192643913687504e-05
-6.773047468939928e-05   1.0895047413969801e-05   -1.6192643913687504e-05
-6.773047468939928e-05   1.0895047413969801e-05   -1.6192643913687504e-05
-6.963182955656749e-05   1.2913919226203215e-05   2.689283320279033e-05
-6.963182955656749e-05   1.2913919226203215e-05   2.689283320279033e-05
-6.963182955656749e-05   1.2913919226203215e-05   2.689283320279033e-05
-6.963182955656749e-05   1.2913919226203215e-05   2.689283320279033e-05
-4.7603677155898044e-05   1.0839052637477177e-05   -8.575834178423418e-06
-4.7603677155898044e-05   1.0839052637477177e-05   -8.575834178423418e-06
-4.7603677155898044e-05   1.0839052637477177e-05   -8.575834178423418e-06
-4.7603677155898044e-05   1.0839052637477177e-05   -8.575834178423418e-06
-5.5676094346688665e-05   1.1683887094110154e-05   4.371293798914751e-06
-5.5676094346688665e-05   1.1683887094110154e-05   4.371293798914751e-06
-5.5676094346688665e-05   1.1683887094110154e-05   4.371293798914751e-06
-5.5676094346688665e-05   1.1683887094110154e-05   4.371293798914751e-06
-4.760367715589799e-05   1.2913919226203215e-05   2.8137753156025954e-05
-4.760367715589799e-05   1.2913919226203215e-05   2.8137753156025954e-05
-4.760367715589799e-05   1.2913919226203215e-05   2.8137753156025954e-05
-4.760367715589799e-05   1.2913919226203215e-05   2.8137753156025954e-05
-6.963182955656766e-05   1.0839052637477177e-05   -9.820754131658932e-06
-6.963182955656766e-05   1.0839052637477177e-05   -9.820754131658932e-06
-6.963182955656766e-05   1.0839052637477177e-05   -9.820754131658932e-06
-6.963182955656766e-05   1.0839052637477177e-05   -9.820754131658932e-06
-7.133464852604319e-05   1.2771398903414603e-05   3.226760264069114e-05
-7.133464852604319e-05   1.2771398903414603e-05   3.226760264069114e-05
-7.133464852604319e-05   1.2771398903414603e-05   3.226760264069114e-05
-7.133464852604319e-05   1.2771398903414603e-05   3.226760264069114e-05
-4.876881363893252e-05   1.0617668609819511e-05   -4.049883995003176e-06
-4.876881363893252e-05   1.0617668609819511e-05   -4.049883995003176e-06
-4.876881363893252e-05   1.0617668609819511e-05   -4.049883995003176e-06
-4.876881363893252e-05   1.0617668609819511e-05   -4.049883995003176e-06
-5.785930260098369e-05   1.1812366302067605e-05   1.038411232640187e-05
-5.785930260098369e-05   1.1812366302067605e-05   1.038411232640187e-05
-5.785930260098369e-05   1.1812366302067605e-05   1.038411232640187e-05
-5.785930260098369e-05   1.1812366302067605e-05   1.038411232640187e-05
-4.876881363893252e-05   1.2771398903415037e-05   3.3559840816848284e-05
-4.876881363893252e-05   1.2771398903415037e-05   3.3559840816848284e-05
-4.876881363893252e-05   1.2771398903415037e-05   3.3559840816848284e-05
-4.876881363893252e-05   1.2771398903415037e-05   3.3559840816848284e-05
-7.133464852604335e-05   1.0617668609819511e-05   -5.342122171160535e-06
-7.133464852604335e-05   1.0617668609819511e-05   -5.342122171160535e-06
-7.133464852604335e-05   1.0617668609819511e-05   -5.342122171160535e-06
-7.133464852604335e-05   1.0617668609819511e-05   -5.342122171160535e-06
-7.329169101976313e-05   1.1785638410135354e-05   4.151722555827001e-05
-7.329169101976313e-05   1.1785638410135354e-05   4.151722555827001e-05
-7.329169101976313e-05   1.1785638410135354e-05   4.151722555827001e-05
-7.329169101976313e-05   1.1785638410135354e-05   4.151722555827001e-05
-4.9834394983624486e-05   9.642316469989781e-06   3.707725328792725e-06
-4.9834394983624486e-05   9.642316469989781e-06   3.707725328792725e-06
-4.9834394983624486e-05   9.642316469989781e-06   3.707725328792725e-06
-4.9834394983624486e-05   9.642316469989781e-06   3.707725328792725e-06
-5.83296922484555e-05   1.1408116827704706e-05   1.6807073888883378e-05
-5.83296922484555e-05   1.1408116827704706e-05   1.6807073888883378e-05
-5.83296922484555e-05   1.1408116827704706e-05   1.6807073888883378e-05
-5.83296922484555e-05   1.1408116827704706e-05   1.6807073888883378e-05
3.203982001910073e-05   -4.153298271959878e-06   3.215969192510741e-05
3.203982001910073e-05   -4.153298271959878e-06   3.215969192510741e-05
3.203982001910073e-05   -4.153298271959878e-06   3.215969192510741e-05
3.203982001910073e-05   -4.153298271959878e-06   3.215969192510741e-05
1.3292617264353184e-05   -2.037164811039688e-06   2.1840340770800434e-06
1.3292617264353184e-05   -2.037164811039688e-06   2.1840340770800434e-06
1.3292617264353184e-05   -2.037164811039688e-06   2.1840340770800434e-06
1.3292617264353184e-05   -2.037164811039688e-06   2.1840340770800434e-06
1.2455854891215309e-05   -5.042489906193978e-06   2.8918046625164406e-05
1.2455854891215309e-05   -5.042489906193978e-06   2.8918046625164406e-05
1.2455854891215309e-05   -5.042489906193978e-06   2.8918046625164406e-05
1.2455854891215309e-05   -5.042489906193978e-06   2.8918046625164406e-05
3.0259215377323035e-05   -2.831957463621422e-06   -2.080540317225539e-06
3.0259215377323035e-05   -2.831957463621422e-06   -2.080540317225539e-06
3.0259215377323035e-05   -2.831957463621422e-06   -2.080540317225539e-06
3.0259215377323035e-05   -2.831957463621422e-06   -2.080540317225539e-06
2.0916470286698294e-05   -3.6010230377516057e-06   1.3952140844961072e-05
2.0916470286698294e-05   -3.6010230377516057e-06   1.3952140844961072e-05
2.0916470286698294e-05   -3.6010230377516057e-06   1.3952140844961072e-05
2.0916470286698294e-05   -3.6010230377516057e-06   1.3952140844961072e-05
3.0259215377323082e-05   -5.042489906194412e-06   2.75917271596207e-05
3.0259215377323082e-05   -5.042489906194412e-06   2.75917271596207e-05
3.0259215377323082e-05   -5.042489906194412e-06   2.75917271596207e-05
3.0259215377323082e-05   -5.042489906194412e-06   2.75917271596207e-05
1.2455854891215268e-05   -2.831957463621422e-06   -7.54220851682157e-07
1.2455854891215268e-05   -2.831957463621422e-06   -7.54220851682157e-07
1.2455854891215268e-05   -2.831957463621422e-06   -7.54220851682157e-07
1.2455854891215268e-05   -2.831957463621422e-06   -7.54220851682157e-07
1.1516333255107947e-05   -5.28026411076828e-06   2.651026129662083e-05
1.1516333255107947e-05   -5.28026411076828e-06   2.651026129662083e-05
1.1516333255107947e-05   -5.28026411076828e-06   2.651026129662083e-05
1.1516333255107947e-05   -5.28026411076828e-06   2.651026129662083e-05
2.8730979808917883e-05   -3.105878025264682e-06   -3.485447944364176e-06
2.8730979808917883e-05   -3.105878025264682e-06   -3.485447944364176e-06
2.8730979808917883e-05   -3.105878025264682e-06   -3.485447944364176e-06
2.8730979808917883e-05   -3.105878025264682e-06   -3.485447944364176e-06
2.0122930904273647e-05   -3.938033527807472e-06   1.1360593531569534e-05
2.0122930904273647e-05   -3.938033527807472e-06   1.1360593531569534e-05
2.0122930904273647e-05   -3.938033527807472e-06   1.1360593531569534e-05
2.0122930904273647e-05   -3.938033527807472e-06   1.1360593531569534e-05
2.8730979808917944e-05   -5.28026411076828e-06   2.5205629645318672e-05
2.8730979808917944e-05   -5.28026411076828e-06   2.5205629645318672e-05
2.8730979808917944e-05   -5.28026411076828e-06   2.5205629645318672e-05
2.8730979808917944e-05   -5.28026411076828e-06   2.5205629645318672e-05
1.1516333255107933e-05   -3.105878025264682e-06   -2.1808162930620715e-06
1.1516333255107933e-05   -3.105878025264682e-06   -2.1808162930620715e-06
1.1516333255107933e-05   -3.105878025264682e-06   -2.1808162930620715e-06
1.1516333255107933e-05   -3.105878025264682e-06   -2.1808162930620715e-06
1.0674269685280177e-05   -5.5035336583527696e-06   2.338604662367261e-05
1.0674269685280177e-05   -5.5035336583527696e-06   2.338604662367261e-05
1.0674269685280177e-05   -5.5035336583527696e-06   2.338604662367261e-05
1.0674269685280177e-05   -5.5035336583527696e-06   2.338604662367261e-05
2.6998134042230835e-05   -3.4689885979734096e-06   -5.041121007472849e-06
2.6998134042230835e-05   -3.4689885979734096e-06   -5.041121007472849e-06
2.6998134042230835e-05   -3.4689885979734096e-06   -5.041121007472849e-06
2.6998134042230835e-05   -3.4689885979734096e-06   -5.041121007472849e-06
1.8657382556229555e-05   -4.004767539072824e-06   9.181598833855535e-06
1.8657382556229555e-05   -4.004767539072824e-06   9.181598833855535e-06
1.8657382556229555e-05   -4.004767539072824e-06   9.181598833855535e-06
1.8657382556229555e-05   -4.004767539072824e-06   9.181598833855535e-06
1.3292617264353232e-05   -1.9157022908538462e-08   3.97838368162201e-05
1.3292617264353232e-05   -1.9157022908538462e-08   3.97838368162201e-05
1.3292617264353232e-05   -1.9157022908538462e-08   3.97838368162201e-05
1.3292617264353232e-05   -1.9157022908538462e-08   3.97838368162201e-05
-4.302171887113728e-06   1.0542961686806247e-06   1.1103260145395614e-05
-4.302171887113728e-06   1.0542961686806247e-06   1.1103260145395614e-05
-4.302171887113728e-06   1.0542961686806247e-06   1.1103260145395614e-05
-4.302171887113728e-06   1.0542961686806247e-06   1.1103260145395614e-05
-5.070915563061432e-06   -7.930040923269724e-07   3.9861236575133374e-05
-5.070915563061432e-06   -7.930040923269724e-07   3.9861236575133374e-05
-5.070915563061432e-06   -7.930040923269724e-07   3.9861236575133374e-05
-5.070915563061432e-06   -7.930040923269724e-07   3.9861236575133374e-05
1.2455854891215268e-05   2.491233019289059e-07   1.0024676048118736e-05
1.2455854891215268e-05   2.491233019289059e-07   1.0024676048118736e-05
1.2455854891215268e-05   2.491233019289059e-07   1.0024676048118736e-05
1.2455854891215268e-05   2.491233019289059e-07   1.0024676048118736e-05
3.968518291842692e-06   5.378746037584467e-08   2.428743855200586e-05
3.968518291842692e-06   5.378746037584467e-08   2.428743855200586e-05
3.968518291842692e-06   5.378746037584467e-08   2.428743855200586e-05
3.968518291842692e-06   5.378746037584467e-08   2.428743855200586e-05
1.2455854891215295e-05   -7.930040923265387e-07   3.923596013857985e-05
1.2455854891215295e-05   -7.930040923265387e-07   3.923596013857985e-05
1.2455854891215295e-05   -7.930040923265387e-07   3.923596013857985e-05
1.2455854891215295e-05   -7.930040923265387e-07   3.923596013857985e-05
-5.070915563061405e-06   2.491233019289059e-07   1.0649952484672242e-05
-5.070915563061405e-06   2.491233019289059e-07   1.0649952484672242e-05
-5.070915563061405e-06   2.491233019289059e-07   1.0649952484672242e-05
-5.070915563061405e-06   2.491233019289059e-07   1.0649952484672242e-05
-5.856834825781386e-06   -1.4033924620113214e-06   3.938728424690303e-05
-5.856834825781386e-06   -1.4033924620113214e-06   3.938728424690303e-05
-5.856834825781386e-06   -1.4033924620113214e-06   3.938728424690303e-05
-5.856834825781386e-06   -1.4033924620113214e-06   3.938728424690303e-05
1.1516333255107933e-05   -4.101281936654856e-07   9.836045551080301e-06
1.1516333255107933e-05   -4.101281936654856e-07   9.836045551080301e-06
1.1516333255107933e-05   -4.101281936654856e-07   9.836045551080301e-06
1.1516333255107933e-05   -4.101281936654856e-07   9.836045551080301e-06
3.1236118835328355e-06   -4.834888836092836e-07   2.3867930917672925e-05
3.1236118835328355e-06   -4.834888836092836e-07   2.3867930917672925e-05
3.1236118835328355e-06   -4.834888836092836e-07   2.3867930917672925e-05
3.1236118835328355e-06   -4.834888836092836e-07   2.3867930917672925e-05
1.1516333255107967e-05   -1.4033924620113214e-06   3.8791325685895396e-05
1.1516333255107967e-05   -1.4033924620113214e-06   3.8791325685895396e-05
1.1516333255107967e-05   -1.4033924620113214e-06   3.8791325685895396e-05
1.1516333255107967e-05   -1.4033924620113214e-06   3.8791325685895396e-05
-5.856834825781386e-06   -4.101281936654856e-07   1.043200411208773e-05
-5.856834825781386e-06   -4.101281936654856e-07   1.043200411208773e-05
-5.856834825781386e-06   -4.101281936654856e-07   1.043200411208773e-05
-5.856834825781386e-06   -4.101281936654856e-07   1.043200411208773e-05
-6.636101453226403e-06   -1.9692008045263214e-06   3.9748326510802593e-05
-6.636101453226403e-06   -1.9692008045263214e-06   3.9748326510802593e-05
-6.636101453226403e-06   -1.9692008045263214e-06   3.9748326510802593e-05
-6.636101453226403e-06   -1.9692008045263214e-06   3.9748326510802593e-05
1.067426968528013e-05   -1.0603042355909233e-06   1.0352370005263528e-05
1.067426968528013e-05   -1.0603042355909233e-06   1.0352370005263528e-05
1.067426968528013e-05   -1.0603042355909233e-06   1.0352370005263528e-05
1.067426968528013e-05   -1.0603042355909233e-06   1.0352370005263528e-05
2.455636977019412e-06   -9.319100460654373e-07   2.3973054671982594e-05
2.455636977019412e-06   -9.319100460654373e-07   2.3973054671982594e-05
2.455636977019412e-06   -9.319100460654373e-07   2.3973054671982594e-05
2.455636977019412e-06   -9.319100460654373e-07   2.3973054671982594e-05
-4.302171887113728e-06   4.021453539365671e-06   4.317810330838989e-05
-4.302171887113728e-06   4.021453539365671e-06   4.317810330838989e-05
-4.302171887113728e-06   4.021453539365671e-06   4.317810330838989e-05
-4.302171887113728e-06   4.021453539365671e-06   4.317810330838989e-05
-2.1608133720679793e-05   3.956077200069959e-06   1.4295607782202602e-05
-2.1608133720679793e-05   3.956077200069959e-06   1.4295607782202602e-05
-2.1608133720679793e-05   3.956077200069959e-06   1.4295607782202602e-05
-2.1608133720679793e-05   3.956077200069959e-06   1.4295607782202602e-05
-2.2366418905005582e-05   3.341032170464664e-06   4.289617327320823e-05
-2.2366418905005582e-05   3.341032170464664e-06   4.289617327320823e-05
-2.2366418905005582e-05   3.341032170464664e-06   4.289617327320823e-05
-2.2366418905005582e-05   3.341032170464664e-06   4.289617327320823e-05
-5.070915563061405e-06   3.223968915454494e-06   1.4140572322974057e-05
-5.070915563061405e-06   3.223968915454494e-06   1.4140572322974057e-05
-5.070915563061405e-06   3.223968915454494e-06   1.4140572322974057e-05
-5.070915563061405e-06   3.223968915454494e-06   1.4140572322974057e-05
-1.3370133932703499e-05   3.5458526496091013e-06   2.7779472698552304e-05
-1.3370133932703499e-05   3.5458526496091013e-06   2.7779472698552304e-05
-1.3370133932703499e-05   3.5458526496091013e-06   2.7779472698552304e-05
-1.3370133932703499e-05   3.5458526496091013e-06   2.7779472698552304e-05
-5.070915563061432e-06   3.341032170464664e-06   4.296641122621429e-05
-5.070915563061432e-06   3.341032170464664e-06   4.296641122621429e-05
-5.070915563061432e-06   3.341032170464664e-06   4.296641122621429e-05
-5.070915563061432e-06   3.341032170464664e-06   4.296641122621429e-05
-2.2366418905005582e-05   3.223968915454494e-06   1.407033436996827e-05
-2.2366418905005582e-05   3.223968915454494e-06   1.407033436996827e-05
-2.2366418905005582e-05   3.223968915454494e-06   1.407033436996827e-05
-2.2366418905005582e-05   3.223968915454494e-06   1.407033436996827e-05
-2.31430016711645e-05   2.671388663115677e-06   4.3116809195963435e-05
-2.31430016711645e-05   2.671388663115677e-06   4.3116809195963435e-05
-2.31430016711645e-05   2.671388663115677e-06   4.3116809195963435e-05
-2.31430016711645e-05   2.671388663115677e-06   4.3116809195963435e-05
-5.856834825781359e-06   2.5002443201534164e-06   1.4409217726102342e-05
-5.856834825781359e-06   2.5002443201534164e-06   1.4409217726102342e-05
-5.856834825781359e-06   2.5002443201534164e-06   1.4409217726102342e-05
-5.856834825781359e-06   2.5002443201534164e-06   1.4409217726102342e-05
-1.4064745695170115e-05   3.0142839417407474e-06   2.778064540213173e-05
-1.4064745695170115e-05   3.0142839417407474e-06   2.778064540213173e-05
-1.4064745695170115e-05   3.0142839417407474e-06   2.778064540213173e-05
-1.4064745695170115e-05   3.0142839417407474e-06   2.778064540213173e-05
-5.856834825781386e-06   2.671388663115677e-06   4.3219495801740965e-05
-5.856834825781386e-06   2.671388663115677e-06   4.3219495801740965e-05
-5.856834825781386e-06   2.671388663115677e-06   4.3219495801740965e-05
-5.856834825781386e-06   2.671388663115677e-06   4.3219495801740965e-05
-2.31430016711645e-05   2.5002443201534164e-06   1.4306531120325083e-05
-2.31430016711645e-05   2.5002443201534164e-06   1.4306531120325083e-05
-2.31430016711645e-05   2.5002443201534164e-06   1.4306531120325083e-05
-2.31430016711645e-05   2.5002443201534164e-06   1.4306531120325083e-05
-2.391060407636023e-05   2.0359177288872994e-06   4.3697624142278535e-05
-2.391060407636023e-05   2.0359177288872994e-06   4.3697624142278535e-05
-2.391060407636023e-05   2.0359177288872994e-06   4.3697624142278535e-05
-2.391060407636023e-05   2.0359177288872994e-06   4.3697624142278535e-05
-6.636101453226403e-06   1.8034263955220634e-06   1.504628123707492e-05
-6.636101453226403e-06   1.8034263955220634e-06   1.504628123707492e-05
-6.636101453226403e-06   1.8034263955220634e-06   1.504628123707492e-05
-6.636101453226403e-06   1.8034263955220634e-06   1.504628123707492e-05
-1.4791224111994805e-05   2.49516198234977e-06   2.8223110982925667e-05
-1.4791224111994805e-05   2.49516198234977e-06   2.8223110982925667e-05
-1.4791224111994805e-05   2.49516198234977e-06   2.8223110982925667e-05
-1.4791224111994805e-05   2.49516198234977e-06   2.8223110982925667e-05
-2.1608133720679793e-05   7.909208139442701e-06   3.818308864118728e-05
-2.1608133720679793e-05   7.909208139442701e-06   3.818308864118728e-05
-2.1608133720679793e-05   7.909208139442701e-06   3.818308864118728e-05
-2.1608133720679793e-05   7.909208139442701e-06   3.818308864118728e-05
-3.862009143024424e-05   6.778686692388101e-06   9.151512923680086e-06
-3.862009143024424e-05   6.778686692388101e-06   9.151512923680086e-06
-3.862009143024424e-05   6.778686692388101e-06   9.151512923680086e-06
-3.862009143024424e-05   6.778686692388101e-06   9.151512923680086e-06
-3.9433308765373634e-05   7.257166953559581e-06   3.7676201868389134e-05
-3.9433308765373634e-05   7.257166953559581e-06   3.7676201868389134e-05
-3.9433308765373634e-05   7.257166953559581e-06   3.7676201868389134e-05
-3.9433308765373634e-05   7.257166953559581e-06   3.7676201868389134e-05
-2.23664189050055e-05   6.063164613858297e-06   9.947786838263115e-06
-2.23664189050055e-05   6.063164613858297e-06   9.947786838263115e-06
-2.23664189050055e-05   6.063164613858297e-06   9.947786838263115e-06
-2.23664189050055e-05   6.063164613858297e-06   9.947786838263115e-06
-3.042089412088246e-05   6.883484340992289e-06   2.2879720361778646e-05
-3.042089412088246e-05   6.883484340992289e-06   2.2879720361778646e-05
-3.042089412088246e-05   6.883484340992289e-06   2.2879720361778646e-05
-3.042089412088246e-05   6.883484340992289e-06   2.2879720361778646e-05
-2.2366418905005582e-05   7.257166953559581e-06   3.839260327221034e-05
-2.2366418905005582e-05   7.257166953559581e-06   3.839260327221034e-05
-2.2366418905005582e-05   7.257166953559581e-06   3.839260327221034e-05
-2.2366418905005582e-05   7.257166953559581e-06   3.839260327221034e-05
-3.943330876537358e-05   6.0631646138587306e-06   9.231385434442562e-06
-3.943330876537358e-05   6.0631646138587306e-06   9.231385434442562e-06
-3.943330876537358e-05   6.0631646138587306e-06   9.231385434442562e-06
-3.943330876537358e-05   6.0631646138587306e-06   9.231385434442562e-06
-4.0348693241334835e-05   6.650008649763603e-06   3.896539955686065e-05
-4.0348693241334835e-05   6.650008649763603e-06   3.896539955686065e-05
-4.0348693241334835e-05   6.650008649763603e-06   3.896539955686065e-05
-4.0348693241334835e-05   6.650008649763603e-06   3.896539955686065e-05
-2.3143001671164392e-05   5.401454824287971e-06   1.103837923519587e-05
-2.3143001671164392e-05   5.401454824287971e-06   1.103837923519587e-05
-2.3143001671164392e-05   5.401454824287971e-06   1.103837923519587e-05
-2.3143001671164392e-05   5.401454824287971e-06   1.103837923519587e-05
-3.0984955354073005e-05   6.395916041379655e-06   2.3511625309789123e-05
-3.0984955354073005e-05   6.395916041379655e-06   2.3511625309789123e-05
-3.0984955354073005e-05   6.395916041379655e-06   2.3511625309789123e-05
-3.0984955354073005e-05   6.395916041379655e-06   2.3511625309789123e-05
-2.31430016711645e-05   6.650008649763603e-06   3.971453185214603e-05
-2.31430016711645e-05   6.650008649763603e-06   3.971453185214603e-05
-2.31430016711645e-05   6.650008649763603e-06   3.971453185214603e-05
-2.31430016711645e-05   6.650008649763603e-06   3.971453185214603e-05
-4.0348693241334726e-05   5.4014548242875375e-06   1.02892469399106e-05
-4.0348693241334726e-05   5.4014548242875375e-06   1.02892469399106e-05
-4.0348693241334726e-05   5.4014548242875375e-06   1.02892469399106e-05
-4.0348693241334726e-05   5.4014548242875375e-06   1.02892469399106e-05
-4.116282007025234e-05   5.943319668351259e-06   4.005470662397405e-05
-4.116282007025234e-05   5.943319668351259e-06   4.005470662397405e-05
-4.116282007025234e-05   5.943319668351259e-06   4.005470662397405e-05
-4.116282007025234e-05   5.943319668351259e-06   4.005470662397405e-05
-2.391060407636012e-05   4.66210481022333e-06   1.2069742215697291e-05
-2.391060407636012e-05   4.66210481022333e-06   1.2069742215697291e-05
-2.391060407636012e-05   4.66210481022333e-06   1.2069742215697291e-05
-2.391060407636012e-05   4.66210481022333e-06   1.2069742215697291e-05
-3.19019889095154e-05   5.883137687822879e-06   2.4656097211063813e-05
-3.19019889095154e-05   5.883137687822879e-06   2.4656097211063813e-05
-3.19019889095154e-05   5.883137687822879e-06   2.4656097211063813e-05
-3.19019889095154e-05   5.883137687822879e-06   2.4656097211063813e-05
-3.862009143024424e-05   1.0895047413969367e-05   1.833801643731734e-05
-3.862009143024424e-05   1.0895047413969367e-05   1.833801643731734e-05
-3.862009143024424e-05   1.0895047413969367e-05   1.833801643731734e-05
-3.862009143024424e-05   1.0895047413969367e-05   1.833801643731734e-05
-5.4561567123338154e-05   8.886271242609586e-06   -9.43637542065532e-06
-5.4561567123338154e-05   8.886271242609586e-06   -9.43637542065532e-06
-5.4561567123338154e-05   8.886271242609586e-06   -9.43637542065532e-06
-5.4561567123338154e-05   8.886271242609586e-06   -9.43637542065532e-06
-5.6261174016189474e-05   1.0839052637477177e-05   2.3503324380318852e-05
-5.6261174016189474e-05   1.0839052637477177e-05   2.3503324380318852e-05
-5.6261174016189474e-05   1.0839052637477177e-05   2.3503324380318852e-05
-5.6261174016189474e-05   1.0839052637477177e-05   2.3503324380318852e-05
-3.943330876537347e-05   8.65577541777924e-06   -3.233151372554954e-06
-3.943330876537347e-05   8.65577541777924e-06   -3.233151372554954e-06
-3.943330876537347e-05   8.65577541777924e-06   -3.233151372554954e-06
-3.943330876537347e-05   8.65577541777924e-06   -3.233151372554954e-06
-4.544965114725694e-05   9.640968933892317e-06   6.2029698209165735e-06
-4.544965114725694e-05   9.640968933892317e-06   6.2029698209165735e-06
-4.544965114725694e-05   9.640968933892317e-06   6.2029698209165735e-06
-4.544965114725694e-05   9.640968933892317e-06   6.2029698209165735e-06
-3.943330876537358e-05   1.0839052637477177e-05   2.4813290712138005e-05
-3.943330876537358e-05   1.0839052637477177e-05   2.4813290712138005e-05
-3.943330876537358e-05   1.0839052637477177e-05   2.4813290712138005e-05
-3.943330876537358e-05   1.0839052637477177e-05   2.4813290712138005e-05
-5.626117401618953e-05   8.655775417778806e-06   -4.543117704374107e-06
-5.626117401618953e-05   8.655775417778806e-06   -4.543117704374107e-06
-5.626117401618953e-05   8.655775417778806e-06   -4.543117704374107e-06
-5.626117401618953e-05   8.655775417778806e-06   -4.543117704374107e-06
-5.77445295318076e-05   1.0617668609819511e-05   2.7985149817580986e-05
-5.77445295318076e-05   1.0617668609819511e-05   2.7985149817580986e-05
-5.77445295318076e-05   1.0617668609819511e-05   2.7985149817580986e-05
-5.77445295318076e-05   1.0617668609819511e-05   2.7985149817580986e-05
-4.034869324133467e-05   8.375336095500091e-06   3.3748884205157554e-07
-4.034869324133467e-05   8.375336095500091e-06   3.3748884205157554e-07
-4.034869324133467e-05   8.375336095500091e-06   3.3748884205157554e-07
-4.034869324133467e-05   8.375336095500091e-06   3.3748884205157554e-07
-4.7247900151824244e-05   9.646523776057556e-06   1.1073454417868034e-05
-4.7247900151824244e-05   9.646523776057556e-06   1.1073454417868034e-05
-4.7247900151824244e-05   9.646523776057556e-06   1.1073454417868034e-05
-4.7247900151824244e-05   9.646523776057556e-06   1.1073454417868034e-05
-4.0348693241334835e-05   1.0617668609819511e-05   2.933054932617303e-05
-4.0348693241334835e-05   1.0617668609819511e-05   2.933054932617303e-05
-4.0348693241334835e-05   1.0617668609819511e-05   2.933054932617303e-05
-4.0348693241334835e-05   1.0617668609819511e-05   2.933054932617303e-05
-5.77445295318076e-05   8.375336095500091e-06   -1.00791066654025e-06
-5.77445295318076e-05   8.375336095500091e-06   -1.00791066654025e-06
-5.77445295318076e-05   8.375336095500091e-06   -1.00791066654025e-06
-5.77445295318076e-05   8.375336095500091e-06   -1.00791066654025e-06
-5.94656360977446e-05   9.642316469989781e-06   3.577531795614236e-05
-5.94656360977446e-05   9.642316469989781e-06   3.577531795614236e-05
-5.94656360977446e-05   9.642316469989781e-06   3.577531795614236e-05
-5.94656360977446e-05   9.642316469989781e-06   3.577531795614236e-05
-4.116282007025218e-05   7.435266045941434e-06   6.594854831417957e-06
-4.116282007025218e-05   7.435266045941434e-06   6.594854831417957e-06
-4.116282007025218e-05   7.435266045941434e-06   6.594854831417957e-06
-4.116282007025218e-05   7.435266045941434e-06   6.594854831417957e-06
-4.765233516316133e-05   9.237217769383736e-06   1.6329542285534117e-05
-4.765233516316133e-05   9.237217769383736e-06   1.6329542285534117e-05
-4.765233516316133e-05   9.237217769383736e-06   1.6329542285534117e-05
-4.765233516316133e-05   9.237217769383736e-06   1.6329542285534117e-05
1.7756893600124517e-05   -2.037164811039688e-06   2.528328586746953e-05
1.7756893600124517e-05   -2.037164811039688e-06   2.528328586746953e-05
1.7756893600124517e-05   -2.037164811039688e-06   2.528328586746953e-05
1.7756893600124517e-05   -2.037164811039688e-06   2.528328586746953e-05
4.629001321992492e-06   5.5528470288253653e-08   4.659081372712995e-06
4.629001321992492e-06   5.5528470288253653e-08   4.659081372712995e-06
4.629001321992492e-06   5.5528470288253653e-08   4.659081372712995e-06
4.629001321992492e-06   5.5528470288253653e-08   4.659081372712995e-06
4.003703067839674e-06   -2.8319574636218557e-06   2.3578038555177074e-05
4.003703067839674e-06   -2.8319574636218557e-06   2.3578038555177074e-05
4.003703067839674e-06   -2.8319574636218557e-06   2.3578038555177074e-05
4.003703067839674e-06   -2.8319574636218557e-06   2.3578038555177074e-05
1.621169792411726e-05   -6.563107802716635e-07   1.9259924513716057e-06
1.621169792411726e-05   -6.563107802716635e-07   1.9259924513716057e-06
1.621169792411726e-05   -6.563107802716635e-07   1.9259924513716057e-06
1.621169792411726e-05   -6.563107802716635e-07   1.9259924513716057e-06
1.0020852299842267e-05   -1.4682504694061953e-06   1.2731232305311378e-05
1.0020852299842267e-05   -1.4682504694061953e-06   1.2731232305311378e-05
1.0020852299842267e-05   -1.4682504694061953e-06   1.2731232305311378e-05
1.0020852299842267e-05   -1.4682504694061953e-06   1.2731232305311378e-05
1.62116979241173e-05   -2.831957463621422e-06   2.227265054516748e-05
1.62116979241173e-05   -2.831957463621422e-06   2.227265054516748e-05
1.62116979241173e-05   -2.831957463621422e-06   2.227265054516748e-05
1.62116979241173e-05   -2.831957463621422e-06   2.227265054516748e-05
4.003703067839667e-06   -6.563107802716635e-07   3.2313804613816072e-06
4.003703067839667e-06   -6.563107802716635e-07   3.2313804613816072e-06
4.003703067839667e-06   -6.563107802716635e-07   3.2313804613816072e-06
4.003703067839667e-06   -6.563107802716635e-07   3.2313804613816072e-06
3.2752778359739083e-06   -3.105878025264682e-06   2.213235247505328e-05
3.2752778359739083e-06   -3.105878025264682e-06   2.213235247505328e-05
3.2752778359739083e-06   -3.105878025264682e-06   2.213235247505328e-05
3.2752778359739083e-06   -3.105878025264682e-06   2.213235247505328e-05
1.49037573862121e-05   -9.636860907524455e-07   1.4662380639490769e-06
1.49037573862121e-05   -9.636860907524455e-07   1.4662380639490769e-06
1.49037573862121e-05   -9.636860907524455e-07   1.4662380639490769e-06
1.49037573862121e-05   -9.636860907524455e-07   1.4662380639490769e-06
9.27300143425263e-06   -1.7789260090021394e-06   1.1339975268164642e-05
9.27300143425263e-06   -1.7789260090021394e-06   1.1339975268164642e-05
9.27300143425263e-06   -1.7789260090021394e-06   1.1339975268164642e-05
9.27300143425263e-06   -1.7789260090021394e-06   1.1339975268164642e-05
1.4903757386212126e-05   -3.1058780252642484e-06   2.0847037314345677e-05
1.4903757386212126e-05   -3.1058780252642484e-06   2.0847037314345677e-05
1.4903757386212126e-05   -3.1058780252642484e-06   2.0847037314345677e-05
1.4903757386212126e-05   -3.1058780252642484e-06   2.0847037314345677e-05
3.2752778359738947e-06   -9.636860907524455e-07   2.751553224656462e-06
3.2752778359738947e-06   -9.636860907524455e-07   2.751553224656462e-06
3.2752778359738947e-06   -9.636860907524455e-07   2.751553224656462e-06
3.2752778359738947e-06   -9.636860907524455e-07   2.751553224656462e-06
2.644321174304549e-06   -3.4689885979734096e-06   2.0464410153808038e-05
2.644321174304549e-06   -3.4689885979734096e-06   2.0464410153808038e-05
2.644321174304549e-06   -3.4689885979734096e-06   2.0464410153808038e-05
2.644321174304549e-06   -3.4689885979734096e-06   2.0464410153808038e-05
1.3372675731295876e-05   -1.476555431480361e-06   1.3883593255936471e-06
1.3372675731295876e-05   -1.476555431480361e-06   1.3883593255936471e-06
1.3372675731295876e-05   -1.476555431480361e-06   1.3883593255936471e-06
1.3372675731295876e-05   -1.476555431480361e-06   1.3883593255936471e-06
8.174188187818481e-06   -1.940036244177769e-06   1.033059371900818e-05
8.174188187818481e-06   -1.940036244177769e-06   1.033059371900818e-05
8.174188187818481e-06   -1.940036244177769e-06   1.033059371900818e-05
8.174188187818481e-06   -1.940036244177769e-06   1.033059371900818e-05
4.629001321992499e-06   1.0542961686806247e-06   3.481405598962785e-05
4.629001321992499e-06   1.0542961686806247e-06   3.481405598962785e-05
4.629001321992499e-06   1.0542961686806247e-06   3.481405598962785e-05
4.629001321992499e-06   1.0542961686806247e-06   3.481405598962785e-05
-7.333465991195222e-06   2.000926755791081e-06   1.5444588819914684e-05
-7.333465991195222e-06   2.000926755791081e-06   1.5444588819914684e-05
-7.333465991195222e-06   2.000926755791081e-06   1.5444588819914684e-05
-7.333465991195222e-06   2.000926755791081e-06   1.5444588819914684e-05
-7.882601573357253e-06   2.491233019289059e-07   3.492502162726887e-05
-7.882601573357253e-06   2.491233019289059e-07   3.492502162726887e-05
-7.882601573357253e-06   2.491233019289059e-07   3.492502162726887e-05
-7.882601573357253e-06   2.491233019289059e-07   3.492502162726887e-05
4.003703067839667e-06   1.195933589080234e-06   1.4546427719650123e-05
4.003703067839667e-06   1.195933589080234e-06   1.4546427719650123e-05
4.003703067839667e-06   1.195933589080234e-06   1.4546427719650123e-05
4.003703067839667e-06   1.195933589080234e-06   1.4546427719650123e-05
-1.7351233358904554e-06   1.045078906141035e-06   2.4201651202298093e-05
-1.7351233358904554e-06   1.045078906141035e-06   2.4201651202298093e-05
-1.7351233358904554e-06   1.045078906141035e-06   2.4201651202298093e-05
-1.7351233358904554e-06   1.045078906141035e-06   2.4201651202298093e-05
4.00370306783967e-06   2.491233019289059e-07   3.4356935454977946e-05
4.00370306783967e-06   2.491233019289059e-07   3.4356935454977946e-05
4.00370306783967e-06   2.491233019289059e-07   3.4356935454977946e-05
4.00370306783967e-06   2.491233019289059e-07   3.4356935454977946e-05
-7.882601573357253e-06   1.195933589080234e-06   1.5114513891941036e-05
-7.882601573357253e-06   1.195933589080234e-06   1.5114513891941036e-05
-7.882601573357253e-06   1.195933589080234e-06   1.5114513891941036e-05
-7.882601573357253e-06   1.195933589080234e-06   1.5114513891941036e-05
-8.447699558916894e-06   -4.101281936654856e-07   3.470324417390578e-05
-8.447699558916894e-06   -4.101281936654856e-07   3.470324417390578e-05
-8.447699558916894e-06   -4.101281936654856e-07   3.470324417390578e-05
-8.447699558916894e-06   -4.101281936654856e-07   3.470324417390578e-05
3.2752778359738947e-06   5.13254897518186e-07   1.4610918661044436e-05
3.2752778359738947e-06   5.13254897518186e-07   1.4610918661044436e-05
3.2752778359738947e-06   5.13254897518186e-07   1.4610918661044436e-05
3.2752778359738947e-06   5.13254897518186e-07   1.4610918661044436e-05
-2.321095208029032e-06   4.833574934893625e-07   2.3956145510133645e-05
-2.321095208029032e-06   4.833574934893625e-07   2.3956145510133645e-05
-2.321095208029032e-06   4.833574934893625e-07   2.3956145510133645e-05
-2.321095208029032e-06   4.833574934893625e-07   2.3956145510133645e-05
3.2752778359739083e-06   -4.101281936654856e-07   3.4149214319195665e-05
3.2752778359739083e-06   -4.101281936654856e-07   3.4149214319195665e-05
3.2752778359739083e-06   -4.101281936654856e-07   3.4149214319195665e-05
3.2752778359739083e-06   -4.101281936654856e-07   3.4149214319195665e-05
-8.44769955891692e-06   5.13254897518186e-07   1.5164948515754566e-05
-8.44769955891692e-06   5.13254897518186e-07   1.5164948515754566e-05
-8.44769955891692e-06   5.13254897518186e-07   1.5164948515754566e-05
-8.44769955891692e-06   5.13254897518186e-07   1.5164948515754566e-05
-9.004283348488021e-06   -1.0603042355909233e-06   3.5162393786970086e-05
-9.004283348488021e-06   -1.0603042355909233e-06   3.5162393786970086e-05
-9.004283348488021e-06   -1.0603042355909233e-06   3.5162393786970086e-05
-9.004283348488021e-06   -1.0603042355909233e-06   3.5162393786970086e-05
2.6443211743045424e-06   -1.849381411685603e-07   1.5222833258995973e-05
2.6443211743045424e-06   -1.849381411685603e-07   1.5222833258995973e-05
2.6443211743045424e-06   -1.849381411685603e-07   1.5222833258995973e-05
2.6443211743045424e-06   -1.849381411685603e-07   1.5222833258995973e-05
-2.81758320898706e-06   -2.123206723175612e-08   2.4227783586787047e-05
-2.81758320898706e-06   -2.123206723175612e-08   2.4227783586787047e-05
-2.81758320898706e-06   -2.123206723175612e-08   2.4227783586787047e-05
-2.81758320898706e-06   -2.123206723175612e-08   2.4227783586787047e-05
-7.333465991195222e-06   3.956077200069959e-06   3.8613607782278774e-05
-7.333465991195222e-06   3.956077200069959e-06   3.8613607782278774e-05
-7.333465991195222e-06   3.956077200069959e-06   3.8613607782278774e-05
-7.333465991195222e-06   3.956077200069959e-06   3.8613607782278774e-05
-1.9095005320105636e-05   3.7278572546203988e-06   1.8874110266824747e-05
-1.9095005320105636e-05   3.7278572546203988e-06   1.8874110266824747e-05
-1.9095005320105636e-05   3.7278572546203988e-06   1.8874110266824747e-05
-1.9095005320105636e-05   3.7278572546203988e-06   1.8874110266824747e-05
-1.9621738242777992e-05   3.223968915454494e-06   3.827241129891203e-05
-1.9621738242777992e-05   3.223968915454494e-06   3.827241129891203e-05
-1.9621738242777992e-05   3.223968915454494e-06   3.827241129891203e-05
-1.9621738242777992e-05   3.223968915454494e-06   3.827241129891203e-05
-7.882601573357253e-06   2.9852519710235267e-06   1.8850413683203034e-05
-7.882601573357253e-06   2.9852519710235267e-06   1.8850413683203034e-05
-7.882601573357253e-06   2.9852519710235267e-06   1.8850413683203034e-05
-7.882601573357253e-06   2.9852519710235267e-06   1.8850413683203034e-05
-1.3508211407819493e-05   3.3907184628276764e-06   2.798315017889198e-05
-1.3508211407819493e-05   3.3907184628276764e-06   2.798315017889198e-05
-1.3508211407819493e-05   3.3907184628276764e-06   2.798315017889198e-05
-1.3508211407819493e-05   3.3907184628276764e-06   2.798315017889198e-05
-7.882601573357253e-06   3.223968915454494e-06   3.841564146557096e-05
-7.882601573357253e-06   3.223968915454494e-06   3.841564146557096e-05
-7.882601573357253e-06   3.223968915454494e-06   3.841564146557096e-05
-7.882601573357253e-06   3.223968915454494e-06   3.841564146557096e-05
-1.9621738242777992e-05   2.98525197102331e-06   1.8707183516544486e-05
-1.9621738242777992e-05   2.98525197102331e-06   1.8707183516544486e-05
-1.9621738242777992e-05   2.98525197102331e-06   1.8707183516544486e-05
-1.9621738242777992e-05   2.98525197102331e-06   1.8707183516544486e-05
-2.0165802125341403e-05   2.5002443201534164e-06   3.852817252605889e-05
-2.0165802125341403e-05   2.5002443201534164e-06   3.852817252605889e-05
-2.0165802125341403e-05   2.5002443201534164e-06   3.852817252605889e-05
-2.0165802125341403e-05   2.5002443201534164e-06   3.852817252605889e-05
-8.447699558916894e-06   2.2464355503839725e-06   1.9150286843879762e-05
-8.447699558916894e-06   2.2464355503839725e-06   1.9150286843879762e-05
-8.447699558916894e-06   2.2464355503839725e-06   1.9150286843879762e-05
-8.447699558916894e-06   2.2464355503839725e-06   1.9150286843879762e-05
-1.3977320679125959e-05   2.825657028701113e-06   2.80187891572377e-05
-1.3977320679125959e-05   2.825657028701113e-06   2.80187891572377e-05
-1.3977320679125959e-05   2.825657028701113e-06   2.80187891572377e-05
-1.3977320679125959e-05   2.825657028701113e-06   2.80187891572377e-05
-8.44769955891692e-06   2.5002443201534164e-06   3.868045778792034e-05
-8.44769955891692e-06   2.5002443201534164e-06   3.868045778792034e-05
-8.44769955891692e-06   2.5002443201534164e-06   3.868045778792034e-05
-8.44769955891692e-06   2.5002443201534164e-06   3.868045778792034e-05
-2.016580212534135e-05   2.2464355503839725e-06   1.8998001582018042e-05
-2.016580212534135e-05   2.2464355503839725e-06   1.8998001582018042e-05
-2.016580212534135e-05   2.2464355503839725e-06   1.8998001582018042e-05
-2.016580212534135e-05   2.2464355503839725e-06   1.8998001582018042e-05
-2.0701410147826052e-05   1.8034263955220634e-06   3.915223669693677e-05
-2.0701410147826052e-05   1.8034263955220634e-06   3.915223669693677e-05
-2.0701410147826052e-05   1.8034263955220634e-06   3.915223669693677e-05
-2.0701410147826052e-05   1.8034263955220634e-06   3.915223669693677e-05
-9.004283348488021e-06   1.5388757613830472e-06   1.9815755745190508e-05
-9.004283348488021e-06   1.5388757613830472e-06   1.9815755745190508e-05
-9.004283348488021e-06   1.5388757613830472e-06   1.9815755745190508e-05
-9.004283348488021e-06   1.5388757613830472e-06   1.9815755745190508e-05
-1.4476227403170813e-05   2.271852642572736e-06   2.8495876374281864e-05
-1.4476227403170813e-05   2.271852642572736e-06   2.8495876374281864e-05
-1.4476227403170813e-05   2.271852642572736e-06   2.8495876374281864e-05
-1.4476227403170813e-05   2.271852642572736e-06   2.8495876374281864e-05
-1.9095005320105636e-05   6.778686692388101e-06   3.4010893824719434e-05
-1.9095005320105636e-05   6.778686692388101e-06   3.4010893824719434e-05
-1.9095005320105636e-05   6.778686692388101e-06   3.4010893824719434e-05
-1.9095005320105636e-05   6.778686692388101e-06   3.4010893824719434e-05
-3.064001892699817e-05   5.534203079287725e-06   1.402251431203874e-05
-3.064001892699817e-05   5.534203079287725e-06   1.402251431203874e-05
-3.064001892699817e-05   5.534203079287725e-06   1.402251431203874e-05
-3.064001892699817e-05   5.534203079287725e-06   1.402251431203874e-05
-3.121396851141141e-05   6.063164613858297e-06   3.33830101752581e-05
-3.121396851141141e-05   6.063164613858297e-06   3.33830101752581e-05
-3.121396851141141e-05   6.063164613858297e-06   3.33830101752581e-05
-3.121396851141141e-05   6.063164613858297e-06   3.33830101752581e-05
-1.9621738242777938e-05   4.785075293943161e-06   1.4829479986151848e-05
-1.9621738242777938e-05   4.785075293943161e-06   1.4829479986151848e-05
-1.9621738242777938e-05   4.785075293943161e-06   1.4829479986151848e-05
-1.9621738242777938e-05   4.785075293943161e-06   1.4829479986151848e-05
-2.5082125869016085e-05   5.696686370956078e-06   2.3383159383676046e-05
-2.5082125869016085e-05   5.696686370956078e-06   2.3383159383676046e-05
-2.5082125869016085e-05   5.696686370956078e-06   2.3383159383676046e-05
-2.5082125869016085e-05   5.696686370956078e-06   2.3383159383676046e-05
-1.9621738242777992e-05   6.063164613858297e-06   3.414986376720731e-05
-1.9621738242777992e-05   6.063164613858297e-06   3.414986376720731e-05
-1.9621738242777992e-05   6.063164613858297e-06   3.414986376720731e-05
-1.9621738242777992e-05   6.063164613858297e-06   3.414986376720731e-05
-3.121396851141136e-05   4.785075293943378e-06   1.4062626394202907e-05
-3.121396851141136e-05   4.785075293943378e-06   1.4062626394202907e-05
-3.121396851141136e-05   4.785075293943378e-06   1.4062626394202907e-05
-3.121396851141136e-05   4.785075293943378e-06   1.4062626394202907e-05
-3.189390163438815e-05   5.401454824287971e-06   3.448174674045945e-05
-3.189390163438815e-05   5.401454824287971e-06   3.448174674045945e-05
-3.189390163438815e-05   5.401454824287971e-06   3.448174674045945e-05
-3.189390163438815e-05   5.401454824287971e-06   3.448174674045945e-05
-2.016580212534135e-05   4.104331656837627e-06   1.57131881258518e-05
-2.016580212534135e-05   4.104331656837627e-06   1.57131881258518e-05
-2.016580212534135e-05   4.104331656837627e-06   1.57131881258518e-05
-2.016580212534135e-05   4.104331656837627e-06   1.57131881258518e-05
-2.5454620074387023e-05   5.166657018460929e-06   2.389048949062028e-05
-2.5454620074387023e-05   5.166657018460929e-06   2.389048949062028e-05
-2.5454620074387023e-05   5.166657018460929e-06   2.389048949062028e-05
-2.5454620074387023e-05   5.166657018460929e-06   2.389048949062028e-05
-2.016580212534135e-05   5.401454824287971e-06   3.526002064092935e-05
-2.016580212534135e-05   5.401454824287971e-06   3.526002064092935e-05
-2.016580212534135e-05   5.401454824287971e-06   3.526002064092935e-05
-2.016580212534135e-05   5.401454824287971e-06   3.526002064092935e-05
-3.189390163438804e-05   4.104331656837627e-06   1.4934914225381681e-05
-3.189390163438804e-05   4.104331656837627e-06   1.4934914225381681e-05
-3.189390163438804e-05   4.104331656837627e-06   1.4934914225381681e-05
-3.189390163438804e-05   4.104331656837627e-06   1.4934914225381681e-05
-3.247764003662569e-05   4.66210481022333e-06   3.554425303421184e-05
-3.247764003662569e-05   4.66210481022333e-06   3.554425303421184e-05
-3.247764003662569e-05   4.66210481022333e-06   3.554425303421184e-05
-3.247764003662569e-05   4.66210481022333e-06   3.554425303421184e-05
-2.0701410147825998e-05   3.3772057412792024e-06   1.6688142660912706e-05
-2.0701410147825998e-05   3.3772057412792024e-06   1.6688142660912706e-05
-2.0701410147825998e-05   3.3772057412792024e-06   1.6688142660912706e-05
-2.0701410147825998e-05   3.3772057412792024e-06   1.6688142660912706e-05
-2.6094061331651398e-05   4.636251952402871e-06   2.4920466907281825e-05
-2.6094061331651398e-05   4.636251952402871e-06   2.4920466907281825e-05
-2.6094061331651398e-05   4.636251952402871e-06   2.4920466907281825e-05
-2.6094061331651398e-05   4.636251952402871e-06   2.4920466907281825e-05
-3.064001892699828e-05   8.886271242609586e-06   1.588158101533993e-05
-3.064001892699828e-05   8.886271242609586e-06   1.588158101533993e-05
-3.064001892699828e-05   8.886271242609586e-06   1.588158101533993e-05
-3.064001892699828e-05   8.886271242609586e-06   1.588158101533993e-05
-4.104091058688194e-05   6.8031775558047985e-06   -2.7030946298824392e-06
-4.104091058688194e-05   6.8031775558047985e-06   -2.7030946298824392e-06
-4.104091058688194e-05   6.8031775558047985e-06   -2.7030946298824392e-06
-4.104091058688194e-05   6.8031775558047985e-06   -2.7030946298824392e-06
-4.2511801798036345e-05   8.655775417778806e-06   1.9576156793592748e-05
-4.2511801798036345e-05   8.655775417778806e-06   1.9576156793592748e-05
-4.2511801798036345e-05   8.655775417778806e-06   1.9576156793592748e-05
-4.2511801798036345e-05   8.655775417778806e-06   1.9576156793592748e-05
-3.12139685114113e-05   6.418581126666758e-06   2.0887512238855314e-06
-3.12139685114113e-05   6.418581126666758e-06   2.0887512238855314e-06
-3.12139685114113e-05   6.418581126666758e-06   2.0887512238855314e-06
-3.12139685114113e-05   6.418581126666758e-06   2.0887512238855314e-06
-3.5028123565418305e-05   7.550428709020588e-06   7.76656776448623e-06
-3.5028123565418305e-05   7.550428709020588e-06   7.76656776448623e-06
-3.5028123565418305e-05   7.550428709020588e-06   7.76656776448623e-06
-3.5028123565418305e-05   7.550428709020588e-06   7.76656776448623e-06
-3.121396851141136e-05   8.655775417778806e-06   2.091847336826015e-05
-3.121396851141136e-05   8.655775417778806e-06   2.091847336826015e-05
-3.121396851141136e-05   8.655775417778806e-06   2.091847336826015e-05
-3.121396851141136e-05   8.655775417778806e-06   2.091847336826015e-05
-4.2511801798036345e-05   6.418581126666758e-06   7.464346492180212e-07
-4.2511801798036345e-05   6.418581126666758e-06   7.464346492180212e-07
-4.2511801798036345e-05   6.418581126666758e-06   7.464346492180212e-07
-4.2511801798036345e-05   6.418581126666758e-06   7.464346492180212e-07
-4.3778696546905075e-05   8.375336095500091e-06   2.3163556739614786e-05
-4.3778696546905075e-05   8.375336095500091e-06   2.3163556739614786e-05
-4.3778696546905075e-05   8.375336095500091e-06   2.3163556739614786e-05
-4.3778696546905075e-05   8.375336095500091e-06   2.3163556739614786e-05
-3.189390163438804e-05   6.0979495905240984e-06   4.721997121738758e-06
-3.189390163438804e-05   6.0979495905240984e-06   4.721997121738758e-06
-3.189390163438804e-05   6.0979495905240984e-06   4.721997121738758e-06
-3.189390163438804e-05   6.0979495905240984e-06   4.721997121738758e-06
-3.643929905222039e-05   7.45025446349714e-06   1.1486276561009558e-05
-3.643929905222039e-05   7.45025446349714e-06   1.1486276561009558e-05
-3.643929905222039e-05   7.45025446349714e-06   1.1486276561009558e-05
-3.643929905222039e-05   7.45025446349714e-06   1.1486276561009558e-05
-3.1893901634388096e-05   8.375336095500091e-06   2.4529988642600208e-05
-3.1893901634388096e-05   8.375336095500091e-06   2.4529988642600208e-05
-3.1893901634388096e-05   8.375336095500091e-06   2.4529988642600208e-05
-3.1893901634388096e-05   8.375336095500091e-06   2.4529988642600208e-05
-4.3778696546905075e-05   6.0979495905240984e-06   3.3555652187531194e-06
-4.3778696546905075e-05   6.0979495905240984e-06   3.3555652187531194e-06
-4.3778696546905075e-05   6.0979495905240984e-06   3.3555652187531194e-06
-4.3778696546905075e-05   6.0979495905240984e-06   3.3555652187531194e-06
-4.5295497621759546e-05   7.435266045941e-06   2.9513144708020198e-05
-4.5295497621759546e-05   7.435266045941e-06   2.9513144708020198e-05
-4.5295497621759546e-05   7.435266045941e-06   2.9513144708020198e-05
-4.5295497621759546e-05   7.435266045941e-06   2.9513144708020198e-05
-3.247764003662558e-05   5.227016284626868e-06   9.47499858958568e-06
-3.247764003662558e-05   5.227016284626868e-06   9.47499858958568e-06
-3.247764003662558e-05   5.227016284626868e-06   9.47499858958568e-06
-3.247764003662558e-05   5.227016284626868e-06   9.47499858958568e-06
-3.679335999020518e-05   7.054209908935981e-06   1.557154900430017e-05
-3.679335999020518e-05   7.054209908935981e-06   1.557154900430017e-05
-3.679335999020518e-05   7.054209908935981e-06   1.557154900430017e-05
-3.679335999020518e-05   7.054209908935981e-06   1.557154900430017e-05
3.4921833076339236e-06   5.5528470288470494e-08   1.8845280784269072e-05
3.4921833076339236e-06   5.5528470288470494e-08   1.8845280784269072e-05
3.4921833076339236e-06   5.5528470288470494e-08   1.8845280784269072e-05
3.4921833076339236e-06   5.5528470288470494e-08   1.8845280784269072e-05
-4.000056304940838e-06   2.0630601046979762e-06   7.5627337439568895e-06
-4.000056304940838e-06   2.0630601046979762e-06   7.5627337439568895e-06
-4.000056304940838e-06   2.0630601046979762e-06   7.5627337439568895e-06
-4.000056304940838e-06   2.0630601046979762e-06   7.5627337439568895e-06
-4.441895537696361e-06   -6.563107802716635e-07   1.8596389636207043e-05
-4.441895537696361e-06   -6.563107802716635e-07   1.8596389636207043e-05
-4.441895537696361e-06   -6.563107802716635e-07   1.8596389636207043e-05
-4.441895537696361e-06   -6.563107802716635e-07   1.8596389636207043e-05
2.1466585422744123e-06   1.3990736789073945e-06   6.3822354940815725e-06
2.1466585422744123e-06   1.3990736789073945e-06   6.3822354940815725e-06
2.1466585422744123e-06   1.3990736789073945e-06   6.3822354940815725e-06
2.1466585422744123e-06   1.3990736789073945e-06   6.3822354940815725e-06
-8.743534382438518e-07   6.019143416586235e-07   1.1895551063961505e-05
-8.743534382438518e-07   6.019143416586235e-07   1.1895551063961505e-05
-8.743534382438518e-07   6.019143416586235e-07   1.1895551063961505e-05
-8.743534382438518e-07   6.019143416586235e-07   1.1895551063961505e-05
2.1466585422744123e-06   -6.563107802716635e-07   1.7363158960699587e-05
2.1466585422744123e-06   -6.563107802716635e-07   1.7363158960699587e-05
2.1466585422744123e-06   -6.563107802716635e-07   1.7363158960699587e-05
2.1466585422744123e-06   -6.563107802716635e-07   1.7363158960699587e-05
-4.441895537696361e-06   1.3990736789073945e-06   7.615466169589029e-06
-4.441895537696361e-06   1.3990736789073945e-06   7.615466169589029e-06
-4.441895537696361e-06   1.3990736789073945e-06   7.615466169589029e-06
-4.441895537696361e-06   1.3990736789073945e-06   7.615466169589029e-06
-4.9875377048783525e-06   -9.636860907524455e-07   1.8115452366225288e-05
-4.9875377048783525e-06   -9.636860907524455e-07   1.8115452366225288e-05
-4.9875377048783525e-06   -9.636860907524455e-07   1.8115452366225288e-05
-4.9875377048783525e-06   -9.636860907524455e-07   1.8115452366225288e-05
9.795323748302062e-07   1.0329105243264951e-06   6.972377597663749e-06
9.795323748302062e-07   1.0329105243264951e-06   6.972377597663749e-06
9.795323748302062e-07   1.0329105243264951e-06   6.972377597663749e-06
9.795323748302062e-07   1.0329105243264951e-06   6.972377597663749e-06
-1.6011683740752384e-06   3.1893716012968386e-07   1.1701929531024162e-05
-1.6011683740752384e-06   3.1893716012968386e-07   1.1701929531024162e-05
-1.6011683740752384e-06   3.1893716012968386e-07   1.1701929531024162e-05
-1.6011683740752384e-06   3.1893716012968386e-07   1.1701929531024162e-05
9.795323748302062e-07   -9.636860907524455e-07   1.6917494397177685e-05
9.795323748302062e-07   -9.636860907524455e-07   1.6917494397177685e-05
9.795323748302062e-07   -9.636860907524455e-07   1.6917494397177685e-05
9.795323748302062e-07   -9.636860907524455e-07   1.6917494397177685e-05
-4.987537704878349e-06   1.0329105243264951e-06   8.170335566710972e-06
-4.987537704878349e-06   1.0329105243264951e-06   8.170335566710972e-06
-4.987537704878349e-06   1.0329105243264951e-06   8.170335566710972e-06
-4.987537704878349e-06   1.0329105243264951e-06   8.170335566710972e-06
-5.443275193161799e-06   -1.4765554314805779e-06   1.795263269301604e-05
-5.443275193161799e-06   -1.4765554314805779e-06   1.795263269301604e-05
-5.443275193161799e-06   -1.4765554314805779e-06   1.795263269301604e-05
-5.443275193161799e-06   -1.4765554314805779e-06   1.795263269301604e-05
-4.843523207888263e-07   2.5565204567310103e-07   8.64843675276914e-06
-4.843523207888263e-07   2.5565204567310103e-07   8.64843675276914e-06
-4.843523207888263e-07   2.5565204567310103e-07   8.64843675276914e-06
-4.843523207888263e-07   2.5565204567310103e-07   8.64843675276914e-06
-2.3816600049822242e-06   5.8573918238716965e-08   1.1928863102885208e-05
-2.3816600049822242e-06   5.8573918238716965e-08   1.1928863102885208e-05
-2.3816600049822242e-06   5.8573918238716965e-08   1.1928863102885208e-05
-2.3816600049822242e-06   5.8573918238716965e-08   1.1928863102885208e-05
-4.000056304940838e-06   2.000926755790864e-06   3.0267328859850213e-05
-4.000056304940838e-06   2.000926755790864e-06   3.0267328859850213e-05
-4.000056304940838e-06   2.000926755790864e-06   3.0267328859850213e-05
-4.000056304940838e-06   2.000926755790864e-06   3.0267328859850213e-05
-1.0272468269489698e-05   2.3957447067241098e-06   2.0050199689495272e-05
-1.0272468269489698e-05   2.3957447067241098e-06   2.0050199689495272e-05
-1.0272468269489698e-05   2.3957447067241098e-06   2.0050199689495272e-05
-1.0272468269489698e-05   2.3957447067241098e-06   2.0050199689495272e-05
-1.0605324744565234e-05   1.195933589080234e-06   3.0186207367198905e-05
-1.0605324744565234e-05   1.195933589080234e-06   3.0186207367198905e-05
-1.0605324744565234e-05   1.195933589080234e-06   3.0186207367198905e-05
-1.0605324744565234e-05   1.195933589080234e-06   3.0186207367198905e-05
-4.441895537696361e-06   1.6538843769524272e-06   1.9639054883027484e-05
-4.441895537696361e-06   1.6538843769524272e-06   1.9639054883027484e-05
-4.441895537696361e-06   1.6538843769524272e-06   1.9639054883027484e-05
-4.441895537696361e-06   1.6538843769524272e-06   1.9639054883027484e-05
-7.372932398965718e-06   1.7259452458171128e-06   2.448087979715758e-05
-7.372932398965718e-06   1.7259452458171128e-06   2.448087979715758e-05
-7.372932398965718e-06   1.7259452458171128e-06   2.448087979715758e-05
-7.372932398965718e-06   1.7259452458171128e-06   2.448087979715758e-05
-4.441895537696364e-06   1.195933589080234e-06   2.9911436894475545e-05
-4.441895537696364e-06   1.195933589080234e-06   2.9911436894475545e-05
-4.441895537696364e-06   1.195933589080234e-06   2.9911436894475545e-05
-4.441895537696364e-06   1.195933589080234e-06   2.9911436894475545e-05
-1.0605324744565234e-05   1.6538843769524272e-06   1.991382535575085e-05
-1.0605324744565234e-05   1.6538843769524272e-06   1.991382535575085e-05
-1.0605324744565234e-05   1.6538843769524272e-06   1.991382535575085e-05
-1.0605324744565234e-05   1.6538843769524272e-06   1.991382535575085e-05
-1.0948595885930786e-05   5.13254897518186e-07   3.024794417088965e-05
-1.0948595885930786e-05   5.13254897518186e-07   3.024794417088965e-05
-1.0948595885930786e-05   5.13254897518186e-07   3.024794417088965e-05
-1.0948595885930786e-05   5.13254897518186e-07   3.024794417088965e-05
-4.987537704878349e-06   9.684655113122859e-07   2.0039720834192523e-05
-4.987537704878349e-06   9.684655113122859e-07   2.0039720834192523e-05
-4.987537704878349e-06   9.684655113122859e-07   2.0039720834192523e-05
-4.987537704878349e-06   9.684655113122859e-07   2.0039720834192523e-05
-7.712679051150945e-06   1.1834429162482524e-06   2.445263663501901e-05
-7.712679051150945e-06   1.1834429162482524e-06   2.445263663501901e-05
-7.712679051150945e-06   1.1834429162482524e-06   2.445263663501901e-05
-7.712679051150945e-06   1.1834429162482524e-06   2.445263663501901e-05
-4.9875377048783525e-06   5.13254897518186e-07   2.9974817802613167e-05
-4.9875377048783525e-06   5.13254897518186e-07   2.9974817802613167e-05
-4.9875377048783525e-06   5.13254897518186e-07   2.9974817802613167e-05
-4.9875377048783525e-06   5.13254897518186e-07   2.9974817802613167e-05
-1.0948595885930786e-05   9.684655113122859e-07   2.0312847202468964e-05
-1.0948595885930786e-05   9.684655113122859e-07   2.0312847202468964e-05
-1.0948595885930786e-05   9.684655113122859e-07   2.0312847202468964e-05
-1.0948595885930786e-05   9.684655113122859e-07   2.0312847202468964e-05
-1.1285190212366648e-05   -1.849381411685603e-07   3.083775564719296e-05
-1.1285190212366648e-05   -1.849381411685603e-07   3.083775564719296e-05
-1.1285190212366648e-05   -1.849381411685603e-07   3.083775564719296e-05
-1.1285190212366648e-05   -1.849381411685603e-07   3.083775564719296e-05
-5.443275193161799e-06   2.252433932820562e-07   2.0855121694514704e-05
-5.443275193161799e-06   2.252433932820562e-07   2.0855121694514704e-05
-5.443275193161799e-06   2.252433932820562e-07   2.0855121694514704e-05
-5.443275193161799e-06   2.252433932820562e-07   2.0855121694514704e-05
-8.052257975303385e-06   6.496455172159878e-07   2.494878505705691e-05
-8.052257975303385e-06   6.496455172159878e-07   2.494878505705691e-05
-8.052257975303385e-06   6.496455172159878e-07   2.494878505705691e-05
-8.052257975303385e-06   6.496455172159878e-07   2.494878505705691e-05
-1.0272468269489671e-05   3.7278572546203988e-06   3.407067304458987e-05
-1.0272468269489671e-05   3.7278572546203988e-06   3.407067304458987e-05
-1.0272468269489671e-05   3.7278572546203988e-06   3.407067304458987e-05
-1.0272468269489671e-05   3.7278572546203988e-06   3.407067304458987e-05
-1.652680823568633e-05   2.8689209500304836e-06   2.313141131817496e-05
-1.652680823568633e-05   2.8689209500304836e-06   2.313141131817496e-05
-1.652680823568633e-05   2.8689209500304836e-06   2.313141131817496e-05
-1.652680823568633e-05   2.8689209500304836e-06   2.313141131817496e-05
-1.6808283190698856e-05   2.9852519710235267e-06   3.3439528938363937e-05
-1.6808283190698856e-05   2.9852519710235267e-06   3.3439528938363937e-05
-1.6808283190698856e-05   2.9852519710235267e-06   3.3439528938363937e-05
-1.6808283190698856e-05   2.9852519710235267e-06   3.3439528938363937e-05
-1.0605324744565234e-05   2.1809549375277713e-06   2.3583843081571767e-05
-1.0605324744565234e-05   2.1809549375277713e-06   2.3583843081571767e-05
-1.0605324744565234e-05   2.1809549375277713e-06   2.3583843081571767e-05
-1.0605324744565234e-05   2.1809549375277713e-06   2.3583843081571767e-05
-1.355978369118234e-05   2.8845121939889175e-06   2.8085806972056953e-05
-1.355978369118234e-05   2.8845121939889175e-06   2.8085806972056953e-05
-1.355978369118234e-05   2.8845121939889175e-06   2.8085806972056953e-05
-1.355978369118234e-05   2.8845121939889175e-06   2.8085806972056953e-05
-1.0605324744565234e-05   2.9852519710235267e-06   3.392210715846117e-05
-1.0605324744565234e-05   2.9852519710235267e-06   3.392210715846117e-05
-1.0605324744565234e-05   2.9852519710235267e-06   3.392210715846117e-05
-1.0605324744565234e-05   2.9852519710235267e-06   3.392210715846117e-05
-1.6808283190698856e-05   2.1809549375277713e-06   2.3101264861474422e-05
-1.6808283190698856e-05   2.1809549375277713e-06   2.3101264861474422e-05
-1.6808283190698856e-05   2.1809549375277713e-06   2.3101264861474422e-05
-1.6808283190698856e-05   2.1809549375277713e-06   2.3101264861474422e-05
-1.7109994279513338e-05   2.2464355503839725e-06   3.377443621641789e-05
-1.7109994279513338e-05   2.2464355503839725e-06   3.377443621641789e-05
-1.7109994279513338e-05   2.2464355503839725e-06   3.377443621641789e-05
-1.7109994279513338e-05   2.2464355503839725e-06   3.377443621641789e-05
-1.0948595885930786e-05   1.4816917460551936e-06   2.3964285176377375e-05
-1.0948595885930786e-05   1.4816917460551936e-06   2.3964285176377375e-05
-1.0948595885930786e-05   1.4816917460551936e-06   2.3964285176377375e-05
-1.0948595885930786e-05   1.4816917460551936e-06   2.3964285176377375e-05
-1.3800261290317802e-05   2.3333451375524145e-06   2.820606881545753e-05
-1.3800261290317802e-05   2.3333451375524145e-06   2.820606881545753e-05
-1.3800261290317802e-05   2.3333451375524145e-06   2.820606881545753e-05
-1.3800261290317802e-05   2.3333451375524145e-06   2.820606881545753e-05
-1.0948595885930786e-05   2.2464355503839725e-06   3.423328249901479e-05
-1.0948595885930786e-05   2.2464355503839725e-06   3.423328249901479e-05
-1.0948595885930786e-05   2.2464355503839725e-06   3.423328249901479e-05
-1.0948595885930786e-05   2.2464355503839725e-06   3.423328249901479e-05
-1.7109994279513284e-05   1.4816917460554104e-06   2.3505438893780205e-05
-1.7109994279513284e-05   1.4816917460554104e-06   2.3505438893780205e-05
-1.7109994279513284e-05   1.4816917460554104e-06   2.3505438893780205e-05
-1.7109994279513284e-05   1.4816917460554104e-06   2.3505438893780205e-05
-1.7405469983263313e-05   1.5388757613830472e-06   3.4473261916753185e-05
-1.7405469983263313e-05   1.5388757613830472e-06   3.4473261916753185e-05
-1.7405469983263313e-05   1.5388757613830472e-06   3.4473261916753185e-05
-1.7405469983263313e-05   1.5388757613830472e-06   3.4473261916753185e-05
-1.1285190212366621e-05   8.185481614152168e-07   2.47049921919065e-05
-1.1285190212366621e-05   8.185481614152168e-07   2.47049921919065e-05
-1.1285190212366621e-05   8.185481614152168e-07   2.47049921919065e-05
-1.1285190212366621e-05   8.185481614152168e-07   2.47049921919065e-05
-1.4068217600853136e-05   1.7903736880438281e-06   2.8760275856740082e-05
-1.4068217600853136e-05   1.7903736880438281e-06   2.8760275856740082e-05
-1.4068217600853136e-05   1.7903736880438281e-06   2.8760275856740082e-05
-1.4068217600853136e-05   1.7903736880438281e-06   2.8760275856740082e-05
-1.6526808235686437e-05   5.534203079287725e-06   2.9450405474910034e-05
-1.6526808235686437e-05   5.534203079287725e-06   2.9450405474910034e-05
-1.6526808235686437e-05   5.534203079287725e-06   2.9450405474910034e-05
-1.6526808235686437e-05   5.534203079287725e-06   2.9450405474910034e-05
-2.2676568035991302e-05   3.875875883261942e-06   1.820580949011977e-05
-2.2676568035991302e-05   3.875875883261942e-06   1.820580949011977e-05
-2.2676568035991302e-05   3.875875883261942e-06   1.820580949011977e-05
-2.2676568035991302e-05   3.875875883261942e-06   1.820580949011977e-05
-2.298576539606082e-05   4.785075293943378e-06   2.8581991315762513e-05
-2.298576539606082e-05   4.785075293943378e-06   2.8581991315762513e-05
-2.298576539606082e-05   4.785075293943378e-06   2.8581991315762513e-05
-2.298576539606082e-05   4.785075293943378e-06   2.8581991315762513e-05
-1.6808283190698856e-05   3.1520184735956726e-06   1.9266021732367955e-05
-1.6808283190698856e-05   3.1520184735956726e-06   1.9266021732367955e-05
-1.6808283190698856e-05   3.1520184735956726e-06   1.9266021732367955e-05
-1.6808283190698856e-05   3.1520184735956726e-06   1.9266021732367955e-05
-1.9707534100001577e-05   4.300536509903611e-06   2.3408995759420926e-05
-1.9707534100001577e-05   4.300536509903611e-06   2.3408995759420926e-05
-1.9707534100001577e-05   4.300536509903611e-06   2.3408995759420926e-05
-1.9707534100001577e-05   4.300536509903611e-06   2.3408995759420926e-05
-1.6808283190698856e-05   4.785075293943161e-06   2.9561825407971244e-05
-1.6808283190698856e-05   4.785075293943161e-06   2.9561825407971244e-05
-1.6808283190698856e-05   4.785075293943161e-06   2.9561825407971244e-05
-1.6808283190698856e-05   4.785075293943161e-06   2.9561825407971244e-05
-2.2985765396060765e-05   3.1520184735954557e-06   1.828618764015933e-05
-2.2985765396060765e-05   3.1520184735954557e-06   1.828618764015933e-05
-2.2985765396060765e-05   3.1520184735954557e-06   1.828618764015933e-05
-2.2985765396060765e-05   3.1520184735954557e-06   1.828618764015933e-05
-2.3413536783730977e-05   4.104331656837627e-06   2.9532011059934735e-05
-2.3413536783730977e-05   4.104331656837627e-06   2.9532011059934735e-05
-2.3413536783730977e-05   4.104331656837627e-06   2.9532011059934735e-05
-2.3413536783730977e-05   4.104331656837627e-06   2.9532011059934735e-05
-1.7109994279513338e-05   2.5083121563095057e-06   1.998371858655528e-05
-1.7109994279513338e-05   2.5083121563095057e-06   1.998371858655528e-05
-1.7109994279513338e-05   2.5083121563095057e-06   1.998371858655528e-05
-1.7109994279513338e-05   2.5083121563095057e-06   1.998371858655528e-05
-1.9875644743225614e-05   3.7663436187229844e-06   2.3838317148627765e-05
-1.9875644743225614e-05   3.7663436187229844e-06   2.3838317148627765e-05
-1.9875644743225614e-05   3.7663436187229844e-06   2.3838317148627765e-05
-1.9875644743225614e-05   3.7663436187229844e-06   2.3838317148627765e-05
-1.7109994279513284e-05   4.10433165683741e-06   3.048962276025111e-05
-1.7109994279513284e-05   4.10433165683741e-06   3.048962276025111e-05
-1.7109994279513284e-05   4.10433165683741e-06   3.048962276025111e-05
-1.7109994279513284e-05   4.10433165683741e-06   3.048962276025111e-05
-2.3413536783730923e-05   2.5083121563095057e-06   1.902610688623847e-05
-2.3413536783730923e-05   2.5083121563095057e-06   1.902610688623847e-05
-2.3413536783730923e-05   2.5083121563095057e-06   1.902610688623847e-05
-2.3413536783730923e-05   2.5083121563095057e-06   1.902610688623847e-05
-2.375657957109559e-05   3.3772057412792024e-06   3.058976274820371e-05
-2.375657957109559e-05   3.3772057412792024e-06   3.058976274820371e-05
-2.375657957109559e-05   3.3772057412792024e-06   3.058976274820371e-05
-2.375657957109559e-05   3.3772057412792024e-06   3.058976274820371e-05
-1.740546998326326e-05   1.8528449666872174e-06   2.0919196566571824e-05
-1.740546998326326e-05   1.8528449666872174e-06   2.0919196566571824e-05
-1.740546998326326e-05   1.8528449666872174e-06   2.0919196566571824e-05
-1.740546998326326e-05   1.8528449666872174e-06   2.0919196566571824e-05
-2.0229692365848816e-05   3.2586782460868047e-06   2.4782733903241775e-05
-2.0229692365848816e-05   3.2586782460868047e-06   2.4782733903241775e-05
-2.0229692365848816e-05   3.2586782460868047e-06   2.4782733903241775e-05
-2.0229692365848816e-05   3.2586782460868047e-06   2.4782733903241775e-05
-2.2676568035991302e-05   6.8031775558047985e-06   1.2979656427456214e-05
-2.2676568035991302e-05   6.8031775558047985e-06   1.2979656427456214e-05
-2.2676568035991302e-05   6.8031775558047985e-06   1.2979656427456214e-05
-2.2676568035991302e-05   6.8031775558047985e-06   1.2979656427456214e-05
-2.7491785913484395e-05   4.57467469941312e-06   3.6171915844662034e-06
-2.7491785913484395e-05   4.57467469941312e-06   3.6171915844662034e-06
-2.7491785913484395e-05   4.57467469941312e-06   3.6171915844662034e-06
-2.7491785913484395e-05   4.57467469941312e-06   3.6171915844662034e-06
-2.8666677343156606e-05   6.4185811266665414e-06   1.5212725867911909e-05
-2.8666677343156606e-05   6.4185811266665414e-06   1.5212725867911909e-05
-2.8666677343156606e-05   6.4185811266665414e-06   1.5212725867911909e-05
-2.8666677343156606e-05   6.4185811266665414e-06   1.5212725867911909e-05
-2.2985765396060765e-05   4.092930664110475e-06   7.139929566952249e-06
-2.2985765396060765e-05   4.092930664110475e-06   7.139929566952249e-06
-2.2985765396060765e-05   4.092930664110475e-06   7.139929566952249e-06
-2.2985765396060765e-05   4.092930664110475e-06   7.139929566952249e-06
-2.4572306705845665e-05   5.4181150312584796e-06   8.989054462971288e-06
-2.4572306705845665e-05   5.4181150312584796e-06   8.989054462971288e-06
-2.4572306705845665e-05   5.4181150312584796e-06   8.989054462971288e-06
-2.4572306705845665e-05   5.4181150312584796e-06   8.989054462971288e-06
-2.298576539606071e-05   6.4185811266665414e-06   1.660811614544503e-05
-2.298576539606071e-05   6.4185811266665414e-06   1.660811614544503e-05
-2.298576539606071e-05   6.4185811266665414e-06   1.660811614544503e-05
-2.298576539606071e-05   6.4185811266665414e-06   1.660811614544503e-05
-2.8666677343156715e-05   4.092930664110692e-06   5.744539289418587e-06
-2.8666677343156715e-05   4.092930664110692e-06   5.744539289418587e-06
-2.8666677343156715e-05   4.092930664110692e-06   5.744539289418587e-06
-2.8666677343156715e-05   4.092930664110692e-06   5.744539289418587e-06
-2.967573118222962e-05   6.097949590523882e-06   1.791774020575769e-05
-2.967573118222962e-05   6.097949590523882e-06   1.791774020575769e-05
-2.967573118222962e-05   6.097949590523882e-06   1.791774020575769e-05
-2.967573118222962e-05   6.097949590523882e-06   1.791774020575769e-05
-2.3413536783730977e-05   3.762360006300848e-06   8.882103292127226e-06
-2.3413536783730977e-05   3.762360006300848e-06   8.882103292127226e-06
-2.3413536783730977e-05   3.762360006300848e-06   8.882103292127226e-06
-2.3413536783730977e-05   3.762360006300848e-06   8.882103292127226e-06
-2.556719562515336e-05   5.228639119989921e-06   1.1591767226285031e-05
-2.556719562515336e-05   5.228639119989921e-06   1.1591767226285031e-05
-2.556719562515336e-05   5.228639119989921e-06   1.1591767226285031e-05
-2.556719562515336e-05   5.228639119989921e-06   1.1591767226285031e-05
-2.3413536783730977e-05   6.0979495905240984e-06   1.9319093956291487e-05
-2.3413536783730977e-05   6.0979495905240984e-06   1.9319093956291487e-05
-2.3413536783730977e-05   6.0979495905240984e-06   1.9319093956291487e-05
-2.3413536783730977e-05   6.0979495905240984e-06   1.9319093956291487e-05
-2.967573118222962e-05   3.762360006300848e-06   7.4807495415932105e-06
-2.967573118222962e-05   3.762360006300848e-06   7.4807495415932105e-06
-2.967573118222962e-05   3.762360006300848e-06   7.4807495415932105e-06
-2.967573118222962e-05   3.762360006300848e-06   7.4807495415932105e-06
-3.096138951294504e-05   5.227016284626868e-06   2.281413436261469e-05
-3.096138951294504e-05   5.227016284626868e-06   2.281413436261469e-05
-3.096138951294504e-05   5.227016284626868e-06   2.281413436261469e-05
-3.096138951294504e-05   5.227016284626868e-06   2.281413436261469e-05
-2.3756579571095537e-05   3.004643358579112e-06   1.2139541548494294e-05
-2.3756579571095537e-05   3.004643358579112e-06   1.2139541548494294e-05
-2.3756579571095537e-05   3.004643358579112e-06   1.2139541548494294e-05
-2.3756579571095537e-05   3.004643358579112e-06   1.2139541548494294e-05
-2.5852654846777833e-05   4.867215771844381e-06   1.4515456893339019e-05
-2.5852654846777833e-05   4.867215771844381e-06   1.4515456893339019e-05
-2.5852654846777833e-05   4.867215771844381e-06   1.4515456893339019e-05
-2.5852654846777833e-05   4.867215771844381e-06   1.4515456893339019e-05
-1.1379272940082198e-05   2.0630601046979762e-06   1.3422973362063172e-05
-1.1379272940082198e-05   2.0630601046979762e-06   1.3422973362063172e-05
-1.1379272940082198e-05   2.0630601046979762e-06   1.3422973362063172e-05
-1.1379272940082198e-05   2.0630601046979762e-06   1.3422973362063172e-05
-1.2389815987669814e-05   3.886753514774051e-06   1.2832950995462773e-05
-1.2389815987669814e-05   3.886753514774051e-06   1.2832950995462773e-05
-1.2389815987669814e-05   3.886753514774051e-06   1.2832950995462773e-05
-1.2389815987669814e-05   3.886753514774051e-06   1.2832950995462773e-05
-1.2705721820589304e-05   1.3990736789073945e-06   1.443413663537263e-05
-1.2705721820589304e-05   1.3990736789073945e-06   1.443413663537263e-05
-1.2705721820589304e-05   1.3990736789073945e-06   1.443413663537263e-05
-1.2705721820589304e-05   1.3990736789073945e-06   1.443413663537263e-05
-1.2714119761151151e-05   3.0385693822343072e-06   1.3464435780979585e-05
-1.2714119761151151e-05   3.0385693822343072e-06   1.3464435780979585e-05
-1.2714119761151151e-05   3.0385693822343072e-06   1.3464435780979585e-05
-1.2714119761151151e-05   3.0385693822343072e-06   1.3464435780979585e-05
-1.199015193724639e-05   2.4282989443122956e-06   1.262398500389158e-05
-1.199015193724639e-05   2.4282989443122956e-06   1.262398500389158e-05
-1.199015193724639e-05   2.4282989443122956e-06   1.262398500389158e-05
-1.199015193724639e-05   2.4282989443122956e-06   1.262398500389158e-05
-1.2714119761151178e-05   1.3990736789073945e-06   1.3450439213376418e-05
-1.2714119761151178e-05   1.3990736789073945e-06   1.3450439213376418e-05
-1.2714119761151178e-05   1.3990736789073945e-06   1.3450439213376418e-05
-1.2714119761151178e-05   1.3990736789073945e-06   1.3450439213376418e-05
-1.2705721820589304e-05   3.0385693822343072e-06   1.444813320297569e-05
-1.2705721820589304e-05   3.0385693822343072e-06   1.444813320297569e-05
-1.2705721820589304e-05   3.0385693822343072e-06   1.444813320297569e-05
-1.2705721820589304e-05   3.0385693822343072e-06   1.444813320297569e-05
-1.3115841427633379e-05   1.032910524326712e-06   1.4899296464939587e-05
-1.3115841427633379e-05   1.032910524326712e-06   1.4899296464939587e-05
-1.3115841427633379e-05   1.032910524326712e-06   1.4899296464939587e-05
-1.3115841427633379e-05   1.032910524326712e-06   1.4899296464939587e-05
-1.4011749943179319e-05   2.451443324476949e-06   1.5541357644092366e-05
-1.4011749943179319e-05   2.451443324476949e-06   1.5541357644092366e-05
-1.4011749943179319e-05   2.451443324476949e-06   1.5541357644092366e-05
-1.4011749943179319e-05   2.451443324476949e-06   1.5541357644092366e-05
-1.2784967387034446e-05   2.0622253463691096e-06   1.373025083738185e-05
-1.2784967387034446e-05   2.0622253463691096e-06   1.373025083738185e-05
-1.2784967387034446e-05   2.0622253463691096e-06   1.373025083738185e-05
-1.2784967387034446e-05   2.0622253463691096e-06   1.373025083738185e-05
-1.4011749943179333e-05   1.032910524326712e-06   1.4048176784849033e-05
-1.4011749943179333e-05   1.032910524326712e-06   1.4048176784849033e-05
-1.4011749943179333e-05   1.032910524326712e-06   1.4048176784849033e-05
-1.4011749943179333e-05   1.032910524326712e-06   1.4048176784849033e-05
-1.3115841427633379e-05   2.451443324476949e-06   1.6392477324182514e-05
-1.3115841427633379e-05   2.451443324476949e-06   1.6392477324182514e-05
-1.3115841427633379e-05   2.451443324476949e-06   1.6392477324182514e-05
-1.3115841427633379e-05   2.451443324476949e-06   1.6392477324182514e-05
-1.3375874984400838e-05   2.5565204567310103e-07   1.639035220569584e-05
-1.3375874984400838e-05   2.5565204567310103e-07   1.639035220569584e-05
-1.3375874984400838e-05   2.5565204567310103e-07   1.639035220569584e-05
-1.3375874984400838e-05   2.5565204567310103e-07   1.639035220569584e-05
-1.5392969459046235e-05   1.0069227436109145e-06   1.9301413911341803e-05
-1.5392969459046235e-05   1.0069227436109145e-06   1.9301413911341803e-05
-1.5392969459046235e-05   1.0069227436109145e-06   1.9301413911341803e-05
-1.5392969459046235e-05   1.0069227436109145e-06   1.9301413911341803e-05
-1.333952745593871e-05   1.6119691138951394e-06   1.5515982750658463e-05
-1.333952745593871e-05   1.6119691138951394e-06   1.5515982750658463e-05
-1.333952745593871e-05   1.6119691138951394e-06   1.5515982750658463e-05
-1.333952745593871e-05   1.6119691138951394e-06   1.5515982750658463e-05
-1.2389815987669794e-05   2.3957447067241098e-06   2.6767764583087513e-05
-1.2389815987669794e-05   2.3957447067241098e-06   2.6767764583087513e-05
-1.2389815987669794e-05   2.3957447067241098e-06   2.6767764583087513e-05
-1.2389815987669794e-05   2.3957447067241098e-06   2.6767764583087513e-05
-1.2525473503266726e-05   1.0055431340733013e-06   2.5707547780168857e-05
-1.2525473503266726e-05   1.0055431340733013e-06   2.5707547780168857e-05
-1.2525473503266726e-05   1.0055431340733013e-06   2.5707547780168857e-05
-1.2525473503266726e-05   1.0055431340733013e-06   2.5707547780168857e-05
-1.2621653674382621e-05   1.6538843769522103e-06   2.5755441105062876e-05
-1.2621653674382621e-05   1.6538843769522103e-06   2.5755441105062876e-05
-1.2621653674382621e-05   1.6538843769522103e-06   2.5755441105062876e-05
-1.2621653674382621e-05   1.6538843769522103e-06   2.5755441105062876e-05
-1.2705721820589304e-05   4.834106373718863e-07   2.65978389258223e-05
-1.2705721820589304e-05   4.834106373718863e-07   2.65978389258223e-05
-1.2705721820589304e-05   4.834106373718863e-07   2.65978389258223e-05
-1.2705721820589304e-05   4.834106373718863e-07   2.65978389258223e-05
-1.2521485326398916e-05   1.2249630195195708e-06   2.584584667288307e-05
-1.2521485326398916e-05   1.2249630195195708e-06   2.584584667288307e-05
-1.2521485326398916e-05   1.2249630195195708e-06   2.584584667288307e-05
-1.2521485326398916e-05   1.2249630195195708e-06   2.584584667288307e-05
-1.2705721820589297e-05   1.6538843769524272e-06   2.6457725348810767e-05
-1.2705721820589297e-05   1.6538843769524272e-06   2.6457725348810767e-05
-1.2705721820589297e-05   1.6538843769524272e-06   2.6457725348810767e-05
-1.2705721820589297e-05   1.6538843769524272e-06   2.6457725348810767e-05
-1.2621653674382594e-05   4.834106373718863e-07   2.589555468207399e-05
-1.2621653674382594e-05   4.834106373718863e-07   2.589555468207399e-05
-1.2621653674382594e-05   4.834106373718863e-07   2.589555468207399e-05
-1.2621653674382594e-05   4.834106373718863e-07   2.589555468207399e-05
-1.2741111871597793e-05   9.68465511312069e-07   2.6113681638284905e-05
-1.2741111871597793e-05   9.68465511312069e-07   2.6113681638284905e-05
-1.2741111871597793e-05   9.68465511312069e-07   2.6113681638284905e-05
-1.2741111871597793e-05   9.68465511312069e-07   2.6113681638284905e-05
-1.3115841427633379e-05   -1.2320131224843184e-07   2.7393230992480243e-05
-1.3115841427633379e-05   -1.2320131224843184e-07   2.7393230992480243e-05
-1.3115841427633379e-05   -1.2320131224843184e-07   2.7393230992480243e-05
-1.3115841427633379e-05   -1.2320131224843184e-07   2.7393230992480243e-05
-1.2639664672522688e-05   7.918269254406519e-07   2.6050586124682084e-05
-1.2639664672522688e-05   7.918269254406519e-07   2.6050586124682084e-05
-1.2639664672522688e-05   7.918269254406519e-07   2.6050586124682084e-05
-1.2639664672522688e-05   7.918269254406519e-07   2.6050586124682084e-05
-1.3115841427633379e-05   9.68465511312069e-07   2.676868173242077e-05
-1.3115841427633379e-05   9.68465511312069e-07   2.676868173242077e-05
-1.3115841427633379e-05   9.68465511312069e-07   2.676868173242077e-05
-1.3115841427633379e-05   9.68465511312069e-07   2.676868173242077e-05
-1.2741111871597766e-05   -1.2320131224843184e-07   2.6738230898343848e-05
-1.2741111871597766e-05   -1.2320131224843184e-07   2.6738230898343848e-05
-1.2741111871597766e-05   -1.2320131224843184e-07   2.6738230898343848e-05
-1.2741111871597766e-05   -1.2320131224843184e-07   2.6738230898343848e-05
-1.2827179260057513e-05   2.2524339328183936e-07   2.68699333721761e-05
-1.2827179260057513e-05   2.2524339328183936e-07   2.68699333721761e-05
-1.2827179260057513e-05   2.2524339328183936e-07   2.68699333721761e-05
-1.2827179260057513e-05   2.2524339328183936e-07   2.68699333721761e-05
-1.3375874984400818e-05   -9.210554216733001e-07   2.8472205535054452e-05
-1.3375874984400818e-05   -9.210554216733001e-07   2.8472205535054452e-05
-1.3375874984400818e-05   -9.210554216733001e-07   2.8472205535054452e-05
-1.3375874984400818e-05   -9.210554216733001e-07   2.8472205535054452e-05
-1.2827832779602555e-05   2.821264736396073e-07   2.6836892723202407e-05
-1.2827832779602555e-05   2.821264736396073e-07   2.6836892723202407e-05
-1.2827832779602555e-05   2.821264736396073e-07   2.6836892723202407e-05
-1.2827832779602555e-05   2.821264736396073e-07   2.6836892723202407e-05
-1.2525473503266753e-05   2.8689209500304836e-06   2.9530217050930774e-05
-1.2525473503266753e-05   2.8689209500304836e-06   2.9530217050930774e-05
-1.2525473503266753e-05   2.8689209500304836e-06   2.9530217050930774e-05
-1.2525473503266753e-05   2.8689209500304836e-06   2.9530217050930774e-05
-1.3462025942189316e-05   2.790481633746034e-07   2.6415372647399385e-05
-1.3462025942189316e-05   2.790481633746034e-07   2.6415372647399385e-05
-1.3462025942189316e-05   2.790481633746034e-07   2.6415372647399385e-05
-1.3462025942189316e-05   2.790481633746034e-07   2.6415372647399385e-05
-1.349281391561138e-05   2.1809549375277713e-06   2.8019253975506645e-05
-1.349281391561138e-05   2.1809549375277713e-06   2.8019253975506645e-05
-1.349281391561138e-05   2.1809549375277713e-06   2.8019253975506645e-05
-1.349281391561138e-05   2.1809549375277713e-06   2.8019253975506645e-05
-1.2621653674382594e-05   -1.6271982143374435e-07   2.7973525095502274e-05
-1.2621653674382594e-05   -1.6271982143374435e-07   2.7973525095502274e-05
-1.2621653674382594e-05   -1.6271982143374435e-07   2.7973525095502274e-05
-1.2621653674382594e-05   -1.6271982143374435e-07   2.7973525095502274e-05
-1.3002860910495557e-05   1.2483498283049135e-06   2.776222869918071e-05
-1.3002860910495557e-05   1.2483498283049135e-06   2.776222869918071e-05
-1.3002860910495557e-05   1.2483498283049135e-06   2.776222869918071e-05
-1.3002860910495557e-05   1.2483498283049135e-06   2.776222869918071e-05
-1.2621653674382621e-05   2.180954937527988e-06   2.9425458830883468e-05
-1.2621653674382621e-05   2.180954937527988e-06   2.9425458830883468e-05
-1.2621653674382621e-05   2.180954937527988e-06   2.9425458830883468e-05
-1.2621653674382621e-05   2.180954937527988e-06   2.9425458830883468e-05
-1.349281391561138e-05   -1.6271982143374435e-07   2.6567320240125343e-05
-1.349281391561138e-05   -1.6271982143374435e-07   2.6567320240125343e-05
-1.349281391561138e-05   -1.6271982143374435e-07   2.6567320240125343e-05
-1.349281391561138e-05   -1.6271982143374435e-07   2.6567320240125343e-05
-1.3550542390366647e-05   1.4816917460554104e-06   2.846103803674435e-05
-1.3550542390366647e-05   1.4816917460554104e-06   2.846103803674435e-05
-1.3550542390366647e-05   1.4816917460554104e-06   2.846103803674435e-05
-1.3550542390366647e-05   1.4816917460554104e-06   2.846103803674435e-05
-1.2741111871597793e-05   -6.917775463596929e-07   2.841606874757818e-05
-1.2741111871597793e-05   -6.917775463596929e-07   2.841606874757818e-05
-1.2741111871597793e-05   -6.917775463596929e-07   2.841606874757818e-05
-1.2741111871597793e-05   -6.917775463596929e-07   2.841606874757818e-05
-1.3007919784377574e-05   8.104775466824966e-07   2.7959395546384906e-05
-1.3007919784377574e-05   8.104775466824966e-07   2.7959395546384906e-05
-1.3007919784377574e-05   8.104775466824966e-07   2.7959395546384906e-05
-1.3007919784377574e-05   8.104775466824966e-07   2.7959395546384906e-05
-1.2741111871597793e-05   1.4816917460551936e-06   2.9765119612192828e-05
-1.2741111871597793e-05   1.4816917460551936e-06   2.9765119612192828e-05
-1.2741111871597793e-05   1.4816917460551936e-06   2.9765119612192828e-05
-1.2741111871597793e-05   1.4816917460551936e-06   2.9765119612192828e-05
-1.3550542390366592e-05   -6.917775463596929e-07   2.7111987172129162e-05
-1.3550542390366592e-05   -6.917775463596929e-07   2.7111987172129162e-05
-1.3550542390366592e-05   -6.917775463596929e-07   2.7111987172129162e-05
-1.3550542390366592e-05   -6.917775463596929e-07   2.7111987172129162e-05
-1.3586601804021874e-05   8.185481614152168e-07   2.92484750267438e-05
-1.3586601804021874e-05   8.185481614152168e-07   2.92484750267438e-05
-1.3586601804021874e-05   8.185481614152168e-07   2.92484750267438e-05
-1.3586601804021874e-05   8.185481614152168e-07   2.92484750267438e-05
-1.2827179260057513e-05   -1.2234850421742431e-06   2.920799070895672e-05
-1.2827179260057513e-05   -1.2234850421742431e-06   2.920799070895672e-05
-1.2827179260057513e-05   -1.2234850421742431e-06   2.920799070895672e-05
-1.2827179260057513e-05   -1.2234850421742431e-06   2.920799070895672e-05
-1.303448219272299e-05   3.6020878506327035e-07   2.8603279300389115e-05
-1.303448219272299e-05   3.6020878506327035e-07   2.8603279300389115e-05
-1.303448219272299e-05   3.6020878506327035e-07   2.8603279300389115e-05
-1.303448219272299e-05   3.6020878506327035e-07   2.8603279300389115e-05
-1.3462025942189316e-05   3.875875883261942e-06   2.4045687868497504e-05
-1.3462025942189316e-05   3.875875883261942e-06   2.4045687868497504e-05
-1.3462025942189316e-05   3.875875883261942e-06   2.4045687868497504e-05
-1.3462025942189316e-05   3.875875883261942e-06   2.4045687868497504e-05
-1.4826986629259639e-05   1.2715215347530555e-06   2.0208140780941775e-05
-1.4826986629259639e-05   1.2715215347530555e-06   2.0208140780941775e-05
-1.4826986629259639e-05   1.2715215347530555e-06   2.0208140780941775e-05
-1.4826986629259639e-05   1.2715215347530555e-06   2.0208140780941775e-05
-1.484905552422269e-05   3.1520184735954557e-06   2.270664911965684e-05
-1.484905552422269e-05   3.1520184735954557e-06   2.270664911965684e-05
-1.484905552422269e-05   3.1520184735954557e-06   2.270664911965684e-05
-1.484905552422269e-05   3.1520184735954557e-06   2.270664911965684e-05
-1.349281391561138e-05   6.89748929022971e-07   2.1923608165381526e-05
-1.349281391561138e-05   6.89748929022971e-07   2.1923608165381526e-05
-1.349281391561138e-05   6.89748929022971e-07   2.1923608165381526e-05
-1.349281391561138e-05   6.89748929022971e-07   2.1923608165381526e-05
-1.4120649219862501e-05   2.3011606839963995e-06   2.200315328614944e-05
-1.4120649219862501e-05   2.3011606839963995e-06   2.200315328614944e-05
-1.4120649219862501e-05   2.3011606839963995e-06   2.200315328614944e-05
-1.4120649219862501e-05   2.3011606839963995e-06   2.200315328614944e-05
-1.349281391561138e-05   3.1520184735956726e-06   2.4184010846400178e-05
-1.349281391561138e-05   3.1520184735956726e-06   2.4184010846400178e-05
-1.349281391561138e-05   3.1520184735956726e-06   2.4184010846400178e-05
-1.349281391561138e-05   3.1520184735956726e-06   2.4184010846400178e-05
-1.484905552422269e-05   6.89748929022971e-07   2.044624643863808e-05
-1.484905552422269e-05   6.89748929022971e-07   2.044624643863808e-05
-1.484905552422269e-05   6.89748929022971e-07   2.044624643863808e-05
-1.484905552422269e-05   6.89748929022971e-07   2.044624643863808e-05
-1.5008218639606693e-05   2.5083121563095057e-06   2.354937030036729e-05
-1.5008218639606693e-05   2.5083121563095057e-06   2.354937030036729e-05
-1.5008218639606693e-05   2.5083121563095057e-06   2.354937030036729e-05
-1.5008218639606693e-05   2.5083121563095057e-06   2.354937030036729e-05
-1.3550542390366592e-05   1.9173310772261157e-07   2.2509857314118985e-05
-1.3550542390366592e-05   1.9173310772261157e-07   2.2509857314118985e-05
-1.3550542390366592e-05   1.9173310772261157e-07   2.2509857314118985e-05
-1.3550542390366592e-05   1.9173310772261157e-07   2.2509857314118985e-05
-1.4078281183047545e-05   1.8228673750308056e-06   2.241074140820105e-05
-1.4078281183047545e-05   1.8228673750308056e-06   2.241074140820105e-05
-1.4078281183047545e-05   1.8228673750308056e-06   2.241074140820105e-05
-1.4078281183047545e-05   1.8228673750308056e-06   2.241074140820105e-05
-1.3550542390366592e-05   2.5083121563095057e-06   2.4939317729518557e-05
-1.3550542390366592e-05   2.5083121563095057e-06   2.4939317729518557e-05
-1.3550542390366592e-05   2.5083121563095057e-06   2.4939317729518557e-05
-1.3550542390366592e-05   2.5083121563095057e-06   2.4939317729518557e-05
-1.5008218639606693e-05   1.9173310772272e-07   2.111990988496701e-05
-1.5008218639606693e-05   1.9173310772272e-07   2.111990988496701e-05
-1.5008218639606693e-05   1.9173310772272e-07   2.111990988496701e-05
-1.5008218639606693e-05   1.9173310772272e-07   2.111990988496701e-05
-1.5102481127657102e-05   1.8528449666872174e-06   2.459704672988245e-05
-1.5102481127657102e-05   1.8528449666872174e-06   2.459704672988245e-05
-1.5102481127657102e-05   1.8528449666872174e-06   2.459704672988245e-05
-1.5102481127657102e-05   1.8528449666872174e-06   2.459704672988245e-05
-1.3586601804021874e-05   -3.102037524918772e-07   2.336841042199756e-05
-1.3586601804021874e-05   -3.102037524918772e-07   2.336841042199756e-05
-1.3586601804021874e-05   -3.102037524918772e-07   2.336841042199756e-05
-1.3586601804021874e-05   -3.102037524918772e-07   2.336841042199756e-05
-1.4146700741363545e-05   1.3958776794444853e-06   2.327825979173831e-05
-1.4146700741363545e-05   1.3958776794444853e-06   2.327825979173831e-05
-1.4146700741363545e-05   1.3958776794444853e-06   2.327825979173831e-05
-1.4146700741363545e-05   1.3958776794444853e-06   2.327825979173831e-05
-1.4826986629259584e-05   4.574674699413337e-06   9.231559067573547e-06
-1.4826986629259584e-05   4.574674699413337e-06   9.231559067573547e-06
-1.4826986629259584e-05   4.574674699413337e-06   9.231559067573547e-06
-1.4826986629259584e-05   4.574674699413337e-06   9.231559067573547e-06
-1.4611606526150037e-05   2.0919511344449308e-06   8.10089176710865e-06
-1.4611606526150037e-05   2.0919511344449308e-06   8.10089176710865e-06
-1.4611606526150037e-05   2.0919511344449308e-06   8.10089176710865e-06
-1.4611606526150037e-05   2.0919511344449308e-06   8.10089176710865e-06
-1.5362808371693145e-05   4.092930664110692e-06   1.011305640233242e-05
-1.5362808371693145e-05   4.092930664110692e-06   1.011305640233242e-05
-1.5362808371693145e-05   4.092930664110692e-06   1.011305640233242e-05
-1.5362808371693145e-05   4.092930664110692e-06   1.011305640233242e-05
-1.484905552422269e-05   1.6807062572488617e-06   1.0704136300665685e-05
-1.484905552422269e-05   1.6807062572488617e-06   1.0704136300665685e-05
-1.484905552422269e-05   1.6807062572488617e-06   1.0704136300665685e-05
-1.484905552422269e-05   1.6807062572488617e-06   1.0704136300665685e-05
-1.442842855154945e-05   3.217081158152918e-06   9.081266405667793e-06
-1.442842855154945e-05   3.217081158152918e-06   9.081266405667793e-06
-1.442842855154945e-05   3.217081158152918e-06   9.081266405667793e-06
-1.442842855154945e-05   3.217081158152918e-06   9.081266405667793e-06
-1.4849055524222637e-05   4.092930664110475e-06   1.1560391046449322e-05
-1.4849055524222637e-05   4.092930664110475e-06   1.1560391046449322e-05
-1.4849055524222637e-05   4.092930664110475e-06   1.1560391046449322e-05
-1.4849055524222637e-05   4.092930664110475e-06   1.1560391046449322e-05
-1.5362808371693145e-05   1.6807062572487532e-06   9.256801656548565e-06
-1.5362808371693145e-05   1.6807062572487532e-06   9.256801656548565e-06
-1.5362808371693145e-05   1.6807062572487532e-06   9.256801656548565e-06
-1.5362808371693145e-05   1.6807062572487532e-06   9.256801656548565e-06
-1.602267234322881e-05   3.762360006301065e-06   1.1994960935903095e-05
-1.602267234322881e-05   3.762360006301065e-06   1.1994960935903095e-05
-1.602267234322881e-05   3.762360006301065e-06   1.1994960935903095e-05
-1.602267234322881e-05   3.762360006301065e-06   1.1994960935903095e-05
-1.500821863960664e-05   1.4116837223794847e-06   1.1714610533552117e-05
-1.500821863960664e-05   1.4116837223794847e-06   1.1714610533552117e-05
-1.500821863960664e-05   1.4116837223794847e-06   1.1714610533552117e-05
-1.500821863960664e-05   1.4116837223794847e-06   1.1714610533552117e-05
-1.496295249543521e-05   2.9761440256096013e-06   1.0700490777994405e-05
-1.496295249543521e-05   2.9761440256096013e-06   1.0700490777994405e-05
-1.496295249543521e-05   2.9761440256096013e-06   1.0700490777994405e-05
-1.496295249543521e-05   2.9761440256096013e-06   1.0700490777994405e-05
-1.500821863960664e-05   3.762360006300848e-06   1.3405366706255393e-05
-1.500821863960664e-05   3.762360006300848e-06   1.3405366706255393e-05
-1.500821863960664e-05   3.762360006300848e-06   1.3405366706255393e-05
-1.500821863960664e-05   3.762360006300848e-06   1.3405366706255393e-05
-1.602267234322881e-05   1.4116837223793763e-06   1.0304204763199223e-05
-1.602267234322881e-05   1.4116837223793763e-06   1.0304204763199223e-05
-1.602267234322881e-05   1.4116837223793763e-06   1.0304204763199223e-05
-1.602267234322881e-05   1.4116837223793763e-06   1.0304204763199223e-05
-1.700573973065396e-05   3.004643358579112e-06   1.54524150264403e-05
-1.700573973065396e-05   3.004643358579112e-06   1.54524150264403e-05
-1.700573973065396e-05   3.004643358579112e-06   1.54524150264403e-05
-1.700573973065396e-05   3.004643358579112e-06   1.54524150264403e-05
-1.5102481127657102e-05   8.719881083795681e-07   1.3559910504898267e-05
-1.5102481127657102e-05   8.719881083795681e-07   1.3559910504898267e-05
-1.5102481127657102e-05   8.719881083795681e-07   1.3559910504898267e-05
-1.5102481127657102e-05   8.719881083795681e-07   1.3559910504898267e-05
-1.5143478655245553e-05   2.690762699579562e-06   1.2536974962824507e-05
-1.5143478655245553e-05   2.690762699579562e-06   1.2536974962824507e-05
-1.5143478655245553e-05   2.690762699579562e-06   1.2536974962824507e-05
-1.5143478655245553e-05   2.690762699579562e-06   1.2536974962824507e-05
-2.9357719824199606e-05   3.886753514774051e-06   1.1207327449931051e-05
-2.9357719824199606e-05   3.886753514774051e-06   1.1207327449931051e-05
-2.9357719824199606e-05   3.886753514774051e-06   1.1207327449931051e-05
-2.9357719824199606e-05   3.886753514774051e-06   1.1207327449931051e-05
-1.9790891748830972e-05   5.385480123544875e-06   2.8051276874141364e-05
-1.9790891748830972e-05   5.385480123544875e-06   2.8051276874141364e-05
-1.9790891748830972e-05   5.385480123544875e-06   2.8051276874141364e-05
-1.9790891748830972e-05   5.385480123544875e-06   2.8051276874141364e-05
-1.9779381276793125e-05   3.0385693822343072e-06   1.2758668959841706e-05
-1.9779381276793125e-05   3.0385693822343072e-06   1.2758668959841706e-05
-1.9779381276793125e-05   3.0385693822343072e-06   1.2758668959841706e-05
-1.9779381276793125e-05   3.0385693822343072e-06   1.2758668959841706e-05
-3.2321205694565186e-05   2.1967453409296993e-06   3.4166804080911566e-05
-3.2321205694565186e-05   2.1967453409296993e-06   3.4166804080911566e-05
-3.2321205694565186e-05   2.1967453409296993e-06   3.4166804080911566e-05
-3.2321205694565186e-05   2.1967453409296993e-06   3.4166804080911566e-05
-2.4006734613332313e-05   3.194846214640986e-06   1.9710491754630044e-05
-2.4006734613332313e-05   3.194846214640986e-06   1.9710491754630044e-05
-2.4006734613332313e-05   3.194846214640986e-06   1.9710491754630044e-05
-2.4006734613332313e-05   3.194846214640986e-06   1.9710491754630044e-05
-3.232120569456524e-05   3.0385693822343072e-06   1.3263763384624623e-05
-3.232120569456524e-05   3.0385693822343072e-06   1.3263763384624623e-05
-3.232120569456524e-05   3.0385693822343072e-06   1.3263763384624623e-05
-3.232120569456524e-05   3.0385693822343072e-06   1.3263763384624623e-05
-1.9779381276793125e-05   2.1967453409296993e-06   3.366170965612877e-05
-1.9779381276793125e-05   2.1967453409296993e-06   3.366170965612877e-05
-1.9779381276793125e-05   2.1967453409296993e-06   3.366170965612877e-05
-1.9779381276793125e-05   2.1967453409296993e-06   3.366170965612877e-05
-2.0043990141712108e-05   2.451443324476949e-06   1.4284115839960604e-05
-2.0043990141712108e-05   2.451443324476949e-06   1.4284115839960604e-05
-2.0043990141712108e-05   2.451443324476949e-06   1.4284115839960604e-05
-2.0043990141712108e-05   2.451443324476949e-06   1.4284115839960604e-05
-3.2430237222297544e-05   1.581682699235208e-06   3.544971734941459e-05
-3.2430237222297544e-05   1.581682699235208e-06   3.544971734941459e-05
-3.2430237222297544e-05   1.581682699235208e-06   3.544971734941459e-05
-3.2430237222297544e-05   1.581682699235208e-06   3.544971734941459e-05
-2.5608829423288788e-05   2.001498691551985e-06   2.382881475567628e-05
-2.5608829423288788e-05   2.001498691551985e-06   2.382881475567628e-05
-2.5608829423288788e-05   2.001498691551985e-06   2.382881475567628e-05
-2.5608829423288788e-05   2.001498691551985e-06   2.382881475567628e-05
-3.2430237222297605e-05   2.451443324476949e-06   1.4805972215105627e-05
-3.2430237222297605e-05   2.451443324476949e-06   1.4805972215105627e-05
-3.2430237222297605e-05   2.451443324476949e-06   1.4805972215105627e-05
-3.2430237222297605e-05   2.451443324476949e-06   1.4805972215105627e-05
-2.0043990141712074e-05   1.581682699235208e-06   3.492786097426966e-05
-2.0043990141712074e-05   1.581682699235208e-06   3.492786097426966e-05
-2.0043990141712074e-05   1.581682699235208e-06   3.492786097426966e-05
-2.0043990141712074e-05   1.581682699235208e-06   3.492786097426966e-05
-1.9824894973650587e-05   1.0069227436109145e-06   1.6953278776528553e-05
-1.9824894973650587e-05   1.0069227436109145e-06   1.6953278776528553e-05
-1.9824894973650587e-05   1.0069227436109145e-06   1.6953278776528553e-05
-1.9824894973650587e-05   1.0069227436109145e-06   1.6953278776528553e-05
-3.277307446978162e-05   -1.030790156614518e-06   3.9756205676882145e-05
-3.277307446978162e-05   -1.030790156614518e-06   3.9756205676882145e-05
-3.277307446978162e-05   -1.030790156614518e-06   3.9756205676882145e-05
-3.277307446978162e-05   -1.030790156614518e-06   3.9756205676882145e-05
-2.5212688110573e-05   9.772774257822041e-07   2.595072119542976e-05
-2.5212688110573e-05   9.772774257822041e-07   2.595072119542976e-05
-2.5212688110573e-05   9.772774257822041e-07   2.595072119542976e-05
-2.5212688110573e-05   9.772774257822041e-07   2.595072119542976e-05
-1.9790891748831006e-05   1.0055431340733013e-06   2.5815281143490103e-05
-1.9790891748831006e-05   1.0055431340733013e-06   2.5815281143490103e-05
-1.9790891748831006e-05   1.0055431340733013e-06   2.5815281143490103e-05
-1.9790891748831006e-05   1.0055431340733013e-06   2.5815281143490103e-05
-1.212958441985785e-05   -6.032974915852582e-06   3.436101586182309e-05
-1.212958441985785e-05   -6.032974915852582e-06   3.436101586182309e-05
-1.212958441985785e-05   -6.032974915852582e-06   3.436101586182309e-05
-1.212958441985785e-05   -6.032974915852582e-06   3.436101586182309e-05
-1.2150897649122348e-05   4.834106373718863e-07   2.1656556465221664e-05
-1.2150897649122348e-05   4.834106373718863e-07   2.1656556465221664e-05
-1.2150897649122348e-05   4.834106373718863e-07   2.1656556465221664e-05
-1.2150897649122348e-05   4.834106373718863e-07   2.1656556465221664e-05
-1.9779381276793125e-05   -4.936286391739406e-06   3.7622514062139834e-05
-1.9779381276793125e-05   -4.936286391739406e-06   3.7622514062139834e-05
-1.9779381276793125e-05   -4.936286391739406e-06   3.7622514062139834e-05
-1.9779381276793125e-05   -4.936286391739406e-06   3.7622514062139834e-05
-1.5876782363447554e-05   -2.982550167081712e-06   2.9945940805102712e-05
-1.5876782363447554e-05   -2.982550167081712e-06   2.9945940805102712e-05
-1.5876782363447554e-05   -2.982550167081712e-06   2.9945940805102712e-05
-1.5876782363447554e-05   -2.982550167081712e-06   2.9945940805102712e-05
-1.977938127679314e-05   4.834106373718863e-07   2.4908374682688168e-05
-1.977938127679314e-05   4.834106373718863e-07   2.4908374682688168e-05
-1.977938127679314e-05   4.834106373718863e-07   2.4908374682688168e-05
-1.977938127679314e-05   4.834106373718863e-07   2.4908374682688168e-05
-1.2150897649122348e-05   -4.936286391739406e-06   3.43706958446731e-05
-1.2150897649122348e-05   -4.936286391739406e-06   3.43706958446731e-05
-1.2150897649122348e-05   -4.936286391739406e-06   3.43706958446731e-05
-1.2150897649122348e-05   -4.936286391739406e-06   3.43706958446731e-05
-1.2194007028984937e-05   -1.2320131224843184e-07   2.2329115269802136e-05
-1.2194007028984937e-05   -1.2320131224843184e-07   2.2329115269802136e-05
-1.2194007028984937e-05   -1.2320131224843184e-07   2.2329115269802136e-05
-1.2194007028984937e-05   -1.2320131224843184e-07   2.2329115269802136e-05
-2.0043990141712074e-05   -5.049458376342117e-06   3.8368174696136784e-05
-2.0043990141712074e-05   -5.049458376342117e-06   3.8368174696136784e-05
-2.0043990141712074e-05   -5.049458376342117e-06   3.8368174696136784e-05
-2.0043990141712074e-05   -5.049458376342117e-06   3.8368174696136784e-05
-1.5757611274403746e-05   -2.6056195106365088e-06   2.9757906597865946e-05
-1.5757611274403746e-05   -2.6056195106365088e-06   2.9757906597865946e-05
-1.5757611274403746e-05   -2.6056195106365088e-06   2.9757906597865946e-05
-1.5757611274403746e-05   -2.6056195106365088e-06   2.9757906597865946e-05
-2.0043990141712108e-05   -1.2320131224843184e-07   2.5284869508258347e-05
-2.0043990141712108e-05   -1.2320131224843184e-07   2.5284869508258347e-05
-2.0043990141712108e-05   -1.2320131224843184e-07   2.5284869508258347e-05
-2.0043990141712108e-05   -1.2320131224843184e-07   2.5284869508258347e-05
-1.2194007028984937e-05   -5.049458376342117e-06   3.541242045768052e-05
-1.2194007028984937e-05   -5.049458376342117e-06   3.541242045768052e-05
-1.2194007028984937e-05   -5.049458376342117e-06   3.541242045768052e-05
-1.2194007028984937e-05   -5.049458376342117e-06   3.541242045768052e-05
-1.2069437073302432e-05   -9.210554216733001e-07   2.3166700752089522e-05
-1.2069437073302432e-05   -9.210554216733001e-07   2.3166700752089522e-05
-1.2069437073302432e-05   -9.210554216733001e-07   2.3166700752089522e-05
-1.2069437073302432e-05   -9.210554216733001e-07   2.3166700752089522e-05
-1.9824894973650547e-05   -5.098734137321665e-06   3.8599071148725286e-05
-1.9824894973650547e-05   -5.098734137321665e-06   3.8599071148725286e-05
-1.9824894973650547e-05   -5.098734137321665e-06   3.8599071148725286e-05
-1.9824894973650547e-05   -5.098734137321665e-06   3.8599071148725286e-05
-1.582605295911048e-05   -2.9279930204258783e-06   3.063188978768774e-05
-1.582605295911048e-05   -2.9279930204258783e-06   3.063188978768774e-05
-1.582605295911048e-05   -2.9279930204258783e-06   3.063188978768774e-05
-1.582605295911048e-05   -2.9279930204258783e-06   3.063188978768774e-05
-1.212958441985785e-05   2.790481633746034e-07   2.3853918852758532e-05
-1.212958441985785e-05   2.790481633746034e-07   2.3853918852758532e-05
-1.212958441985785e-05   2.790481633746034e-07   2.3853918852758532e-05
-1.212958441985785e-05   2.790481633746034e-07   2.3853918852758532e-05
-8.910351113407006e-06   -4.7125296342005155e-06   2.622436101829841e-05
-8.910351113407006e-06   -4.7125296342005155e-06   2.622436101829841e-05
-8.910351113407006e-06   -4.7125296342005155e-06   2.622436101829841e-05
-8.910351113407006e-06   -4.7125296342005155e-06   2.622436101829841e-05
-8.82730449836515e-06   -1.6271982143374435e-07   2.1055216513949965e-05
-8.82730449836515e-06   -1.6271982143374435e-07   2.1055216513949965e-05
-8.82730449836515e-06   -1.6271982143374435e-07   2.1055216513949965e-05
-8.82730449836515e-06   -1.6271982143374435e-07   2.1055216513949965e-05
-1.2150897649122348e-05   -4.628237095933554e-06   2.927384879657883e-05
-1.2150897649122348e-05   -4.628237095933554e-06   2.927384879657883e-05
-1.2150897649122348e-05   -4.628237095933554e-06   2.927384879657883e-05
-1.2150897649122348e-05   -4.628237095933554e-06   2.927384879657883e-05
-1.043946556132113e-05   -2.382362494120758e-06   2.5073937222489363e-05
-1.043946556132113e-05   -2.382362494120758e-06   2.5073937222489363e-05
-1.043946556132113e-05   -2.382362494120758e-06   2.5073937222489363e-05
-1.043946556132113e-05   -2.382362494120758e-06   2.5073937222489363e-05
-1.2150897649122348e-05   -1.6271982143374435e-07   2.3734526878649894e-05
-1.2150897649122348e-05   -1.6271982143374435e-07   2.3734526878649894e-05
-1.2150897649122348e-05   -1.6271982143374435e-07   2.3734526878649894e-05
-1.2150897649122348e-05   -1.6271982143374435e-07   2.3734526878649894e-05
-8.827304498365204e-06   -4.628237095933554e-06   2.6594538431878954e-05
-8.827304498365204e-06   -4.628237095933554e-06   2.6594538431878954e-05
-8.827304498365204e-06   -4.628237095933554e-06   2.6594538431878954e-05
-8.827304498365204e-06   -4.628237095933554e-06   2.6594538431878954e-05
-8.75491135134967e-06   -6.917775463596929e-07   2.1559862289543576e-05
-8.75491135134967e-06   -6.917775463596929e-07   2.1559862289543576e-05
-8.75491135134967e-06   -6.917775463596929e-07   2.1559862289543576e-05
-8.75491135134967e-06   -6.917775463596929e-07   2.1559862289543576e-05
-1.2194007028984937e-05   -4.770262262181017e-06   2.9738779248428336e-05
-1.2194007028984937e-05   -4.770262262181017e-06   2.9738779248428336e-05
-1.2194007028984937e-05   -4.770262262181017e-06   2.9738779248428336e-05
-1.2194007028984937e-05   -4.770262262181017e-06   2.9738779248428336e-05
-1.0343861391008997e-05   -2.542366700449862e-06   2.531846584809586e-05
-1.0343861391008997e-05   -2.542366700449862e-06   2.531846584809586e-05
-1.0343861391008997e-05   -2.542366700449862e-06   2.531846584809586e-05
-1.0343861391008997e-05   -2.542366700449862e-06   2.531846584809586e-05
-1.2194007028984937e-05   -6.917775463596929e-07   2.4006953119036414e-05
-1.2194007028984937e-05   -6.917775463596929e-07   2.4006953119036414e-05
-1.2194007028984937e-05   -6.917775463596929e-07   2.4006953119036414e-05
-1.2194007028984937e-05   -6.917775463596929e-07   2.4006953119036414e-05
-8.754911351349724e-06   -4.770262262181017e-06   2.729168841893566e-05
-8.754911351349724e-06   -4.770262262181017e-06   2.729168841893566e-05
-8.754911351349724e-06   -4.770262262181017e-06   2.729168841893566e-05
-8.754911351349724e-06   -4.770262262181017e-06   2.729168841893566e-05
-8.578426741842951e-06   -1.2234850421742431e-06   2.234078757778796e-05
-8.578426741842951e-06   -1.2234850421742431e-06   2.234078757778796e-05
-8.578426741842951e-06   -1.2234850421742431e-06   2.234078757778796e-05
-8.578426741842951e-06   -1.2234850421742431e-06   2.234078757778796e-05
-1.2069437073302432e-05   -4.972614437469063e-06   3.0408615767397193e-05
-1.2069437073302432e-05   -4.972614437469063e-06   3.0408615767397193e-05
-1.2069437073302432e-05   -4.972614437469063e-06   3.0408615767397193e-05
-1.2069437073302432e-05   -4.972614437469063e-06   3.0408615767397193e-05
-1.0231838252924881e-05   -2.7749321133324666e-06   2.6027341672286086e-05
-1.0231838252924881e-05   -2.7749321133324666e-06   2.6027341672286086e-05
-1.0231838252924881e-05   -2.7749321133324666e-06   2.6027341672286086e-05
-1.0231838252924881e-05   -2.7749321133324666e-06   2.6027341672286086e-05
-8.910351113406952e-06   1.271521534753164e-06   1.621435291686117e-05
-8.910351113406952e-06   1.271521534753164e-06   1.621435291686117e-05
-8.910351113406952e-06   1.271521534753164e-06   1.621435291686117e-05
-8.910351113406952e-06   1.271521534753164e-06   1.621435291686117e-05
-7.413285163740174e-06   -1.932365400308326e-06   1.67871306719355e-05
-7.413285163740174e-06   -1.932365400308326e-06   1.67871306719355e-05
-7.413285163740174e-06   -1.932365400308326e-06   1.67871306719355e-05
-7.413285163740174e-06   -1.932365400308326e-06   1.67871306719355e-05
-7.250102128011004e-06   6.89748929022971e-07   1.4639688989004189e-05
-7.250102128011004e-06   6.89748929022971e-07   1.4639688989004189e-05
-7.250102128011004e-06   6.89748929022971e-07   1.4639688989004189e-05
-7.250102128011004e-06   6.89748929022971e-07   1.4639688989004189e-05
-8.82730449836515e-06   -2.2632768213135e-06   1.9040175056463256e-05
-8.82730449836515e-06   -2.2632768213135e-06   1.9040175056463256e-05
-8.82730449836515e-06   -2.2632768213135e-06   1.9040175056463256e-05
-8.82730449836515e-06   -2.2632768213135e-06   1.9040175056463256e-05
-8.040975568135997e-06   -4.4061540958385045e-07   1.6636029992377283e-05
-8.040975568135997e-06   -4.4061540958385045e-07   1.6636029992377283e-05
-8.040975568135997e-06   -4.4061540958385045e-07   1.6636029992377283e-05
-8.040975568135997e-06   -4.4061540958385045e-07   1.6636029992377283e-05
-8.82730449836515e-06   6.89748929022971e-07   1.6411504439206148e-05
-8.82730449836515e-06   6.89748929022971e-07   1.6411504439206148e-05
-8.82730449836515e-06   6.89748929022971e-07   1.6411504439206148e-05
-8.82730449836515e-06   6.89748929022971e-07   1.6411504439206148e-05
-7.250102128011004e-06   -2.2632768213135e-06   1.7268359606261298e-05
-7.250102128011004e-06   -2.2632768213135e-06   1.7268359606261298e-05
-7.250102128011004e-06   -2.2632768213135e-06   1.7268359606261298e-05
-7.250102128011004e-06   -2.2632768213135e-06   1.7268359606261298e-05
-7.174310924476198e-06   1.9173310772261157e-07   1.533293718799047e-05
-7.174310924476198e-06   1.9173310772261157e-07   1.533293718799047e-05
-7.174310924476198e-06   1.9173310772261157e-07   1.533293718799047e-05
-7.174310924476198e-06   1.9173310772261157e-07   1.533293718799047e-05
-8.75491135134967e-06   -2.516258964849064e-06   1.9592066476322302e-05
-8.75491135134967e-06   -2.516258964849064e-06   1.9592066476322302e-05
-8.75491135134967e-06   -2.516258964849064e-06   1.9592066476322302e-05
-8.75491135134967e-06   -2.516258964849064e-06   1.9592066476322302e-05
-7.879289937173632e-06   -7.95614397216312e-07   1.7100310712115144e-05
-7.879289937173632e-06   -7.95614397216312e-07   1.7100310712115144e-05
-7.879289937173632e-06   -7.95614397216312e-07   1.7100310712115144e-05
-7.879289937173632e-06   -7.95614397216312e-07   1.7100310712115144e-05
-8.75491135134967e-06   1.9173310772261157e-07   1.6957732431533237e-05
-8.75491135134967e-06   1.9173310772261157e-07   1.6957732431533237e-05
-8.75491135134967e-06   1.9173310772261157e-07   1.6957732431533237e-05
-8.75491135134967e-06   1.9173310772261157e-07   1.6957732431533237e-05
-7.174310924476252e-06   -2.516258964849118e-06   1.7967271232779264e-05
-7.174310924476252e-06   -2.516258964849118e-06   1.7967271232779264e-05
-7.174310924476252e-06   -2.516258964849118e-06   1.7967271232779264e-05
-7.174310924476252e-06   -2.516258964849118e-06   1.7967271232779264e-05
-7.051627121403524e-06   -3.102037524918772e-07   1.620353072372474e-05
-7.051627121403524e-06   -3.102037524918772e-07   1.620353072372474e-05
-7.051627121403524e-06   -3.102037524918772e-07   1.620353072372474e-05
-7.051627121403524e-06   -3.102037524918772e-07   1.620353072372474e-05
-8.578426741842951e-06   -2.848364567921652e-06   2.0271093247048195e-05
-8.578426741842951e-06   -2.848364567921652e-06   2.0271093247048195e-05
-8.578426741842951e-06   -2.848364567921652e-06   2.0271093247048195e-05
-8.578426741842951e-06   -2.848364567921652e-06   2.0271093247048195e-05
-7.752559755925859e-06   -1.1063741912544379e-06   1.7849454044519875e-05
-7.752559755925859e-06   -1.1063741912544379e-06   1.7849454044519875e-05
-7.752559755925859e-06   -1.1063741912544379e-06   1.7849454044519875e-05
-7.752559755925859e-06   -1.1063741912544379e-06   1.7849454044519875e-05
-7.413285163740174e-06   2.0919511344449308e-06   3.6744058809720127e-06
-7.413285163740174e-06   2.0919511344449308e-06   3.6744058809720127e-06
-7.413285163740174e-06   2.0919511344449308e-06   3.6744058809720127e-06
-7.413285163740174e-06   2.0919511344449308e-06   3.6744058809720127e-06
-4.263126435592149e-06   -2.1845108421936514e-07   7.538429096686969e-06
-4.263126435592149e-06   -2.1845108421936514e-07   7.538429096686969e-06
-4.263126435592149e-06   -2.1845108421936514e-07   7.538429096686969e-06
-4.263126435592149e-06   -2.1845108421936514e-07   7.538429096686969e-06
-4.50216418831841e-06   1.6807062572487532e-06   3.7069667975508924e-06
-4.50216418831841e-06   1.6807062572487532e-06   3.7069667975508924e-06
-4.50216418831841e-06   1.6807062572487532e-06   3.7069667975508924e-06
-4.50216418831841e-06   1.6807062572487532e-06   3.7069667975508924e-06
-7.250102128011004e-06   -3.036471652195804e-07   9.477475417186336e-06
-7.250102128011004e-06   -3.036471652195804e-07   9.477475417186336e-06
-7.250102128011004e-06   -3.036471652195804e-07   9.477475417186336e-06
-7.250102128011004e-06   -3.036471652195804e-07   9.477475417186336e-06
-5.655822202392378e-06   1.0748448106715023e-06   5.993247022287752e-06
-5.655822202392378e-06   1.0748448106715023e-06   5.993247022287752e-06
-5.655822202392378e-06   1.0748448106715023e-06   5.993247022287752e-06
-5.655822202392378e-06   1.0748448106715023e-06   5.993247022287752e-06
-7.250102128011004e-06   1.6807062572488617e-06   4.897578851031795e-06
-7.250102128011004e-06   1.6807062572488617e-06   4.897578851031795e-06
-7.250102128011004e-06   1.6807062572488617e-06   4.897578851031795e-06
-7.250102128011004e-06   1.6807062572488617e-06   4.897578851031795e-06
-4.502164188318518e-06   -3.036471652195262e-07   8.286863363705325e-06
-4.502164188318518e-06   -3.036471652195262e-07   8.286863363705325e-06
-4.502164188318518e-06   -3.036471652195262e-07   8.286863363705325e-06
-4.502164188318518e-06   -3.036471652195262e-07   8.286863363705325e-06
-4.697851943371006e-06   1.4116837223794847e-06   4.829054514021583e-06
-4.697851943371006e-06   1.4116837223794847e-06   4.829054514021583e-06
-4.697851943371006e-06   1.4116837223794847e-06   4.829054514021583e-06
-4.697851943371006e-06   1.4116837223794847e-06   4.829054514021583e-06
-7.174310924476198e-06   -4.1928848187763835e-07   1.0055069471750751e-05
-7.174310924476198e-06   -4.1928848187763835e-07   1.0055069471750751e-05
-7.174310924476198e-06   -4.1928848187763835e-07   1.0055069471750751e-05
-7.174310924476198e-06   -4.1928848187763835e-07   1.0055069471750751e-05
-5.751416025476323e-06   8.708663472647982e-07   6.909485075932043e-06
-5.751416025476323e-06   8.708663472647982e-07   6.909485075932043e-06
-5.751416025476323e-06   8.708663472647982e-07   6.909485075932043e-06
-5.751416025476323e-06   8.708663472647982e-07   6.909485075932043e-06
-7.174310924476198e-06   1.4116837223794847e-06   5.927637836575738e-06
-7.174310924476198e-06   1.4116837223794847e-06   5.927637836575738e-06
-7.174310924476198e-06   1.4116837223794847e-06   5.927637836575738e-06
-7.174310924476198e-06   1.4116837223794847e-06   5.927637836575738e-06
-4.697851943371114e-06   -4.1928848187758414e-07   8.956486149196705e-06
-4.697851943371114e-06   -4.1928848187758414e-07   8.956486149196705e-06
-4.697851943371114e-06   -4.1928848187758414e-07   8.956486149196705e-06
-4.697851943371114e-06   -4.1928848187758414e-07   8.956486149196705e-06
-5.1861689957255225e-06   8.719881083795681e-07   6.834523954057491e-06
-5.1861689957255225e-06   8.719881083795681e-07   6.834523954057491e-06
-5.1861689957255225e-06   8.719881083795681e-07   6.834523954057491e-06
-5.1861689957255225e-06   8.719881083795681e-07   6.834523954057491e-06
-7.051627121403524e-06   -5.585720317464646e-07   1.0801956914262734e-05
-7.051627121403524e-06   -5.585720317464646e-07   1.0801956914262734e-05
-7.051627121403524e-06   -5.585720317464646e-07   1.0801956914262734e-05
-7.051627121403524e-06   -5.585720317464646e-07   1.0801956914262734e-05
-5.761141879903484e-06   7.334130127324614e-07   7.87595715174194e-06
-5.761141879903484e-06   7.334130127324614e-07   7.87595715174194e-06
-5.761141879903484e-06   7.334130127324614e-07   7.87595715174194e-06
-5.761141879903484e-06   7.334130127324614e-07   7.87595715174194e-06
-6.860549968425487e-05   5.385480123544875e-06   2.9197395315712333e-05
-6.860549968425487e-05   5.385480123544875e-06   2.9197395315712333e-05
-6.860549968425487e-05   5.385480123544875e-06   2.9197395315712333e-05
-6.860549968425487e-05   5.385480123544875e-06   2.9197395315712333e-05
-1.615168414930557e-05   -3.327655797847315e-05   9.342319834608376e-05
-1.615168414930557e-05   -3.327655797847315e-05   9.342319834608376e-05
-1.615168414930557e-05   -3.327655797847315e-05   9.342319834608376e-05
-1.615168414930557e-05   -3.327655797847315e-05   9.342319834608376e-05
-1.894203621443382e-05   2.1967453409296993e-06   1.6047697979563812e-05
-1.894203621443382e-05   2.1967453409296993e-06   1.6047697979563812e-05
-1.894203621443382e-05   2.1967453409296993e-06   1.6047697979563812e-05
-1.894203621443382e-05   2.1967453409296993e-06   1.6047697979563812e-05
-6.257003711331552e-05   -2.5826765224346565e-05   0.00010557513915019894
-6.257003711331552e-05   -2.5826765224346565e-05   0.00010557513915019894
-6.257003711331552e-05   -2.5826765224346565e-05   0.00010557513915019894
-6.257003711331552e-05   -2.5826765224346565e-05   0.00010557513915019894
-4.172445384097847e-05   -1.2859507571124962e-05   6.305214577103754e-05
-4.172445384097847e-05   -1.2859507571124962e-05   6.305214577103754e-05
-4.172445384097847e-05   -1.2859507571124962e-05   6.305214577103754e-05
-4.172445384097847e-05   -1.2859507571124962e-05   6.305214577103754e-05
-6.257003711331541e-05   2.1967453409296993e-06   3.286180431872951e-05
-6.257003711331541e-05   2.1967453409296993e-06   3.286180431872951e-05
-6.257003711331541e-05   2.1967453409296993e-06   3.286180431872951e-05
-6.257003711331541e-05   2.1967453409296993e-06   3.286180431872951e-05
-1.8942036214433846e-05   -2.5826765224346565e-05   8.876103281103321e-05
-1.8942036214433846e-05   -2.5826765224346565e-05   8.876103281103321e-05
-1.8942036214433846e-05   -2.5826765224346565e-05   8.876103281103321e-05
-1.8942036214433846e-05   -2.5826765224346565e-05   8.876103281103321e-05
-1.936239720516158e-05   1.581682699235208e-06   1.7633097662306192e-05
-1.936239720516158e-05   1.581682699235208e-06   1.7633097662306192e-05
-1.936239720516158e-05   1.581682699235208e-06   1.7633097662306192e-05
-1.936239720516158e-05   1.581682699235208e-06   1.7633097662306192e-05
-5.903480867812393e-05   -2.223205150201749e-05   9.804202397132824e-05
-5.903480867812393e-05   -2.223205150201749e-05   9.804202397132824e-05
-5.903480867812393e-05   -2.223205150201749e-05   9.804202397132824e-05
-5.903480867812393e-05   -2.223205150201749e-05   9.804202397132824e-05
-4.0470237332981905e-05   -1.2179096599872029e-05   6.106929878813762e-05
-4.0470237332981905e-05   -1.2179096599872029e-05   6.106929878813762e-05
-4.0470237332981905e-05   -1.2179096599872029e-05   6.106929878813762e-05
-4.0470237332981905e-05   -1.2179096599872029e-05   6.106929878813762e-05
-5.903480867812383e-05   1.581682699235208e-06   3.192133818305775e-05
-5.903480867812383e-05   1.581682699235208e-06   3.192133818305775e-05
-5.903480867812383e-05   1.581682699235208e-06   3.192133818305775e-05
-5.903480867812383e-05   1.581682699235208e-06   3.192133818305775e-05
-1.9362397205161607e-05   -2.223205150201749e-05   8.37537834505766e-05
-1.9362397205161607e-05   -2.223205150201749e-05   8.37537834505766e-05
-1.9362397205161607e-05   -2.223205150201749e-05   8.37537834505766e-05
-1.9362397205161607e-05   -2.223205150201749e-05   8.37537834505766e-05
-2.1193117597270285e-05   -1.030790156614518e-06   2.208818646932915e-05
-2.1193117597270285e-05   -1.030790156614518e-06   2.208818646932915e-05
-2.1193117597270285e-05   -1.030790156614518e-06   2.208818646932915e-05
-2.1193117597270285e-05   -1.030790156614518e-06   2.208818646932915e-05
-5.450587763911167e-05   -1.746149643740799e-05   8.74678769742074e-05
-5.450587763911167e-05   -1.746149643740799e-05   8.74678769742074e-05
-5.450587763911167e-05   -1.746149643740799e-05   8.74678769742074e-05
-5.450587763911167e-05   -1.746149643740799e-05   8.74678769742074e-05
-3.891811894252317e-05   -1.1240636254502054e-05   5.775576303681642e-05
-3.891811894252317e-05   -1.1240636254502054e-05   5.775576303681642e-05
-3.891811894252317e-05   -1.1240636254502054e-05   5.775576303681642e-05
-3.891811894252317e-05   -1.1240636254502054e-05   5.775576303681642e-05
-1.615168414930554e-05   -6.032974915852582e-06   1.6533022272138858e-05
-1.615168414930554e-05   -6.032974915852582e-06   1.6533022272138858e-05
-1.615168414930554e-05   -6.032974915852582e-06   1.6533022272138858e-05
-1.615168414930554e-05   -6.032974915852582e-06   1.6533022272138858e-05
-5.633104574546483e-06   -1.0247235595558557e-05   3.153543182224711e-05
-5.633104574546483e-06   -1.0247235595558557e-05   3.153543182224711e-05
-5.633104574546483e-06   -1.0247235595558557e-05   3.153543182224711e-05
-5.633104574546483e-06   -1.0247235595558557e-05   3.153543182224711e-05
-6.28339852225653e-06   -4.936286391739406e-06   1.4801472312545353e-05
-6.28339852225653e-06   -4.936286391739406e-06   1.4801472312545353e-05
-6.28339852225653e-06   -4.936286391739406e-06   1.4801472312545353e-05
-6.28339852225653e-06   -4.936286391739406e-06   1.4801472312545353e-05
-1.8942036214433846e-05   -1.3614669846788658e-05   4.110623187253697e-05
-1.8942036214433846e-05   -1.3614669846788658e-05   4.110623187253697e-05
-1.8942036214433846e-05   -1.3614669846788658e-05   4.110623187253697e-05
-1.8942036214433846e-05   -1.3614669846788658e-05   4.110623187253697e-05
-1.1139840850903089e-05   -7.1434236336738585e-06   2.4219825205450108e-05
-1.1139840850903089e-05   -7.1434236336738585e-06   2.4219825205450108e-05
-1.1139840850903089e-05   -7.1434236336738585e-06   2.4219825205450108e-05
-1.1139840850903089e-05   -7.1434236336738585e-06   2.4219825205450108e-05
-1.894203621443379e-05   -4.936286391739406e-06   2.00085023855747e-05
-1.894203621443379e-05   -4.936286391739406e-06   2.00085023855747e-05
-1.894203621443379e-05   -4.936286391739406e-06   2.00085023855747e-05
-1.894203621443379e-05   -4.936286391739406e-06   2.00085023855747e-05
-6.283398522256557e-06   -1.3614669846788658e-05   3.5899201799507405e-05
-6.283398522256557e-06   -1.3614669846788658e-05   3.5899201799507405e-05
-6.283398522256557e-06   -1.3614669846788658e-05   3.5899201799507405e-05
-6.283398522256557e-06   -1.3614669846788658e-05   3.5899201799507405e-05
-6.8398199511004185e-06   -5.049458376342117e-06   1.6641635720878465e-05
-6.8398199511004185e-06   -5.049458376342117e-06   1.6641635720878465e-05
-6.8398199511004185e-06   -5.049458376342117e-06   1.6641635720878465e-05
-6.8398199511004185e-06   -5.049458376342117e-06   1.6641635720878465e-05
-1.9362397205161607e-05   -1.2435751148500152e-05   4.194437347427514e-05
-1.9362397205161607e-05   -1.2435751148500152e-05   4.194437347427514e-05
-1.9362397205161607e-05   -1.2435751148500152e-05   4.194437347427514e-05
-1.9362397205161607e-05   -1.2435751148500152e-05   4.194437347427514e-05
-1.2551095461753637e-05   -8.742574107436103e-06   2.8376297677290275e-05
-1.2551095461753637e-05   -8.742574107436103e-06   2.8376297677290275e-05
-1.2551095461753637e-05   -8.742574107436103e-06   2.8376297677290275e-05
-1.2551095461753637e-05   -8.742574107436103e-06   2.8376297677290275e-05
-1.936239720516158e-05   -5.049458376342117e-06   2.1073411384173288e-05
-1.936239720516158e-05   -5.049458376342117e-06   2.1073411384173288e-05
-1.936239720516158e-05   -5.049458376342117e-06   2.1073411384173288e-05
-1.936239720516158e-05   -5.049458376342117e-06   2.1073411384173288e-05
-6.839819951100446e-06   -1.2435751148500152e-05   3.751259781098034e-05
-6.839819951100446e-06   -1.2435751148500152e-05   3.751259781098034e-05
-6.839819951100446e-06   -1.2435751148500152e-05   3.751259781098034e-05
-6.839819951100446e-06   -1.2435751148500152e-05   3.751259781098034e-05
-7.74336932339356e-06   -5.098734137321719e-06   1.8196609556205858e-05
-7.74336932339356e-06   -5.098734137321719e-06   1.8196609556205858e-05
-7.74336932339356e-06   -5.098734137321719e-06   1.8196609556205858e-05
-7.74336932339356e-06   -5.098734137321719e-06   1.8196609556205858e-05
-2.1193117597270285e-05   -1.1693851012491252e-05   4.4569926804435416e-05
-2.1193117597270285e-05   -1.1693851012491252e-05   4.4569926804435416e-05
-2.1193117597270285e-05   -1.1693851012491252e-05   4.4569926804435416e-05
-2.1193117597270285e-05   -1.1693851012491252e-05   4.4569926804435416e-05
-1.3369485222070274e-05   -7.98087011960274e-06   2.9302750976702277e-05
-1.3369485222070274e-05   -7.98087011960274e-06   2.9302750976702277e-05
-1.3369485222070274e-05   -7.98087011960274e-06   2.9302750976702277e-05
-1.3369485222070274e-05   -7.98087011960274e-06   2.9302750976702277e-05
-5.633104574546483e-06   -4.7125296342005155e-06   8.862757699335617e-06
-5.633104574546483e-06   -4.7125296342005155e-06   8.862757699335617e-06
-5.633104574546483e-06   -4.7125296342005155e-06   8.862757699335617e-06
-5.633104574546483e-06   -4.7125296342005155e-06   8.862757699335617e-06
-3.1386398264211432e-06   -2.824193918060983e-06   1.4153200375894843e-05
-3.1386398264211432e-06   -2.824193918060983e-06   1.4153200375894843e-05
-3.1386398264211432e-06   -2.824193918060983e-06   1.4153200375894843e-05
-3.1386398264211432e-06   -2.824193918060983e-06   1.4153200375894843e-05
-3.01204674506972e-06   -4.628237095933554e-06   1.0255890344900592e-05
-3.01204674506972e-06   -4.628237095933554e-06   1.0255890344900592e-05
-3.01204674506972e-06   -4.628237095933554e-06   1.0255890344900592e-05
-3.01204674506972e-06   -4.628237095933554e-06   1.0255890344900592e-05
-6.283398522256557e-06   -3.709461961851288e-06   1.5156878226428973e-05
-6.283398522256557e-06   -3.709461961851288e-06   1.5156878226428973e-05
-6.283398522256557e-06   -3.709461961851288e-06   1.5156878226428973e-05
-6.283398522256557e-06   -3.709461961851288e-06   1.5156878226428973e-05
-4.2314168398645534e-06   -3.762658438050836e-06   1.1768826641495164e-05
-4.2314168398645534e-06   -3.762658438050836e-06   1.1768826641495164e-05
-4.2314168398645534e-06   -3.762658438050836e-06   1.1768826641495164e-05
-4.2314168398645534e-06   -3.762658438050836e-06   1.1768826641495164e-05
-6.28339852225653e-06   -4.6282370959335e-06   9.704625264451083e-06
-6.28339852225653e-06   -4.6282370959335e-06   9.704625264451083e-06
-6.28339852225653e-06   -4.6282370959335e-06   9.704625264451083e-06
-6.28339852225653e-06   -4.6282370959335e-06   9.704625264451083e-06
-3.01204674506972e-06   -3.709461961851288e-06   1.570814330687832e-05
-3.01204674506972e-06   -3.709461961851288e-06   1.570814330687832e-05
-3.01204674506972e-06   -3.709461961851288e-06   1.570814330687832e-05
-3.01204674506972e-06   -3.709461961851288e-06   1.570814330687832e-05
-3.012652477212658e-06   -4.770262262181017e-06   1.096261558283405e-05
-3.012652477212658e-06   -4.770262262181017e-06   1.096261558283405e-05
-3.012652477212658e-06   -4.770262262181017e-06   1.096261558283405e-05
-3.012652477212658e-06   -4.770262262181017e-06   1.096261558283405e-05
-6.839819951100446e-06   -4.779227143501432e-06   1.734660696810572e-05
-6.839819951100446e-06   -4.779227143501432e-06   1.734660696810572e-05
-6.839819951100446e-06   -4.779227143501432e-06   1.734660696810572e-05
-6.839819951100446e-06   -4.779227143501432e-06   1.734660696810572e-05
-4.481231127068547e-06   -4.114242115588234e-06   1.3016634577971522e-05
-4.481231127068547e-06   -4.114242115588234e-06   1.3016634577971522e-05
-4.481231127068547e-06   -4.114242115588234e-06   1.3016634577971522e-05
-4.481231127068547e-06   -4.114242115588234e-06   1.3016634577971522e-05
-6.8398199511004185e-06   -4.770262262181017e-06   1.096799451162639e-05
-6.8398199511004185e-06   -4.770262262181017e-06   1.096799451162639e-05
-6.8398199511004185e-06   -4.770262262181017e-06   1.096799451162639e-05
-6.8398199511004185e-06   -4.770262262181017e-06   1.096799451162639e-05
-3.012652477212658e-06   -4.779227143501432e-06   1.734122803931349e-05
-3.012652477212658e-06   -4.779227143501432e-06   1.734122803931349e-05
-3.012652477212658e-06   -4.779227143501432e-06   1.734122803931349e-05
-3.012652477212658e-06   -4.779227143501432e-06   1.734122803931349e-05
-3.0503804350741695e-06   -4.972614437469009e-06   1.2018386429237492e-05
-3.0503804350741695e-06   -4.972614437469009e-06   1.2018386429237492e-05
-3.0503804350741695e-06   -4.972614437469009e-06   1.2018386429237492e-05
-3.0503804350741695e-06   -4.972614437469009e-06   1.2018386429237492e-05
-7.74336932339356e-06   -5.796572729184306e-06   2.0334409551465656e-05
-7.74336932339356e-06   -5.796572729184306e-06   2.0334409551465656e-05
-7.74336932339356e-06   -5.796572729184306e-06   2.0334409551465656e-05
-7.74336932339356e-06   -5.796572729184306e-06   2.0334409551465656e-05
-4.764764233686097e-06   -4.497044972374519e-06   1.4590351081200713e-05
-4.764764233686097e-06   -4.497044972374519e-06   1.4590351081200713e-05
-4.764764233686097e-06   -4.497044972374519e-06   1.4590351081200713e-05
-4.764764233686097e-06   -4.497044972374519e-06   1.4590351081200713e-05
-3.1386398264211432e-06   -1.932365400308326e-06   2.480860943693307e-06
-3.1386398264211432e-06   -1.932365400308326e-06   2.480860943693307e-06
-3.1386398264211432e-06   -1.932365400308326e-06   2.480860943693307e-06
-3.1386398264211432e-06   -1.932365400308326e-06   2.480860943693307e-06
-2.3221545413462685e-06   5.301604186094705e-07   5.319185243502118e-06
-2.3221545413462685e-06   5.301604186094705e-07   5.319185243502118e-06
-2.3221545413462685e-06   5.301604186094705e-07   5.319185243502118e-06
-2.3221545413462685e-06   5.301604186094705e-07   5.319185243502118e-06
-1.8754908933605523e-06   -2.2632768213135543e-06   4.189243628945397e-06
-1.8754908933605523e-06   -2.2632768213135543e-06   4.189243628945397e-06
-1.8754908933605523e-06   -2.2632768213135543e-06   4.189243628945397e-06
-1.8754908933605523e-06   -2.2632768213135543e-06   4.189243628945397e-06
-3.01204674506972e-06   2.1625094445395702e-07   4.595786722333254e-06
-3.01204674506972e-06   2.1625094445395702e-07   4.595786722333254e-06
-3.01204674506972e-06   2.1625094445395702e-07   4.595786722333254e-06
-3.01204674506972e-06   2.1625094445395702e-07   4.595786722333254e-06
-2.4277460969741827e-06   -8.945001589807553e-07   4.288402970901192e-06
-2.4277460969741827e-06   -8.945001589807553e-07   4.288402970901192e-06
-2.4277460969741827e-06   -8.945001589807553e-07   4.288402970901192e-06
-2.4277460969741827e-06   -8.945001589807553e-07   4.288402970901192e-06
-3.01204674506972e-06   -2.2632768213135543e-06   2.7015269694848944e-06
-3.01204674506972e-06   -2.2632768213135543e-06   2.7015269694848944e-06
-3.01204674506972e-06   -2.2632768213135543e-06   2.7015269694848944e-06
-3.01204674506972e-06   -2.2632768213135543e-06   2.7015269694848944e-06
-1.8754908933605523e-06   2.1625094445395702e-07   6.083503381793757e-06
-1.8754908933605523e-06   2.1625094445395702e-07   6.083503381793757e-06
-1.8754908933605523e-06   2.1625094445395702e-07   6.083503381793757e-06
-1.8754908933605523e-06   2.1625094445395702e-07   6.083503381793757e-06
-1.628924602128305e-06   -2.516258964849064e-06   4.601706026525132e-06
-1.628924602128305e-06   -2.516258964849064e-06   4.601706026525132e-06
-1.628924602128305e-06   -2.516258964849064e-06   4.601706026525132e-06
-1.628924602128305e-06   -2.516258964849064e-06   4.601706026525132e-06
-3.012652477212658e-06   -2.850716543417091e-07   5.5692067653614246e-06
-3.012652477212658e-06   -2.850716543417091e-07   5.5692067653614246e-06
-3.012652477212658e-06   -2.850716543417091e-07   5.5692067653614246e-06
-3.012652477212658e-06   -2.850716543417091e-07   5.5692067653614246e-06
-2.1972688710922804e-06   -1.1485542413997062e-06   4.728323640728759e-06
-2.1972688710922804e-06   -1.1485542413997062e-06   4.728323640728759e-06
-2.1972688710922804e-06   -1.1485542413997062e-06   4.728323640728759e-06
-2.1972688710922804e-06   -1.1485542413997062e-06   4.728323640728759e-06
-3.012652477212658e-06   -2.516258964849064e-06   3.2629936402206374e-06
-3.012652477212658e-06   -2.516258964849064e-06   3.2629936402206374e-06
-3.012652477212658e-06   -2.516258964849064e-06   3.2629936402206374e-06
-3.012652477212658e-06   -2.516258964849064e-06   3.2629936402206374e-06
-1.628924602128305e-06   -2.850716543417091e-07   6.90791915166581e-06
-1.628924602128305e-06   -2.850716543417091e-07   6.90791915166581e-06
-1.628924602128305e-06   -2.850716543417091e-07   6.90791915166581e-06
-1.628924602128305e-06   -2.850716543417091e-07   6.90791915166581e-06
-1.2505092768778881e-06   -2.848364567921652e-06   5.047749146298375e-06
-1.2505092768778881e-06   -2.848364567921652e-06   5.047749146298375e-06
-1.2505092768778881e-06   -2.848364567921652e-06   5.047749146298375e-06
-1.2505092768778881e-06   -2.848364567921652e-06   5.047749146298375e-06
-3.0503804350741695e-06   -1.3193519008667892e-06   7.130126809725529e-06
-3.0503804350741695e-06   -1.3193519008667892e-06   7.130126809725529e-06
-3.0503804350741695e-06   -1.3193519008667892e-06   7.130126809725529e-06
-3.0503804350741695e-06   -1.3193519008667892e-06   7.130126809725529e-06
-2.007771799811584e-06   -1.5389296147472252e-06   5.524192379283317e-06
-2.007771799811584e-06   -1.5389296147472252e-06   5.524192379283317e-06
-2.007771799811584e-06   -1.5389296147472252e-06   5.524192379283317e-06
-2.007771799811584e-06   -1.5389296147472252e-06   5.524192379283317e-06
-2.3221545413462685e-06   -2.1845108421936514e-07   -3.904083809006063e-06
-2.3221545413462685e-06   -2.1845108421936514e-07   -3.904083809006063e-06
-2.3221545413462685e-06   -2.1845108421936514e-07   -3.904083809006063e-06
-2.3221545413462685e-06   -2.1845108421936514e-07   -3.904083809006063e-06
-4.228593426979432e-07   3.361578209384381e-07   -4.058264681639596e-07
-4.228593426979432e-07   3.361578209384381e-07   -4.058264681639596e-07
-4.228593426979432e-07   3.361578209384381e-07   -4.058264681639596e-07
-4.228593426979432e-07   3.361578209384381e-07   -4.058264681639596e-07
1.6088206273266736e-08   -3.036471652195262e-07   -3.069647319226508e-06
1.6088206273266736e-08   -3.036471652195262e-07   -3.069647319226508e-06
1.6088206273266736e-08   -3.036471652195262e-07   -3.069647319226508e-06
1.6088206273266736e-08   -3.036471652195262e-07   -3.069647319226508e-06
-1.8754908933605523e-06   5.830082362856746e-07   -4.4900872740673194e-07
-1.8754908933605523e-06   5.830082362856746e-07   -4.4900872740673194e-07
-1.8754908933605523e-06   5.830082362856746e-07   -4.4900872740673194e-07
-1.8754908933605523e-06   5.830082362856746e-07   -4.4900872740673194e-07
-1.0522410881273563e-06   1.543366184044684e-07   -1.5638887654004664e-06
-1.0522410881273563e-06   1.543366184044684e-07   -1.5638887654004664e-06
-1.0522410881273563e-06   1.543366184044684e-07   -1.5638887654004664e-06
-1.0522410881273563e-06   1.543366184044684e-07   -1.5638887654004664e-06
-1.875490893360498e-06   -3.036471652195804e-07   -3.60164056012989e-06
-1.875490893360498e-06   -3.036471652195804e-07   -3.60164056012989e-06
-1.875490893360498e-06   -3.036471652195804e-07   -3.60164056012989e-06
-1.875490893360498e-06   -3.036471652195804e-07   -3.60164056012989e-06
1.6088206273266736e-08   5.830082362856746e-07   8.298451349643323e-08
1.6088206273266736e-08   5.830082362856746e-07   8.298451349643323e-08
1.6088206273266736e-08   5.830082362856746e-07   8.298451349643323e-08
1.6088206273266736e-08   5.830082362856746e-07   8.298451349643323e-08
2.475516601696797e-07   -4.1928848187763835e-07   -2.7571488045601868e-06
2.475516601696797e-07   -4.1928848187763835e-07   -2.7571488045601868e-06
2.475516601696797e-07   -4.1928848187763835e-07   -2.7571488045601868e-06
2.475516601696797e-07   -4.1928848187763835e-07   -2.7571488045601868e-06
-1.628924602128305e-06   5.029564013605699e-07   -1.8303529734009158e-07
-1.628924602128305e-06   5.029564013605699e-07   -1.8303529734009158e-07
-1.628924602128305e-06   5.029564013605699e-07   -1.8303529734009158e-07
-1.628924602128305e-06   5.029564013605699e-07   -1.8303529734009158e-07
-7.271480856744822e-07   1.011043868683894e-07   -1.4448849494006193e-06
-7.271480856744822e-07   1.011043868683894e-07   -1.4448849494006193e-06
-7.271480856744822e-07   1.011043868683894e-07   -1.4448849494006193e-06
-7.271480856744822e-07   1.011043868683894e-07   -1.4448849494006193e-06
-1.628924602128305e-06   -4.1928848187763835e-07   -3.3104957345031646e-06
-1.628924602128305e-06   -4.1928848187763835e-07   -3.3104957345031646e-06
-1.628924602128305e-06   -4.1928848187763835e-07   -3.3104957345031646e-06
-1.628924602128305e-06   -4.1928848187763835e-07   -3.3104957345031646e-06
2.475516601696797e-07   5.029564013605699e-07   3.703116326029404e-07
2.475516601696797e-07   5.029564013605699e-07   3.703116326029404e-07
2.475516601696797e-07   5.029564013605699e-07   3.703116326029404e-07
2.475516601696797e-07   5.029564013605699e-07   3.703116326029404e-07
5.365898728008694e-07   -5.585720317465188e-07   -2.3002299727812713e-06
5.365898728008694e-07   -5.585720317465188e-07   -2.3002299727812713e-06
5.365898728008694e-07   -5.585720317465188e-07   -2.3002299727812713e-06
5.365898728008694e-07   -5.585720317465188e-07   -2.3002299727812713e-06
-1.2505092768778881e-06   4.3852917566638514e-07   8.000788556856726e-08
-1.2505092768778881e-06   4.3852917566638514e-07   8.000788556856726e-08
-1.2505092768778881e-06   4.3852917566638514e-07   8.000788556856726e-08
-1.2505092768778881e-06   4.3852917566638514e-07   8.000788556856726e-08
-4.3256971217996414e-07   3.7408843278852405e-08   -1.0425525228286315e-06
-4.3256971217996414e-07   3.7408843278852405e-08   -1.0425525228286315e-06
-4.3256971217996414e-07   3.7408843278852405e-08   -1.0425525228286315e-06
-4.3256971217996414e-07   3.7408843278852405e-08   -1.0425525228286315e-06
              </DataArray>   
             <DataArray type="Float64" NumberOfComponents="3" Name="Stress" format="ascii">   
-3.557910193522987   -0.8894775483807468   -0.8894775483807468
-3.557910193522987   -0.8894775483807468   -0.8894775483807468
-3.557910193522987   -0.8894775483807468   -0.8894775483807468
-3.557910193522987   -0.8894775483807468   -0.8894775483807468
-2.058985520023548   -0.06511718938281713   -0.04123599112376869
-2.058985520023548   -0.06511718938281713   -0.04123599112376869
-2.058985520023548   -0.06511718938281713   -0.04123599112376869
-2.058985520023548   -0.06511718938281713   -0.04123599112376869
-2.2194680334568853   -0.5548670083642213   -0.5548670083642213
-2.2194680334568853   -0.5548670083642213   -0.5548670083642213
-2.2194680334568853   -0.5548670083642213   -0.5548670083642213
-2.2194680334568853   -0.5548670083642213   -0.5548670083642213
-3.4291288897802925   -0.281513703343645   -0.10763057411819485
-3.4291288897802925   -0.281513703343645   -0.10763057411819485
-3.4291288897802925   -0.281513703343645   -0.10763057411819485
-3.4291288897802925   -0.281513703343645   -0.10763057411819485
-2.689478159715707   -0.44086966581327985   -0.007420122060565009
-2.689478159715707   -0.44086966581327985   -0.007420122060565009
-2.689478159715707   -0.44086966581327985   -0.007420122060565009
-2.689478159715707   -0.44086966581327985   -0.007420122060565009
-3.7236667047643675   -0.9309166761910919   -0.9309166761910919
-3.7236667047643675   -0.9309166761910919   -0.9309166761910919
-3.7236667047643675   -0.9309166761910919   -0.9309166761910919
-3.7236667047643675   -0.9309166761910919   -0.9309166761910919
-1.9947710044027267   0.02469517855331471   -0.010944050010964296
-1.9947710044027267   0.02469517855331471   -0.010944050010964296
-1.9947710044027267   0.02469517855331471   -0.010944050010964296
-1.9947710044027267   0.02469517855331471   -0.010944050010964296
-2.225854384806071   -0.5564635962015178   -0.5564635962015178
-2.225854384806071   -0.5564635962015178   -0.5564635962015178
-2.225854384806071   -0.5564635962015178   -0.5564635962015178
-2.225854384806071   -0.5564635962015178   -0.5564635962015178
-3.544518053426187   -0.284253857752478   -0.1577324705520914
-3.544518053426187   -0.284253857752478   -0.1577324705520914
-3.544518053426187   -0.284253857752478   -0.1577324705520914
-3.544518053426187   -0.284253857752478   -0.1577324705520914
-2.789925869550857   -0.41513145890170283   -0.14807543731911715
-2.789925869550857   -0.41513145890170283   -0.14807543731911715
-2.789925869550857   -0.41513145890170283   -0.14807543731911715
-2.789925869550857   -0.41513145890170283   -0.14807543731911715
-3.840134208628088   -0.960033552157022   -0.960033552157022
-3.840134208628088   -0.960033552157022   -0.960033552157022
-3.840134208628088   -0.960033552157022   -0.960033552157022
-3.840134208628088   -0.960033552157022   -0.960033552157022
-1.9890917130464512   0.0604626147607506   0.010423551634313827
-1.9890917130464512   0.0604626147607506   0.010423551634313827
-1.9890917130464512   0.0604626147607506   0.010423551634313827
-1.9890917130464512   0.0604626147607506   0.010423551634313827
-2.22482765727651   -0.5562069143191275   -0.5562069143191275
-2.22482765727651   -0.5562069143191275   -0.5562069143191275
-2.22482765727651   -0.5562069143191275   -0.5562069143191275
-2.22482765727651   -0.5562069143191275   -0.5562069143191275
-3.750616048280571   -0.24941401184294743   -0.0945658027006609
-3.750616048280571   -0.24941401184294743   -0.0945658027006609
-3.750616048280571   -0.24941401184294743   -0.0945658027006609
-3.750616048280571   -0.24941401184294743   -0.0945658027006609
-2.8645034894160406   -0.4087102575724777   -0.26764299122240315
-2.8645034894160406   -0.4087102575724777   -0.26764299122240315
-2.8645034894160406   -0.4087102575724777   -0.26764299122240315
-2.8645034894160406   -0.4087102575724777   -0.26764299122240315
-2.2641276488024835   -0.5660319122006209   -0.5660319122006209
-2.2641276488024835   -0.5660319122006209   -0.5660319122006209
-2.2641276488024835   -0.5660319122006209   -0.5660319122006209
-2.2641276488024835   -0.5660319122006209   -0.5660319122006209
-0.94448907319309   -0.06276838907296725   -0.02040629443242325
-0.94448907319309   -0.06276838907296725   -0.02040629443242325
-0.94448907319309   -0.06276838907296725   -0.02040629443242325
-0.94448907319309   -0.06276838907296725   -0.02040629443242325
-0.991676038432328   -0.247919009608082   -0.247919009608082
-0.991676038432328   -0.247919009608082   -0.247919009608082
-0.991676038432328   -0.247919009608082   -0.247919009608082
-0.991676038432328   -0.247919009608082   -0.247919009608082
-2.0614401400674476   -0.2424092271043919   -0.07718532267686276
-2.0614401400674476   -0.2424092271043919   -0.07718532267686276
-2.0614401400674476   -0.2424092271043919   -0.07718532267686276
-2.0614401400674476   -0.2424092271043919   -0.07718532267686276
-1.5203276196139446   -0.28798093120015417   0.01190112940874217
-1.5203276196139446   -0.28798093120015417   0.01190112940874217
-1.5203276196139446   -0.28798093120015417   0.01190112940874217
-1.5203276196139446   -0.28798093120015417   0.01190112940874217
-2.2194680334568835   -0.5548670083642209   -0.5548670083642209
-2.2194680334568835   -0.5548670083642209   -0.5548670083642209
-2.2194680334568835   -0.5548670083642209   -0.5548670083642209
-2.2194680334568835   -0.5548670083642209   -0.5548670083642209
-0.891211679722106   0.006975236972531745   -0.0004914626375862041
-0.891211679722106   0.006975236972531745   -0.0004914626375862041
-0.891211679722106   0.006975236972531745   -0.0004914626375862041
-0.891211679722106   0.006975236972531745   -0.0004914626375862041
-0.969671049663992   -0.242417762415998   -0.242417762415998
-0.969671049663992   -0.242417762415998   -0.242417762415998
-0.969671049663992   -0.242417762415998   -0.242417762415998
-0.969671049663992   -0.242417762415998   -0.242417762415998
-2.056379097487031   -0.19778837622445555   -0.06776237958337919
-2.056379097487031   -0.19778837622445555   -0.06776237958337919
-2.056379097487031   -0.19778837622445555   -0.06776237958337919
-2.056379097487031   -0.19778837622445555   -0.06776237958337919
-1.4992867236443095   -0.2424681780164174   -0.07840250318317114
-1.4992867236443095   -0.2424681780164174   -0.07840250318317114
-1.4992867236443095   -0.2424681780164174   -0.07840250318317114
-1.4992867236443095   -0.2424681780164174   -0.07840250318317114
-2.225854384806071   -0.5564635962015178   -0.5564635962015178
-2.225854384806071   -0.5564635962015178   -0.5564635962015178
-2.225854384806071   -0.5564635962015178   -0.5564635962015178
-2.225854384806071   -0.5564635962015178   -0.5564635962015178
-0.8559488209195404   0.06050439898647561   0.02327121990378611
-0.8559488209195404   0.06050439898647561   0.02327121990378611
-0.8559488209195404   0.06050439898647561   0.02327121990378611
-0.8559488209195404   0.06050439898647561   0.02327121990378611
-0.9496547731700037   -0.23741369329250092   -0.23741369329250092
-0.9496547731700037   -0.23741369329250092   -0.23741369329250092
-0.9496547731700037   -0.23741369329250092   -0.23741369329250092
-0.9496547731700037   -0.23741369329250092   -0.23741369329250092
-2.0414082987125064   -0.15265395613934413   -0.04266307967891679
-2.0414082987125064   -0.15265395613934413   -0.04266307967891679
-2.0414082987125064   -0.15265395613934413   -0.04266307967891679
-2.0414082987125064   -0.15265395613934413   -0.04266307967891679
-1.5068395660664236   -0.21460606948948507   -0.17469615539646655
-1.5068395660664236   -0.21460606948948507   -0.17469615539646655
-1.5068395660664236   -0.21460606948948507   -0.17469615539646655
-1.5068395660664236   -0.21460606948948507   -0.17469615539646655
-1.0309490405466815   -0.25773726013667037   -0.25773726013667037
-1.0309490405466815   -0.25773726013667037   -0.25773726013667037
-1.0309490405466815   -0.25773726013667037   -0.25773726013667037
-1.0309490405466815   -0.25773726013667037   -0.25773726013667037
0.12266950126489677   0.008080103716101218   0.0009998727994541545
0.12266950126489677   0.008080103716101218   0.0009998727994541545
0.12266950126489677   0.008080103716101218   0.0009998727994541545
0.12266950126489677   0.008080103716101218   0.0009998727994541545
0.15929066693979393   0.039822666734948484   0.039822666734948484
0.15929066693979393   0.039822666734948484   0.039822666734948484
0.15929066693979393   0.039822666734948484   0.039822666734948484
0.15929066693979393   0.039822666734948484   0.039822666734948484
-0.932263063279255   -0.16113810734644768   -0.03763503610435198
-0.932263063279255   -0.16113810734644768   -0.03763503610435198
-0.932263063279255   -0.16113810734644768   -0.03763503610435198
-0.932263063279255   -0.16113810734644768   -0.03763503610435198
-0.3989277411898238   -0.10120603368727879   0.06779866835365228
-0.3989277411898238   -0.10120603368727879   0.06779866835365228
-0.3989277411898238   -0.10120603368727879   0.06779866835365228
-0.3989277411898238   -0.10120603368727879   0.06779866835365228
-0.991676038432328   -0.247919009608082   -0.247919009608082
-0.991676038432328   -0.247919009608082   -0.247919009608082
-0.991676038432328   -0.247919009608082   -0.247919009608082
-0.991676038432328   -0.247919009608082   -0.247919009608082
0.16211201942077938   0.07001194632449514   0.02374014955032765
0.16211201942077938   0.07001194632449514   0.02374014955032765
0.16211201942077938   0.07001194632449514   0.02374014955032765
0.16211201942077938   0.07001194632449514   0.02374014955032765
0.179012556088772   0.044753139022193   0.044753139022193
0.179012556088772   0.044753139022193   0.044753139022193
0.179012556088772   0.044753139022193   0.044753139022193
0.179012556088772   0.044753139022193   0.044753139022193
-0.8994563919771249   -0.10852231992880979   -0.02523991646885866
-0.8994563919771249   -0.10852231992880979   -0.02523991646885866
-0.8994563919771249   -0.10852231992880979   -0.02523991646885866
-0.8994563919771249   -0.10852231992880979   -0.02523991646885866
-0.38283710005334654   -0.06257145625198192   -0.023121208741750415
-0.38283710005334654   -0.06257145625198192   -0.023121208741750415
-0.38283710005334654   -0.06257145625198192   -0.023121208741750415
-0.38283710005334654   -0.06257145625198192   -0.023121208741750415
-0.969671049663992   -0.242417762415998   -0.242417762415998
-0.969671049663992   -0.242417762415998   -0.242417762415998
-0.969671049663992   -0.242417762415998   -0.242417762415998
-0.969671049663992   -0.242417762415998   -0.242417762415998
0.1937743349767529   0.12319570271049642   0.040119469773792604
0.1937743349767529   0.12319570271049642   0.040119469773792604
0.1937743349767529   0.12319570271049642   0.040119469773792604
0.1937743349767529   0.12319570271049642   0.040119469773792604
0.20559063009234282   0.051397657523085706   0.051397657523085706
0.20559063009234282   0.051397657523085706   0.051397657523085706
0.20559063009234282   0.051397657523085706   0.051397657523085706
0.20559063009234282   0.051397657523085706   0.051397657523085706
-0.8637505237864589   -0.04576344933365717   0.0004573096663754994
-0.8637505237864589   -0.04576344933365717   0.0004573096663754994
-0.8637505237864589   -0.04576344933365717   0.0004573096663754994
-0.8637505237864589   -0.04576344933365717   0.0004573096663754994
-0.37154742294282883   -0.025326672308911446   -0.11322949836902575
-0.37154742294282883   -0.025326672308911446   -0.11322949836902575
-0.37154742294282883   -0.025326672308911446   -0.11322949836902575
-0.37154742294282883   -0.025326672308911446   -0.11322949836902575
0.13428167329087326   0.033570418322718315   0.033570418322718315
0.13428167329087326   0.033570418322718315   0.033570418322718315
0.13428167329087326   0.033570418322718315   0.033570418322718315
0.13428167329087326   0.033570418322718315   0.033570418322718315
1.2907386253582775   0.1184111853544576   0.039719464005285865
1.2907386253582775   0.1184111853544576   0.039719464005285865
1.2907386253582775   0.1184111853544576   0.039719464005285865
1.2907386253582775   0.1184111853544576   0.039719464005285865
1.4013205755103262   0.35033014387758155   0.35033014387758155
1.4013205755103262   0.35033014387758155   0.35033014387758155
1.4013205755103262   0.35033014387758155   0.35033014387758155
1.4013205755103262   0.35033014387758155   0.35033014387758155
0.12137017133126268   -0.09090094220189067   -0.01905620237087104
0.12137017133126268   -0.09090094220189067   -0.01905620237087104
0.12137017133126268   -0.09090094220189067   -0.01905620237087104
0.12137017133126268   -0.09090094220189067   -0.01905620237087104
0.7360992405107731   0.09163572923645269   0.1337554135147139
0.7360992405107731   0.09163572923645269   0.1337554135147139
0.7360992405107731   0.09163572923645269   0.1337554135147139
0.7360992405107731   0.09163572923645269   0.1337554135147139
0.1592906669397945   0.03982266673494862   0.03982266673494862
0.1592906669397945   0.03982266673494862   0.03982266673494862
0.1592906669397945   0.03982266673494862   0.03982266673494862
0.1592906669397945   0.03982266673494862   0.03982266673494862
1.3058797994361497   0.16208625447509772   0.06137015290918382
1.3058797994361497   0.16208625447509772   0.06137015290918382
1.3058797994361497   0.16208625447509772   0.06137015290918382
1.3058797994361497   0.16208625447509772   0.06137015290918382
1.3951629486058863   0.3487907371514716   0.3487907371514716
1.3951629486058863   0.3487907371514716   0.3487907371514716
1.3951629486058863   0.3487907371514716   0.3487907371514716
1.3951629486058863   0.3487907371514716   0.3487907371514716
0.15323402838504008   -0.03945710212712998   7.074165285476247e-05
0.15323402838504008   -0.03945710212712998   7.074165285476247e-05
0.15323402838504008   -0.03945710212712998   7.074165285476247e-05
0.15323402838504008   -0.03945710212712998   7.074165285476247e-05
0.7305080121899667   0.1202049240057915   0.03481450196626008
0.7305080121899667   0.1202049240057915   0.03481450196626008
0.7305080121899667   0.1202049240057915   0.03481450196626008
0.7305080121899667   0.1202049240057915   0.03481450196626008
0.17901255608877217   0.04475313902219304   0.04475313902219304
0.17901255608877217   0.04475313902219304   0.04475313902219304
0.17901255608877217   0.04475313902219304   0.04475313902219304
0.17901255608877217   0.04475313902219304   0.04475313902219304
1.3124160446340774   0.20761211973407173   0.07623483470982613
1.3124160446340774   0.20761211973407173   0.07623483470982613
1.3124160446340774   0.20761211973407173   0.07623483470982613
1.3124160446340774   0.20761211973407173   0.07623483470982613
1.4220331864115014   0.35550829660287536   0.35550829660287536
1.4220331864115014   0.35550829660287536   0.35550829660287536
1.4220331864115014   0.35550829660287536   0.35550829660287536
1.4220331864115014   0.35550829660287536   0.35550829660287536
0.19504644808679317   0.028616377637266682   0.021458027381154706
0.19504644808679317   0.028616377637266682   0.021458027381154706
0.19504644808679317   0.028616377637266682   0.021458027381154706
0.19504644808679317   0.028616377637266682   0.021458027381154706
0.7416914323028236   0.16303093081947523   -0.05692668993097019
0.7416914323028236   0.16303093081947523   -0.05692668993097019
0.7416914323028236   0.16303093081947523   -0.05692668993097019
0.7416914323028236   0.16303093081947523   -0.05692668993097019
1.3990138838736987   0.3497534709684247   0.3497534709684247
1.3990138838736987   0.3497534709684247   0.3497534709684247
1.3990138838736987   0.3497534709684247   0.3497534709684247
1.3990138838736987   0.3497534709684247   0.3497534709684247
2.901111473409161   0.22109095813482849   0.07564147460035375
2.901111473409161   0.22109095813482849   0.07564147460035375
2.901111473409161   0.22109095813482849   0.07564147460035375
2.901111473409161   0.22109095813482849   0.07564147460035375
2.965182598353163   0.7412956495882908   0.7412956495882908
2.965182598353163   0.7412956495882908   0.7412956495882908
2.965182598353163   0.7412956495882908   0.7412956495882908
2.965182598353163   0.7412956495882908   0.7412956495882908
1.2455894853072413   -0.07083546848703981   -0.007159694773221259
1.2455894853072413   -0.07083546848703981   -0.007159694773221259
1.2455894853072413   -0.07083546848703981   -0.007159694773221259
1.2455894853072413   -0.07083546848703981   -0.007159694773221259
2.0691771673392294   0.29280707099879044   0.23363668068691731
2.0691771673392294   0.29280707099879044   0.23363668068691731
2.0691771673392294   0.29280707099879044   0.23363668068691731
2.0691771673392294   0.29280707099879044   0.23363668068691731
1.401320575510325   0.35033014387758127   0.35033014387758127
1.401320575510325   0.35033014387758127   0.35033014387758127
1.401320575510325   0.35033014387758127   0.35033014387758127
1.401320575510325   0.35033014387758127   0.35033014387758127
2.747801678436105   0.25848020750970513   0.13720649208163224
2.747801678436105   0.25848020750970513   0.13720649208163224
2.747801678436105   0.25848020750970513   0.13720649208163224
2.747801678436105   0.25848020750970513   0.13720649208163224
2.8764192238684934   0.7191048059671233   0.7191048059671233
2.8764192238684934   0.7191048059671233   0.7191048059671233
2.8764192238684934   0.7191048059671233   0.7191048059671233
2.8764192238684934   0.7191048059671233   0.7191048059671233
1.2497989339870617   -0.03914610642960542   0.009907507638425558
1.2497989339870617   -0.03914610642960542   0.009907507638425558
1.2497989339870617   -0.03914610642960542   0.009907507638425558
1.2497989339870617   -0.03914610642960542   0.009907507638425558
2.0076334361695083   0.301213171230934   0.11203946101426675
2.0076334361695083   0.301213171230934   0.11203946101426675
2.0076334361695083   0.301213171230934   0.11203946101426675
2.0076334361695083   0.301213171230934   0.11203946101426675
1.3951629486058863   0.3487907371514716   0.3487907371514716
1.3951629486058863   0.3487907371514716   0.3487907371514716
1.3951629486058863   0.3487907371514716   0.3487907371514716
1.3951629486058863   0.3487907371514716   0.3487907371514716
2.659172857442799   0.2592856105791844   0.09269216922663406
2.659172857442799   0.2592856105791844   0.09269216922663406
2.659172857442799   0.2592856105791844   0.09269216922663406
2.659172857442799   0.2592856105791844   0.09269216922663406
2.7443845437434664   0.6860961359358666   0.6860961359358666
2.7443845437434664   0.6860961359358666   0.6860961359358666
2.7443845437434664   0.6860961359358666   0.6860961359358666
2.7443845437434664   0.6860961359358666   0.6860961359358666
1.2958909470216098   0.040748337513145716   0.03955705874314705
1.2958909470216098   0.040748337513145716   0.03955705874314705
1.2958909470216098   0.040748337513145716   0.03955705874314705
1.2958909470216098   0.040748337513145716   0.03955705874314705
1.9222316030842304   0.32653994228035116   -0.02936378464525473
1.9222316030842304   0.32653994228035116   -0.02936378464525473
1.9222316030842304   0.32653994228035116   -0.02936378464525473
1.9222316030842304   0.32653994228035116   -0.02936378464525473
-2.813353308163807   -0.20143551272015536   0.03154018032979933
-2.813353308163807   -0.20143551272015536   0.03154018032979933
-2.813353308163807   -0.20143551272015536   0.03154018032979933
-2.813353308163807   -0.20143551272015536   0.03154018032979933
-1.7906130129674214   -0.041184147448692754   -0.01153421995859541
-1.7906130129674214   -0.041184147448692754   -0.01153421995859541
-1.7906130129674214   -0.041184147448692754   -0.01153421995859541
-1.7906130129674214   -0.041184147448692754   -0.01153421995859541
-1.80285473282151   0.07278121219832345   0.03756984663286665
-1.80285473282151   0.07278121219832345   0.03756984663286665
-1.80285473282151   0.07278121219832345   0.03756984663286665
-1.80285473282151   0.07278121219832345   0.03756984663286665
-2.8552951320256805   -0.194702046446928   -0.03375203788712161
-2.8552951320256805   -0.194702046446928   -0.03375203788712161
-2.8552951320256805   -0.194702046446928   -0.03375203788712161
-2.8552951320256805   -0.194702046446928   -0.03375203788712161
-2.2243974714873542   -0.07592530829202815   -0.008750368281713161
-2.2243974714873542   -0.07592530829202815   -0.008750368281713161
-2.2243974714873542   -0.07592530829202815   -0.008750368281713161
-2.2243974714873542   -0.07592530829202815   -0.008750368281713161
-2.8345992109766085   -0.13839712381417263   0.013422644725484198
-2.8345992109766085   -0.13839712381417263   0.013422644725484198
-2.8345992109766085   -0.13839712381417263   0.013422644725484198
-2.8345992109766085   -0.13839712381417263   0.013422644725484198
-1.826552938482428   0.013474004953728858   -0.021613974427097574
-1.826552938482428   0.013474004953728858   -0.021613974427097574
-1.826552938482428   0.013474004953728858   -0.021613974427097574
-1.826552938482428   0.013474004953728858   -0.021613974427097574
-1.805086174418654   0.1037393627234206   0.04280175281987067
-1.805086174418654   0.1037393627234206   0.04280175281987067
-1.805086174418654   0.1037393627234206   0.04280175281987067
-1.805086174418654   0.1037393627234206   0.04280175281987067
-2.8727195480130088   -0.17152903095362732   -0.04456459185801932
-2.8727195480130088   -0.17152903095362732   -0.04456459185801932
-2.8727195480130088   -0.17152903095362732   -0.04456459185801932
-2.8727195480130088   -0.17152903095362732   -0.04456459185801932
-2.2869663019382283   -0.05086178009881098   -0.021655541034555456
-2.2869663019382283   -0.05086178009881098   -0.021655541034555456
-2.2869663019382283   -0.05086178009881098   -0.021655541034555456
-2.2869663019382283   -0.05086178009881098   -0.021655541034555456
-2.8212130103987434   -0.08313211832053424   0.12457118358018612
-2.8212130103987434   -0.08313211832053424   0.12457118358018612
-2.8212130103987434   -0.08313211832053424   0.12457118358018612
-2.8212130103987434   -0.08313211832053424   0.12457118358018612
-1.8351197779916717   0.036815384131573314   -0.04044228645335292
-1.8351197779916717   0.036815384131573314   -0.04044228645335292
-1.8351197779916717   0.036815384131573314   -0.04044228645335292
-1.8351197779916717   0.036815384131573314   -0.04044228645335292
-1.7723455414273612   0.18071802361356415   0.07782386772869349
-1.7723455414273612   0.18071802361356415   0.07782386772869349
-1.7723455414273612   0.18071802361356415   0.07782386772869349
-1.7723455414273612   0.18071802361356415   0.07782386772869349
-2.793501310199438   -0.13847438773398307   -0.0729356323179161
-2.793501310199438   -0.13847438773398307   -0.0729356323179161
-2.793501310199438   -0.13847438773398307   -0.0729356323179161
-2.793501310199438   -0.13847438773398307   -0.0729356323179161
-2.1996334571012537   0.020438771812644085   0.0487224195893724
-2.1996334571012537   0.020438771812644085   0.0487224195893724
-2.1996334571012537   0.020438771812644085   0.0487224195893724
-2.1996334571012537   0.020438771812644085   0.0487224195893724
-1.8351339229817265   -0.243233903033311   -0.03208901444550351
-1.8351339229817265   -0.243233903033311   -0.03208901444550351
-1.8351339229817265   -0.243233903033311   -0.03208901444550351
-1.8351339229817265   -0.243233903033311   -0.03208901444550351
-0.8452675121520239   -0.018707473195846536   0.008991639358980758
-0.8452675121520239   -0.018707473195846536   0.008991639358980758
-0.8452675121520239   -0.018707473195846536   0.008991639358980758
-0.8452675121520239   -0.018707473195846536   0.008991639358980758
-0.8577282991744484   0.016323034632041156   0.01276414511230696
-0.8577282991744484   0.016323034632041156   0.01276414511230696
-0.8577282991744484   0.016323034632041156   0.01276414511230696
-0.8577282991744484   0.016323034632041156   0.01276414511230696
-1.8715555906704269   -0.17805610366994554   -0.05509712674344706
-1.8715555906704269   -0.17805610366994554   -0.05509712674344706
-1.8715555906704269   -0.17805610366994554   -0.05509712674344706
-1.8715555906704269   -0.17805610366994554   -0.05509712674344706
-1.3523776519401662   -0.10976382630125822   -0.03096686710605951
-1.3523776519401662   -0.10976382630125822   -0.03096686710605951
-1.3523776519401662   -0.10976382630125822   -0.03096686710605951
-1.3523776519401662   -0.10976382630125822   -0.03096686710605951
-1.869809110485444   -0.19460843545859752   -0.029812394029890957
-1.869809110485444   -0.19460843545859752   -0.029812394029890957
-1.869809110485444   -0.19460843545859752   -0.029812394029890957
-1.869809110485444   -0.19460843545859752   -0.029812394029890957
-0.8561377848389079   0.036212360941215826   0.0008273904808408991
-0.8561377848389079   0.036212360941215826   0.0008273904808408991
-0.8561377848389079   0.036212360941215826   0.0008273904808408991
-0.8561377848389079   0.036212360941215826   0.0008273904808408991
-0.8545736723455276   0.059597294801213646   0.017360550403465486
-0.8545736723455276   0.059597294801213646   0.017360550403465486
-0.8545736723455276   0.059597294801213646   0.017360550403465486
-0.8545736723455276   0.059597294801213646   0.017360550403465486
-1.8724163618563139   -0.13052363462698913   -0.0595861870180195
-1.8724163618563139   -0.13052363462698913   -0.0595861870180195
-1.8724163618563139   -0.13052363462698913   -0.0595861870180195
-1.8724163618563139   -0.13052363462698913   -0.0595861870180195
-1.349833555432003   -0.061103445901389636   -0.014719381587512882
-1.349833555432003   -0.061103445901389636   -0.014719381587512882
-1.349833555432003   -0.061103445901389636   -0.014719381587512882
-1.349833555432003   -0.061103445901389636   -0.014719381587512882
-1.8651078610078249   -0.14724593041037637   -0.0063213869921873445
-1.8651078610078249   -0.14724593041037637   -0.0063213869921873445
-1.8651078610078249   -0.14724593041037637   -0.0063213869921873445
-1.8651078610078249   -0.14724593041037637   -0.0063213869921873445
-0.8556868093916803   0.0825149543869399   -0.011122794413008022
-0.8556868093916803   0.0825149543869399   -0.011122794413008022
-0.8556868093916803   0.0825149543869399   -0.011122794413008022
-0.8556868093916803   0.0825149543869399   -0.011122794413008022
-0.8403361094014241   0.10307466056320674   0.03490781452275522
-0.8403361094014241   0.10307466056320674   0.03490781452275522
-0.8403361094014241   0.10307466056320674   0.03490781452275522
-0.8403361094014241   0.10307466056320674   0.03490781452275522
-1.8524534513194617   -0.07560463347752566   -0.06639302464073109
-1.8524534513194617   -0.07560463347752566   -0.06639302464073109
-1.8524534513194617   -0.07560463347752566   -0.06639302464073109
-1.8524534513194617   -0.07560463347752566   -0.06639302464073109
-1.3442791528201021   -0.015057156137497363   0.006752411731857061
-1.3442791528201021   -0.015057156137497363   0.006752411731857061
-1.3442791528201021   -0.015057156137497363   0.006752411731857061
-1.3442791528201021   -0.015057156137497363   0.006752411731857061
-0.8913627651707162   -0.20247061993081591   -0.03772147899951843
-0.8913627651707162   -0.20247061993081591   -0.03772147899951843
-0.8913627651707162   -0.20247061993081591   -0.03772147899951843
-0.8913627651707162   -0.20247061993081591   -0.03772147899951843
0.09278054624176796   0.02109392504405378   0.034725133487518677
0.09278054624176796   0.02109392504405378   0.034725133487518677
0.09278054624176796   0.02109392504405378   0.034725133487518677
0.09278054624176796   0.02109392504405378   0.034725133487518677
0.0884984235817892   0.05109492140682715   0.002768620800977825
0.0884984235817892   0.05109492140682715   0.002768620800977825
0.0884984235817892   0.05109492140682715   0.002768620800977825
0.0884984235817892   0.05109492140682715   0.002768620800977825
-0.8951940850770285   -0.13415797431808457   -0.02408377545046775
-0.8951940850770285   -0.13415797431808457   -0.02408377545046775
-0.8951940850770285   -0.13415797431808457   -0.02408377545046775
-0.8951940850770285   -0.13415797431808457   -0.02408377545046775
-0.4051993653218265   -0.06710492667070364   -0.012801305280153002
-0.4051993653218265   -0.06710492667070364   -0.012801305280153002
-0.4051993653218265   -0.06710492667070364   -0.012801305280153002
-0.4051993653218265   -0.06710492667070364   -0.012801305280153002
-0.9013848894585195   -0.1543955164138597   -0.03480025526214775
-0.9013848894585195   -0.1543955164138597   -0.03480025526214775
-0.9013848894585195   -0.1543955164138597   -0.03480025526214775
-0.9013848894585195   -0.1543955164138597   -0.03480025526214775
0.09813430887453665   0.07477754441385873   0.027265424257683496
0.09813430887453665   0.07477754441385873   0.027265424257683496
0.09813430887453665   0.07477754441385873   0.027265424257683496
0.09813430887453665   0.07477754441385873   0.027265424257683496
0.09542893535515849   0.09873224742279077   0.0161475929568626
0.09542893535515849   0.09873224742279077   0.0161475929568626
0.09542893535515849   0.09873224742279077   0.0161475929568626
0.09542893535515849   0.09873224742279077   0.0161475929568626
-0.892358027758147   -0.08192066797263957   -0.03004326388577801
-0.892358027758147   -0.08192066797263957   -0.03004326388577801
-0.892358027758147   -0.08192066797263957   -0.03004326388577801
-0.892358027758147   -0.08192066797263957   -0.03004326388577801
-0.39891219522219856   -0.016475285059488448   0.0047832027022772505
-0.39891219522219856   -0.016475285059488448   0.0047832027022772505
-0.39891219522219856   -0.016475285059488448   0.0047832027022772505
-0.39891219522219856   -0.016475285059488448   0.0047832027022772505
-0.8947455331930747   -0.10609371390403298   -0.01780774512902304
-0.8947455331930747   -0.10609371390403298   -0.01780774512902304
-0.8947455331930747   -0.10609371390403298   -0.01780774512902304
-0.8947455331930747   -0.10609371390403298   -0.01780774512902304
0.10152280007767928   0.12661165264177718   0.01873751135047943
0.10152280007767928   0.12661165264177718   0.01873751135047943
0.10152280007767928   0.12661165264177718   0.01873751135047943
0.10152280007767928   0.12661165264177718   0.01873751135047943
0.09759491056781222   0.1517323588269819   0.026590916115301753
0.09759491056781222   0.1517323588269819   0.026590916115301753
0.09759491056781222   0.1517323588269819   0.026590916115301753
0.09759491056781222   0.1517323588269819   0.026590916115301753
-0.8807164822994337   -0.0260730579434455   -0.037846331460636186
-0.8807164822994337   -0.0260730579434455   -0.037846331460636186
-0.8807164822994337   -0.0260730579434455   -0.037846331460636186
-0.8807164822994337   -0.0260730579434455   -0.037846331460636186
-0.38896354794429555   0.03647187042692193   0.024033809972807327
-0.38896354794429555   0.03647187042692193   0.024033809972807327
-0.38896354794429555   0.03647187042692193   0.024033809972807327
-0.38896354794429555   0.03647187042692193   0.024033809972807327
0.04267679372967049   -0.14840417881508633   -0.04629552521382861
0.04267679372967049   -0.14840417881508633   -0.04629552521382861
0.04267679372967049   -0.14840417881508633   -0.04629552521382861
0.04267679372967049   -0.14840417881508633   -0.04629552521382861
1.0621976944137927   0.07334588561065211   0.06371178880031117
1.0621976944137927   0.07334588561065211   0.06371178880031117
1.0621976944137927   0.07334588561065211   0.06371178880031117
1.0621976944137927   0.07334588561065211   0.06371178880031117
1.0608850176130054   0.09877767563093798   -0.01017795948847236
1.0608850176130054   0.09877767563093798   -0.01017795948847236
1.0608850176130054   0.09877767563093798   -0.01017795948847236
1.0608850176130054   0.09877767563093798   -0.01017795948847236
0.06115707456933659   -0.08918738083223346   0.006344177977775332
0.06115707456933659   -0.08918738083223346   0.006344177977775332
0.06115707456933659   -0.08918738083223346   0.006344177977775332
0.06115707456933659   -0.08918738083223346   0.006344177977775332
0.5498719044910395   -0.012695465383084761   0.0011806450660252002
0.5498719044910395   -0.012695465383084761   0.0011806450660252002
0.5498719044910395   -0.012695465383084761   0.0011806450660252002
0.5498719044910395   -0.012695465383084761   0.0011806450660252002
0.04912624471339348   -0.10844829789843712   -0.03454905423573598
0.04912624471339348   -0.10844829789843712   -0.03454905423573598
0.04912624471339348   -0.10844829789843712   -0.03454905423573598
0.04912624471339348   -0.10844829789843712   -0.03454905423573598
1.0791046266240096   0.12422737185220165   0.055470389345277725
1.0791046266240096   0.12422737185220165   0.055470389345277725
1.0791046266240096   0.12422737185220165   0.055470389345277725
1.0791046266240096   0.12422737185220165   0.055470389345277725
1.0692385600727083   0.14589019448763368   0.010802693039002897
1.0692385600727083   0.14589019448763368   0.010802693039002897
1.0692385600727083   0.14589019448763368   0.010802693039002897
1.0692385600727083   0.14589019448763368   0.010802693039002897
0.06332154240290125   -0.04250373871851461   -0.003153385663118253
0.06332154240290125   -0.04250373871851461   -0.003153385663118253
0.06332154240290125   -0.04250373871851461   -0.003153385663118253
0.06332154240290125   -0.04250373871851461   -0.003153385663118253
0.5571933658008297   0.03233971914300281   0.022791776712307987
0.5571933658008297   0.03233971914300281   0.022791776712307987
0.5571933658008297   0.03233971914300281   0.022791776712307987
0.5571933658008297   0.03233971914300281   0.022791776712307987
0.05456090978292928   -0.064248276395351   -0.025212011086141416
0.05456090978292928   -0.064248276395351   -0.025212011086141416
0.05456090978292928   -0.064248276395351   -0.025212011086141416
0.05456090978292928   -0.064248276395351   -0.025212011086141416
1.0824771635251187   0.1721127029969056   0.05077320179176532
1.0824771635251187   0.1721127029969056   0.05077320179176532
1.0824771635251187   0.1721127029969056   0.05077320179176532
1.0824771635251187   0.1721127029969056   0.05077320179176532
1.0520581839585692   0.2002659240218474   0.022694023432280094
1.0520581839585692   0.2002659240218474   0.022694023432280094
1.0520581839585692   0.2002659240218474   0.022694023432280094
1.0520581839585692   0.2002659240218474   0.022694023432280094
0.06273859809493385   0.01531947679359702   -0.011277764215705305
0.06273859809493385   0.01531947679359702   -0.011277764215705305
0.06273859809493385   0.01531947679359702   -0.011277764215705305
0.06273859809493385   0.01531947679359702   -0.011277764215705305
0.5654152162775109   0.08382688165674704   0.04279392680877522
0.5654152162775109   0.08382688165674704   0.04279392680877522
0.5654152162775109   0.08382688165674704   0.04279392680877522
0.5654152162775109   0.08382688165674704   0.04279392680877522
0.9785484745894626   -0.1956563512427662   -0.08553207346792152
0.9785484745894626   -0.1956563512427662   -0.08553207346792152
0.9785484745894626   -0.1956563512427662   -0.08553207346792152
0.9785484745894626   -0.1956563512427662   -0.08553207346792152
2.014703732938504   0.13307191909937782   0.06201598349065164
2.014703732938504   0.13307191909937782   0.06201598349065164
2.014703732938504   0.13307191909937782   0.06201598349065164
2.014703732938504   0.13307191909937782   0.06201598349065164
2.037470024529043   0.06324122599108112   -0.12865676160441986
2.037470024529043   0.06324122599108112   -0.12865676160441986
2.037470024529043   0.06324122599108112   -0.12865676160441986
2.037470024529043   0.06324122599108112   -0.12865676160441986
1.0425350769002413   -0.04021672966403533   0.03706674224266296
1.0425350769002413   -0.04021672966403533   0.03706674224266296
1.0425350769002413   -0.04021672966403533   0.03706674224266296
1.0425350769002413   -0.04021672966403533   0.03706674224266296
1.4428416516318543   -0.025146493738399722   -0.036051799017480055
1.4428416516318543   -0.025146493738399722   -0.036051799017480055
1.4428416516318543   -0.025146493738399722   -0.036051799017480055
1.4428416516318543   -0.025146493738399722   -0.036051799017480055
1.0060877258530956   -0.12865102496220077   -0.056735717694886126
1.0060877258530956   -0.12865102496220077   -0.056735717694886126
1.0060877258530956   -0.12865102496220077   -0.056735717694886126
1.0060877258530956   -0.12865102496220077   -0.056735717694886126
2.0924067160171567   0.1701648617302174   0.03910306009701142
2.0924067160171567   0.1701648617302174   0.03910306009701142
2.0924067160171567   0.1701648617302174   0.03910306009701142
2.0924067160171567   0.1701648617302174   0.03910306009701142
2.0598725335231394   0.11507503778056699   -0.029060370846789654
2.0598725335231394   0.11507503778056699   -0.029060370846789654
2.0598725335231394   0.11507503778056699   -0.029060370846789654
2.0598725335231394   0.11507503778056699   -0.029060370846789654
1.0383271457530778   -0.01694466906015407   0.01908048498861982
1.0383271457530778   -0.01694466906015407   0.01908048498861982
1.0383271457530778   -0.01694466906015407   0.01908048498861982
1.0383271457530778   -0.01694466906015407   0.01908048498861982
1.5183168636312063   0.03792267415457706   0.024937889754733156
1.5183168636312063   0.03792267415457706   0.024937889754733156
1.5183168636312063   0.03792267415457706   0.024937889754733156
1.5183168636312063   0.03792267415457706   0.024937889754733156
1.0090949270419518   -0.09839455405978575   -0.04563072356737005
1.0090949270419518   -0.09839455405978575   -0.04563072356737005
1.0090949270419518   -0.09839455405978575   -0.04563072356737005
1.0090949270419518   -0.09839455405978575   -0.04563072356737005
2.086651188941634   0.1940713594875697   0.02583658453868244
2.086651188941634   0.1940713594875697   0.02583658453868244
2.086651188941634   0.1940713594875697   0.02583658453868244
2.086651188941634   0.1940713594875697   0.02583658453868244
2.056377766635147   0.17603072445528845   -0.044517826159676616
2.056377766635147   0.17603072445528845   -0.044517826159676616
2.056377766635147   0.17603072445528845   -0.044517826159676616
2.056377766635147   0.17603072445528845   -0.044517826159676616
1.0169255825155417   0.036713829373750756   0.010583110865218924
1.0169255825155417   0.036713829373750756   0.010583110865218924
1.0169255825155417   0.036713829373750756   0.010583110865218924
1.0169255825155417   0.036713829373750756   0.010583110865218924
1.4794592777374584   0.06644092196197188   0.01845360821072986
1.4794592777374584   0.06644092196197188   0.01845360821072986
1.4794592777374584   0.06644092196197188   0.01845360821072986
1.4794592777374584   0.06644092196197188   0.01845360821072986
-2.2122657860199246   -0.1004677186945741   0.11370069686450121
-2.2122657860199246   -0.1004677186945741   0.11370069686450121
-2.2122657860199246   -0.1004677186945741   0.11370069686450121
-2.2122657860199246   -0.1004677186945741   0.11370069686450121
-1.4689174881396991   -0.05568824092874802   -0.029585433381431006
-1.4689174881396991   -0.05568824092874802   -0.029585433381431006
-1.4689174881396991   -0.05568824092874802   -0.029585433381431006
-1.4689174881396991   -0.05568824092874802   -0.029585433381431006
-1.416050968772907   0.11897937234902095   0.09541089283984983
-1.416050968772907   0.11897937234902095   0.09541089283984983
-1.416050968772907   0.11897937234902095   0.09541089283984983
-1.416050968772907   0.11897937234902095   0.09541089283984983
-2.222488890749207   -0.15862819458480137   -0.046369365499924986
-2.222488890749207   -0.15862819458480137   -0.046369365499924986
-2.222488890749207   -0.15862819458480137   -0.046369365499924986
-2.222488890749207   -0.15862819458480137   -0.046369365499924986
-1.7556068433640248   -0.027147657860446373   -0.0031555060472619745
-1.7556068433640248   -0.027147657860446373   -0.0031555060472619745
-1.7556068433640248   -0.027147657860446373   -0.0031555060472619745
-1.7556068433640248   -0.027147657860446373   -0.0031555060472619745
-2.1607125009605856   -0.02354852907067362   0.12743291792905537
-2.1607125009605856   -0.02354852907067362   0.12743291792905537
-2.1607125009605856   -0.02354852907067362   0.12743291792905537
-2.1607125009605856   -0.02354852907067362   0.12743291792905537
-1.4680957312225515   -0.00636866582612966   -0.03946488123322217
-1.4680957312225515   -0.00636866582612966   -0.03946488123322217
-1.4680957312225515   -0.00636866582612966   -0.03946488123322217
-1.4680957312225515   -0.00636866582612966   -0.03946488123322217
-1.4102990131612245   0.1475587461641798   0.08845375887923217
-1.4102990131612245   0.1475587461641798   0.08845375887923217
-1.4102990131612245   0.1475587461641798   0.08845375887923217
-1.4102990131612245   0.1475587461641798   0.08845375887923217
-2.1881296577048626   -0.13272480712866408   -0.06350050845546683
-2.1881296577048626   -0.13272480712866408   -0.06350050845546683
-2.1881296577048626   -0.13272480712866408   -0.06350050845546683
-2.1881296577048626   -0.13272480712866408   -0.06350050845546683
-1.7593952067622234   0.0064314040422163155   0.020319562863788845
-1.7593952067622234   0.0064314040422163155   0.020319562863788845
-1.7593952067622234   0.0064314040422163155   0.020319562863788845
-1.7593952067622234   0.0064314040422163155   0.020319562863788845
-2.1305975205729997   0.0034128057675122947   0.08802256430766996
-2.1305975205729997   0.0034128057675122947   0.08802256430766996
-2.1305975205729997   0.0034128057675122947   0.08802256430766996
-2.1305975205729997   0.0034128057675122947   0.08802256430766996
-1.464623482638801   0.014628800922294183   -0.05023864326675234
-1.464623482638801   0.014628800922294183   -0.05023864326675234
-1.464623482638801   0.014628800922294183   -0.05023864326675234
-1.464623482638801   0.014628800922294183   -0.05023864326675234
-1.4116847721668726   0.166512889492887   0.07018421578386887
-1.4116847721668726   0.166512889492887   0.07018421578386887
-1.4116847721668726   0.166512889492887   0.07018421578386887
-1.4116847721668726   0.166512889492887   0.07018421578386887
-2.1435133124060455   -0.10521706209959386   -0.08098809041675398
-2.1435133124060455   -0.10521706209959386   -0.08098809041675398
-2.1435133124060455   -0.10521706209959386   -0.08098809041675398
-2.1435133124060455   -0.10521706209959386   -0.08098809041675398
-1.7088724443764738   0.03649360745868174   0.04221035780194987
-1.7088724443764738   0.03649360745868174   0.04221035780194987
-1.7088724443764738   0.03649360745868174   0.04221035780194987
-1.7088724443764738   0.03649360745868174   0.04221035780194987
-1.473355027673129   -0.13967964880610778   0.032218276828779674
-1.473355027673129   -0.13967964880610778   0.032218276828779674
-1.473355027673129   -0.13967964880610778   0.032218276828779674
-1.473355027673129   -0.13967964880610778   0.032218276828779674
-0.7437904682474704   -0.02682723898222175   0.00143851402927659
-0.7437904682474704   -0.02682723898222175   0.00143851402927659
-0.7437904682474704   -0.02682723898222175   0.00143851402927659
-0.7437904682474704   -0.02682723898222175   0.00143851402927659
-0.7227340494349414   0.07309957836891076   0.05185974221534911
-0.7227340494349414   0.07309957836891076   0.05185974221534911
-0.7227340494349414   0.07309957836891076   0.05185974221534911
-0.7227340494349414   0.07309957836891076   0.05185974221534911
-1.496793426910461   -0.13774921045756652   -0.05157281504134787
-1.496793426910461   -0.13774921045756652   -0.05157281504134787
-1.496793426910461   -0.13774921045756652   -0.05157281504134787
-1.496793426910461   -0.13774921045756652   -0.05157281504134787
-1.105219324581464   -0.0542343096637429   -0.022356304807426113
-1.105219324581464   -0.0542343096637429   -0.022356304807426113
-1.105219324581464   -0.0542343096637429   -0.022356304807426113
-1.105219324581464   -0.0542343096637429   -0.022356304807426113
-1.4687332875420134   -0.08023040285575603   0.031209074199087215
-1.4687332875420134   -0.08023040285575603   0.031209074199087215
-1.4687332875420134   -0.08023040285575603   0.031209074199087215
-1.4687332875420134   -0.08023040285575603   0.031209074199087215
-0.7451048001668872   0.021270159403604688   -0.008164592479065792
-0.7451048001668872   0.021270159403604688   -0.008164592479065792
-0.7451048001668872   0.021270159403604688   -0.008164592479065792
-0.7451048001668872   0.021270159403604688   -0.008164592479065792
-0.7204584242439008   0.12075973789730962   0.044872737991061076
-0.7204584242439008   0.12075973789730962   0.044872737991061076
-0.7204584242439008   0.12075973789730962   0.044872737991061076
-0.7204584242439008   0.12075973789730962   0.044872737991061076
-1.4883312595591187   -0.09325872767562476   -0.06088999927043462
-1.4883312595591187   -0.09325872767562476   -0.06088999927043462
-1.4883312595591187   -0.09325872767562476   -0.06088999927043462
-1.4883312595591187   -0.09325872767562476   -0.06088999927043462
-1.0931687131617065   -0.006004728031957868   -5.9366651408744586e-05
-1.0931687131617065   -0.006004728031957868   -5.9366651408744586e-05
-1.0931687131617065   -0.006004728031957868   -5.9366651408744586e-05
-1.0931687131617065   -0.006004728031957868   -5.9366651408744586e-05
-1.4596973858925237   -0.031882061461038   0.020902702847953647
-1.4596973858925237   -0.031882061461038   0.020902702847953647
-1.4596973858925237   -0.031882061461038   0.020902702847953647
-1.4596973858925237   -0.031882061461038   0.020902702847953647
-0.7444593537794455   0.06401601581377409   -0.01838818760311356
-0.7444593537794455   0.06401601581377409   -0.01838818760311356
-0.7444593537794455   0.06401601581377409   -0.01838818760311356
-0.7444593537794455   0.06401601581377409   -0.01838818760311356
-0.7202579372520954   0.1708386167620828   0.033627712489937525
-0.7202579372520954   0.1708386167620828   0.033627712489937525
-0.7202579372520954   0.1708386167620828   0.033627712489937525
-0.7202579372520954   0.1708386167620828   0.033627712489937525
-1.481181023015728   -0.04525686453411004   -0.06552728443341937
-1.481181023015728   -0.04525686453411004   -0.06552728443341937
-1.481181023015728   -0.04525686453411004   -0.06552728443341937
-1.481181023015728   -0.04525686453411004   -0.06552728443341937
-1.093895988812218   0.03821628570692848   0.01697868040216295
-1.093895988812218   0.03821628570692848   0.01697868040216295
-1.093895988812218   0.03821628570692848   0.01697868040216295
-1.093895988812218   0.03821628570692848   0.01697868040216295
-0.7715198520835467   -0.15959859178764818   -0.004437052345684116
-0.7715198520835467   -0.15959859178764818   -0.004437052345684116
-0.7715198520835467   -0.15959859178764818   -0.004437052345684116
-0.7715198520835467   -0.15959859178764818   -0.004437052345684116
-0.025398335207419888   0.007980906386939796   0.03294974969838326
-0.025398335207419888   0.007980906386939796   0.03294974969838326
-0.025398335207419888   0.007980906386939796   0.03294974969838326
-0.025398335207419888   0.007980906386939796   0.03294974969838326
-0.028232856652179027   0.047199750038501104   0.01574361790761874
-0.028232856652179027   0.047199750038501104   0.01574361790761874
-0.028232856652179027   0.047199750038501104   0.01574361790761874
-0.028232856652179027   0.047199750038501104   0.01574361790761874
-0.7720513440190222   -0.10231578250629614   -0.019311369829848657
-0.7720513440190222   -0.10231578250629614   -0.019311369829848657
-0.7720513440190222   -0.10231578250629614   -0.019311369829848657
-0.7720513440190222   -0.10231578250629614   -0.019311369829848657
-0.40052364730937756   -0.05000903027219919   -0.012505479340364993
-0.40052364730937756   -0.05000903027219919   -0.012505479340364993
-0.40052364730937756   -0.05000903027219919   -0.012505479340364993
-0.40052364730937756   -0.05000903027219919   -0.012505479340364993
-0.7712204392109387   -0.10670084642826534   -0.010771781867461503
-0.7712204392109387   -0.10670084642826534   -0.010771781867461503
-0.7712204392109387   -0.10670084642826534   -0.010771781867461503
-0.7712204392109387   -0.10670084642826534   -0.010771781867461503
-0.0248219253135644   0.05582665010716985   0.024171374532023383
-0.0248219253135644   0.05582665010716985   0.024171374532023383
-0.0248219253135644   0.05582665010716985   0.024171374532023383
-0.0248219253135644   0.05582665010716985   0.024171374532023383
-0.02472724742337985   0.09912673093180745   0.007562950301689939
-0.02472724742337985   0.09912673093180745   0.007562950301689939
-0.02472724742337985   0.09912673093180745   0.007562950301689939
-0.02472724742337985   0.09912673093180745   0.007562950301689939
-0.7701229867662103   -0.054390062536265854   -0.028300274186904513
-0.7701229867662103   -0.054390062536265854   -0.028300274186904513
-0.7701229867662103   -0.054390062536265854   -0.028300274186904513
-0.7701229867662103   -0.054390062536265854   -0.028300274186904513
-0.39664593627863426   -0.0019908618204808326   0.005509001620183453
-0.39664593627863426   -0.0019908618204808326   0.005509001620183453
-0.39664593627863426   -0.0019908618204808326   0.005509001620183453
-0.39664593627863426   -0.0019908618204808326   0.005509001620183453
-0.768963475206172   -0.05550971705807077   -0.02138306186490892
-0.768963475206172   -0.05550971705807077   -0.02138306186490892
-0.768963475206172   -0.05550971705807077   -0.02138306186490892
-0.768963475206172   -0.05550971705807077   -0.02138306186490892
-0.022383996137536895   0.10374914829949353   0.014656789363219137
-0.022383996137536895   0.10374914829949353   0.014656789363219137
-0.022383996137536895   0.10374914829949353   0.014656789363219137
-0.022383996137536895   0.10374914829949353   0.014656789363219137
-0.02399236952932466   0.15260777112796695   -0.001166298873683018
-0.02399236952932466   0.15260777112796695   -0.001166298873683018
-0.02399236952932466   0.15260777112796695   -0.001166298873683018
-0.02399236952932466   0.15260777112796695   -0.001166298873683018
-0.7697566881907373   -0.005647139827555964   -0.03738028561363792
-0.7697566881907373   -0.005647139827555964   -0.03738028561363792
-0.7697566881907373   -0.005647139827555964   -0.03738028561363792
-0.7697566881907373   -0.005647139827555964   -0.03738028561363792
-0.39363742142439917   0.046072773814515786   0.02202840484061616
-0.39363742142439917   0.046072773814515786   0.02202840484061616
-0.39363742142439917   0.046072773814515786   0.02202840484061616
-0.39363742142439917   0.046072773814515786   0.02202840484061616
-0.07617323263882048   -0.17471618647855858   -0.038227644593121106
-0.07617323263882048   -0.17471618647855858   -0.038227644593121106
-0.07617323263882048   -0.17471618647855858   -0.038227644593121106
-0.07617323263882048   -0.17471618647855858   -0.038227644593121106
0.6903227953650407   0.048733848374682504   0.06263785002108378
0.6903227953650407   0.048733848374682504   0.06263785002108378
0.6903227953650407   0.048733848374682504   0.06263785002108378
0.6903227953650407   0.048733848374682504   0.06263785002108378
0.6677488480201794   0.025929902856532988   -0.02466117702923535
0.6677488480201794   0.025929902856532988   -0.02466117702923535
0.6677488480201794   0.025929902856532988   -0.02466117702923535
0.6677488480201794   0.025929902856532988   -0.02466117702923535
-0.050933869865347654   -0.06400679967427733   0.013445101554554278
-0.050933869865347654   -0.06400679967427733   0.013445101554554278
-0.050933869865347654   -0.06400679967427733   0.013445101554554278
-0.050933869865347654   -0.06400679967427733   0.013445101554554278
0.3033862210480044   -0.040392190232102845   -0.007047951696146089
0.3033862210480044   -0.040392190232102845   -0.007047951696146089
0.3033862210480044   -0.040392190232102845   -0.007047951696146089
0.3033862210480044   -0.040392190232102845   -0.007047951696146089
-0.07591408297423989   -0.12746916722445056   -0.047993596439733666
-0.07591408297423989   -0.12746916722445056   -0.047993596439733666
-0.07591408297423989   -0.12746916722445056   -0.047993596439733666
-0.07591408297423989   -0.12746916722445056   -0.047993596439733666
0.6975532569511586   0.09421646622879307   0.056074304253400084
0.6975532569511586   0.09421646622879307   0.056074304253400084
0.6975532569511586   0.09421646622879307   0.056074304253400084
0.6975532569511586   0.09421646622879307   0.056074304253400084
0.6785104507940402   0.07423535005635984   -0.03464685017988491
0.6785104507940402   0.07423535005635984   -0.03464685017988491
0.6785104507940402   0.07423535005635984   -0.03464685017988491
0.6785104507940402   0.07423535005635984   -0.03464685017988491
-0.04950791828839498   -0.02106876583933467   0.0038550927477571284
-0.04950791828839498   -0.02106876583933467   0.0038550927477571284
-0.04950791828839498   -0.02106876583933467   0.0038550927477571284
-0.04950791828839498   -0.02106876583933467   0.0038550927477571284
0.30602134798101815   0.0030394960463520915   0.010848963425904027
0.30602134798101815   0.0030394960463520915   0.010848963425904027
0.30602134798101815   0.0030394960463520915   0.010848963425904027
0.30602134798101815   0.0030394960463520915   0.010848963425904027
-0.07380207887227797   -0.08086223420260447   -0.057822241808388346
-0.07380207887227797   -0.08086223420260447   -0.057822241808388346
-0.07380207887227797   -0.08086223420260447   -0.057822241808388346
-0.07380207887227797   -0.08086223420260447   -0.057822241808388346
0.7080616046644129   0.13928581170611942   0.04805845752221961
0.7080616046644129   0.13928581170611942   0.04805845752221961
0.7080616046644129   0.13928581170611942   0.04805845752221961
0.7080616046644129   0.13928581170611942   0.04805845752221961
0.685131662848213   0.13482286958207926   -0.0361538650265811
0.685131662848213   0.13482286958207926   -0.0361538650265811
0.685131662848213   0.13482286958207926   -0.0361538650265811
0.685131662848213   0.13482286958207926   -0.0361538650265811
-0.049598281124150316   0.029123176311798622   -0.005711262031642527
-0.049598281124150316   0.029123176311798622   -0.005711262031642527
-0.049598281124150316   0.029123176311798622   -0.005711262031642527
-0.049598281124150316   0.029123176311798622   -0.005711262031642527
0.3165610745701047   0.05148533514802165   0.03210866447973681
0.3165610745701047   0.05148533514802165   0.03210866447973681
0.3165610745701047   0.05148533514802165   0.03210866447973681
0.3165610745701047   0.05148533514802165   0.03210866447973681
0.6184791309312538   -0.17345460229569576   -0.07439202147746622
0.6184791309312538   -0.17345460229569576   -0.07439202147746622
0.6184791309312538   -0.17345460229569576   -0.07439202147746622
0.6184791309312538   -0.17345460229569576   -0.07439202147746622
1.3593987946100927   0.10099349300599814   0.06959994670399322
1.3593987946100927   0.10099349300599814   0.06959994670399322
1.3593987946100927   0.10099349300599814   0.06959994670399322
1.3593987946100927   0.10099349300599814   0.06959994670399322
1.3487909130882054   -0.006182399723781262   -0.0990174442440387
1.3487909130882054   -0.006182399723781262   -0.0990174442440387
1.3487909130882054   -0.006182399723781262   -0.0990174442440387
1.3487909130882054   -0.006182399723781262   -0.0990174442440387
0.6739212553411805   -0.014566674924219952   0.04669743735653127
0.6739212553411805   -0.014566674924219952   0.04669743735653127
0.6739212553411805   -0.014566674924219952   0.04669743735653127
0.6739212553411805   -0.014566674924219952   0.04669743735653127
0.9516021176329001   -0.03378410942529472   -0.031182130231957865
0.9516021176329001   -0.03378410942529472   -0.031182130231957865
0.9516021176329001   -0.03378410942529472   -0.031182130231957865
0.9516021176329001   -0.03378410942529472   -0.031182130231957865
0.6190686965489706   -0.1506248004071402   -0.09150723112159846
0.6190686965489706   -0.1506248004071402   -0.09150723112159846
0.6190686965489706   -0.1506248004071402   -0.09150723112159846
0.6190686965489706   -0.1506248004071402   -0.09150723112159846
1.4075856346994968   0.13381788857822008   0.05495587551041524
1.4075856346994968   0.13381788857822008   0.05495587551041524
1.4075856346994968   0.13381788857822008   0.05495587551041524
1.4075856346994968   0.13381788857822008   0.05495587551041524
1.381766511748957   0.021370329709128777   -0.13278388716084538
1.381766511748957   0.021370329709128777   -0.13278388716084538
1.381766511748957   0.021370329709128777   -0.13278388716084538
1.381766511748957   0.021370329709128777   -0.13278388716084538
0.6788383784588866   0.006450085742943784   0.034778052457775085
0.6788383784588866   0.006450085742943784   0.034778052457775085
0.6788383784588866   0.006450085742943784   0.034778052457775085
0.6788383784588866   0.006450085742943784   0.034778052457775085
0.9945819675516245   -0.004007084072580602   -0.00953486210332484
0.9945819675516245   -0.004007084072580602   -0.00953486210332484
0.9945819675516245   -0.004007084072580602   -0.00953486210332484
0.9945819675516245   -0.004007084072580602   -0.00953486210332484
0.6260555657094009   -0.1231268893132971   -0.09955903623341843
0.6260555657094009   -0.1231268893132971   -0.09955903623341843
0.6260555657094009   -0.1231268893132971   -0.09955903623341843
0.6260555657094009   -0.1231268893132971   -0.09955903623341843
1.4432555290168712   0.15965350928379587   0.03637801960406626
1.4432555290168712   0.15965350928379587   0.03637801960406626
1.4432555290168712   0.15965350928379587   0.03637801960406626
1.4432555290168712   0.15965350928379587   0.03637801960406626
1.434132418038512   0.09306488124730208   -0.12486846528999476
1.434132418038512   0.09306488124730208   -0.12486846528999476
1.434132418038512   0.09306488124730208   -0.12486846528999476
1.434132418038512   0.09306488124730208   -0.12486846528999476
0.681058081150783   0.05291708799174159   0.025384008076618055
0.681058081150783   0.05291708799174159   0.025384008076618055
0.681058081150783   0.05291708799174159   0.025384008076618055
0.681058081150783   0.05291708799174159   0.025384008076618055
1.0018475190090845   0.030058063117347267   0.014402445759326164
1.0018475190090845   0.030058063117347267   0.014402445759326164
1.0018475190090845   0.030058063117347267   0.014402445759326164
1.0018475190090845   0.030058063117347267   0.014402445759326164
-1.5821227805222173   -0.0517982433713321   0.10306984678816682
-1.5821227805222173   -0.0517982433713321   0.10306984678816682
-1.5821227805222173   -0.0517982433713321   0.10306984678816682
-1.5821227805222173   -0.0517982433713321   0.10306984678816682
-1.1065305364277531   -0.07380435580867123   -0.038954395614491086
-1.1065305364277531   -0.07380435580867123   -0.038954395614491086
-1.1065305364277531   -0.07380435580867123   -0.038954395614491086
-1.1065305364277531   -0.07380435580867123   -0.038954395614491086
-1.0415761028898711   0.10440868172698714   0.08790222819968163
-1.0415761028898711   0.10440868172698714   0.08790222819968163
-1.0415761028898711   0.10440868172698714   0.08790222819968163
-1.0415761028898711   0.10440868172698714   0.08790222819968163
-1.582250905031415   -0.13021441885296278   -0.05697550535233976
-1.582250905031415   -0.13021441885296278   -0.05697550535233976
-1.582250905031415   -0.13021441885296278   -0.05697550535233976
-1.582250905031415   -0.13021441885296278   -0.05697550535233976
-1.2736865304598963   -0.020324377553528006   -0.002719086656391756
-1.2736865304598963   -0.020324377553528006   -0.002719086656391756
-1.2736865304598963   -0.020324377553528006   -0.002719086656391756
-1.2736865304598963   -0.020324377553528006   -0.002719086656391756
-1.523177177662543   0.01011980305027338   0.09805890958878455
-1.523177177662543   0.01011980305027338   0.09805890958878455
-1.523177177662543   0.01011980305027338   0.09805890958878455
-1.523177177662543   0.01011980305027338   0.09805890958878455
-1.0958457173066236   -0.031121427224127834   -0.04791573493295657
-1.0958457173066236   -0.031121427224127834   -0.04791573493295657
-1.0958457173066236   -0.031121427224127834   -0.04791573493295657
-1.0958457173066236   -0.031121427224127834   -0.04791573493295657
-1.0317708417248388   0.1261060663799441   0.07429504310753512
-1.0317708417248388   0.1261060663799441   0.07429504310753512
-1.0317708417248388   0.1261060663799441   0.07429504310753512
-1.0317708417248388   0.1261060663799441   0.07429504310753512
-1.5448608090931224   -0.1060311175341086   -0.07204033484943002
-1.5448608090931224   -0.1060311175341086   -0.07204033484943002
-1.5448608090931224   -0.1060311175341086   -0.07204033484943002
-1.5448608090931224   -0.1060311175341086   -0.07204033484943002
-1.2648255971386955   0.008299628938509995   0.013425304620075379
-1.2648255971386955   0.008299628938509995   0.013425304620075379
-1.2648255971386955   0.008299628938509995   0.013425304620075379
-1.2648255971386955   0.008299628938509995   0.013425304620075379
-1.4862852399660778   0.03608788063377166   0.07871851261791188
-1.4862852399660778   0.03608788063377166   0.07871851261791188
-1.4862852399660778   0.03608788063377166   0.07871851261791188
-1.4862852399660778   0.03608788063377166   0.07871851261791188
-1.086001363613557   -0.011667884549608487   -0.05908361540649491
-1.086001363613557   -0.011667884549608487   -0.05908361540649491
-1.086001363613557   -0.011667884549608487   -0.05908361540649491
-1.086001363613557   -0.011667884549608487   -0.05908361540649491
-1.0263396659489161   0.14720183047139468   0.06393272598104396
-1.0263396659489161   0.14720183047139468   0.06393272598104396
-1.0263396659489161   0.14720183047139468   0.06393272598104396
-1.0263396659489161   0.14720183047139468   0.06393272598104396
-1.4947651018435535   -0.07407343845089187   -0.08626122880415626
-1.4947651018435535   -0.07407343845089187   -0.08626122880415626
-1.4947651018435535   -0.07407343845089187   -0.08626122880415626
-1.4947651018435535   -0.07407343845089187   -0.08626122880415626
-1.217393252154092   0.03510436914342202   0.03609380668696828
-1.217393252154092   0.03510436914342202   0.03609380668696828
-1.217393252154092   0.03510436914342202   0.03609380668696828
-1.217393252154092   0.03510436914342202   0.03609380668696828
-1.094148966744111   -0.08946401840699794   0.03861311540203661
-1.094148966744111   -0.08946401840699794   0.03861311540203661
-1.094148966744111   -0.08946401840699794   0.03861311540203661
-1.094148966744111   -0.08946401840699794   0.03861311540203661
-0.6340677211957886   -0.04782669000905451   -0.006285489021864453
-0.6340677211957886   -0.04782669000905451   -0.006285489021864453
-0.6340677211957886   -0.04782669000905451   -0.006285489021864453
-0.6340677211957886   -0.04782669000905451   -0.006285489021864453
-0.6018599417006861   0.061031315645493356   0.047396330264176466
-0.6018599417006861   0.061031315645493356   0.047396330264176466
-0.6018599417006861   0.061031315645493356   0.047396330264176466
-0.6018599417006861   0.061031315645493356   0.047396330264176466
-1.1105846058411497   -0.1064393887452392   -0.04629221608448399
-1.1105846058411497   -0.1064393887452392   -0.04629221608448399
-1.1105846058411497   -0.1064393887452392   -0.04629221608448399
-1.1105846058411497   -0.1064393887452392   -0.04629221608448399
-0.8566933309231713   -0.041801061211252905   -0.017453305073003716
-0.8566933309231713   -0.041801061211252905   -0.017453305073003716
-0.8566933309231713   -0.041801061211252905   -0.017453305073003716
-0.8566933309231713   -0.041801061211252905   -0.017453305073003716
-1.0813336398309734   -0.038031704157637986   0.03155492937879179
-1.0813336398309734   -0.038031704157637986   0.03155492937879179
-1.0813336398309734   -0.038031704157637986   0.03155492937879179
-1.0813336398309734   -0.038031704157637986   0.03155492937879179
-0.6273595386292069   -0.003624999860445427   -0.01544533887248855
-0.6273595386292069   -0.003624999860445427   -0.01544533887248855
-0.6273595386292069   -0.003624999860445427   -0.01544533887248855
-0.6273595386292069   -0.003624999860445427   -0.01544533887248855
-0.5942033722736976   0.10551789779095483   0.03886524077704215
-0.5942033722736976   0.10551789779095483   0.03886524077704215
-0.5942033722736976   0.10551789779095483   0.03886524077704215
-0.5942033722736976   0.10551789779095483   0.03886524077704215
-1.0956477952589827   -0.06444316092053023   -0.054540497262708855
-1.0956477952589827   -0.06444316092053023   -0.054540497262708855
-1.0956477952589827   -0.06444316092053023   -0.054540497262708855
-1.0956477952589827   -0.06444316092053023   -0.054540497262708855
-0.8402456508177607   0.0019412102925527308   0.0013371495958131377
-0.8402456508177607   0.0019412102925527308   0.0013371495958131377
-0.8402456508177607   0.0019412102925527308   0.0013371495958131377
-0.8402456508177607   0.0019412102925527308   0.0013371495958131377
-1.0641828992562512   0.009514257170932516   0.028826564659484494
-1.0641828992562512   0.009514257170932516   0.028826564659484494
-1.0641828992562512   0.009514257170932516   0.028826564659484494
-1.0641828992562512   0.009514257170932516   0.028826564659484494
-0.6210096620088095   0.03621908596711712   -0.02586739607467583
-0.6210096620088095   0.03621908596711712   -0.02586739607467583
-0.6210096620088095   0.03621908596711712   -0.02586739607467583
-0.6210096620088095   0.03621908596711712   -0.02586739607467583
-0.5868061903109616   0.1529077159157219   0.03092078511097357
-0.5868061903109616   0.1529077159157219   0.03092078511097357
-0.5868061903109616   0.1529077159157219   0.03092078511097357
-0.5868061903109616   0.1529077159157219   0.03092078511097357
-1.0844628082402483   -0.019199022985248865   -0.060282132018961244
-1.0844628082402483   -0.019199022985248865   -0.060282132018961244
-1.0844628082402483   -0.019199022985248865   -0.060282132018961244
-1.0844628082402483   -0.019199022985248865   -0.060282132018961244
-0.8338800678299013   0.04308471611764367   0.019224458640116064
-0.8338800678299013   0.04308471611764367   0.019224458640116064
-0.8338800678299013   0.04308471611764367   0.019224458640116064
-0.8338800678299013   0.04308471611764367   0.019224458640116064
-0.6474856840540147   -0.12272242665538913   0.0015204333333334794
-0.6474856840540147   -0.12272242665538913   0.0015204333333334794
-0.6474856840540147   -0.12272242665538913   0.0015204333333334794
-0.6474856840540147   -0.12272242665538913   0.0015204333333334794
-0.16651818609249716   -0.014233556360461256   0.026407867166989694
-0.16651818609249716   -0.014233556360461256   0.026407867166989694
-0.16651818609249716   -0.014233556360461256   0.026407867166989694
-0.16651818609249716   -0.014233556360461256   0.026407867166989694
-0.16241332127675803   0.025275219009950133   0.009005615009118466
-0.16241332127675803   0.025275219009950133   0.009005615009118466
-0.16241332127675803   0.025275219009950133   0.009005615009118466
-0.16241332127675803   0.025275219009950133   0.009005615009118466
-0.6403816819832133   -0.07183176027119291   -0.012349295231777076
-0.6403816819832133   -0.07183176027119291   -0.012349295231777076
-0.6403816819832133   -0.07183176027119291   -0.012349295231777076
-0.6403816819832133   -0.07183176027119291   -0.012349295231777076
-0.4048869760045832   -0.04392052394755576   -0.01239964540629316
-0.4048869760045832   -0.04392052394755576   -0.01239964540629316
-0.4048869760045832   -0.04392052394755576   -0.01239964540629316
-0.4048869760045832   -0.04392052394755576   -0.01239964540629316
-0.6393396632203913   -0.07308780393197678   -0.005883157756882916
-0.6393396632203913   -0.07308780393197678   -0.005883157756882916
-0.6393396632203913   -0.07308780393197678   -0.005883157756882916
-0.6393396632203913   -0.07308780393197678   -0.005883157756882916
-0.1596945939313232   0.03029200877899091   0.017582461967251935
-0.1596945939313232   0.03029200877899091   0.017582461967251935
-0.1596945939313232   0.03029200877899091   0.017582461967251935
-0.1596945939313232   0.03029200877899091   0.017582461967251935
-0.15316876173176494   0.07513351328478536   0.0023633798839063774
-0.15316876173176494   0.07513351328478536   0.0023633798839063774
-0.15316876173176494   0.07513351328478536   0.0023633798839063774
-0.15316876173176494   0.07513351328478536   0.0023633798839063774
-0.6327179393325602   -0.02699806473770519   -0.02119163198861116
-0.6327179393325602   -0.02699806473770519   -0.02119163198861116
-0.6327179393325602   -0.02699806473770519   -0.02119163198861116
-0.6327179393325602   -0.02699806473770519   -0.02119163198861116
-0.39501358804964826   0.0008910874486873499   0.005306697458804882
-0.39501358804964826   0.0008910874486873499   0.005306697458804882
-0.39501358804964826   0.0008910874486873499   0.005306697458804882
-0.39501358804964826   0.0008910874486873499   0.005306697458804882
-0.6303680361957806   -0.023389211494402207   -0.01305096954801583
-0.6303680361957806   -0.023389211494402207   -0.01305096954801583
-0.6303680361957806   -0.023389211494402207   -0.01305096954801583
-0.6303680361957806   -0.023389211494402207   -0.01305096954801583
-0.15204644371172518   0.07499688119830203   0.008111602070589849
-0.15204644371172518   0.07499688119830203   0.008111602070589849
-0.15204644371172518   0.07499688119830203   0.008111602070589849
-0.15204644371172518   0.07499688119830203   0.008111602070589849
-0.14487800000552514   0.12571488199808187   -0.005448864670660844
-0.14487800000552514   0.12571488199808187   -0.005448864670660844
-0.14487800000552514   0.12571488199808187   -0.005448864670660844
-0.14487800000552514   0.12571488199808187   -0.005448864670660844
-0.6259876611845565   0.01835663313497249   -0.030435486476254166
-0.6259876611845565   0.01835663313497249   -0.030435486476254166
-0.6259876611845565   0.01835663313497249   -0.030435486476254166
-0.6259876611845565   0.01835663313497249   -0.030435486476254166
-0.3859985970792512   0.04591738820814113   0.022364953887050544
-0.3859985970792512   0.04591738820814113   0.022364953887050544
-0.3859985970792512   0.04591738820814113   0.022364953887050544
-0.3859985970792512   0.04591738820814113   0.022364953887050544
-0.20589923284868705   -0.14998692655597023   -0.034743996418452175
-0.20589923284868705   -0.14998692655597023   -0.034743996418452175
-0.20589923284868705   -0.14998692655597023   -0.034743996418452175
-0.20589923284868705   -0.14998692655597023   -0.034743996418452175
0.2949300253836192   0.023444795735714584   0.057271308208147034
0.2949300253836192   0.023444795735714584   0.057271308208147034
0.2949300253836192   0.023444795735714584   0.057271308208147034
0.2949300253836192   0.023444795735714584   0.057271308208147034
0.2744711803508289   -0.00799026924301223   -0.03187729650529676
0.2744711803508289   -0.00799026924301223   -0.03187729650529676
0.2744711803508289   -0.00799026924301223   -0.03187729650529676
0.2744711803508289   -0.00799026924301223   -0.03187729650529676
-0.17200228717873037   -0.03485146142719097   0.02118746593639788
-0.17200228717873037   -0.03485146142719097   0.02118746593639788
-0.17200228717873037   -0.03485146142719097   0.02118746593639788
-0.17200228717873037   -0.03485146142719097   0.02118746593639788
0.04600764254257506   -0.041172217278117956   -0.008822616682791959
0.04600764254257506   -0.041172217278117956   -0.008822616682791959
0.04600764254257506   -0.041172217278117956   -0.008822616682791959
0.04600764254257506   -0.041172217278117956   -0.008822616682791959
-0.19878238021141764   -0.10481534515437337   -0.042749115499855904
-0.19878238021141764   -0.10481534515437337   -0.042749115499855904
-0.19878238021141764   -0.10481534515437337   -0.042749115499855904
-0.19878238021141764   -0.10481534515437337   -0.042749115499855904
0.3057272895278898   0.0664496306285479   0.04996334950844142
0.3057272895278898   0.0664496306285479   0.04996334950844142
0.3057272895278898   0.0664496306285479   0.04996334950844142
0.3057272895278898   0.0664496306285479   0.04996334950844142
0.2916630251261326   0.0391718721068193   -0.03611266093600062
0.2916630251261326   0.0391718721068193   -0.03611266093600062
0.2916630251261326   0.0391718721068193   -0.03611266093600062
0.2916630251261326   0.0391718721068193   -0.03611266093600062
-0.16533032585007107   0.005243465624548603   0.011445606952613901
-0.16533032585007107   0.005243465624548603   0.011445606952613901
-0.16533032585007107   0.005243465624548603   0.011445606952613901
-0.16533032585007107   0.005243465624548603   0.011445606952613901
0.0551469271593634   -0.0005496637158097818   0.009186580012894408
0.0551469271593634   -0.0005496637158097818   0.009186580012894408
0.0551469271593634   -0.0005496637158097818   0.009186580012894408
0.0551469271593634   -0.0005496637158097818   0.009186580012894408
-0.19117416757288694   -0.06056588454430667   -0.051964251492610906
-0.19117416757288694   -0.06056588454430667   -0.051964251492610906
-0.19117416757288694   -0.06056588454430667   -0.051964251492610906
-0.19117416757288694   -0.06056588454430667   -0.051964251492610906
0.3213883499131609   0.1088627053398811   0.042823129766075135
0.3213883499131609   0.1088627053398811   0.042823129766075135
0.3213883499131609   0.1088627053398811   0.042823129766075135
0.3213883499131609   0.1088627053398811   0.042823129766075135
0.30550351685455657   0.09294137899757646   -0.04172204658146027
0.30550351685455657   0.09294137899757646   -0.04172204658146027
0.30550351685455657   0.09294137899757646   -0.04172204658146027
0.30550351685455657   0.09294137899757646   -0.04172204658146027
-0.15819880678259443   0.05148352518776453   0.0021784582543084956
-0.15819880678259443   0.05148352518776453   0.0021784582543084956
-0.15819880678259443   0.05148352518776453   0.0021784582543084956
-0.15819880678259443   0.05148352518776453   0.0021784582543084956
0.0692829176250769   0.04366189718305877   0.027842759801394393
0.0692829176250769   0.04366189718305877   0.027842759801394393
0.0692829176250769   0.04366189718305877   0.027842759801394393
0.0692829176250769   0.04366189718305877   0.027842759801394393
0.2347687456654736   -0.15155880421091394   -0.06853149043594817
0.2347687456654736   -0.15155880421091394   -0.06853149043594817
0.2347687456654736   -0.15155880421091394   -0.06853149043594817
0.2347687456654736   -0.15155880421091394   -0.06853149043594817
0.7053801767379226   0.06949106728265489   0.07411260872591385
0.7053801767379226   0.06949106728265489   0.07411260872591385
0.7053801767379226   0.06949106728265489   0.07411260872591385
0.7053801767379226   0.06949106728265489   0.07411260872591385
0.698386459609752   -0.03705558887631963   -0.09021233667253849
0.698386459609752   -0.03705558887631963   -0.09021233667253849
0.698386459609752   -0.03705558887631963   -0.09021233667253849
0.698386459609752   -0.03705558887631963   -0.09021233667253849
0.29600324971768743   0.012496489298468194   0.055296291787511415
0.29600324971768743   0.012496489298468194   0.055296291787511415
0.29600324971768743   0.012496489298468194   0.055296291787511415
0.29600324971768743   0.012496489298468194   0.055296291787511415
0.4584306167731189   -0.031288538678979724   -0.02416430475606897
0.4584306167731189   -0.031288538678979724   -0.02416430475606897
0.4584306167731189   -0.031288538678979724   -0.02416430475606897
0.4584306167731189   -0.031288538678979724   -0.02416430475606897
0.24133575559878112   -0.12627683353809677   -0.07926785597045338
0.24133575559878112   -0.12627683353809677   -0.07926785597045338
0.24133575559878112   -0.12627683353809677   -0.07926785597045338
0.24133575559878112   -0.12627683353809677   -0.07926785597045338
0.7576175962747107   0.10628137650629557   0.06260638126965559
0.7576175962747107   0.10628137650629557   0.06260638126965559
0.7576175962747107   0.10628137650629557   0.06260638126965559
0.7576175962747107   0.10628137650629557   0.06260638126965559
0.7363862446327707   -0.010630695372450455   -0.10817371929306482
0.7363862446327707   -0.010630695372450455   -0.10817371929306482
0.7363862446327707   -0.010630695372450455   -0.10817371929306482
0.7363862446327707   -0.010630695372450455   -0.10817371929306482
0.30604287622167264   0.03185160493918867   0.04310686170932614
0.30604287622167264   0.03185160493918867   0.04310686170932614
0.30604287622167264   0.03185160493918867   0.04310686170932614
0.30604287622167264   0.03185160493918867   0.04310686170932614
0.496856179398956   -0.004653691618055053   -0.0029376662358122398
0.496856179398956   -0.004653691618055053   -0.0029376662358122398
0.496856179398956   -0.004653691618055053   -0.0029376662358122398
0.496856179398956   -0.004653691618055053   -0.0029376662358122398
0.25181125149322314   -0.10429240128374206   -0.09190725570999066
0.25181125149322314   -0.10429240128374206   -0.09190725570999066
0.25181125149322314   -0.10429240128374206   -0.09190725570999066
0.25181125149322314   -0.10429240128374206   -0.09190725570999066
0.7953715169998767   0.1302669584891419   0.04585498868088827
0.7953715169998767   0.1302669584891419   0.04585498868088827
0.7953715169998767   0.1302669584891419   0.04585498868088827
0.7953715169998767   0.1302669584891419   0.04585498868088827
0.7947126257208044   0.047415565320876   -0.1157781498477311
0.7947126257208044   0.047415565320876   -0.1157781498477311
0.7947126257208044   0.047415565320876   -0.1157781498477311
0.7947126257208044   0.047415565320876   -0.1157781498477311
0.3163185747498407   0.07104832352258503   0.034246298369951876
0.3163185747498407   0.07104832352258503   0.034246298369951876
0.3163185747498407   0.07104832352258503   0.034246298369951876
0.3163185747498407   0.07104832352258503   0.034246298369951876
0.5159565667581784   0.02471910954882066   0.015313537218992947
0.5159565667581784   0.02471910954882066   0.015313537218992947
0.5159565667581784   0.02471910954882066   0.015313537218992947
0.5159565667581784   0.02471910954882066   0.015313537218992947
-0.9491963121714622   -0.016053096287985735   0.09246767773264543
-0.9491963121714622   -0.016053096287985735   0.09246767773264543
-0.9491963121714622   -0.016053096287985735   0.09246767773264543
-0.9491963121714622   -0.016053096287985735   0.09246767773264543
-0.7397831633556415   -0.09379636683166946   -0.04579457064263874
-0.7397831633556415   -0.09379636683166946   -0.04579457064263874
-0.7397831633556415   -0.09379636683166946   -0.04579457064263874
-0.7397831633556415   -0.09379636683166946   -0.04579457064263874
-0.6696590766725883   0.07951583478013818   0.07908393445430761
-0.6696590766725883   0.07951583478013818   0.07908393445430761
-0.6696590766725883   0.07951583478013818   0.07908393445430761
-0.6696590766725883   0.07951583478013818   0.07908393445430761
-0.9451570233071868   -0.10293475109210762   -0.06231277116667724
-0.9451570233071868   -0.10293475109210762   -0.06231277116667724
-0.9451570233071868   -0.10293475109210762   -0.06231277116667724
-0.9451570233071868   -0.10293475109210762   -0.06231277116667724
-0.7943090324024904   -0.021893154374990065   -0.011596437931899725
-0.7943090324024904   -0.021893154374990065   -0.011596437931899725
-0.7943090324024904   -0.021893154374990065   -0.011596437931899725
-0.7943090324024904   -0.021893154374990065   -0.011596437931899725
-0.8868503227005302   0.037931662365489865   0.08835431840900806
-0.8868503227005302   0.037931662365489865   0.08835431840900806
-0.8868503227005302   0.037931662365489865   0.08835431840900806
-0.8868503227005302   0.037931662365489865   0.08835431840900806
-0.7239203336630302   -0.05730513506124413   -0.055401380656516404
-0.7239203336630302   -0.05730513506124413   -0.055401380656516404
-0.7239203336630302   -0.05730513506124413   -0.055401380656516404
-0.7239203336630302   -0.05730513506124413   -0.055401380656516404
-0.6530125489704961   0.10012670655846731   0.06690052549079256
-0.6530125489704961   0.10012670655846731   0.06690052549079256
-0.6530125489704961   0.10012670655846731   0.06690052549079256
-0.6530125489704961   0.10012670655846731   0.06690052549079256
-0.9018086776471145   -0.07958032773760348   -0.07787133638579723
-0.9018086776471145   -0.07958032773760348   -0.07787133638579723
-0.9018086776471145   -0.07958032773760348   -0.07787133638579723
-0.9018086776471145   -0.07958032773760348   -0.07787133638579723
-0.7716495279190346   0.005092636806913187   0.0056144197103620355
-0.7716495279190346   0.005092636806913187   0.0056144197103620355
-0.7716495279190346   0.005092636806913187   0.0056144197103620355
-0.7716495279190346   0.005092636806913187   0.0056144197103620355
-0.8434493857723847   0.06294016095831467   0.07140463429191804
-0.8434493857723847   0.06294016095831467   0.07140463429191804
-0.8434493857723847   0.06294016095831467   0.07140463429191804
-0.8434493857723847   0.06294016095831467   0.07140463429191804
-0.707540451702077   -0.03856239299430403   -0.06704988861433725
-0.707540451702077   -0.03856239299430403   -0.06704988861433725
-0.707540451702077   -0.03856239299430403   -0.06704988861433725
-0.707540451702077   -0.03856239299430403   -0.06704988861433725
-0.639518922804186   0.12576805526132684   0.057700060717569446
-0.639518922804186   0.12576805526132684   0.057700060717569446
-0.639518922804186   0.12576805526132684   0.057700060717569446
-0.639518922804186   0.12576805526132684   0.057700060717569446
-0.8435666310502719   -0.04219641814600872   -0.09012483957522532
-0.8435666310502719   -0.04219641814600872   -0.09012483957522532
-0.8435666310502719   -0.04219641814600872   -0.09012483957522532
-0.8435666310502719   -0.04219641814600872   -0.09012483957522532
-0.7258904860551628   0.031684960137018936   0.026981193206822636
-0.7258904860551628   0.031684960137018936   0.026981193206822636
-0.7258904860551628   0.031684960137018936   0.026981193206822636
-0.7258904860551628   0.031684960137018936   0.026981193206822636
-0.7139176023821824   -0.05382682913614087   0.043563696529128386
-0.7139176023821824   -0.05382682913614087   0.043563696529128386
-0.7139176023821824   -0.05382682913614087   0.043563696529128386
-0.7139176023821824   -0.05382682913614087   0.043563696529128386
-0.5235836505079735   -0.07112270649194863   -0.013561893397373024
-0.5235836505079735   -0.07112270649194863   -0.013561893397373024
-0.5235836505079735   -0.07112270649194863   -0.013561893397373024
-0.5235836505079735   -0.07112270649194863   -0.013561893397373024
-0.4844586832079876   0.03612976074353265   0.040427608726213184
-0.4844586832079876   0.03612976074353265   0.040427608726213184
-0.4844586832079876   0.03612976074353265   0.040427608726213184
-0.4844586832079876   0.03612976074353265   0.040427608726213184
-0.7244124701197872   -0.07600503281033638   -0.03916216519120127
-0.7244124701197872   -0.07600503281033638   -0.03916216519120127
-0.7244124701197872   -0.07600503281033638   -0.03916216519120127
-0.7244124701197872   -0.07600503281033638   -0.03916216519120127
-0.6098905531854807   -0.03796715297344505   -0.016394417877591057
-0.6098905531854807   -0.03796715297344505   -0.016394417877591057
-0.6098905531854807   -0.03796715297344505   -0.016394417877591057
-0.6098905531854807   -0.03796715297344505   -0.016394417877591057
-0.6953062367957845   -0.006710398329647788   0.03707436694810801
-0.6953062367957845   -0.006710398329647788   0.03707436694810801
-0.6953062367957845   -0.006710398329647788   0.03707436694810801
-0.6953062367957845   -0.006710398329647788   0.03707436694810801
-0.51030190903473   -0.029901866239898378   -0.02275689342406837
-0.51030190903473   -0.029901866239898378   -0.02275689342406837
-0.51030190903473   -0.029901866239898378   -0.02275689342406837
-0.51030190903473   -0.029901866239898378   -0.02275689342406837
-0.4701006263293144   0.0780423552394449   0.03233991460746801
-0.4701006263293144   0.0780423552394449   0.03233991460746801
-0.4701006263293144   0.0780423552394449   0.03233991460746801
-0.4701006263293144   0.0780423552394449   0.03233991460746801
-0.7029324085772086   -0.035691081130990315   -0.046880984853301326
-0.7029324085772086   -0.035691081130990315   -0.046880984853301326
-0.7029324085772086   -0.035691081130990315   -0.046880984853301326
-0.7029324085772086   -0.035691081130990315   -0.046880984853301326
-0.58914572817814   0.002462935546580808   0.001713978322944329
-0.58914572817814   0.002462935546580808   0.001713978322944329
-0.58914572817814   0.002462935546580808   0.001713978322944329
-0.58914572817814   0.002462935546580808   0.001713978322944329
-0.6721186804754019   0.03789173032806156   0.03360484419666939
-0.6721186804754019   0.03789173032806156   0.03360484419666939
-0.6721186804754019   0.03789173032806156   0.03360484419666939
-0.6721186804754019   0.03789173032806156   0.03360484419666939
-0.4971472681411199   0.008226630070381519   -0.033077569282500115
-0.4971472681411199   0.008226630070381519   -0.033077569282500115
-0.4971472681411199   0.008226630070381519   -0.033077569282500115
-0.4971472681411199   0.008226630070381519   -0.033077569282500115
-0.4557889613617132   0.12351953975678581   0.024636834812677165
-0.4557889613617132   0.12351953975678581   0.024636834812677165
-0.4557889613617132   0.12351953975678581   0.024636834812677165
-0.4557889613617132   0.12351953975678581   0.024636834812677165
-0.6851881785269511   0.008323993954607173   -0.05320215658952984
-0.6851881785269511   0.008323993954607173   -0.05320215658952984
-0.6851881785269511   0.008323993954607173   -0.05320215658952984
-0.6851881785269511   0.008323993954607173   -0.05320215658952984
-0.574138411444258   0.04207748573058753   0.01941910702852402
-0.574138411444258   0.04207748573058753   0.01941910702852402
-0.574138411444258   0.04207748573058753   0.01941910702852402
-0.574138411444258   0.04207748573058753   0.01941910702852402
-0.5229736170768566   -0.08927758544790071   0.007643152714151926
-0.5229736170768566   -0.08927758544790071   0.007643152714151926
-0.5229736170768566   -0.08927758544790071   0.007643152714151926
-0.5229736170768566   -0.08927758544790071   0.007643152714151926
-0.31034341522102527   -0.037445438531996236   0.019229676835349013
-0.31034341522102527   -0.037445438531996236   0.019229676835349013
-0.31034341522102527   -0.037445438531996236   0.019229676835349013
-0.31034341522102527   -0.037445438531996236   0.019229676835349013
-0.2996420327566378   -0.0007166766232058475   0.0024864737816134228
-0.2996420327566378   -0.0007166766232058475   0.0024864737816134228
-0.2996420327566378   -0.0007166766232058475   0.0024864737816134228
-0.2996420327566378   -0.0007166766232058475   0.0024864737816134228
-0.5088278686597552   -0.040751968383126794   -0.004536589405964974
-0.5088278686597552   -0.040751968383126794   -0.004536589405964974
-0.5088278686597552   -0.040751968383126794   -0.004536589405964974
-0.5088278686597552   -0.040751968383126794   -0.004536589405964974
-0.4110984723300327   -0.040083129391026394   -0.01193401263505353
-0.4110984723300327   -0.040083129391026394   -0.01193401263505353
-0.4110984723300327   -0.040083129391026394   -0.01193401263505353
-0.4110984723300327   -0.040083129391026394   -0.01193401263505353
-0.5082262845584731   -0.0428224576636939   0.0005418203810085079
-0.5082262845584731   -0.0428224576636939   0.0005418203810085079
-0.5082262845584731   -0.0428224576636939   0.0005418203810085079
-0.5082262845584731   -0.0428224576636939   0.0005418203810085079
-0.29699906780374863   0.004598361711531815   0.01038626021132161
-0.29699906780374863   0.004598361711531815   0.01038626021132161
-0.29699906780374863   0.004598361711531815   0.01038626021132161
-0.29699906780374863   0.004598361711531815   0.01038626021132161
-0.28405100395069316   0.04615021289365251   -0.004117179213689745
-0.28405100395069316   0.04615021289365251   -0.004117179213689745
-0.28405100395069316   0.04615021289365251   -0.004117179213689745
-0.28405100395069316   0.04615021289365251   -0.004117179213689745
-0.494444198671053   0.0018911552013078092   -0.01322674706309171
-0.494444198671053   0.0018911552013078092   -0.01322674706309171
-0.494444198671053   0.0018911552013078092   -0.01322674706309171
-0.494444198671053   0.0018911552013078092   -0.01322674706309171
-0.3946554622776863   0.002060591265049455   0.005623521804137208
-0.3946554622776863   0.002060591265049455   0.005623521804137208
-0.3946554622776863   0.002060591265049455   0.005623521804137208
-0.3946554622776863   0.002060591265049455   0.005623521804137208
-0.4927315979262742   0.0039025102614123064   -0.006675098399309735
-0.4927315979262742   0.0039025102614123064   -0.006675098399309735
-0.4927315979262742   0.0039025102614123064   -0.006675098399309735
-0.4927315979262742   0.0039025102614123064   -0.006675098399309735
-0.28282965337367805   0.04707280915534119   0.0010669774097002219
-0.28282965337367805   0.04707280915534119   0.0010669774097002219
-0.28282965337367805   0.04707280915534119   0.0010669774097002219
-0.28282965337367805   0.04707280915534119   0.0010669774097002219
-0.26932553294617484   0.09344524757782038   -0.011654542500396402
-0.26932553294617484   0.09344524757782038   -0.011654542500396402
-0.26932553294617484   0.09344524757782038   -0.011654542500396402
-0.26932553294617484   0.09344524757782038   -0.011654542500396402
-0.4809496340433921   0.04486364969841802   -0.022510638537347236
-0.4809496340433921   0.04486364969841802   -0.022510638537347236
-0.4809496340433921   0.04486364969841802   -0.022510638537347236
-0.4809496340433921   0.04486364969841802   -0.022510638537347236
-0.379099377275262   0.04435543052556448   0.02247481903595234
-0.379099377275262   0.04435543052556448   0.02247481903595234
-0.379099377275262   0.04435543052556448   0.02247481903595234
-0.379099377275262   0.04435543052556448   0.02247481903595234
-0.3364550852366212   -0.12003442532074113   -0.028739686453891092
-0.3364550852366212   -0.12003442532074113   -0.028739686453891092
-0.3364550852366212   -0.12003442532074113   -0.028739686453891092
-0.3364550852366212   -0.12003442532074113   -0.028739686453891092
-0.10298802790198892   -0.0016858330729295837   0.050427182620606664
-0.10298802790198892   -0.0016858330729295837   0.050427182620606664
-0.10298802790198892   -0.0016858330729295837   0.050427182620606664
-0.10298802790198892   -0.0016858330729295837   0.050427182620606664
-0.11722531613673828   -0.0355242752652975   -0.03695357429612686
-0.11722531613673828   -0.0355242752652975   -0.03695357429612686
-0.11722531613673828   -0.0355242752652975   -0.03695357429612686
-0.11722531613673828   -0.0355242752652975   -0.03695357429612686
-0.2951450332431161   -0.0045863718427640796   0.028841166568777284
-0.2951450332431161   -0.0045863718427640796   0.028841166568777284
-0.2951450332431161   -0.0045863718427640796   0.028841166568777284
-0.2951450332431161   -0.0045863718427640796   0.028841166568777284
-0.2129274044107641   -0.038690725932676   -0.008611028743872314
-0.2129274044107641   -0.038690725932676   -0.008611028743872314
-0.2129274044107641   -0.038690725932676   -0.008611028743872314
-0.2129274044107641   -0.038690725932676   -0.008611028743872314
-0.3225581908150758   -0.07646861164040922   -0.036342381493378616
-0.3225581908150758   -0.07646861164040922   -0.036342381493378616
-0.3225581908150758   -0.07646861164040922   -0.036342381493378616
-0.3225581908150758   -0.07646861164040922   -0.036342381493378616
-0.08617600597323201   0.0399941171238941   0.0427745841322148
-0.08617600597323201   0.0399941171238941   0.0427745841322148
-0.08617600597323201   0.0399941171238941   0.0427745841322148
-0.08617600597323201   0.0399941171238941   0.0427745841322148
-0.09444766085317097   0.008811004056982957   -0.04159936588208372
-0.09444766085317097   0.008811004056982957   -0.04159936588208372
-0.09444766085317097   0.008811004056982957   -0.04159936588208372
-0.09444766085317097   0.008811004056982957   -0.04159936588208372
-0.28187015829404655   0.0337040768268676   0.019233185136328407
-0.28187015829404655   0.0337040768268676   0.019233185136328407
-0.28187015829404655   0.0337040768268676   0.019233185136328407
-0.28187015829404655   0.0337040768268676   0.019233185136328407
-0.1954453166422806   0.0005528526303049952   0.00927917918720417
-0.1954453166422806   0.0005528526303049952   0.00927917918720417
-0.1954453166422806   0.0005528526303049952   0.00927917918720417
-0.1954453166422806   0.0005528526303049952   0.00927917918720417
-0.30841347743595326   -0.03468179402702081   -0.04509753971932033
-0.30841347743595326   -0.03468179402702081   -0.04509753971932033
-0.30841347743595326   -0.03468179402702081   -0.04509753971932033
-0.30841347743595326   -0.03468179402702081   -0.04509753971932033
-0.06451972237423946   0.08058149424789557   0.036269836321661156
-0.06451972237423946   0.08058149424789557   0.036269836321661156
-0.06451972237423946   0.08058149424789557   0.036269836321661156
-0.06451972237423946   0.08058149424789557   0.036269836321661156
-0.07517873217135676   0.058332586370197496   -0.046596310444764366
-0.07517873217135676   0.058332586370197496   -0.046596310444764366
-0.07517873217135676   0.058332586370197496   -0.046596310444764366
-0.07517873217135676   0.058332586370197496   -0.046596310444764366
-0.26828051491866617   0.07704462662110997   0.009971168593857112
-0.26828051491866617   0.07704462662110997   0.009971168593857112
-0.26828051491866617   0.07704462662110997   0.009971168593857112
-0.26828051491866617   0.07704462662110997   0.009971168593857112
-0.1773385366412079   0.04147837487104392   0.02717795444220966
-0.1773385366412079   0.04147837487104392   0.02717795444220966
-0.1773385366412079   0.04147837487104392   0.02717795444220966
-0.1773385366412079   0.04147837487104392   0.02717795444220966
-0.15104342696442463   -0.12910275362991502   -0.062432892134588414
-0.15104342696442463   -0.12910275362991502   -0.062432892134588414
-0.15104342696442463   -0.12910275362991502   -0.062432892134588414
-0.15104342696442463   -0.12910275362991502   -0.062432892134588414
0.053988296174083364   0.03834289918073885   0.0768355771303589
0.053988296174083364   0.03834289918073885   0.0768355771303589
0.053988296174083364   0.03834289918073885   0.0768355771303589
0.053988296174083364   0.03834289918073885   0.0768355771303589
0.05442773668835356   -0.06340946897188873   -0.0826579865349087
0.05442773668835356   -0.06340946897188873   -0.0826579865349087
0.05442773668835356   -0.06340946897188873   -0.0826579865349087
0.05442773668835356   -0.06340946897188873   -0.0826579865349087
-0.08219204032049506   0.039804152306916356   0.06288437721287539
-0.08219204032049506   0.039804152306916356   0.06288437721287539
-0.08219204032049506   0.039804152306916356   0.06288437721287539
-0.08219204032049506   0.039804152306916356   0.06288437721287539
-0.03297918657437744   -0.02734955663751787   -0.014654290888732047
-0.03297918657437744   -0.02734955663751787   -0.014654290888732047
-0.03297918657437744   -0.02734955663751787   -0.014654290888732047
-0.03297918657437744   -0.02734955663751787   -0.014654290888732047
-0.13698734400645485   -0.09951540465489175   -0.07177258425511543
-0.13698734400645485   -0.09951540465489175   -0.07177258425511543
-0.13698734400645485   -0.09951540465489175   -0.07177258425511543
-0.13698734400645485   -0.09951540465489175   -0.07177258425511543
0.11311131677324135   0.07979836438884737   0.06755208052879406
0.11311131677324135   0.07979836438884737   0.06755208052879406
0.11311131677324135   0.07979836438884737   0.06755208052879406
0.11311131677324135   0.07979836438884737   0.06755208052879406
0.09800386838865201   -0.03801260092817056   -0.09817515979444938
0.09800386838865201   -0.03801260092817056   -0.09817515979444938
0.09800386838865201   -0.03801260092817056   -0.09817515979444938
0.09800386838865201   -0.03801260092817056   -0.09817515979444938
-0.06615846635354274   0.05823195170139106   0.05042565897165128
-0.06615846635354274   0.05823195170139106   0.05042565897165128
-0.06615846635354274   0.05823195170139106   0.05042565897165128
-0.06615846635354274   0.05823195170139106   0.05042565897165128
0.0028875761960960203   -0.0012278009351522454   0.004742310323906146
0.0028875761960960203   -0.0012278009351522454   0.004742310323906146
0.0028875761960960203   -0.0012278009351522454   0.004742310323906146
0.0028875761960960203   -0.0012278009351522454   0.004742310323906146
-0.12021260496781856   -0.07861956676686879   -0.08299351563146998
-0.12021260496781856   -0.07861956676686879   -0.08299351563146998
-0.12021260496781856   -0.07861956676686879   -0.08299351563146998
-0.12021260496781856   -0.07861956676686879   -0.08299351563146998
0.15594843010659454   0.10272934064375569   0.05080570722333712
0.15594843010659454   0.10272934064375569   0.05080570722333712
0.15594843010659454   0.10272934064375569   0.05080570722333712
0.15594843010659454   0.10272934064375569   0.05080570722333712
0.15903588568576887   0.011718146020653944   -0.10512190007563166
0.15903588568576887   0.011718146020653944   -0.10512190007563166
0.15903588568576887   0.011718146020653944   -0.10512190007563166
0.15903588568576887   0.011718146020653944   -0.10512190007563166
-0.05117680113085543   0.09076984117264848   0.04097608995528931
-0.05117680113085543   0.09076984117264848   0.04097608995528931
-0.05117680113085543   0.09076984117264848   0.04097608995528931
-0.05117680113085543   0.09076984117264848   0.04097608995528931
0.03514438475969364   0.02623338982218244   0.02368867177469115
0.03514438475969364   0.02623338982218244   0.02368867177469115
0.03514438475969364   0.02623338982218244   0.02368867177469115
0.03514438475969364   0.02623338982218244   0.02368867177469115
-0.31543980629694923   0.017786190832661572   0.08777486062032411
-0.31543980629694923   0.017786190832661572   0.08777486062032411
-0.31543980629694923   0.017786190832661572   0.08777486062032411
-0.31543980629694923   0.017786190832661572   0.08777486062032411
-0.3738038377403545   -0.1144872155491198   -0.05178619001525593
-0.3738038377403545   -0.1144872155491198   -0.05178619001525593
-0.3738038377403545   -0.1144872155491198   -0.05178619001525593
-0.3738038377403545   -0.1144872155491198   -0.05178619001525593
-0.298434250790881   0.053249223637317274   0.0718843299641107
-0.298434250790881   0.053249223637317274   0.0718843299641107
-0.298434250790881   0.053249223637317274   0.0718843299641107
-0.298434250790881   0.053249223637317274   0.0718843299641107
-0.3062816096087513   -0.07544897975228715   -0.06670800748497095
-0.3062816096087513   -0.07544897975228715   -0.06670800748497095
-0.3062816096087513   -0.07544897975228715   -0.06670800748497095
-0.3062816096087513   -0.07544897975228715   -0.06670800748497095
-0.3152737092313191   -0.02425728632154415   -0.023954481673234294
-0.3152737092313191   -0.02425728632154415   -0.023954481673234294
-0.3152737092313191   -0.02425728632154415   -0.023954481673234294
-0.3152737092313191   -0.02425728632154415   -0.023954481673234294
-0.2484542155976058   0.06522030103903667   0.08175968177943253
-0.2484542155976058   0.06522030103903667   0.08175968177943253
-0.2484542155976058   0.06522030103903667   0.08175968177943253
-0.2484542155976058   0.06522030103903667   0.08175968177943253
-0.3526459272696361   -0.08380433962161621   -0.062120489170731395
-0.3526459272696361   -0.08380433962161621   -0.062120489170731395
-0.3526459272696361   -0.08380433962161621   -0.062120489170731395
-0.3526459272696361   -0.08380433962161621   -0.062120489170731395
-0.2751240999228606   0.07343191010953525   0.060505275125673386
-0.2751240999228606   0.07343191010953525   0.060505275125673386
-0.2751240999228606   0.07343191010953525   0.060505275125673386
-0.2751240999228606   0.07343191010953525   0.060505275125673386
-0.25644033908202646   -0.05263992319091629   -0.0831162691777794
-0.25644033908202646   -0.05263992319091629   -0.0831162691777794
-0.25644033908202646   -0.05263992319091629   -0.0831162691777794
-0.25644033908202646   -0.05263992319091629   -0.0831162691777794
-0.27850225753255636   0.0015373211948007254   -0.00493297827190977
-0.27850225753255636   0.0015373211948007254   -0.00493297827190977
-0.27850225753255636   0.0015373211948007254   -0.00493297827190977
-0.27850225753255636   0.0015373211948007254   -0.00493297827190977
-0.19827026586115162   0.08976704720323174   0.06532712653244681
-0.19827026586115162   0.08976704720323174   0.06532712653244681
-0.19827026586115162   0.08976704720323174   0.06532712653244681
-0.19827026586115162   0.08976704720323174   0.06532712653244681
-0.3298817950016711   -0.06556268214254836   -0.07428860801629517
-0.3298817950016711   -0.06556268214254836   -0.07428860801629517
-0.3298817950016711   -0.06556268214254836   -0.07428860801629517
-0.3298817950016711   -0.06556268214254836   -0.07428860801629517
-0.253789901342342   0.10423587054366298   0.05225987416520317
-0.253789901342342   0.10423587054366298   0.05225987416520317
-0.253789901342342   0.10423587054366298   0.05225987416520317
-0.253789901342342   0.10423587054366298   0.05225987416520317
-0.18991567184515082   -0.009280878126962745   -0.09363873996723614
-0.18991567184515082   -0.009280878126962745   -0.09363873996723614
-0.18991567184515082   -0.009280878126962745   -0.09363873996723614
-0.18991567184515082   -0.009280878126962745   -0.09363873996723614
-0.2342695007758422   0.02847260854943673   0.01544291120607581
-0.2342695007758422   0.02847260854943673   0.01544291120607581
-0.2342695007758422   0.02847260854943673   0.01544291120607581
-0.2342695007758422   0.02847260854943673   0.01544291120607581
-0.33471358022943876   -0.020667281132277164   0.04984516312248027
-0.33471358022943876   -0.020667281132277164   0.04984516312248027
-0.33471358022943876   -0.020667281132277164   0.04984516312248027
-0.33471358022943876   -0.020667281132277164   0.04984516312248027
-0.41469727418781366   -0.09338076611781461   -0.020234615705277993
-0.41469727418781366   -0.09338076611781461   -0.020234615705277993
-0.41469727418781366   -0.09338076611781461   -0.020234615705277993
-0.41469727418781366   -0.09338076611781461   -0.020234615705277993
-0.36959292200381405   0.009461946428612755   0.03335318288757116
-0.36959292200381405   0.009461946428612755   0.03335318288757116
-0.36959292200381405   0.009461946428612755   0.03335318288757116
-0.36959292200381405   0.009461946428612755   0.03335318288757116
-0.3384416598426713   -0.044239316943023646   -0.030664174714500062
-0.3384416598426713   -0.044239316943023646   -0.030664174714500062
-0.3384416598426713   -0.044239316943023646   -0.030664174714500062
-0.3384416598426713   -0.044239316943023646   -0.030664174714500062
-0.3646079798309891   -0.034361821644702334   -0.016888523821514696
-0.3646079798309891   -0.034361821644702334   -0.016888523821514696
-0.3646079798309891   -0.034361821644702334   -0.016888523821514696
-0.3646079798309891   -0.034361821644702334   -0.016888523821514696
-0.3100806218623535   0.02339509127349794   0.043506606970567345
-0.3100806218623535   0.02339509127349794   0.043506606970567345
-0.3100806218623535   0.02339509127349794   0.043506606970567345
-0.3100806218623535   0.02339509127349794   0.043506606970567345
-0.39512296358463816   -0.055341465388420316   -0.02949361319951656
-0.39512296358463816   -0.055341465388420316   -0.02949361319951656
-0.39512296358463816   -0.055341465388420316   -0.02949361319951656
-0.39512296358463816   -0.055341465388420316   -0.02949361319951656
-0.3487738639657978   0.04960691930154741   0.025450472698007244
-0.3487738639657978   0.04960691930154741   0.025450472698007244
-0.3487738639657978   0.04960691930154741   0.025450472698007244
-0.3487738639657978   0.04960691930154741   0.025450472698007244
-0.3106289363645896   -0.00552564492335815   -0.03806135205007049
-0.3106289363645896   -0.00552564492335815   -0.03806135205007049
-0.3106289363645896   -0.00552564492335815   -0.03806135205007049
-0.3106289363645896   -0.00552564492335815   -0.03806135205007049
-0.3397517511419273   0.0031177481439376847   0.0006744293931176711
-0.3397517511419273   0.0031177481439376847   0.0006744293931176711
-0.3397517511419273   0.0031177481439376847   0.0006744293931176711
-0.3397517511419273   0.0031177481439376847   0.0006744293931176711
-0.28088996388876636   0.0659293148820787   0.03917855052360144
-0.28088996388876636   0.0659293148820787   0.03917855052360144
-0.28088996388876636   0.0659293148820787   0.03917855052360144
-0.28088996388876636   0.0659293148820787   0.03917855052360144
-0.375495576209644   -0.01883078027191422   -0.03972038894776574
-0.375495576209644   -0.01883078027191422   -0.03972038894776574
-0.375495576209644   -0.01883078027191422   -0.03972038894776574
-0.375495576209644   -0.01883078027191422   -0.03972038894776574
-0.3278552417935402   0.09401886938935756   0.017939283850811047
-0.3278552417935402   0.09401886938935756   0.017939283850811047
-0.3278552417935402   0.09401886938935756   0.017939283850811047
-0.3278552417935402   0.09401886938935756   0.017939283850811047
-0.28661273315617325   0.03741987071532975   -0.04503828507561998
-0.28661273315617325   0.03741987071532975   -0.04503828507561998
-0.28661273315617325   0.03741987071532975   -0.04503828507561998
-0.28661273315617325   0.03741987071532975   -0.04503828507561998
-0.3162539062772093   0.041799632684634505   0.018541443691755262
-0.3162539062772093   0.041799632684634505   0.018541443691755262
-0.3162539062772093   0.041799632684634505   0.018541443691755262
-0.3162539062772093   0.041799632684634505   0.018541443691755262
-0.40048336226250586   -0.05652377312222287   0.013977950925665672
-0.40048336226250586   -0.05652377312222287   0.013977950925665672
-0.40048336226250586   -0.05652377312222287   0.013977950925665672
-0.40048336226250586   -0.05652377312222287   0.013977950925665672
-0.455502670753304   -0.05886085929598735   0.012250346280351692
-0.455502670753304   -0.05886085929598735   0.012250346280351692
-0.455502670753304   -0.05886085929598735   0.012250346280351692
-0.455502670753304   -0.05886085929598735   0.012250346280351692
-0.4388008526163802   -0.026701866542420155   -0.004313096245806749
-0.4388008526163802   -0.026701866542420155   -0.004313096245806749
-0.4388008526163802   -0.026701866542420155   -0.004313096245806749
-0.4388008526163802   -0.026701866542420155   -0.004313096245806749
-0.37896588846253026   -0.008031264700615784   0.0039815617232184485
-0.37896588846253026   -0.008031264700615784   0.0039815617232184485
-0.37896588846253026   -0.008031264700615784   0.0039815617232184485
-0.37896588846253026   -0.008031264700615784   0.0039815617232184485
-0.4190655622322278   -0.03540135906587752   -0.011197137725438015
-0.4190655622322278   -0.03540135906587752   -0.011197137725438015
-0.4190655622322278   -0.03540135906587752   -0.011197137725438015
-0.4190655622322278   -0.03540135906587752   -0.011197137725438015
-0.379283057390924   -0.012552331476701276   0.006916783857331511
-0.379283057390924   -0.012552331476701276   0.006916783857331511
-0.379283057390924   -0.012552331476701276   0.006916783857331511
-0.379283057390924   -0.012552331476701276   0.006916783857331511
-0.43581571437665245   -0.019512830455000754   0.003423558865415729
-0.43581571437665245   -0.019512830455000754   0.003423558865415729
-0.43581571437665245   -0.019512830455000754   0.003423558865415729
-0.43581571437665245   -0.019512830455000754   0.003423558865415729
-0.41693659355832974   0.017847752270927567   -0.010951366827716233
-0.41693659355832974   0.017847752270927567   -0.010951366827716233
-0.41693659355832974   0.017847752270927567   -0.010951366827716233
-0.41693659355832974   0.017847752270927567   -0.010951366827716233
-0.3582171999543933   0.03240406621030073   -0.00456335415372338
-0.3582171999543933   0.03240406621030073   -0.00456335415372338
-0.3582171999543933   0.03240406621030073   -0.00456335415372338
-0.3582171999543933   0.03240406621030073   -0.00456335415372338
-0.3962280559618372   0.004429191344779523   0.006138818371174016
-0.3962280559618372   0.004429191344779523   0.006138818371174016
-0.3962280559618372   0.004429191344779523   0.006138818371174016
-0.3962280559618372   0.004429191344779523   0.006138818371174016
-0.3575026296619577   0.031839609266246266   -0.0004260457474947188
-0.3575026296619577   0.031839609266246266   -0.0004260457474947188
-0.3575026296619577   0.031839609266246266   -0.0004260457474947188
-0.3575026296619577   0.031839609266246266   -0.0004260457474947188
-0.41532471918049224   0.02073865388525445   -0.005782896552855778
-0.41532471918049224   0.02073865388525445   -0.005782896552855778
-0.41532471918049224   0.02073865388525445   -0.005782896552855778
-0.41532471918049224   0.02073865388525445   -0.005782896552855778
-0.3960016370775088   0.06266560475691402   -0.018448860210750595
-0.3960016370775088   0.06266560475691402   -0.018448860210750595
-0.3960016370775088   0.06266560475691402   -0.018448860210750595
-0.3960016370775088   0.06266560475691402   -0.018448860210750595
-0.33843407638854284   0.07300492766193159   -0.01394094739677635
-0.33843407638854284   0.07300492766193159   -0.01394094739677635
-0.33843407638854284   0.07300492766193159   -0.01394094739677635
-0.33843407638854284   0.07300492766193159   -0.01394094739677635
-0.37444248697581894   0.04433184185684834   0.022664062677281445
-0.37444248697581894   0.04433184185684834   0.022664062677281445
-0.37444248697581894   0.04433184185684834   0.022664062677281445
-0.37444248697581894   0.04433184185684834   0.022664062677281445
-0.46864124695316717   -0.08946882684189869   -0.022834567173060635
-0.46864124695316717   -0.08946882684189869   -0.022834567173060635
-0.46864124695316717   -0.08946882684189869   -0.022834567173060635
-0.46864124695316717   -0.08946882684189869   -0.022834567173060635
-0.49973088358664175   -0.025056002473726774   0.04330566051804735
-0.49973088358664175   -0.025056002473726774   0.04330566051804735
-0.49973088358664175   -0.025056002473726774   0.04330566051804735
-0.49973088358664175   -0.025056002473726774   0.04330566051804735
-0.5077162290869406   -0.06135948179755222   -0.042453187361308195
-0.5077162290869406   -0.06135948179755222   -0.042453187361308195
-0.5077162290869406   -0.06135948179755222   -0.042453187361308195
-0.5077162290869406   -0.06135948179755222   -0.042453187361308195
-0.419928417276473   0.02684153756366195   0.036505676347646975
-0.419928417276473   0.02684153756366195   0.036505676347646975
-0.419928417276473   0.02684153756366195   0.036505676347646975
-0.419928417276473   0.02684153756366195   0.036505676347646975
-0.4720432992216417   -0.034843159591693124   -0.0070331356254863114
-0.4720432992216417   -0.034843159591693124   -0.0070331356254863114
-0.4720432992216417   -0.034843159591693124   -0.0070331356254863114
-0.4720432992216417   -0.034843159591693124   -0.0070331356254863114
-0.44801406592029847   -0.04695384796127213   -0.030127181346549917
-0.44801406592029847   -0.04695384796127213   -0.030127181346549917
-0.44801406592029847   -0.04695384796127213   -0.030127181346549917
-0.44801406592029847   -0.04695384796127213   -0.030127181346549917
-0.47683285507504514   0.015233629095451312   0.035370571805165875
-0.47683285507504514   0.015233629095451312   0.035370571805165875
-0.47683285507504514   0.015233629095451312   0.035370571805165875
-0.47683285507504514   0.015233629095451312   0.035370571805165875
-0.47909080352699307   -0.01911263438296959   -0.04762972567991093
-0.47909080352699307   -0.01911263438296959   -0.04762972567991093
-0.47909080352699307   -0.01911263438296959   -0.04762972567991093
-0.47909080352699307   -0.01911263438296959   -0.04762972567991093
-0.4002321026098342   0.06331332739658863   0.02710551278909648
-0.4002321026098342   0.06331332739658863   0.02710551278909648
-0.4002321026098342   0.06331332739658863   0.02710551278909648
-0.4002321026098342   0.06331332739658863   0.02710551278909648
-0.44611511382106006   0.0035067446192924845   0.010858387959351005
-0.44611511382106006   0.0035067446192924845   0.010858387959351005
-0.44611511382106006   0.0035067446192924845   0.010858387959351005
-0.44611511382106006   0.0035067446192924845   0.010858387959351005
-0.4274482402433614   -0.006992121822210248   -0.03866972615974598
-0.4274482402433614   -0.006992121822210248   -0.03866972615974598
-0.4274482402433614   -0.006992121822210248   -0.03866972615974598
-0.4274482402433614   -0.006992121822210248   -0.03866972615974598
-0.4490471721509176   0.054020308578377405   0.02945548823912371
-0.4490471721509176   0.054020308578377405   0.02945548823912371
-0.4490471721509176   0.054020308578377405   0.02945548823912371
-0.4490471721509176   0.054020308578377405   0.02945548823912371
-0.45403710340699033   0.027446966101854264   -0.05226054551409728
-0.45403710340699033   0.027446966101854264   -0.05226054551409728
-0.45403710340699033   0.027446966101854264   -0.05226054551409728
-0.45403710340699033   0.027446966101854264   -0.05226054551409728
-0.38048124792701843   0.10398385281485656   0.017834837483758637
-0.38048124792701843   0.10398385281485656   0.017834837483758637
-0.38048124792701843   0.10398385281485656   0.017834837483758637
-0.38048124792701843   0.10398385281485656   0.017834837483758637
-0.42406693379118954   0.04158305757462209   0.0279727752929771
-0.42406693379118954   0.04158305757462209   0.0279727752929771
-0.42406693379118954   0.04158305757462209   0.0279727752929771
-0.42406693379118954   0.04158305757462209   0.0279727752929771
-0.5361064392907158   -0.10647398952792013   -0.05715413094813681
-0.5361064392907158   -0.10647398952792013   -0.05715413094813681
-0.5361064392907158   -0.10647398952792013   -0.05715413094813681
-0.5361064392907158   -0.10647398952792013   -0.05715413094813681
-0.592071186788794   0.008412104963210251   0.07783244409730147
-0.592071186788794   0.008412104963210251   0.07783244409730147
-0.592071186788794   0.008412104963210251   0.07783244409730147
-0.592071186788794   0.008412104963210251   0.07783244409730147
-0.5839765559559046   -0.08834877175947682   -0.07609572748368104
-0.5839765559559046   -0.08834877175947682   -0.07609572748368104
-0.5839765559559046   -0.08834877175947682   -0.07609572748368104
-0.5839765559559046   -0.08834877175947682   -0.07609572748368104
-0.4595794756071008   0.06710329635969649   0.06976780188064019
-0.4595794756071008   0.06710329635969649   0.06976780188064019
-0.4595794756071008   0.06710329635969649   0.06976780188064019
-0.4595794756071008   0.06710329635969649   0.06976780188064019
-0.5211948176603765   -0.022806181461768757   -0.003547506519003065
-0.5211948176603765   -0.022806181461768757   -0.003547506519003065
-0.5211948176603765   -0.022806181461768757   -0.003547506519003065
-0.5211948176603765   -0.022806181461768757   -0.003547506519003065
-0.5144828150528161   -0.07229999823313868   -0.06534560075510934
-0.5144828150528161   -0.07229999823313868   -0.06534560075510934
-0.5144828150528161   -0.07229999823313868   -0.06534560075510934
-0.5144828150528161   -0.07229999823313868   -0.06534560075510934
-0.5261153452355273   0.05401239410801821   0.07084916025070609
-0.5261153452355273   0.05401239410801821   0.07084916025070609
-0.5261153452355273   0.05401239410801821   0.07084916025070609
-0.5261153452355273   0.05401239410801821   0.07084916025070609
-0.5345961509529692   -0.06367763978299389   -0.0906846138508163
-0.5345961509529692   -0.06367763978299389   -0.0906846138508163
-0.5345961509529692   -0.06367763978299389   -0.0906846138508163
-0.5345961509529692   -0.06367763978299389   -0.0906846138508163
-0.4374260846039344   0.08448002872676344   0.05710120582564966
-0.4374260846039344   0.08448002872676344   0.05710120582564966
-0.4374260846039344   0.08448002872676344   0.05710120582564966
-0.4374260846039344   0.08448002872676344   0.05710120582564966
-0.48771029299987256   0.0029682894720129277   0.01362846089424066
-0.48771029299987256   0.0029682894720129277   0.01362846089424066
-0.48771029299987256   0.0029682894720129277   0.01362846089424066
-0.48771029299987256   0.0029682894720129277   0.01362846089424066
-0.49125925859249214   -0.05199188801567595   -0.0755927473747037
-0.49125925859249214   -0.05199188801567595   -0.0755927473747037
-0.49125925859249214   -0.05199188801567595   -0.0755927473747037
-0.49125925859249214   -0.05199188801567595   -0.0755927473747037
-0.4776638251065942   0.0758934288172671   0.05440594678079716
-0.4776638251065942   0.0758934288172671   0.05440594678079716
-0.4776638251065942   0.0758934288172671   0.05440594678079716
-0.4776638251065942   0.0758934288172671   0.05440594678079716
-0.46982647480139267   -0.020973270760326193   -0.09908979603907747
-0.46982647480139267   -0.020973270760326193   -0.09908979603907747
-0.46982647480139267   -0.020973270760326193   -0.09908979603907747
-0.46982647480139267   -0.020973270760326193   -0.09908979603907747
-0.41757920466073967   0.11044241191460327   0.04703350240440524
-0.41757920466073967   0.11044241191460327   0.04703350240440524
-0.41757920466073967   0.11044241191460327   0.04703350240440524
-0.41757920466073967   0.11044241191460327   0.04703350240440524
-0.4420287989270762   0.02873802778017734   0.033497180714499745
-0.4420287989270762   0.02873802778017734   0.033497180714499745
-0.4420287989270762   0.02873802778017734   0.033497180714499745
-0.4420287989270762   0.02873802778017734   0.033497180714499745
0.3242555172473938   0.05247889189460194   0.08498499221563512
0.3242555172473938   0.05247889189460194   0.08498499221563512
0.3242555172473938   0.05247889189460194   0.08498499221563512
0.3242555172473938   0.05247889189460194   0.08498499221563512
-0.008210152366166332   -0.1366352537607956   -0.05617562454484823
-0.008210152366166332   -0.1366352537607956   -0.05617562454484823
-0.008210152366166332   -0.1366352537607956   -0.05617562454484823
-0.008210152366166332   -0.1366352537607956   -0.05617562454484823
0.07226889444046274   0.026737377563218742   0.06567327504337522
0.07226889444046274   0.026737377563218742   0.06567327504337522
0.07226889444046274   0.026737377563218742   0.06567327504337522
0.07226889444046274   0.026737377563218742   0.06567327504337522
0.3384620855287059   -0.04805402386601021   -0.07028448906139324
0.3384620855287059   -0.04805402386601021   -0.07028448906139324
0.3384620855287059   -0.04805402386601021   -0.07028448906139324
0.3384620855287059   -0.04805402386601021   -0.07028448906139324
0.16543009495688332   -0.02661811342174603   -0.04044681646519808
0.16543009495688332   -0.02661811342174603   -0.04044681646519808
0.16543009495688332   -0.02661811342174603   -0.04044681646519808
0.16543009495688332   -0.02661811342174603   -0.04044681646519808
0.3962132998333371   0.09372926279355628   0.07668829580218858
0.3962132998333371   0.09372926279355628   0.07668829580218858
0.3962132998333371   0.09372926279355628   0.07668829580218858
0.3962132998333371   0.09372926279355628   0.07668829580218858
0.018060043885500664   -0.11150354534669141   -0.06713005482153267
0.018060043885500664   -0.11150354534669141   -0.06713005482153267
0.018060043885500664   -0.11150354534669141   -0.06713005482153267
0.018060043885500664   -0.11150354534669141   -0.06713005482153267
0.10168572784144717   0.046572797900516674   0.054821269355911834
0.10168572784144717   0.046572797900516674   0.054821269355911834
0.10168572784144717   0.046572797900516674   0.054821269355911834
0.10168572784144717   0.046572797900516674   0.054821269355911834
0.3946801036179084   -0.025643933300847577   -0.08795676076484597
0.3946801036179084   -0.025643933300847577   -0.08795676076484597
0.3946801036179084   -0.025643933300847577   -0.08795676076484597
0.3946801036179084   -0.025643933300847577   -0.08795676076484597
0.21614944514182335   -0.0018758218918762115   -0.018978233372831697
0.21614944514182335   -0.0018758218918762115   -0.018978233372831697
0.21614944514182335   -0.0018758218918762115   -0.018978233372831697
0.21614944514182335   -0.0018758218918762115   -0.018978233372831697
0.45307581617011833   0.1179684461951152   0.06040942250023328
0.45307581617011833   0.1179684461951152   0.06040942250023328
0.45307581617011833   0.1179684461951152   0.06040942250023328
0.45307581617011833   0.1179684461951152   0.06040942250023328
0.04675953090679372   -0.09357006597787938   -0.07966685143895175
0.04675953090679372   -0.09357006597787938   -0.07966685143895175
0.04675953090679372   -0.09357006597787938   -0.07966685143895175
0.04675953090679372   -0.09357006597787938   -0.07966685143895175
0.1302392611442631   0.08296612957567452   0.04744136555653623
0.1302392611442631   0.08296612957567452   0.04744136555653623
0.1302392611442631   0.08296612957567452   0.04744136555653623
0.1302392611442631   0.08296612957567452   0.04744136555653623
0.46929455180396334   0.024522239194673154   -0.0970113202140206
0.46929455180396334   0.024522239194673154   -0.0970113202140206
0.46929455180396334   0.024522239194673154   -0.0970113202140206
0.46929455180396334   0.024522239194673154   -0.0970113202140206
0.25878228418199484   0.025835494380684033   0.0013357258013101756
0.25878228418199484   0.025835494380684033   0.0013357258013101756
0.25878228418199484   0.025835494380684033   0.0013357258013101756
0.25878228418199484   0.025835494380684033   0.0013357258013101756
0.0446904793564684   0.014068469828004087   0.05762381047953343
0.0446904793564684   0.014068469828004087   0.05762381047953343
0.0446904793564684   0.014068469828004087   0.05762381047953343
0.0446904793564684   0.014068469828004087   0.05762381047953343
-0.30911636725996483   -0.11597719489170598   -0.02576505443855448
-0.30911636725996483   -0.11597719489170598   -0.02576505443855448
-0.30911636725996483   -0.11597719489170598   -0.02576505443855448
-0.30911636725996483   -0.11597719489170598   -0.02576505443855448
-0.25828938628583   -0.016803546113561482   0.02636240587596937
-0.25828938628583   -0.016803546113561482   0.02636240587596937
-0.25828938628583   -0.016803546113561482   0.02636240587596937
-0.25828938628583   -0.016803546113561482   0.02636240587596937
0.04699535868944962   -0.013457962139094452   -0.020499064009384813
0.04699535868944962   -0.013457962139094452   -0.020499064009384813
0.04699535868944962   -0.013457962139094452   -0.020499064009384813
0.04699535868944962   -0.013457962139094452   -0.020499064009384813
-0.12147123257004507   -0.030072147427490054   -0.01945952271153838
-0.12147123257004507   -0.030072147427490054   -0.01945952271153838
-0.12147123257004507   -0.030072147427490054   -0.01945952271153838
-0.12147123257004507   -0.030072147427490054   -0.01945952271153838
0.07497179718125323   0.054801035555640865   0.051124130754897884
0.07497179718125323   0.054801035555640865   0.051124130754897884
0.07497179718125323   0.054801035555640865   0.051124130754897884
0.07497179718125323   0.054801035555640865   0.051124130754897884
-0.2836902006067988   -0.08248691963746199   -0.03495829220497414
-0.2836902006067988   -0.08248691963746199   -0.03495829220497414
-0.2836902006067988   -0.08248691963746199   -0.03495829220497414
-0.2836902006067988   -0.08248691963746199   -0.03495829220497414
-0.23146067998992756   0.021647608417712648   0.018636658280652155
-0.23146067998992756   0.021647608417712648   0.018636658280652155
-0.23146067998992756   0.021647608417712648   0.018636658280652155
-0.23146067998992756   0.021647608417712648   0.018636658280652155
0.08047155272651671   0.023058529721472834   -0.02773533803969662
0.08047155272651671   0.023058529721472834   -0.02773533803969662
0.08047155272651671   0.023058529721472834   -0.02773533803969662
0.08047155272651671   0.023058529721472834   -0.02773533803969662
-0.09303790624141473   0.0038682649384871905   -0.0023486514651142243
-0.09303790624141473   0.0038682649384871905   -0.0023486514651142243
-0.09303790624141473   0.0038682649384871905   -0.0023486514651142243
-0.09303790624141473   0.0038682649384871905   -0.0023486514651142243
0.10962232159243568   0.09529357023361268   0.04578346577775839
0.10962232159243568   0.09529357023361268   0.04578346577775839
0.10962232159243568   0.09529357023361268   0.04578346577775839
0.10962232159243568   0.09529357023361268   0.04578346577775839
-0.2581340957221586   -0.04811007896073419   -0.0449727330020564
-0.2581340957221586   -0.04811007896073419   -0.0449727330020564
-0.2581340957221586   -0.04811007896073419   -0.0449727330020564
-0.2581340957221586   -0.04811007896073419   -0.0449727330020564
-0.2044749603642101   0.06510943785831978   0.011271777847367069
-0.2044749603642101   0.06510943785831978   0.011271777847367069
-0.2044749603642101   0.06510943785831978   0.011271777847367069
-0.2044749603642101   0.06510943785831978   0.011271777847367069
0.10996141494721516   0.06444227131855215   -0.03542400717158115
0.10996141494721516   0.06444227131855215   -0.03542400717158115
0.10996141494721516   0.06444227131855215   -0.03542400717158115
0.10996141494721516   0.06444227131855215   -0.03542400717158115
-0.0616163817336313   0.04131850347359185   0.01588493678409853
-0.0616163817336313   0.04131850347359185   0.01588493678409853
-0.0616163817336313   0.04131850347359185   0.01588493678409853
-0.0616163817336313   0.04131850347359185   0.01588493678409853
-0.2810836310058881   -0.0222856951787858   0.02070712711891288
-0.2810836310058881   -0.0222856951787858   0.02070712711891288
-0.2810836310058881   -0.0222856951787858   0.02070712711891288
-0.2810836310058881   -0.0222856951787858   0.02070712711891288
-0.6045884498265685   -0.08228811834066495   0.005372860185871162
-0.6045884498265685   -0.08228811834066495   0.005372860185871162
-0.6045884498265685   -0.08228811834066495   0.005372860185871162
-0.6045884498265685   -0.08228811834066495   0.005372860185871162
-0.5810756178000189   -0.05152910121532932   -0.011397891512860473
-0.5810756178000189   -0.05152910121532932   -0.011397891512860473
-0.5810756178000189   -0.05152910121532932   -0.011397891512860473
-0.5810756178000189   -0.05152910121532932   -0.011397891512860473
-0.2533349377065173   0.021453693507078472   0.012877409151892682
-0.2533349377065173   0.021453693507078472   0.012877409151892682
-0.2533349377065173   0.021453693507078472   0.012877409151892682
-0.2533349377065173   0.021453693507078472   0.012877409151892682
-0.4306498463511704   -0.030901838419154976   -0.011314027389201991
-0.4306498463511704   -0.030901838419154976   -0.011314027389201991
-0.4306498463511704   -0.030901838419154976   -0.011314027389201991
-0.4306498463511704   -0.030901838419154976   -0.011314027389201991
-0.2536777110308068   0.018961254707158308   0.013655981330365437
-0.2536777110308068   0.018961254707158308   0.013655981330365437
-0.2536777110308068   0.018961254707158308   0.013655981330365437
-0.2536777110308068   0.018961254707158308   0.013655981330365437
-0.5785263906007199   -0.046830208540399446   -0.003350648191294426
-0.5785263906007199   -0.046830208540399446   -0.003350648191294426
-0.5785263906007199   -0.046830208540399446   -0.003350648191294426
-0.5785263906007199   -0.046830208540399446   -0.003350648191294426
-0.5528700671988528   -0.00919873492651166   -0.017924492593325757
-0.5528700671988528   -0.00919873492651166   -0.017924492593325757
-0.5528700671988528   -0.00919873492651166   -0.017924492593325757
-0.5528700671988528   -0.00919873492651166   -0.017924492593325757
-0.22677090198787547   0.05900850438527245   0.00472465232335666
-0.22677090198787547   0.05900850438527245   0.00472465232335666
-0.22677090198787547   0.05900850438527245   0.00472465232335666
-0.22677090198787547   0.05900850438527245   0.00472465232335666
-0.4015321672159615   0.0062870034337704495   0.005918893783442698
-0.4015321672159615   0.0062870034337704495   0.005918893783442698
-0.4015321672159615   0.0062870034337704495   0.005918893783442698
-0.4015321672159615   0.0062870034337704495   0.005918893783442698
-0.2261014094272042   0.06096334920740024   0.006117270304585115
-0.2261014094272042   0.06096334920740024   0.006117270304585115
-0.2261014094272042   0.06096334920740024   0.006117270304585115
-0.2261014094272042   0.06096334920740024   0.006117270304585115
-0.5517783850848743   -0.009392405073990709   -0.01227241187596029
-0.5517783850848743   -0.009392405073990709   -0.01227241187596029
-0.5517783850848743   -0.009392405073990709   -0.01227241187596029
-0.5517783850848743   -0.009392405073990709   -0.01227241187596029
-0.5258041986248344   0.03324352921903473   -0.025377817374968942
-0.5258041986248344   0.03324352921903473   -0.025377817374968942
-0.5258041986248344   0.03324352921903473   -0.025377817374968942
-0.5258041986248344   0.03324352921903473   -0.025377817374968942
-0.20134815336120956   0.09667398288201107   -0.0046587321613175275
-0.20134815336120956   0.09667398288201107   -0.0046587321613175275
-0.20134815336120956   0.09667398288201107   -0.0046587321613175275
-0.20134815336120956   0.09667398288201107   -0.0046587321613175275
-0.373928059068313   0.04337161918152642   0.02202675297689071
-0.373928059068313   0.04337161918152642   0.02202675297689071
-0.373928059068313   0.04337161918152642   0.02202675297689071
-0.373928059068313   0.04337161918152642   0.02202675297689071
-0.6042970828756227   -0.05810171592928699   -0.017356707470772757
-0.6042970828756227   -0.05810171592928699   -0.017356707470772757
-0.6042970828756227   -0.05810171592928699   -0.017356707470772757
-0.6042970828756227   -0.05810171592928699   -0.017356707470772757
-0.8968346783178233   -0.050631083475976   0.035957426721106855
-0.8968346783178233   -0.050631083475976   0.035957426721106855
-0.8968346783178233   -0.050631083475976   0.035957426721106855
-0.8968346783178233   -0.050631083475976   0.035957426721106855
-0.896987922126851   -0.0855191750156176   -0.048238381698372655
-0.896987922126851   -0.0855191750156176   -0.048238381698372655
-0.896987922126851   -0.0855191750156176   -0.048238381698372655
-0.896987922126851   -0.0855191750156176   -0.048238381698372655
-0.5487562672956504   0.05472736619455473   0.04394239359909874
-0.5487562672956504   0.05472736619455473   0.04394239359909874
-0.5487562672956504   0.05472736619455473   0.04394239359909874
-0.5487562672956504   0.05472736619455473   0.04394239359909874
-0.7326060721143259   -0.03128120978981236   -0.004751115577234941
-0.7326060721143259   -0.03128120978981236   -0.004751115577234941
-0.7326060721143259   -0.03128120978981236   -0.004751115577234941
-0.7326060721143259   -0.03128120978981236   -0.004751115577234941
-0.5766515342878744   -0.01663794678469495   -0.02416862838276673
-0.5766515342878744   -0.01663794678469495   -0.02416862838276673
-0.5766515342878744   -0.01663794678469495   -0.02416862838276673
-0.5766515342878744   -0.01663794678469495   -0.02416862838276673
-0.8672724251781478   -0.012333632079881224   0.027153560109416414
-0.8672724251781478   -0.012333632079881224   0.027153560109416414
-0.8672724251781478   -0.012333632079881224   0.027153560109416414
-0.8672724251781478   -0.012333632079881224   0.027153560109416414
-0.8616803628079389   -0.045131831575991876   -0.05367202187570151
-0.8616803628079389   -0.045131831575991876   -0.05367202187570151
-0.8616803628079389   -0.045131831575991876   -0.05367202187570151
-0.8616803628079389   -0.045131831575991876   -0.05367202187570151
-0.5226692949342165   0.08891151762771501   0.03496911617562913
-0.5226692949342165   0.08891151762771501   0.03496911617562913
-0.5226692949342165   0.08891151762771501   0.03496911617562913
-0.5226692949342165   0.08891151762771501   0.03496911617562913
-0.697717918889399   0.006202124970148187   0.012999595941407767
-0.697717918889399   0.006202124970148187   0.012999595941407767
-0.697717918889399   0.006202124970148187   0.012999595941407767
-0.697717918889399   0.006202124970148187   0.012999595941407767
-0.5496413124757255   0.02151207673729194   -0.032491530641495694
-0.5496413124757255   0.02151207673729194   -0.032491530641495694
-0.5496413124757255   0.02151207673729194   -0.032491530641495694
-0.5496413124757255   0.02151207673729194   -0.032491530641495694
-0.8326604484833378   0.024315506097522865   0.021980212073789515
-0.8326604484833378   0.024315506097522865   0.021980212073789515
-0.8326604484833378   0.024315506097522865   0.021980212073789515
-0.8326604484833378   0.024315506097522865   0.021980212073789515
-0.8300895136016857   -0.0010585168439267711   -0.057768745135490754
-0.8300895136016857   -0.0010585168439267711   -0.057768745135490754
-0.8300895136016857   -0.0010585168439267711   -0.057768745135490754
-0.8300895136016857   -0.0010585168439267711   -0.057768745135490754
-0.49685254585093364   0.12669394893995362   0.02593002677361672
-0.49685254585093364   0.12669394893995362   0.02593002677361672
-0.49685254585093364   0.12669394893995362   0.02593002677361672
-0.49685254585093364   0.12669394893995362   0.02593002677361672
-0.6715489381204852   0.04118503617434188   0.028916188545594378
-0.6715489381204852   0.04118503617434188   0.028916188545594378
-0.6715489381204852   0.04118503617434188   0.028916188545594378
-0.6715489381204852   0.04118503617434188   0.028916188545594378
-0.9211324712877133   -0.08349930423074817   -0.05266331737357124
-0.9211324712877133   -0.08349930423074817   -0.05266331737357124
-0.9211324712877133   -0.08349930423074817   -0.05266331737357124
-0.9211324712877133   -0.08349930423074817   -0.05266331737357124
-1.2298216265942952   -0.021461850515020392   0.07775860783473251
-1.2298216265942952   -0.021461850515020392   0.07775860783473251
-1.2298216265942952   -0.021461850515020392   0.07775860783473251
-1.2298216265942952   -0.021461850515020392   0.07775860783473251
-1.2124893277181352   -0.11147807859883976   -0.07022922080097599
-1.2124893277181352   -0.11147807859883976   -0.07022922080097599
-1.2124893277181352   -0.11147807859883976   -0.07022922080097599
-1.2124893277181352   -0.11147807859883976   -0.07022922080097599
-0.8364170872639671   0.09244121331113042   0.07665540428929862
-0.8364170872639671   0.09244121331113042   0.07665540428929862
-0.8364170872639671   0.09244121331113042   0.07665540428929862
-0.8364170872639671   0.09244121331113042   0.07665540428929862
-1.0047168103307835   -0.01780614808530287   0.008277554124885421
-1.0047168103307835   -0.01780614808530287   0.008277554124885421
-1.0047168103307835   -0.01780614808530287   0.008277554124885421
-1.0047168103307835   -0.01780614808530287   0.008277554124885421
-0.8911637763972632   -0.04507874148973309   -0.059558086576314624
-0.8911637763972632   -0.04507874148973309   -0.059558086576314624
-0.8911637763972632   -0.04507874148973309   -0.059558086576314624
-0.8911637763972632   -0.04507874148973309   -0.059558086576314624
-1.1560933576406711   0.027691157146189943   0.07258139384130011
-1.1560933576406711   0.027691157146189943   0.07258139384130011
-1.1560933576406711   0.027691157146189943   0.07258139384130011
-1.1560933576406711   0.027691157146189943   0.07258139384130011
-1.1566952842566107   -0.08750824337908791   -0.08357095505093103
-1.1566952842566107   -0.08750824337908791   -0.08357095505093103
-1.1566952842566107   -0.08750824337908791   -0.08357095505093103
-1.1566952842566107   -0.08750824337908791   -0.08357095505093103
-0.8076425123117037   0.108199274942327   0.06318612408714612
-0.8076425123117037   0.108199274942327   0.06318612408714612
-0.8076425123117037   0.108199274942327   0.06318612408714612
-0.8076425123117037   0.108199274942327   0.06318612408714612
-0.9729805466645216   0.007337841000612577   0.02262231037481817
-0.9729805466645216   0.007337841000612577   0.02262231037481817
-0.9729805466645216   0.007337841000612577   0.02262231037481817
-0.9729805466645216   0.007337841000612577   0.02262231037481817
-0.8607423619539857   -0.025355198120635247   -0.06875865106129243
-0.8607423619539857   -0.025355198120635247   -0.06875865106129243
-0.8607423619539857   -0.025355198120635247   -0.06875865106129243
-0.8607423619539857   -0.025355198120635247   -0.06875865106129243
-1.1015756117958952   0.04806605250229695   0.056453111371248615
-1.1015756117958952   0.04806605250229695   0.056453111371248615
-1.1015756117958952   0.04806605250229695   0.056453111371248615
-1.1015756117958952   0.04806605250229695   0.056453111371248615
-1.088004055104221   -0.051684807970212715   -0.09317774657622413
-1.088004055104221   -0.051684807970212715   -0.09317774657622413
-1.088004055104221   -0.051684807970212715   -0.09317774657622413
-1.088004055104221   -0.051684807970212715   -0.09317774657622413
-0.7823420940960013   0.12727421151437718   0.05263562403462767
-0.7823420940960013   0.12727421151437718   0.05263562403462767
-0.7823420940960013   0.12727421151437718   0.05263562403462767
-0.7823420940960013   0.12727421151437718   0.05263562403462767
-0.9138092861373466   0.03090893207871903   0.042806461769059403
-0.9138092861373466   0.03090893207871903   0.042806461769059403
-0.9138092861373466   0.03090893207871903   0.042806461769059403
-0.9138092861373466   0.03090893207871903   0.042806461769059403
0.9779469967413029   0.08882912558390177   0.08498912307110781
0.9779469967413029   0.08882912558390177   0.08498912307110781
0.9779469967413029   0.08882912558390177   0.08498912307110781
0.9779469967413029   0.08882912558390177   0.08498912307110781
0.3583578807391919   -0.16288095314038886   -0.05595072160777942
0.3583578807391919   -0.16288095314038886   -0.05595072160777942
0.3583578807391919   -0.16288095314038886   -0.05595072160777942
0.3583578807391919   -0.16288095314038886   -0.05595072160777942
0.44276536954002094   -0.0009032949309988325   0.06116587160234857
0.44276536954002094   -0.0009032949309988325   0.06116587160234857
0.44276536954002094   -0.0009032949309988325   0.06116587160234857
0.44276536954002094   -0.0009032949309988325   0.06116587160234857
0.9958412510008029   -0.022830074275088097   -0.0714202693637903
0.9958412510008029   -0.022830074275088097   -0.0714202693637903
0.9958412510008029   -0.022830074275088097   -0.0714202693637903
0.9958412510008029   -0.022830074275088097   -0.0714202693637903
0.6510543983056898   -0.02954691238430851   -0.062932475275847
0.6510543983056898   -0.02954691238430851   -0.062932475275847
0.6510543983056898   -0.02954691238430851   -0.062932475275847
0.6510543983056898   -0.02954691238430851   -0.062932475275847
1.0542532613684972   0.12393587562845308   0.07387383257113192
1.0542532613684972   0.12393587562845308   0.07387383257113192
1.0542532613684972   0.12393587562845308   0.07387383257113192
1.0542532613684972   0.12393587562845308   0.07387383257113192
0.3884813597996168   -0.1435412442072391   -0.06761622782342042
0.3884813597996168   -0.1435412442072391   -0.06761622782342042
0.3884813597996168   -0.1435412442072391   -0.06761622782342042
0.3884813597996168   -0.1435412442072391   -0.06761622782342042
0.4761336353537934   0.018328333028753904   0.05045103914721495
0.4761336353537934   0.018328333028753904   0.05045103914721495
0.4761336353537934   0.018328333028753904   0.05045103914721495
0.4761336353537934   0.018328333028753904   0.05045103914721495
1.056589169877126   -0.0009669061179693739   -0.09000195125196991
1.056589169877126   -0.0009669061179693739   -0.09000195125196991
1.056589169877126   -0.0009669061179693739   -0.09000195125196991
1.056589169877126   -0.0009669061179693739   -0.09000195125196991
0.7144575130544123   -0.005922360603419774   -0.03809654084080724
0.7144575130544123   -0.005922360603419774   -0.03809654084080724
0.7144575130544123   -0.005922360603419774   -0.03809654084080724
0.7144575130544123   -0.005922360603419774   -0.03809654084080724
1.1156579125331292   0.1475149598476599   0.05685989606240914
1.1156579125331292   0.1475149598476599   0.05685989606240914
1.1156579125331292   0.1475149598476599   0.05685989606240914
1.1156579125331292   0.1475149598476599   0.05685989606240914
0.42146292181591005   -0.1257555038187568   -0.07881869169469122
0.42146292181591005   -0.1257555038187568   -0.07881869169469122
0.42146292181591005   -0.1257555038187568   -0.07881869169469122
0.42146292181591005   -0.1257555038187568   -0.07881869169469122
0.5094541638417495   0.06070171178516412   0.043726430700648106
0.5094541638417495   0.06070171178516412   0.043726430700648106
0.5094541638417495   0.06070171178516412   0.043726430700648106
0.5094541638417495   0.06070171178516412   0.043726430700648106
1.136344726154429   0.056056392162769586   -0.09709806876346662
1.136344726154429   0.056056392162769586   -0.09709806876346662
1.136344726154429   0.056056392162769586   -0.09709806876346662
1.136344726154429   0.056056392162769586   -0.09709806876346662
0.7536658259529292   0.022801997516835537   -0.01659355422443983
0.7536658259529292   0.022801997516835537   -0.01659355422443983
0.7536658259529292   0.022801997516835537   -0.01659355422443983
0.7536658259529292   0.022801997516835537   -0.01659355422443983
0.4256359469121807   0.049698341711489666   0.06786031440527822
0.4256359469121807   0.049698341711489666   0.06786031440527822
0.4256359469121807   0.049698341711489666   0.06786031440527822
0.4256359469121807   0.049698341711489666   0.06786031440527822
-0.20703433881408864   -0.15196363946942668   -0.029298080555932967
-0.20703433881408864   -0.15196363946942668   -0.029298080555932967
-0.20703433881408864   -0.15196363946942668   -0.029298080555932967
-0.20703433881408864   -0.15196363946942668   -0.029298080555932967
-0.14894078236622624   -0.0444294554631853   0.02057961042589814
-0.14894078236622624   -0.0444294554631853   0.02057961042589814
-0.14894078236622624   -0.0444294554631853   0.02057961042589814
-0.14894078236622624   -0.0444294554631853   0.02057961042589814
0.42911503488821934   0.0010283363018745717   -0.009017432889521247
0.42911503488821934   0.0010283363018745717   -0.009017432889521247
0.42911503488821934   0.0010283363018745717   -0.009017432889521247
0.42911503488821934   0.0010283363018745717   -0.009017432889521247
0.1190966041420766   -0.03218986220152669   -0.02683901388895546
0.1190966041420766   -0.03218986220152669   -0.02683901388895546
0.1190966041420766   -0.03218986220152669   -0.02683901388895546
0.1190966041420766   -0.03218986220152669   -0.02683901388895546
0.45990356700516216   0.08534517093777116   0.06060839305929214
0.45990356700516216   0.08534517093777116   0.06060839305929214
0.45990356700516216   0.08534517093777116   0.06060839305929214
0.45990356700516216   0.08534517093777116   0.06060839305929214
-0.17724803447937348   -0.12626501009528768   -0.03912109550773959
-0.17724803447937348   -0.12626501009528768   -0.03912109550773959
-0.17724803447937348   -0.12626501009528768   -0.03912109550773959
-0.17724803447937348   -0.12626501009528768   -0.03912109550773959
-0.1178501105674472   -0.00845553477426107   0.013016002775536367
-0.1178501105674472   -0.00845553477426107   0.013016002775536367
-0.1178501105674472   -0.00845553477426107   0.013016002775536367
-0.1178501105674472   -0.00845553477426107   0.013016002775536367
0.4656807908144579   0.03331936854857892   -0.016804219069287807
0.4656807908144579   0.03331936854857892   -0.016804219069287807
0.4656807908144579   0.03331936854857892   -0.016804219069287807
0.4656807908144579   0.03331936854857892   -0.016804219069287807
0.14914408653079192   -0.003756180347510518   -0.010676477033580318
0.14914408653079192   -0.003756180347510518   -0.010676477033580318
0.14914408653079192   -0.003756180347510518   -0.010676477033580318
0.14914408653079192   -0.003756180347510518   -0.010676477033580318
0.49769932945382583   0.12281060100841676   0.0537972416677139
0.49769932945382583   0.12281060100841676   0.0537972416677139
0.49769932945382583   0.12281060100841676   0.0537972416677139
0.49769932945382583   0.12281060100841676   0.0537972416677139
-0.1473809052179874   -0.09545902324528145   -0.04763448200614435
-0.1473809052179874   -0.09545902324528145   -0.04763448200614435
-0.1473809052179874   -0.09545902324528145   -0.04763448200614435
-0.1473809052179874   -0.09545902324528145   -0.04763448200614435
-0.08715431028495722   0.03320101633535422   0.005485443144601565
-0.08715431028495722   0.03320101633535422   0.005485443144601565
-0.08715431028495722   0.03320101633535422   0.005485443144601565
-0.08715431028495722   0.03320101633535422   0.005485443144601565
0.4981220308871168   0.0717527056911227   -0.023985227978473977
0.4981220308871168   0.0717527056911227   -0.023985227978473977
0.4981220308871168   0.0717527056911227   -0.023985227978473977
0.4981220308871168   0.0717527056911227   -0.023985227978473977
0.1862229720191347   0.031097424028713853   0.008187960119229478
0.1862229720191347   0.031097424028713853   0.008187960119229478
0.1862229720191347   0.031097424028713853   0.008187960119229478
0.1862229720191347   0.031097424028713853   0.008187960119229478
-0.1628664782380033   0.010747683759072736   0.02882989909599434
-0.1628664782380033   0.010747683759072736   0.02882989909599434
-0.1628664782380033   0.010747683759072736   0.02882989909599434
-0.1628664782380033   0.010747683759072736   0.02882989909599434
-0.7611950516632198   -0.13413946575243357   -0.0038464002623962495
-0.7611950516632198   -0.13413946575243357   -0.0038464002623962495
-0.7611950516632198   -0.13413946575243357   -0.0038464002623962495
-0.7611950516632198   -0.13413946575243357   -0.0038464002623962495
-0.7243112046096583   -0.07889568242131591   -0.01789320358687697
-0.7243112046096583   -0.07889568242131591   -0.01789320358687697
-0.7243112046096583   -0.07889568242131591   -0.01789320358687697
-0.7243112046096583   -0.07889568242131591   -0.01789320358687697
-0.136372300748286   0.01980459008441373   0.019187972967996406
-0.136372300748286   0.01980459008441373   0.019187972967996406
-0.136372300748286   0.01980459008441373   0.019187972967996406
-0.136372300748286   0.01980459008441373   0.019187972967996406
-0.44697328666141223   -0.04126066851296506   -0.016750234388817738
-0.44697328666141223   -0.04126066851296506   -0.016750234388817738
-0.44697328666141223   -0.04126066851296506   -0.016750234388817738
-0.44697328666141223   -0.04126066851296506   -0.016750234388817738
-0.13023914510366497   0.04785753204364523   0.021800809231874076
-0.13023914510366497   0.04785753204364523   0.021800809231874076
-0.13023914510366497   0.04785753204364523   0.021800809231874076
-0.13023914510366497   0.04785753204364523   0.021800809231874076
-0.7287919298780847   -0.105296194004342   -0.013896318345983486
-0.7287919298780847   -0.105296194004342   -0.013896318345983486
-0.7287919298780847   -0.105296194004342   -0.013896318345983486
-0.7287919298780847   -0.105296194004342   -0.013896318345983486
-0.6900479215741138   -0.03942667972108088   -0.024174248622110275
-0.6900479215741138   -0.03942667972108088   -0.024174248622110275
-0.6900479215741138   -0.03942667972108088   -0.024174248622110275
-0.6900479215741138   -0.03942667972108088   -0.024174248622110275
-0.10610900347768241   0.052421908948702495   0.010844094501396655
-0.10610900347768241   0.052421908948702495   0.010844094501396655
-0.10610900347768241   0.052421908948702495   0.010844094501396655
-0.10610900347768241   0.052421908948702495   0.010844094501396655
-0.41241771035667285   -0.008235180031299874   -0.0002596467543912462
-0.41241771035667285   -0.008235180031299874   -0.0002596467543912462
-0.41241771035667285   -0.008235180031299874   -0.0002596467543912462
-0.41241771035667285   -0.008235180031299874   -0.0002596467543912462
-0.09870971122725296   0.08644025417764575   0.013822210524600729
-0.09870971122725296   0.08644025417764575   0.013822210524600729
-0.09870971122725296   0.08644025417764575   0.013822210524600729
-0.09870971122725296   0.08644025417764575   0.013822210524600729
-0.6959113474595106   -0.07190915858497107   -0.021008899185204315
-0.6959113474595106   -0.07190915858497107   -0.021008899185204315
-0.6959113474595106   -0.07190915858497107   -0.021008899185204315
-0.6959113474595106   -0.07190915858497107   -0.021008899185204315
-0.6581560242066571   -9.347561656913861e-05   -0.03168815380883251
-0.6581560242066571   -9.347561656913861e-05   -0.03168815380883251
-0.6581560242066571   -9.347561656913861e-05   -0.03168815380883251
-0.6581560242066571   -9.347561656913861e-05   -0.03168815380883251
-0.07721608539263149   0.08573941444466783   0.002638169496916691
-0.07721608539263149   0.08573941444466783   0.002638169496916691
-0.07721608539263149   0.08573941444466783   0.002638169496916691
-0.07721608539263149   0.08573941444466783   0.002638169496916691
-0.3806705017242434   0.02466496805498014   0.015434384046397097
-0.3806705017242434   0.02466496805498014   0.015434384046397097
-0.3806705017242434   0.02466496805498014   0.015434384046397097
-0.3806705017242434   0.02466496805498014   0.015434384046397097
-0.7416941592162043   -0.02907562146318543   -0.01140578231655931
-0.7416941592162043   -0.02907562146318543   -0.01140578231655931
-0.7416941592162043   -0.02907562146318543   -0.01140578231655931
-0.7416941592162043   -0.02907562146318543   -0.01140578231655931
-1.3025559725250961   -0.10861011592333053   0.025243153648829245
-1.3025559725250961   -0.10861011592333053   0.025243153648829245
-1.3025559725250961   -0.10861011592333053   0.025243153648829245
-1.3025559725250961   -0.10861011592333053   0.025243153648829245
-1.2845316755384477   -0.11198681810353045   -0.05385311964852971
-1.2845316755384477   -0.11198681810353045   -0.05385311964852971
-1.2845316755384477   -0.11198681810353045   -0.05385311964852971
-1.2845316755384477   -0.11198681810353045   -0.05385311964852971
-0.6852162211573076   0.050423976886911   0.04826205436665507
-0.6852162211573076   0.050423976886911   0.04826205436665507
-0.6852162211573076   0.050423976886911   0.04826205436665507
-0.6852162211573076   0.050423976886911   0.04826205436665507
-0.9965563332810273   -0.04352140038903257   -0.005833730243860184
-0.9965563332810273   -0.04352140038903257   -0.005833730243860184
-0.9965563332810273   -0.04352140038903257   -0.005833730243860184
-0.9965563332810273   -0.04352140038903257   -0.005833730243860184
-0.7062230269614694   0.01097994665676888   -0.01732794442401145
-0.7062230269614694   0.01097994665676888   -0.01732794442401145
-0.7062230269614694   0.01097994665676888   -0.01732794442401145
-0.7062230269614694   0.01097994665676888   -0.01732794442401145
-1.2634539344627735   -0.07247185260187408   0.012020620228195562
-1.2634539344627735   -0.07247185260187408   0.012020620228195562
-1.2634539344627735   -0.07247185260187408   0.012020620228195562
-1.2634539344627735   -0.07247185260187408   0.012020620228195562
-1.2397777440107973   -0.07341682382391085   -0.05956414200591943
-1.2397777440107973   -0.07341682382391085   -0.05956414200591943
-1.2397777440107973   -0.07341682382391085   -0.05956414200591943
-1.2397777440107973   -0.07341682382391085   -0.05956414200591943
-0.6533078552325093   0.0815330566506954   0.03856634671413906
-0.6533078552325093   0.0815330566506954   0.03856634671413906
-0.6533078552325093   0.0815330566506954   0.03856634671413906
-0.6533078552325093   0.0815330566506954   0.03856634671413906
-0.9510481688333521   -0.007013775488031421   0.010697111114602177
-0.9510481688333521   -0.007013775488031421   0.010697111114602177
-0.9510481688333521   -0.007013775488031421   0.010697111114602177
-0.9510481688333521   -0.007013775488031421   0.010697111114602177
-0.673027123357405   0.0467889510466854   -0.025285888306330426
-0.673027123357405   0.0467889510466854   -0.025285888306330426
-0.673027123357405   0.0467889510466854   -0.025285888306330426
-0.673027123357405   0.0467889510466854   -0.025285888306330426
-1.2190295998642642   -0.03764384219826353   0.008403597101099232
-1.2190295998642642   -0.03764384219826353   0.008403597101099232
-1.2190295998642642   -0.03764384219826353   0.008403597101099232
-1.2190295998642642   -0.03764384219826353   0.008403597101099232
-1.1997577268297326   -0.03159745997242536   -0.06262183680947912
-1.1997577268297326   -0.03159745997242536   -0.06262183680947912
-1.1997577268297326   -0.03159745997242536   -0.06262183680947912
-1.1997577268297326   -0.03159745997242536   -0.06262183680947912
-0.6224033872318498   0.11575585905943231   0.031225696389208496
-0.6224033872318498   0.11575585905943231   0.031225696389208496
-0.6224033872318498   0.11575585905943231   0.031225696389208496
-0.6224033872318498   0.11575585905943231   0.031225696389208496
-0.9202072373461774   0.02420947909319998   0.0249619251672301
-0.9202072373461774   0.02420947909319998   0.0249619251672301
-0.9202072373461774   0.02420947909319998   0.0249619251672301
-0.9202072373461774   0.02420947909319998   0.0249619251672301
-1.308091385545558   -0.062396941122974336   -0.0486470862538359
-1.308091385545558   -0.062396941122974336   -0.0486470862538359
-1.308091385545558   -0.062396941122974336   -0.0486470862538359
-1.308091385545558   -0.062396941122974336   -0.0486470862538359
-1.8640397914207771   -0.06717290207891025   0.08432044777901199
-1.8640397914207771   -0.06717290207891025   0.08432044777901199
-1.8640397914207771   -0.06717290207891025   0.08432044777901199
-1.8640397914207771   -0.06717290207891025   0.08432044777901199
-1.827981172100648   -0.13408215702788778   -0.06439736256911152
-1.827981172100648   -0.13408215702788778   -0.06439736256911152
-1.827981172100648   -0.13408215702788778   -0.06439736256911152
-1.827981172100648   -0.13408215702788778   -0.06439736256911152
-1.2133528213320846   0.10437377183971686   0.08568056144004033
-1.2133528213320846   0.10437377183971686   0.08568056144004033
-1.2133528213320846   0.10437377183971686   0.08568056144004033
-1.2133528213320846   0.10437377183971686   0.08568056144004033
-1.4844817232866132   -0.018355783541742166   0.017128773325041452
-1.4844817232866132   -0.018355783541742166   0.017128773325041452
-1.4844817232866132   -0.018355783541742166   0.017128773325041452
-1.4844817232866132   -0.018355783541742166   0.017128773325041452
-1.2661073418014048   -0.01964297688965394   -0.05407529217718571
-1.2661073418014048   -0.01964297688965394   -0.05407529217718571
-1.2661073418014048   -0.01964297688965394   -0.05407529217718571
-1.2661073418014048   -0.01964297688965394   -0.05407529217718571
-1.7743684840737708   -0.009207240740961964   0.0787911612783328
-1.7743684840737708   -0.009207240740961964   0.0787911612783328
-1.7743684840737708   -0.009207240740961964   0.0787911612783328
-1.7743684840737708   -0.009207240740961964   0.0787911612783328
-1.760316979236902   -0.11013870379331098   -0.07582930266584544
-1.760316979236902   -0.11013870379331098   -0.07582930266584544
-1.760316979236902   -0.11013870379331098   -0.07582930266584544
-1.760316979236902   -0.11013870379331098   -0.07582930266584544
-1.1757769718013977   0.11914375994693582   0.06787913527023273
-1.1757769718013977   0.11914375994693582   0.06787913527023273
-1.1757769718013977   0.11914375994693582   0.06787913527023273
-1.1757769718013977   0.11914375994693582   0.06787913527023273
-1.449446347387696   0.007773713238444446   0.030906449464459
-1.449446347387696   0.007773713238444446   0.030906449464459
-1.449446347387696   0.007773713238444446   0.030906449464459
-1.449446347387696   0.007773713238444446   0.030906449464459
-1.2255517917336474   -0.0003250388735891452   -0.06152616557049097
-1.2255517917336474   -0.0003250388735891452   -0.06152616557049097
-1.2255517917336474   -0.0003250388735891452   -0.06152616557049097
-1.2255517917336474   -0.0003250388735891452   -0.06152616557049097
-1.709689357164785   0.01018289716707671   0.05698720673432453
-1.709689357164785   0.01018289716707671   0.05698720673432453
-1.709689357164785   0.01018289716707671   0.05698720673432453
-1.709689357164785   0.01018289716707671   0.05698720673432453
-1.6863970746101973   -0.0813424872227102   -0.08639288913661324
-1.6863970746101973   -0.0813424872227102   -0.08639288913661324
-1.6863970746101973   -0.0813424872227102   -0.08639288913661324
-1.6863970746101973   -0.0813424872227102   -0.08639288913661324
-1.1427359057640343   0.13308225348815833   0.057807555058429605
-1.1427359057640343   0.13308225348815833   0.057807555058429605
-1.1427359057640343   0.13308225348815833   0.057807555058429605
-1.1427359057640343   0.13308225348815833   0.057807555058429605
-1.3749254595035207   0.02951142482369401   0.05169321321009261
-1.3749254595035207   0.02951142482369401   0.05169321321009261
-1.3749254595035207   0.02951142482369401   0.05169321321009261
-1.3749254595035207   0.02951142482369401   0.05169321321009261
1.6434378218774848   0.12276894931472743   0.08721884952950916
1.6434378218774848   0.12276894931472743   0.08721884952950916
1.6434378218774848   0.12276894931472743   0.08721884952950916
1.6434378218774848   0.12276894931472743   0.08721884952950916
0.7251978431757736   -0.1938399361030712   -0.040013672449351306
0.7251978431757736   -0.1938399361030712   -0.040013672449351306
0.7251978431757736   -0.1938399361030712   -0.040013672449351306
0.7251978431757736   -0.1938399361030712   -0.040013672449351306
0.80885315466346   -0.03395701552996691   0.059933120699158585
0.80885315466346   -0.03395701552996691   0.059933120699158585
0.80885315466346   -0.03395701552996691   0.059933120699158585
0.80885315466346   -0.03395701552996691   0.059933120699158585
1.6617033424102599   -0.003344715636176665   -0.06276301481890245
1.6617033424102599   -0.003344715636176665   -0.06276301481890245
1.6617033424102599   -0.003344715636176665   -0.06276301481890245
1.6617033424102599   -0.003344715636176665   -0.06276301481890245
1.138923684632121   -0.03464958462936227   -0.08919002220076747
1.138923684632121   -0.03464958462936227   -0.08919002220076747
1.138923684632121   -0.03464958462936227   -0.08919002220076747
1.138923684632121   -0.03464958462936227   -0.08919002220076747
1.7196830220552284   0.15081705613542062   0.07297361163432782
1.7196830220552284   0.15081705613542062   0.07297361163432782
1.7196830220552284   0.15081705613542062   0.07297361163432782
1.7196830220552284   0.15081705613542062   0.07297361163432782
0.7564385943791488   -0.18255366794090805   -0.0535430283114485
0.7564385943791488   -0.18255366794090805   -0.0535430283114485
0.7564385943791488   -0.18255366794090805   -0.0535430283114485
0.7564385943791488   -0.18255366794090805   -0.0535430283114485
0.8416194954068927   -0.016267209514297415   0.04846620623662312
0.8416194954068927   -0.016267209514297415   0.04846620623662312
0.8416194954068927   -0.016267209514297415   0.04846620623662312
0.8416194954068927   -0.016267209514297415   0.04846620623662312
1.7188854554213304   0.01616618016378263   -0.07845355632885839
1.7188854554213304   0.01616618016378263   -0.07845355632885839
1.7188854554213304   0.01616618016378263   -0.07845355632885839
1.7188854554213304   0.01616618016378263   -0.07845355632885839
1.2106786069004842   -0.013786248965777459   -0.06064915576519836
1.2106786069004842   -0.013786248965777459   -0.06064915576519836
1.2106786069004842   -0.013786248965777459   -0.06064915576519836
1.2106786069004842   -0.013786248965777459   -0.06064915576519836
1.7765303000965211   0.17184089968206595   0.054095947528811805
1.7765303000965211   0.17184089968206595   0.054095947528811805
1.7765303000965211   0.17184089968206595   0.054095947528811805
1.7765303000965211   0.17184089968206595   0.054095947528811805
0.7888483845936214   -0.1670681951706614   -0.06458836217336966
0.7888483845936214   -0.1670681951706614   -0.06458836217336966
0.7888483845936214   -0.1670681951706614   -0.06458836217336966
0.7888483845936214   -0.1670681951706614   -0.06458836217336966
0.8712951767656147   0.030964445884908876   0.04249174923598285
0.8712951767656147   0.030964445884908876   0.04249174923598285
0.8712951767656147   0.030964445884908876   0.04249174923598285
0.8712951767656147   0.030964445884908876   0.04249174923598285
1.7892115145368024   0.07324334180081138   -0.0821684417179949
1.7892115145368024   0.07324334180081138   -0.0821684417179949
1.7892115145368024   0.07324334180081138   -0.0821684417179949
1.7892115145368024   0.07324334180081138   -0.0821684417179949
1.237613472065871   0.01428230903172717   -0.04087575018116529
1.237613472065871   0.01428230903172717   -0.04087575018116529
1.237613472065871   0.01428230903172717   -0.04087575018116529
1.237613472065871   0.01428230903172717   -0.04087575018116529
0.8022586102283545   0.07170384316028618   0.07974638355018811
0.8022586102283545   0.07170384316028618   0.07974638355018811
0.8022586102283545   0.07170384316028618   0.07974638355018811
0.8022586102283545   0.07170384316028618   0.07974638355018811
-0.09866921452061256   -0.23895524858894135   -0.022768157936158696
-0.09866921452061256   -0.23895524858894135   -0.022768157936158696
-0.09866921452061256   -0.23895524858894135   -0.022768157936158696
-0.09866921452061256   -0.23895524858894135   -0.022768157936158696
-0.026565906502469483   -0.08423614441489954   0.020341104917297056
-0.026565906502469483   -0.08423614441489954   0.020341104917297056
-0.026565906502469483   -0.08423614441489954   0.020341104917297056
-0.026565906502469483   -0.08423614441489954   0.020341104917297056
0.795533727975618   -0.04453543333437471   0.003914405064356884
0.795533727975618   -0.04453543333437471   0.003914405064356884
0.795533727975618   -0.04453543333437471   0.003914405064356884
0.795533727975618   -0.04453543333437471   0.003914405064356884
0.35816652832589907   -0.06674154439290263   -0.04256472799491389
0.35816652832589907   -0.06674154439290263   -0.04256472799491389
0.35816652832589907   -0.06674154439290263   -0.04256472799491389
0.35816652832589907   -0.06674154439290263   -0.04256472799491389
0.8375100831885341   0.0986358184156291   0.07062492937893669
0.8375100831885341   0.0986358184156291   0.07062492937893669
0.8375100831885341   0.0986358184156291   0.07062492937893669
0.8375100831885341   0.0986358184156291   0.07062492937893669
-0.06561505895894382   -0.22448019340846107   -0.0346606083715131
-0.06561505895894382   -0.22448019340846107   -0.0346606083715131
-0.06561505895894382   -0.22448019340846107   -0.0346606083715131
-0.06561505895894382   -0.22448019340846107   -0.0346606083715131
0.00684969389751796   -0.05259970477459611   0.012431511231777014
0.00684969389751796   -0.05259970477459611   0.012431511231777014
0.00684969389751796   -0.05259970477459611   0.012431511231777014
0.00684969389751796   -0.05259970477459611   0.012431511231777014
0.8297412752413872   -0.02068362129531906   -0.006508482809883032
0.8297412752413872   -0.02068362129531906   -0.006508482809883032
0.8297412752413872   -0.02068362129531906   -0.006508482809883032
0.8297412752413872   -0.02068362129531906   -0.006508482809883032
0.38721280386833573   -0.04732222361400165   -0.02760264376904953
0.38721280386833573   -0.04732222361400165   -0.02760264376904953
0.38721280386833573   -0.04732222361400165   -0.02760264376904953
0.38721280386833573   -0.04732222361400165   -0.02760264376904953
0.8739729619875372   0.13094326043513482   0.0630230691904125
0.8739729619875372   0.13094326043513482   0.0630230691904125
0.8739729619875372   0.13094326043513482   0.0630230691904125
0.8739729619875372   0.13094326043513482   0.0630230691904125
-0.03564569132362512   -0.20249028498004318   -0.05015483466849131
-0.03564569132362512   -0.20249028498004318   -0.05015483466849131
-0.03564569132362512   -0.20249028498004318   -0.05015483466849131
-0.03564569132362512   -0.20249028498004318   -0.05015483466849131
0.033076685721215054   -0.015572447479387722   0.004434351334875655
0.033076685721215054   -0.015572447479387722   0.004434351334875655
0.033076685721215054   -0.015572447479387722   0.004434351334875655
0.033076685721215054   -0.015572447479387722   0.004434351334875655
0.8553630295440329   0.009722710968438297   -0.01592725195546743
0.8553630295440329   0.009722710968438297   -0.01592725195546743
0.8553630295440329   0.009722710968438297   -0.01592725195546743
0.8553630295440329   0.009722710968438297   -0.01592725195546743
0.42273462286655517   -0.018285036418757034   -0.011565499785344106
0.42273462286655517   -0.018285036418757034   -0.011565499785344106
0.42273462286655517   -0.018285036418757034   -0.011565499785344106
0.42273462286655517   -0.018285036418757034   -0.011565499785344106
-0.03442438698025611   0.01990341122663547   0.039597319950046735
-0.03442438698025611   0.01990341122663547   0.039597319950046735
-0.03442438698025611   0.01990341122663547   0.039597319950046735
-0.03442438698025611   0.01990341122663547   0.039597319950046735
-0.9162003219489876   -0.3000155910468668   -0.018344170311717152
-0.9162003219489876   -0.3000155910468668   -0.018344170311717152
-0.9162003219489876   -0.3000155910468668   -0.018344170311717152
-0.9162003219489876   -0.3000155910468668   -0.018344170311717152
-0.843196788983305   -0.12925174278266915   -0.019269203132460423
-0.843196788983305   -0.12925174278266915   -0.019269203132460423
-0.843196788983305   -0.12925174278266915   -0.019269203132460423
-0.843196788983305   -0.12925174278266915   -0.019269203132460423
-0.030955514087124276   -0.10367392440766975   0.017830846986793283
-0.030955514087124276   -0.10367392440766975   0.017830846986793283
-0.030955514087124276   -0.10367392440766975   0.017830846986793283
-0.030955514087124276   -0.10367392440766975   0.017830846986793283
-0.4582804386451054   -0.12138642352790799   -0.03803913630022032
-0.4582804386451054   -0.12138642352790799   -0.03803913630022032
-0.4582804386451054   -0.12138642352790799   -0.03803913630022032
-0.4582804386451054   -0.12138642352790799   -0.03803913630022032
0.0026876040655223928   0.050211232601716484   0.03216128074064042
0.0026876040655223928   0.050211232601716484   0.03216128074064042
0.0026876040655223928   0.050211232601716484   0.03216128074064042
0.0026876040655223928   0.050211232601716484   0.03216128074064042
-0.8747280935829516   -0.2810250862390451   -0.025152382674317512
-0.8747280935829516   -0.2810250862390451   -0.025152382674317512
-0.8747280935829516   -0.2810250862390451   -0.025152382674317512
-0.8747280935829516   -0.2810250862390451   -0.025152382674317512
-0.8017553653316094   -0.09412722463491038   -0.026255211562802104
-0.8017553653316094   -0.09412722463491038   -0.026255211562802104
-0.8017553653316094   -0.09412722463491038   -0.026255211562802104
-0.8017553653316094   -0.09412722463491038   -0.026255211562802104
0.0001805706947252579   -0.08075697149807962   0.0072431619412970105
0.0001805706947252579   -0.08075697149807962   0.0072431619412970105
0.0001805706947252579   -0.08075697149807962   0.0072431619412970105
0.0001805706947252579   -0.08075697149807962   0.0072431619412970105
-0.41805101490605306   -0.09614273690243541   -0.021143249831921736
-0.41805101490605306   -0.09614273690243541   -0.021143249831921736
-0.41805101490605306   -0.09614273690243541   -0.021143249831921736
-0.41805101490605306   -0.09614273690243541   -0.021143249831921736
0.03665047912633568   0.0838101109079108   0.02502562169335872
0.03665047912633568   0.0838101109079108   0.02502562169335872
0.03665047912633568   0.0838101109079108   0.02502562169335872
0.03665047912633568   0.0838101109079108   0.02502562169335872
-0.8382504563887152   -0.25871948966640507   -0.044138401816828515
-0.8382504563887152   -0.25871948966640507   -0.044138401816828515
-0.8382504563887152   -0.25871948966640507   -0.044138401816828515
-0.8382504563887152   -0.25871948966640507   -0.044138401816828515
-0.772472978770905   -0.060653621746320996   -0.034070118079753936
-0.772472978770905   -0.060653621746320996   -0.034070118079753936
-0.772472978770905   -0.060653621746320996   -0.034070118079753936
-0.772472978770905   -0.060653621746320996   -0.034070118079753936
0.02063263957688518   -0.06246434614481733   -0.010893980721344086
0.02063263957688518   -0.06246434614481733   -0.010893980721344086
0.02063263957688518   -0.06246434614481733   -0.010893980721344086
0.02063263957688518   -0.06246434614481733   -0.010893980721344086
-0.3885409650792871   -0.07260920264909562   -0.010579861741782987
-0.3885409650792871   -0.07260920264909562   -0.010579861741782987
-0.3885409650792871   -0.07260920264909562   -0.010579861741782987
-0.3885409650792871   -0.07260920264909562   -0.010579861741782987
-0.8577890354545614   -0.024971687513567736   -0.0013316413728914206
-0.8577890354545614   -0.024971687513567736   -0.0013316413728914206
-0.8577890354545614   -0.024971687513567736   -0.0013316413728914206
-0.8577890354545614   -0.024971687513567736   -0.0013316413728914206
-1.7373895896609453   -0.3225527143113403   -0.014784383374503128
-1.7373895896609453   -0.3225527143113403   -0.014784383374503128
-1.7373895896609453   -0.3225527143113403   -0.014784383374503128
-1.7373895896609453   -0.3225527143113403   -0.014784383374503128
-1.6589240493011423   -0.16544967429117693   -0.05739837337995001
-1.6589240493011423   -0.16544967429117693   -0.05739837337995001
-1.6589240493011423   -0.16544967429117693   -0.05739837337995001
-1.6589240493011423   -0.16544967429117693   -0.05739837337995001
-0.827455982172073   -0.10768727309334675   0.03787036123436978
-0.827455982172073   -0.10768727309334675   0.03787036123436978
-0.827455982172073   -0.10768727309334675   0.03787036123436978
-0.827455982172073   -0.10768727309334675   0.03787036123436978
-1.259245108750297   -0.14586180245965535   -0.026820200604662222
-1.259245108750297   -0.14586180245965535   -0.026820200604662222
-1.259245108750297   -0.14586180245965535   -0.026820200604662222
-1.259245108750297   -0.14586180245965535   -0.026820200604662222
-0.8120095229237685   0.014079985447330662   -0.006664601064785718
-0.8120095229237685   0.014079985447330662   -0.006664601064785718
-0.8120095229237685   0.014079985447330662   -0.006664601064785718
-0.8120095229237685   0.014079985447330662   -0.006664601064785718
-1.6750588049722752   -0.287905229254691   -0.015616596772087609
-1.6750588049722752   -0.287905229254691   -0.015616596772087609
-1.6750588049722752   -0.287905229254691   -0.015616596772087609
-1.6750588049722752   -0.287905229254691   -0.015616596772087609
-1.5997031870012903   -0.12875651145596606   -0.06648616205032616
-1.5997031870012903   -0.12875651145596606   -0.06648616205032616
-1.5997031870012903   -0.12875651145596606   -0.06648616205032616
-1.5997031870012903   -0.12875651145596606   -0.06648616205032616
-0.7871970626698138   -0.08012480303737154   0.03253388014864475
-0.7871970626698138   -0.08012480303737154   0.03253388014864475
-0.7871970626698138   -0.08012480303737154   0.03253388014864475
-0.7871970626698138   -0.08012480303737154   0.03253388014864475
-1.1984150733747425   -0.11065904163724494   -0.00885257492614927
-1.1984150733747425   -0.11065904163724494   -0.00885257492614927
-1.1984150733747425   -0.11065904163724494   -0.00885257492614927
-1.1984150733747425   -0.11065904163724494   -0.00885257492614927
-0.770466375552838   0.048000488152515064   -0.011937975456372582
-0.770466375552838   0.048000488152515064   -0.011937975456372582
-0.770466375552838   0.048000488152515064   -0.011937975456372582
-0.770466375552838   0.048000488152515064   -0.011937975456372582
-1.6193038377012092   -0.25975176622878526   -0.03349416077708972
-1.6193038377012092   -0.25975176622878526   -0.03349416077708972
-1.6193038377012092   -0.25975176622878526   -0.03349416077708972
-1.6193038377012092   -0.25975176622878526   -0.03349416077708972
-1.5516246232119584   -0.09005297420852965   -0.0685972339704928
-1.5516246232119584   -0.09005297420852965   -0.0685972339704928
-1.5516246232119584   -0.09005297420852965   -0.0685972339704928
-1.5516246232119584   -0.09005297420852965   -0.0685972339704928
-0.7640641730713574   -0.0626020534235463   0.009922342095214788
-0.7640641730713574   -0.0626020534235463   0.009922342095214788
-0.7640641730713574   -0.0626020534235463   0.009922342095214788
-0.7640641730713574   -0.0626020534235463   0.009922342095214788
-1.164775561580793   -0.08919240997409023   -0.0029972806840317043
-1.164775561580793   -0.08919240997409023   -0.0029972806840317043
-1.164775561580793   -0.08919240997409023   -0.0029972806840317043
-1.164775561580793   -0.08919240997409023   -0.0029972806840317043
-1.6898448173630911   -0.05760053671873144   -0.0420126994778415
-1.6898448173630911   -0.05760053671873144   -0.0420126994778415
-1.6898448173630911   -0.05760053671873144   -0.0420126994778415
-1.6898448173630911   -0.05760053671873144   -0.0420126994778415
-2.5480109130705406   -0.2178113735839372   0.09664169814264983
-2.5480109130705406   -0.2178113735839372   0.09664169814264983
-2.5480109130705406   -0.2178113735839372   0.09664169814264983
-2.5480109130705406   -0.2178113735839372   0.09664169814264983
-2.460194144537505   -0.17336018080738091   -0.05614787859002773
-2.460194144537505   -0.17336018080738091   -0.05614787859002773
-2.460194144537505   -0.17336018080738091   -0.05614787859002773
-2.460194144537505   -0.17336018080738091   -0.05614787859002773
-1.5875222589804308   0.04538439859045729   0.08877650534195855
-1.5875222589804308   0.04538439859045729   0.08877650534195855
-1.5875222589804308   0.04538439859045729   0.08877650534195855
-1.5875222589804308   0.04538439859045729   0.08877650534195855
-1.97875274890205   -0.06843420683164386   0.009306354120169932
-1.97875274890205   -0.06843420683164386   0.009306354120169932
-1.97875274890205   -0.06843420683164386   0.009306354120169932
-1.97875274890205   -0.06843420683164386   0.009306354120169932
-1.6245288215578928   -0.004309935237022944   -0.04656197371785037
-1.6245288215578928   -0.004309935237022944   -0.04656197371785037
-1.6245288215578928   -0.004309935237022944   -0.04656197371785037
-1.6245288215578928   -0.004309935237022944   -0.04656197371785037
-2.417217898593539   -0.11769616361339319   0.10306933393581438
-2.417217898593539   -0.11769616361339319   0.10306933393581438
-2.417217898593539   -0.11769616361339319   0.10306933393581438
-2.417217898593539   -0.11769616361339319   0.10306933393581438
-2.3660097755864284   -0.1458518308742766   -0.06686601505086005
-2.3660097755864284   -0.1458518308742766   -0.06686601505086005
-2.3660097755864284   -0.1458518308742766   -0.06686601505086005
-2.3660097755864284   -0.1458518308742766   -0.06686601505086005
-1.5289407040439373   0.0728180600132955   0.08575168126717646
-1.5289407040439373   0.0728180600132955   0.08575168126717646
-1.5289407040439373   0.0728180600132955   0.08575168126717646
-1.5289407040439373   0.0728180600132955   0.08575168126717646
-1.923007519771919   -0.027607335612387374   0.03936620424975912
-1.923007519771919   -0.027607335612387374   0.03936620424975912
-1.923007519771919   -0.027607335612387374   0.03936620424975912
-1.923007519771919   -0.027607335612387374   0.03936620424975912
-1.567265832342599   0.01721581728507038   -0.05027171749789325
-1.567265832342599   0.01721581728507038   -0.05027171749789325
-1.567265832342599   0.01721581728507038   -0.05027171749789325
-1.567265832342599   0.01721581728507038   -0.05027171749789325
-2.3264870576764194   -0.08905199853470602   0.0739477421595894
-2.3264870576764194   -0.08905199853470602   0.0739477421595894
-2.3264870576764194   -0.08905199853470602   0.0739477421595894
-2.3264870576764194   -0.08905199853470602   0.0739477421595894
-2.2686196526689226   -0.11981572215050917   -0.08079857623001946
-2.2686196526689226   -0.11981572215050917   -0.08079857623001946
-2.2686196526689226   -0.11981572215050917   -0.08079857623001946
-2.2686196526689226   -0.11981572215050917   -0.08079857623001946
-1.4854745765767348   0.10573165025294323   0.06636837474415086
-1.4854745765767348   0.10573165025294323   0.06636837474415086
-1.4854745765767348   0.10573165025294323   0.06636837474415086
-1.4854745765767348   0.10573165025294323   0.06636837474415086
-1.8183745720819877   0.007312210514083817   0.06943236431345672
-1.8183745720819877   0.007312210514083817   0.06943236431345672
-1.8183745720819877   0.007312210514083817   0.06943236431345672
-1.8183745720819877   0.007312210514083817   0.06943236431345672
2.2454670858012786   0.13452956490542434   0.08156458996762084
2.2454670858012786   0.13452956490542434   0.08156458996762084
2.2454670858012786   0.13452956490542434   0.08156458996762084
2.2454670858012786   0.13452956490542434   0.08156458996762084
1.0707508006809998   -0.20072586457138336   0.01841568415540211
1.0707508006809998   -0.20072586457138336   0.01841568415540211
1.0707508006809998   -0.20072586457138336   0.01841568415540211
1.0707508006809998   -0.20072586457138336   0.01841568415540211
1.1299864227127134   -0.08457613591268254   0.06279680349611441
1.1299864227127134   -0.08457613591268254   0.06279680349611441
1.1299864227127134   -0.08457613591268254   0.06279680349611441
1.1299864227127134   -0.08457613591268254   0.06279680349611441
2.2573929647280813   0.0188474965400095   -0.018010067228389548
2.2573929647280813   0.0188474965400095   -0.018010067228389548
2.2573929647280813   0.0188474965400095   -0.018010067228389548
2.2573929647280813   0.0188474965400095   -0.018010067228389548
1.5788917512551974   -0.043213626542219497   -0.10502837376043173
1.5788917512551974   -0.043213626542219497   -0.10502837376043173
1.5788917512551974   -0.043213626542219497   -0.10502837376043173
1.5788917512551974   -0.043213626542219497   -0.10502837376043173
2.3000847919063054   0.14978624188946799   0.06451032331327455
2.3000847919063054   0.14978624188946799   0.06451032331327455
2.3000847919063054   0.14978624188946799   0.06451032331327455
2.3000847919063054   0.14978624188946799   0.06451032331327455
1.0975494406772572   -0.2052600361193727   0.021295793525523243
1.0975494406772572   -0.2052600361193727   0.021295793525523243
1.0975494406772572   -0.2052600361193727   0.021295793525523243
1.0975494406772572   -0.2052600361193727   0.021295793525523243
1.152461246092902   -0.07186823261691105   0.04779858909610152
1.152461246092902   -0.07186823261691105   0.04779858909610152
1.152461246092902   -0.07186823261691105   0.04779858909610152
1.152461246092902   -0.07186823261691105   0.04779858909610152
2.297058491975586   0.033180971787125146   -0.00536688373031978
2.297058491975586   0.033180971787125146   -0.00536688373031978
2.297058491975586   0.033180971787125146   -0.00536688373031978
2.297058491975586   0.033180971787125146   -0.00536688373031978
1.6441324273585174   -0.034197486594670035   -0.07171828929327495
1.6441324273585174   -0.034197486594670035   -0.07171828929327495
1.6441324273585174   -0.034197486594670035   -0.07171828929327495
1.6441324273585174   -0.034197486594670035   -0.07171828929327495
2.333167523560186   0.16365429521107233   0.04470495076873407
2.333167523560186   0.16365429521107233   0.04470495076873407
2.333167523560186   0.16365429521107233   0.04470495076873407
2.333167523560186   0.16365429521107233   0.04470495076873407
1.123486081192444   -0.19520768935671584   0.026262221333617178
1.123486081192444   -0.19520768935671584   0.026262221333617178
1.123486081192444   -0.19520768935671584   0.026262221333617178
1.123486081192444   -0.19520768935671584   0.026262221333617178
1.1855207347159387   -0.02232205879448429   0.04369533512632921
1.1855207347159387   -0.02232205879448429   0.04369533512632921
1.1855207347159387   -0.02232205879448429   0.04369533512632921
1.1855207347159387   -0.02232205879448429   0.04369533512632921
2.338286614775671   0.0659630981875865   -0.0007255208863332918
2.338286614775671   0.0659630981875865   -0.0007255208863332918
2.338286614775671   0.0659630981875865   -0.0007255208863332918
2.338286614775671   0.0659630981875865   -0.0007255208863332918
1.652334514175917   -0.0158371867480121   -0.05356485192900719
1.652334514175917   -0.0158371867480121   -0.05356485192900719
1.652334514175917   -0.0158371867480121   -0.05356485192900719
1.652334514175917   -0.0158371867480121   -0.05356485192900719
1.1299717553042514   0.02840457958609885   0.08539001311417829
1.1299717553042514   0.02840457958609885   0.08539001311417829
1.1299717553042514   0.02840457958609885   0.08539001311417829
1.1299717553042514   0.02840457958609885   0.08539001311417829
0.060199750596621304   -0.4002348146749916   0.04123833466046736
0.060199750596621304   -0.4002348146749916   0.04123833466046736
0.060199750596621304   -0.4002348146749916   0.04123833466046736
0.060199750596621304   -0.4002348146749916   0.04123833466046736
0.13745406388314943   -0.16925493507632886   0.038396560447116194
0.13745406388314943   -0.16925493507632886   0.038396560447116194
0.13745406388314943   -0.16925493507632886   0.038396560447116194
0.13745406388314943   -0.16925493507632886   0.038396560447116194
1.1009414497112098   -0.19300265358317942   0.0259984561590849
1.1009414497112098   -0.19300265358317942   0.0259984561590849
1.1009414497112098   -0.19300265358317942   0.0259984561590849
1.1009414497112098   -0.19300265358317942   0.0259984561590849
0.5874000397426542   -0.17964154817822808   -0.06726010502370869
0.5874000397426542   -0.17964154817822808   -0.06726010502370869
0.5874000397426542   -0.17964154817822808   -0.06726010502370869
0.5874000397426542   -0.17964154817822808   -0.06726010502370869
1.1568400231229519   0.041200565507611614   0.07128810412701606
1.1568400231229519   0.041200565507611614   0.07128810412701606
1.1568400231229519   0.041200565507611614   0.07128810412701606
1.1568400231229519   0.041200565507611614   0.07128810412701606
0.09631156177904372   -0.38870208285947067   0.052131197709733304
0.09631156177904372   -0.38870208285947067   0.052131197709733304
0.09631156177904372   -0.38870208285947067   0.052131197709733304
0.09631156177904372   -0.38870208285947067   0.052131197709733304
0.16853560184003122   -0.1460520280412696   0.0278551568617202
0.16853560184003122   -0.1460520280412696   0.0278551568617202
0.16853560184003122   -0.1460520280412696   0.0278551568617202
0.16853560184003122   -0.1460520280412696   0.0278551568617202
1.1275360384781412   -0.18086733492015605   0.0321716533255426
1.1275360384781412   -0.18086733492015605   0.0321716533255426
1.1275360384781412   -0.18086733492015605   0.0321716533255426
1.1275360384781412   -0.18086733492015605   0.0321716533255426
0.6138795918083026   -0.1707726171610485   -0.03362948005339786
0.6138795918083026   -0.1707726171610485   -0.03362948005339786
0.6138795918083026   -0.1707726171610485   -0.03362948005339786
0.6138795918083026   -0.1707726171610485   -0.03362948005339786
1.1818961442635205   0.06305834878128402   0.06004649855099925
1.1818961442635205   0.06305834878128402   0.06004649855099925
1.1818961442635205   0.06305834878128402   0.06004649855099925
1.1818961442635205   0.06305834878128402   0.06004649855099925
0.12837370603338127   -0.37577950176397973   0.05677315155118422
0.12837370603338127   -0.37577950176397973   0.05677315155118422
0.12837370603338127   -0.37577950176397973   0.05677315155118422
0.12837370603338127   -0.37577950176397973   0.05677315155118422
0.21622744416055414   -0.11122436024195943   0.01847297737596129
0.21622744416055414   -0.11122436024195943   0.01847297737596129
0.21622744416055414   -0.11122436024195943   0.01847297737596129
0.21622744416055414   -0.11122436024195943   0.01847297737596129
1.156654369964528   -0.162413303653821   0.03945475622861294
1.156654369964528   -0.162413303653821   0.03945475622861294
1.156654369964528   -0.162413303653821   0.03945475622861294
1.156654369964528   -0.162413303653821   0.03945475622861294
0.6602343365424914   -0.14926566755835893   0.005499636775692179
0.6602343365424914   -0.14926566755835893   0.005499636775692179
0.6602343365424914   -0.14926566755835893   0.005499636775692179
0.6602343365424914   -0.14926566755835893   0.005499636775692179
0.12767950791364746   -0.07657527474822923   0.054977581318835726
0.12767950791364746   -0.07657527474822923   0.054977581318835726
0.12767950791364746   -0.07657527474822923   0.054977581318835726
0.12767950791364746   -0.07657527474822923   0.054977581318835726
-0.9587855474484377   -0.687780696121671   0.059639658334316586
-0.9587855474484377   -0.687780696121671   0.059639658334316586
-0.9587855474484377   -0.687780696121671   0.059639658334316586
-0.9587855474484377   -0.687780696121671   0.059639658334316586
-0.8365966717495837   -0.26755457265625066   0.0040687634062868475
-0.8365966717495837   -0.26755457265625066   0.0040687634062868475
-0.8365966717495837   -0.26755457265625066   0.0040687634062868475
-0.8365966717495837   -0.26755457265625066   0.0040687634062868475
0.06792269469718742   -0.5011209224788314   0.02260570191981262
0.06792269469718742   -0.5011209224788314   0.02260570191981262
0.06792269469718742   -0.5011209224788314   0.02260570191981262
0.06792269469718742   -0.5011209224788314   0.02260570191981262
-0.41253297849128423   -0.3860117387385217   -0.0807135327708851
-0.41253297849128423   -0.3860117387385217   -0.0807135327708851
-0.41253297849128423   -0.3860117387385217   -0.0807135327708851
-0.41253297849128423   -0.3860117387385217   -0.0807135327708851
0.16022566843065036   -0.06033660639983501   0.04333625450813095
0.16022566843065036   -0.06033660639983501   0.04333625450813095
0.16022566843065036   -0.06033660639983501   0.04333625450813095
0.16022566843065036   -0.06033660639983501   0.04333625450813095
-0.9075611485485638   -0.6870003918007632   0.06869219855590478
-0.9075611485485638   -0.6870003918007632   0.06869219855590478
-0.9075611485485638   -0.6870003918007632   0.06869219855590478
-0.9075611485485638   -0.6870003918007632   0.06869219855590478
-0.789468435740807   -0.2401192624427851   8.071365336339772e-05
-0.789468435740807   -0.2401192624427851   8.071365336339772e-05
-0.789468435740807   -0.2401192624427851   8.071365336339772e-05
-0.789468435740807   -0.2401192624427851   8.071365336339772e-05
0.10068374362289328   -0.4901685107630266   0.032712348497791255
0.10068374362289328   -0.4901685107630266   0.032712348497791255
0.10068374362289328   -0.4901685107630266   0.032712348497791255
0.10068374362289328   -0.4901685107630266   0.032712348497791255
-0.3648146103802884   -0.3729012060310664   -0.030138458125124168
-0.3648146103802884   -0.3729012060310664   -0.030138458125124168
-0.3648146103802884   -0.3729012060310664   -0.030138458125124168
-0.3648146103802884   -0.3729012060310664   -0.030138458125124168
0.1899807074640854   -0.038699870953611853   0.027728527894337055
0.1899807074640854   -0.038699870953611853   0.027728527894337055
0.1899807074640854   -0.038699870953611853   0.027728527894337055
0.1899807074640854   -0.038699870953611853   0.027728527894337055
-0.8594901778834756   -0.672312680553674   0.08216542105092331
-0.8594901778834756   -0.672312680553674   0.08216542105092331
-0.8594901778834756   -0.672312680553674   0.08216542105092331
-0.8594901778834756   -0.672312680553674   0.08216542105092331
-0.7117025008733551   -0.208509959006958   -0.008786904581868607
-0.7117025008733551   -0.208509959006958   -0.008786904581868607
-0.7117025008733551   -0.208509959006958   -0.008786904581868607
-0.7117025008733551   -0.208509959006958   -0.008786904581868607
0.1518283673024476   -0.459472292761937   0.04472552560540599
0.1518283673024476   -0.459472292761937   0.04472552560540599
0.1518283673024476   -0.459472292761937   0.04472552560540599
0.1518283673024476   -0.459472292761937   0.04472552560540599
-0.30287162790462985   -0.3434451748390899   0.02283674366574999
-0.30287162790462985   -0.3434451748390899   0.02283674366574999
-0.30287162790462985   -0.3434451748390899   0.02283674366574999
-0.30287162790462985   -0.3434451748390899   0.02283674366574999
-0.8555134074946269   -0.13798055733903158   0.026200219320722036
-0.8555134074946269   -0.13798055733903158   0.026200219320722036
-0.8555134074946269   -0.13798055733903158   0.026200219320722036
-0.8555134074946269   -0.13798055733903158   0.026200219320722036
-2.1345759067316723   -1.071039141609675   -0.05073246221951294
-2.1345759067316723   -1.071039141609675   -0.05073246221951294
-2.1345759067316723   -1.071039141609675   -0.05073246221951294
-2.1345759067316723   -1.071039141609675   -0.05073246221951294
-1.932874026453856   -0.3481448955945216   -0.0589997069897215
-1.932874026453856   -0.3481448955945216   -0.0589997069897215
-1.932874026453856   -0.3481448955945216   -0.0589997069897215
-1.932874026453856   -0.3481448955945216   -0.0589997069897215
-0.9595232634402212   -0.8959725183862036   0.01785375068305259
-0.9595232634402212   -0.8959725183862036   0.01785375068305259
-0.9595232634402212   -0.8959725183862036   0.01785375068305259
-0.9595232634402212   -0.8959725183862036   0.01785375068305259
-1.468949925585522   -0.6334815118546981   -0.08475538562595028
-1.468949925585522   -0.6334815118546981   -0.08475538562595028
-1.468949925585522   -0.6334815118546981   -0.08475538562595028
-1.468949925585522   -0.6334815118546981   -0.08475538562595028
-0.7998249820039167   -0.10471718117577296   0.02508982065414388
-0.7998249820039167   -0.10471718117577296   0.02508982065414388
-0.7998249820039167   -0.10471718117577296   0.02508982065414388
-0.7998249820039167   -0.10471718117577296   0.02508982065414388
-2.087784279219225   -1.134612204134017   -0.04708366227707195
-2.087784279219225   -1.134612204134017   -0.04708366227707195
-2.087784279219225   -1.134612204134017   -0.04708366227707195
-2.087784279219225   -1.134612204134017   -0.04708366227707195
-1.8701676923926265   -0.3152470528049033   -0.06010673896620114
-1.8701676923926265   -0.3152470528049033   -0.06010673896620114
-1.8701676923926265   -0.3152470528049033   -0.06010673896620114
-1.8701676923926265   -0.3152470528049033   -0.06010673896620114
-0.9138544733013375   -0.889001957131307   0.027033220539240482
-0.9138544733013375   -0.889001957131307   0.027033220539240482
-0.9138544733013375   -0.889001957131307   0.027033220539240482
-0.9138544733013375   -0.889001957131307   0.027033220539240482
-1.4031967386375161   -0.6164351111850033   -0.059577016494726784
-1.4031967386375161   -0.6164351111850033   -0.059577016494726784
-1.4031967386375161   -0.6164351111850033   -0.059577016494726784
-1.4031967386375161   -0.6164351111850033   -0.059577016494726784
-0.7554943008529548   -0.07860383464479992   0.008435960294643857
-0.7554943008529548   -0.07860383464479992   0.008435960294643857
-0.7554943008529548   -0.07860383464479992   0.008435960294643857
-0.7554943008529548   -0.07860383464479992   0.008435960294643857
-2.0284774068314264   -1.1255947172818255   -0.04130764668326303
-2.0284774068314264   -1.1255947172818255   -0.04130764668326303
-2.0284774068314264   -1.1255947172818255   -0.04130764668326303
-2.0284774068314264   -1.1255947172818255   -0.04130764668326303
-1.7723768951599723   -0.2798757813176347   -0.06813357528661224
-1.7723768951599723   -0.2798757813176347   -0.06813357528661224
-1.7723768951599723   -0.2798757813176347   -0.06813357528661224
-1.7723768951599723   -0.2798757813176347   -0.06813357528661224
-0.8150550730060914   -0.7996455853246932   0.0655858610721963
-0.8150550730060914   -0.7996455853246932   0.0655858610721963
-0.8150550730060914   -0.7996455853246932   0.0655858610721963
-0.8150550730060914   -0.7996455853246932   0.0655858610721963
-1.3298045273659982   -0.5589013543393071   -0.033300998454030034
-1.3298045273659982   -0.5589013543393071   -0.033300998454030034
-1.3298045273659982   -0.5589013543393071   -0.033300998454030034
-1.3298045273659982   -0.5589013543393071   -0.033300998454030034
-1.9364499436227027   -0.11754656414979664   -0.013595224134545933
-1.9364499436227027   -0.11754656414979664   -0.013595224134545933
-1.9364499436227027   -0.11754656414979664   -0.013595224134545933
-1.9364499436227027   -0.11754656414979664   -0.013595224134545933
-3.4185795099603693   -0.6767439169183733   0.034859925368502354
-3.4185795099603693   -0.6767439169183733   0.034859925368502354
-3.4185795099603693   -0.6767439169183733   0.034859925368502354
-3.4185795099603693   -0.6767439169183733   0.034859925368502354
-3.283804556191455   -0.3260607427844542   -0.0721669043216357
-3.283804556191455   -0.3260607427844542   -0.0721669043216357
-3.283804556191455   -0.3260607427844542   -0.0721669043216357
-3.283804556191455   -0.3260607427844542   -0.0721669043216357
-1.8931638545275722   -0.35029293291340213   0.14169918996056163
-1.8931638545275722   -0.35029293291340213   0.14169918996056163
-1.8931638545275722   -0.35029293291340213   0.14169918996056163
-1.8931638545275722   -0.35029293291340213   0.14169918996056163
-2.526311655996679   -0.392631348243152   0.03633194752569356
-2.526311655996679   -0.392631348243152   0.03633194752569356
-2.526311655996679   -0.392631348243152   0.03633194752569356
-2.526311655996679   -0.392631348243152   0.03633194752569356
-1.8565751845434904   -0.026092971830859235   0.00044257879843570547
-1.8565751845434904   -0.026092971830859235   0.00044257879843570547
-1.8565751845434904   -0.026092971830859235   0.00044257879843570547
-1.8565751845434904   -0.026092971830859235   0.00044257879843570547
-3.333261004968699   -0.6631284826601724   0.01761859166783708
-3.333261004968699   -0.6631284826601724   0.01761859166783708
-3.333261004968699   -0.6631284826601724   0.01761859166783708
-3.333261004968699   -0.6631284826601724   0.01761859166783708
-3.209466957010969   -0.298756016498471   -0.09159244832468576
-3.209466957010969   -0.298756016498471   -0.09159244832468576
-3.209466957010969   -0.298756016498471   -0.09159244832468576
-3.209466957010969   -0.298756016498471   -0.09159244832468576
-1.8286089171555717   -0.33269480545689767   0.16513488987108338
-1.8286089171555717   -0.33269480545689767   0.16513488987108338
-1.8286089171555717   -0.33269480545689767   0.16513488987108338
-1.8286089171555717   -0.33269480545689767   0.16513488987108338
-2.486990886616027   -0.3233169768689419   0.03489697384897277
-2.486990886616027   -0.3233169768689419   0.03489697384897277
-2.486990886616027   -0.3233169768689419   0.03489697384897277
-2.486990886616027   -0.3233169768689419   0.03489697384897277
-1.7990596976600217   -0.0019323654874747187   -0.017881452620590113
-1.7990596976600217   -0.0019323654874747187   -0.017881452620590113
-1.7990596976600217   -0.0019323654874747187   -0.017881452620590113
-1.7990596976600217   -0.0019323654874747187   -0.017881452620590113
-3.2437689787179576   -0.634271258679347   0.07241268532122247
-3.2437689787179576   -0.634271258679347   0.07241268532122247
-3.2437689787179576   -0.634271258679347   0.07241268532122247
-3.2437689787179576   -0.634271258679347   0.07241268532122247
-3.055108989353257   -0.24193974598434453   -0.102354193665705
-3.055108989353257   -0.24193974598434453   -0.102354193665705
-3.055108989353257   -0.24193974598434453   -0.102354193665705
-3.055108989353257   -0.24193974598434453   -0.102354193665705
-1.7282203658936437   -0.30924117936103857   0.18201446908845093
-1.7282203658936437   -0.30924117936103857   0.18201446908845093
-1.7282203658936437   -0.30924117936103857   0.18201446908845093
-1.7282203658936437   -0.30924117936103857   0.18201446908845093
-2.337863822383382   -0.24713878838156828   0.07140298041238431
-2.337863822383382   -0.24713878838156828   0.07140298041238431
-2.337863822383382   -0.24713878838156828   0.07140298041238431
-2.337863822383382   -0.24713878838156828   0.07140298041238431
2.4594424279578164   0.08026603049459441   0.03468353220847446
2.4594424279578164   0.08026603049459441   0.03468353220847446
2.4594424279578164   0.08026603049459441   0.03468353220847446
2.4594424279578164   0.08026603049459441   0.03468353220847446
1.2562909119802026   -0.06596271250039182   0.02565850946666058
1.2562909119802026   -0.06596271250039182   0.02565850946666058
1.2562909119802026   -0.06596271250039182   0.02565850946666058
1.2562909119802026   -0.06596271250039182   0.02565850946666058
1.207045325299419   -0.17755840156392966   0.05030808168057671
1.207045325299419   -0.17755840156392966   0.05030808168057671
1.207045325299419   -0.17755840156392966   0.05030808168057671
1.207045325299419   -0.17755840156392966   0.05030808168057671
2.441568451886037   0.13758893473357414   0.018618952569535885
2.441568451886037   0.13758893473357414   0.018618952569535885
2.441568451886037   0.13758893473357414   0.018618952569535885
2.441568451886037   0.13758893473357414   0.018618952569535885
1.7429608394906266   -0.024838650370425985   -0.06433188141342684
1.7429608394906266   -0.024838650370425985   -0.06433188141342684
1.7429608394906266   -0.024838650370425985   -0.06433188141342684
1.7429608394906266   -0.024838650370425985   -0.06433188141342684
2.4280176772941306   0.061887712806343864   0.026566301537232884
2.4280176772941306   0.061887712806343864   0.026566301537232884
2.4280176772941306   0.061887712806343864   0.026566301537232884
2.4280176772941306   0.061887712806343864   0.026566301537232884
1.216557493417307   -0.1058957861107182   0.02620630681680458
1.216557493417307   -0.1058957861107182   0.02620630681680458
1.216557493417307   -0.1058957861107182   0.02620630681680458
1.216557493417307   -0.1058957861107182   0.02620630681680458
1.175668842234381   -0.18169713041967434   0.041632254976887675
1.175668842234381   -0.18169713041967434   0.041632254976887675
1.175668842234381   -0.18169713041967434   0.041632254976887675
1.175668842234381   -0.18169713041967434   0.041632254976887675
2.412872994465416   0.13158645937467495   0.03213365473983737
2.412872994465416   0.13158645937467495   0.03213365473983737
2.412872994465416   0.13158645937467495   0.03213365473983737
2.412872994465416   0.13158645937467495   0.03213365473983737
1.7376362194939179   -0.03427089057439964   -0.07455274510679719
1.7376362194939179   -0.03427089057439964   -0.07455274510679719
1.7376362194939179   -0.03427089057439964   -0.07455274510679719
1.7376362194939179   -0.03427089057439964   -0.07455274510679719
2.3927175203414324   0.05497891908772784   0.0079638244068473
2.3927175203414324   0.05497891908772784   0.0079638244068473
2.3927175203414324   0.05497891908772784   0.0079638244068473
2.3927175203414324   0.05497891908772784   0.0079638244068473
1.1885824145189878   -0.11233149197210718   0.036834477952354894
1.1885824145189878   -0.11233149197210718   0.036834477952354894
1.1885824145189878   -0.11233149197210718   0.036834477952354894
1.1885824145189878   -0.11233149197210718   0.036834477952354894
1.1425502775302196   -0.16584973478097287   0.0359466515163209
1.1425502775302196   -0.16584973478097287   0.0359466515163209
1.1425502775302196   -0.16584973478097287   0.0359466515163209
1.1425502775302196   -0.16584973478097287   0.0359466515163209
2.3686348641891235   0.13295407540050413   0.04614141809102475
2.3686348641891235   0.13295407540050413   0.04614141809102475
2.3686348641891235   0.13295407540050413   0.04614141809102475
2.3686348641891235   0.13295407540050413   0.04614141809102475
1.6722252311876151   -0.03458020411451762   -0.10073222878696664
1.6722252311876151   -0.03458020411451762   -0.10073222878696664
1.6722252311876151   -0.03458020411451762   -0.10073222878696664
1.6722252311876151   -0.03458020411451762   -0.10073222878696664
1.2448042432096849   -0.15925757705144694   0.061520030165127165
1.2448042432096849   -0.15925757705144694   0.061520030165127165
1.2448042432096849   -0.15925757705144694   0.061520030165127165
1.2448042432096849   -0.15925757705144694   0.061520030165127165
0.2429923566783927   -0.14826076052127823   0.013324360094134555
0.2429923566783927   -0.14826076052127823   0.013324360094134555
0.2429923566783927   -0.14826076052127823   0.013324360094134555
0.2429923566783927   -0.14826076052127823   0.013324360094134555
0.15808357837275133   -0.3735432358880599   0.06615341597307971
0.15808357837275133   -0.3735432358880599   0.06615341597307971
0.15808357837275133   -0.3735432358880599   0.06615341597307971
0.15808357837275133   -0.3735432358880599   0.06615341597307971
1.2516491037048778   0.04820490152688808   0.047563670617051586
1.2516491037048778   0.04820490152688808   0.047563670617051586
1.2516491037048778   0.04820490152688808   0.047563670617051586
1.2516491037048778   0.04820490152688808   0.047563670617051586
0.713254345701451   -0.15884564979820376   -0.0027143714776054484
0.713254345701451   -0.15884564979820376   -0.0027143714776054484
0.713254345701451   -0.15884564979820376   -0.0027143714776054484
0.713254345701451   -0.15884564979820376   -0.0027143714776054484
1.2095635652669636   -0.1661747880941437   0.051515668048509586
1.2095635652669636   -0.1661747880941437   0.051515668048509586
1.2095635652669636   -0.1661747880941437   0.051515668048509586
1.2095635652669636   -0.1661747880941437   0.051515668048509586
0.1895429059272538   -0.16978975715045047   0.01969657500798267
0.1895429059272538   -0.16978975715045047   0.01969657500798267
0.1895429059272538   -0.16978975715045047   0.01969657500798267
0.1895429059272538   -0.16978975715045047   0.01969657500798267
0.12007246631379102   -0.37694752185460334   0.05923429081765623
0.12007246631379102   -0.37694752185460334   0.05923429081765623
0.12007246631379102   -0.37694752185460334   0.05923429081765623
0.12007246631379102   -0.37694752185460334   0.05923429081765623
1.2227112214110967   0.03877567566923826   0.05637134477155383
1.2227112214110967   0.03877567566923826   0.05637134477155383
1.2227112214110967   0.03877567566923826   0.05637134477155383
1.2227112214110967   0.03877567566923826   0.05637134477155383
0.6616487659817902   -0.16932221647750326   -0.034257980347533606
0.6616487659817902   -0.16932221647750326   -0.034257980347533606
0.6616487659817902   -0.16932221647750326   -0.034257980347533606
0.6616487659817902   -0.16932221647750326   -0.034257980347533606
1.1784791497159282   -0.1685964257872664   0.04258308775220386
1.1784791497159282   -0.1685964257872664   0.04258308775220386
1.1784791497159282   -0.1685964257872664   0.04258308775220386
1.1784791497159282   -0.1685964257872664   0.04258308775220386
0.15275882268334903   -0.18112113572371125   0.026839686534554062
0.15275882268334903   -0.18112113572371125   0.026839686534554062
0.15275882268334903   -0.18112113572371125   0.026839686534554062
0.15275882268334903   -0.18112113572371125   0.026839686534554062
0.07753330532087285   -0.3768502848708114   0.04639091478731619
0.07753330532087285   -0.3768502848708114   0.04639091478731619
0.07753330532087285   -0.3768502848708114   0.04639091478731619
0.07753330532087285   -0.3768502848708114   0.04639091478731619
1.1898698041583164   0.03928024633433114   0.06741430354150905
1.1898698041583164   0.03928024633433114   0.06741430354150905
1.1898698041583164   0.03928024633433114   0.06741430354150905
1.1898698041583164   0.03928024633433114   0.06741430354150905
0.6300908172005604   -0.1680925549462011   -0.06110592538362368
0.6300908172005604   -0.1680925549462011   -0.06110592538362368
0.6300908172005604   -0.1680925549462011   -0.06110592538362368
0.6300908172005604   -0.1680925549462011   -0.06110592538362368
0.18922566006460634   -0.45905030248761786   0.05528041899153835
0.18922566006460634   -0.45905030248761786   0.05528041899153835
0.18922566006460634   -0.45905030248761786   0.05528041899153835
0.18922566006460634   -0.45905030248761786   0.05528041899153835
-0.731049791927245   -0.2302381553211153   0.0009518370197435476
-0.731049791927245   -0.2302381553211153   0.0009518370197435476
-0.731049791927245   -0.2302381553211153   0.0009518370197435476
-0.731049791927245   -0.2302381553211153   0.0009518370197435476
-0.8846640351521591   -0.6809951966969603   0.07582106067851446
-0.8846640351521591   -0.6809951966969603   0.07582106067851446
-0.8846640351521591   -0.6809951966969603   0.07582106067851446
-0.8846640351521591   -0.6809951966969603   0.07582106067851446
0.21768996978325422   -0.03939491473485371   0.030037051872391748
0.21768996978325422   -0.03939491473485371   0.030037051872391748
0.21768996978325422   -0.03939491473485371   0.030037051872391748
0.21768996978325422   -0.03939491473485371   0.030037051872391748
-0.2981318958229081   -0.3474612997963556   0.01303636688551392
-0.2981318958229081   -0.3474612997963556   0.01303636688551392
-0.2981318958229081   -0.3474612997963556   0.01303636688551392
-0.2981318958229081   -0.3474612997963556   0.01303636688551392
0.13045246376293776   -0.48520432303537786   0.039658930071329895
0.13045246376293776   -0.48520432303537786   0.039658930071329895
0.13045246376293776   -0.48520432303537786   0.039658930071329895
0.13045246376293776   -0.48520432303537786   0.039658930071329895
-0.8122848025589582   -0.25004406182355315   0.006766088771107088
-0.8122848025589582   -0.25004406182355315   0.006766088771107088
-0.8122848025589582   -0.25004406182355315   0.006766088771107088
-0.8122848025589582   -0.25004406182355315   0.006766088771107088
-0.9376323518493845   -0.692040200318606   0.06166999619217206
-0.9376323518493845   -0.692040200318606   0.06166999619217206
-0.9376323518493845   -0.692040200318606   0.06166999619217206
-0.9376323518493845   -0.692040200318606   0.06166999619217206
0.1820798074669011   -0.04986536001449916   0.042188834743102394
0.1820798074669011   -0.04986536001449916   0.042188834743102394
0.1820798074669011   -0.04986536001449916   0.042188834743102394
0.1820798074669011   -0.04986536001449916   0.042188834743102394
-0.3643086170748827   -0.36864791745249764   -0.03118119306491958
-0.3643086170748827   -0.36864791745249764   -0.03118119306491958
-0.3643086170748827   -0.36864791745249764   -0.03118119306491958
-0.3643086170748827   -0.36864791745249764   -0.03118119306491958
0.08996306433190449   -0.4937559704250476   0.02549572947867529
0.08996306433190449   -0.4937559704250476   0.02549572947867529
0.08996306433190449   -0.4937559704250476   0.02549572947867529
0.08996306433190449   -0.4937559704250476   0.02549572947867529
-0.8631706648552473   -0.26580464604891724   0.007742876893160441
-0.8631706648552473   -0.26580464604891724   0.007742876893160441
-0.8631706648552473   -0.26580464604891724   0.007742876893160441
-0.8631706648552473   -0.26580464604891724   0.007742876893160441
-0.9950089430723993   -0.6873750199304302   0.05204920013778733
-0.9950089430723993   -0.6873750199304302   0.05204920013778733
-0.9950089430723993   -0.6873750199304302   0.05204920013778733
-0.9950089430723993   -0.6873750199304302   0.05204920013778733
0.142452304227983   -0.05572248794680568   0.04985811239886119
0.142452304227983   -0.05572248794680568   0.04985811239886119
0.142452304227983   -0.05572248794680568   0.04985811239886119
0.142452304227983   -0.05572248794680568   0.04985811239886119
-0.4179799380248   -0.3767257113312037   -0.07531011708419172
-0.4179799380248   -0.3767257113312037   -0.07531011708419172
-0.4179799380248   -0.3767257113312037   -0.07531011708419172
-0.4179799380248   -0.3767257113312037   -0.07531011708419172
-0.8293874093997182   -0.786708192360107   0.06573378669637331
-0.8293874093997182   -0.786708192360107   0.06573378669637331
-0.8293874093997182   -0.786708192360107   0.06573378669637331
-0.8293874093997182   -0.786708192360107   0.06573378669637331
-1.8391111581853945   -0.28670338844610255   -0.042690798058742235
-1.8391111581853945   -0.28670338844610255   -0.042690798058742235
-1.8391111581853945   -0.28670338844610255   -0.042690798058742235
-1.8391111581853945   -0.28670338844610255   -0.042690798058742235
-2.1075073624712917   -1.141002368060538   -0.05931139865760937
-2.1075073624712917   -1.141002368060538   -0.05931139865760937
-2.1075073624712917   -1.141002368060538   -0.05931139865760937
-2.1075073624712917   -1.141002368060538   -0.05931139865760937
-0.7714127816711208   -0.06487061562370858   0.025952747010449716
-0.7714127816711208   -0.06487061562370858   0.025952747010449716
-0.7714127816711208   -0.06487061562370858   0.025952747010449716
-0.7714127816711208   -0.06487061562370858   0.025952747010449716
-1.373602634410125   -0.5478002030263533   -0.047410134754281394
-1.373602634410125   -0.5478002030263533   -0.047410134754281394
-1.373602634410125   -0.5478002030263533   -0.047410134754281394
-1.373602634410125   -0.5478002030263533   -0.047410134754281394
-0.9373752613896854   -0.8907164346282586   0.021986167422180597
-0.9373752613896854   -0.8907164346282586   0.021986167422180597
-0.9373752613896854   -0.8907164346282586   0.021986167422180597
-0.9373752613896854   -0.8907164346282586   0.021986167422180597
-1.9372570687618527   -0.3108687350651232   -0.03819356310583008
-1.9372570687618527   -0.3108687350651232   -0.03819356310583008
-1.9372570687618527   -0.3108687350651232   -0.03819356310583008
-1.9372570687618527   -0.3108687350651232   -0.03819356310583008
-2.170485874774312   -1.159453322547924   -0.06859220507087072
-2.170485874774312   -1.159453322547924   -0.06859220507087072
-2.170485874774312   -1.159453322547924   -0.06859220507087072
-2.170485874774312   -1.159453322547924   -0.06859220507087072
-0.8202062133824622   -0.08202510896912371   0.03878559717729218
-0.8202062133824622   -0.08202510896912371   0.03878559717729218
-0.8202062133824622   -0.08202510896912371   0.03878559717729218
-0.8202062133824622   -0.08202510896912371   0.03878559717729218
-1.4505374380909022   -0.606830226706124   -0.0668850350428101
-1.4505374380909022   -0.606830226706124   -0.0668850350428101
-1.4505374380909022   -0.606830226706124   -0.0668850350428101
-1.4505374380909022   -0.606830226706124   -0.0668850350428101
-0.9914847105380324   -0.908217540167026   0.008585542597340012
-0.9914847105380324   -0.908217540167026   0.008585542597340012
-0.9914847105380324   -0.908217540167026   0.008585542597340012
-0.9914847105380324   -0.908217540167026   0.008585542597340012
-1.9994139775387365   -0.3334674912700195   -0.0392185501709127
-1.9994139775387365   -0.3334674912700195   -0.0392185501709127
-1.9994139775387365   -0.3334674912700195   -0.0392185501709127
-1.9994139775387365   -0.3334674912700195   -0.0392185501709127
-2.2242316518036964   -1.1100687330655457   -0.07735329883446099
-2.2242316518036964   -1.1100687330655457   -0.07735329883446099
-2.2242316518036964   -1.1100687330655457   -0.07735329883446099
-2.2242316518036964   -1.1100687330655457   -0.07735329883446099
-0.8820139808914649   -0.10623845981973766   0.03588745093175204
-0.8820139808914649   -0.10623845981973766   0.03588745093175204
-0.8820139808914649   -0.10623845981973766   0.03588745093175204
-0.8820139808914649   -0.10623845981973766   0.03588745093175204
-1.5213368467469501   -0.6269995523123614   -0.08545066175126498
-1.5213368467469501   -0.6269995523123614   -0.08545066175126498
-1.5213368467469501   -0.6269995523123614   -0.08545066175126498
-1.5213368467469501   -0.6269995523123614   -0.08545066175126498
-1.8062607600247012   -0.32856715928768465   0.16342496358627773
-1.8062607600247012   -0.32856715928768465   0.16342496358627773
-1.8062607600247012   -0.32856715928768465   0.16342496358627773
-1.8062607600247012   -0.32856715928768465   0.16342496358627773
-3.1831592711878938   -0.23848138704301525   -0.05680467684881452
-3.1831592711878938   -0.23848138704301525   -0.05680467684881452
-3.1831592711878938   -0.23848138704301525   -0.05680467684881452
-3.1831592711878938   -0.23848138704301525   -0.05680467684881452
-3.3784807939223627   -0.6667192379088718   0.04488460437800401
-3.3784807939223627   -0.6667192379088718   0.04488460437800401
-3.3784807939223627   -0.6667192379088718   0.04488460437800401
-3.3784807939223627   -0.6667192379088718   0.04488460437800401
-1.858933326976272   0.026559137403860678   0.015997273353073396
-1.858933326976272   0.026559137403860678   0.015997273353073396
-1.858933326976272   0.026559137403860678   0.015997273353073396
-1.858933326976272   0.026559137403860678   0.015997273353073396
-2.434945703022523   -0.23422295927536568   0.04899924971172122
-2.434945703022523   -0.23422295927536568   0.04899924971172122
-2.434945703022523   -0.23422295927536568   0.04899924971172122
-2.434945703022523   -0.23422295927536568   0.04899924971172122
-1.9089952228102918   -0.352791381870578   0.1450383134574017
-1.9089952228102918   -0.352791381870578   0.1450383134574017
-1.9089952228102918   -0.352791381870578   0.1450383134574017
-1.9089952228102918   -0.352791381870578   0.1450383134574017
-3.3198239798296303   -0.27877380037571736   -0.04977676269145846
-3.3198239798296303   -0.27877380037571736   -0.04977676269145846
-3.3198239798296303   -0.27877380037571736   -0.04977676269145846
-3.3198239798296303   -0.27877380037571736   -0.04977676269145846
-3.4615311968735174   -0.6951960306363769   -0.014448956308367511
-3.4615311968735174   -0.6951960306363769   -0.014448956308367511
-3.4615311968735174   -0.6951960306363769   -0.014448956308367511
-3.4615311968735174   -0.6951960306363769   -0.014448956308367511
-1.9175274693956637   0.007350329578332759   0.02939616969609893
-1.9175274693956637   0.007350329578332759   0.02939616969609893
-1.9175274693956637   0.007350329578332759   0.02939616969609893
-1.9175274693956637   0.007350329578332759   0.02939616969609893
-2.5810151900842606   -0.3093043315602568   0.02023993070808429
-2.5810151900842606   -0.3093043315602568   0.02023993070808429
-2.5810151900842606   -0.3093043315602568   0.02023993070808429
-2.5810151900842606   -0.3093043315602568   0.02023993070808429
-1.975000083017448   -0.3709361086419896   0.12031953980749988
-1.975000083017448   -0.3709361086419896   0.12031953980749988
-1.975000083017448   -0.3709361086419896   0.12031953980749988
-1.975000083017448   -0.3709361086419896   0.12031953980749988
-3.3868499700690666   -0.29970097923337913   -0.0365378736890572
-3.3868499700690666   -0.29970097923337913   -0.0365378736890572
-3.3868499700690666   -0.29970097923337913   -0.0365378736890572
-3.3868499700690666   -0.29970097923337913   -0.0365378736890572
-3.533957225249794   -0.7068183203123062   -0.00013437631173673914
-3.533957225249794   -0.7068183203123062   -0.00013437631173673914
-3.533957225249794   -0.7068183203123062   -0.00013437631173673914
-3.533957225249794   -0.7068183203123062   -0.00013437631173673914
-1.99977354139955   -0.07711209599183866   0.011980616112561487
-1.99977354139955   -0.07711209599183866   0.011980616112561487
-1.99977354139955   -0.07711209599183866   0.011980616112561487
-1.99977354139955   -0.07711209599183866   0.011980616112561487
-2.6127228001998577   -0.3738229646268326   0.031970185800470896
-2.6127228001998577   -0.3738229646268326   0.031970185800470896
-2.6127228001998577   -0.3738229646268326   0.031970185800470896
-2.6127228001998577   -0.3738229646268326   0.031970185800470896
2.152568148520986   0.09877213948374469   -0.04694446715344096
2.152568148520986   0.09877213948374469   -0.04694446715344096
2.152568148520986   0.09877213948374469   -0.04694446715344096
2.152568148520986   0.09877213948374469   -0.04694446715344096
1.0839281495985427   -0.021549709032502917   0.023178796860606893
1.0839281495985427   -0.021549709032502917   0.023178796860606893
1.0839281495985427   -0.021549709032502917   0.023178796860606893
1.0839281495985427   -0.021549709032502917   0.023178796860606893
1.0147181859798617   -0.15978917459191022   -0.041421328151710485
1.0147181859798617   -0.15978917459191022   -0.041421328151710485
1.0147181859798617   -0.15978917459191022   -0.041421328151710485
1.0147181859798617   -0.15978917459191022   -0.041421328151710485
2.127573755861625   0.15551925980664022   0.027118968631440935
2.127573755861625   0.15551925980664022   0.027118968631440935
2.127573755861625   0.15551925980664022   0.027118968631440935
2.127573755861625   0.15551925980664022   0.027118968631440935
1.5111017004778293   0.0037013311351186684   -0.058378241910830936
1.5111017004778293   0.0037013311351186684   -0.058378241910830936
1.5111017004778293   0.0037013311351186684   -0.058378241910830936
1.5111017004778293   0.0037013311351186684   -0.058378241910830936
2.0924937940306387   0.05458158042101746   -0.04734316113784881
2.0924937940306387   0.05458158042101746   -0.04734316113784881
2.0924937940306387   0.05458158042101746   -0.04734316113784881
2.0924937940306387   0.05458158042101746   -0.04734316113784881
1.0478428482245925   -0.0608067947925415   0.02521960327256477
1.0478428482245925   -0.0608067947925415   0.02521960327256477
1.0478428482245925   -0.0608067947925415   0.02521960327256477
1.0478428482245925   -0.0608067947925415   0.02521960327256477
0.9774634995371141   -0.16875920573580325   -0.03418517588425177
0.9774634995371141   -0.16875920573580325   -0.03418517588425177
0.9774634995371141   -0.16875920573580325   -0.03418517588425177
0.9774634995371141   -0.16875920573580325   -0.03418517588425177
2.0758003831141516   0.14282559383040244   0.03958867845089324
2.0758003831141516   0.14282559383040244   0.03958867845089324
2.0758003831141516   0.14282559383040244   0.03958867845089324
2.0758003831141516   0.14282559383040244   0.03958867845089324
1.4906432300211856   -0.015203461959775733   -0.0697704338763941
1.4906432300211856   -0.015203461959775733   -0.0697704338763941
1.4906432300211856   -0.015203461959775733   -0.0697704338763941
1.4906432300211856   -0.015203461959775733   -0.0697704338763941
2.0404663539828594   0.04318935471263596   -0.037445228087800986
2.0404663539828594   0.04318935471263596   -0.037445228087800986
2.0404663539828594   0.04318935471263596   -0.037445228087800986
2.0404663539828594   0.04318935471263596   -0.037445228087800986
1.0100930879397068   -0.07182740734673645   0.03203096773964366
1.0100930879397068   -0.07182740734673645   0.03203096773964366
1.0100930879397068   -0.07182740734673645   0.03203096773964366
1.0100930879397068   -0.07182740734673645   0.03203096773964366
0.9413652103326772   -0.16641319988238235   -0.02342530446696152
0.9413652103326772   -0.16641319988238235   -0.02342530446696152
0.9413652103326772   -0.16641319988238235   -0.02342530446696152
0.9413652103326772   -0.16641319988238235   -0.02342530446696152
2.01168006920264   0.13410461274202162   0.05145920239495455
2.01168006920264   0.13410461274202162   0.05145920239495455
2.01168006920264   0.13410461274202162   0.05145920239495455
2.01168006920264   0.13410461274202162   0.05145920239495455
1.4167151556640127   -0.026551336223901323   -0.09169361691231402
1.4167151556640127   -0.026551336223901323   -0.09169361691231402
1.4167151556640127   -0.026551336223901323   -0.09169361691231402
1.4167151556640127   -0.026551336223901323   -0.09169361691231402
1.0895772482851693   0.02030521836124627   0.00956936289998074
1.0895772482851693   0.02030521836124627   0.00956936289998074
1.0895772482851693   0.02030521836124627   0.00956936289998074
1.0895772482851693   0.02030521836124627   0.00956936289998074
0.10569915481146269   -0.06511829339543021   -0.0023800222443310717
0.10569915481146269   -0.06511829339543021   -0.0023800222443310717
0.10569915481146269   -0.06511829339543021   -0.0023800222443310717
0.10569915481146269   -0.06511829339543021   -0.0023800222443310717
0.04048442688524592   -0.2115060236588632   -0.039826278492011806
0.04048442688524592   -0.2115060236588632   -0.039826278492011806
0.04048442688524592   -0.2115060236588632   -0.039826278492011806
0.04048442688524592   -0.2115060236588632   -0.039826278492011806
1.0909211641152292   0.12576420530230173   0.05404018263090516
1.0909211641152292   0.12576420530230173   0.05404018263090516
1.0909211641152292   0.12576420530230173   0.05404018263090516
1.0909211641152292   0.12576420530230173   0.05404018263090516
0.5709942832564118   -0.029851607501531846   -0.022704209270546567
0.5709942832564118   -0.029851607501531846   -0.022704209270546567
0.5709942832564118   -0.029851607501531846   -0.022704209270546567
0.5709942832564118   -0.029851607501531846   -0.022704209270546567
1.0589659605923125   0.0034676773705649144   0.016560692948062297
1.0589659605923125   0.0034676773705649144   0.016560692948062297
1.0589659605923125   0.0034676773705649144   0.016560692948062297
1.0589659605923125   0.0034676773705649144   0.016560692948062297
0.07364535525859534   -0.08800377087669305   0.0024761105925651533
0.07364535525859534   -0.08800377087669305   0.0024761105925651533
0.07364535525859534   -0.08800377087669305   0.0024761105925651533
0.07364535525859534   -0.08800377087669305   0.0024761105925651533
0.004563859066766748   -0.22166283577162052   -0.02767385008834876
0.004563859066766748   -0.22166283577162052   -0.02767385008834876
0.004563859066766748   -0.22166283577162052   -0.02767385008834876
0.004563859066766748   -0.22166283577162052   -0.02767385008834876
1.0514836882998366   0.10753952662286242   0.05961703557069437
1.0514836882998366   0.10753952662286242   0.05961703557069437
1.0514836882998366   0.10753952662286242   0.05961703557069437
1.0514836882998366   0.10753952662286242   0.05961703557069437
0.5296869301999528   -0.04661219150427362   -0.03214749195160722
0.5296869301999528   -0.04661219150427362   -0.03214749195160722
0.5296869301999528   -0.04661219150427362   -0.03214749195160722
0.5296869301999528   -0.04661219150427362   -0.03214749195160722
1.0213202664778243   -0.00792407804586498   0.02426353112937138
1.0213202664778243   -0.00792407804586498   0.02426353112937138
1.0213202664778243   -0.00792407804586498   0.02426353112937138
1.0213202664778243   -0.00792407804586498   0.02426353112937138
0.03455277411960254   -0.10637373787206776   0.006981627276277436
0.03455277411960254   -0.10637373787206776   0.006981627276277436
0.03455277411960254   -0.10637373787206776   0.006981627276277436
0.03455277411960254   -0.10637373787206776   0.006981627276277436
-0.034008184349557755   -0.22274594752186502   -0.018838677231658815
-0.034008184349557755   -0.22274594752186502   -0.018838677231658815
-0.034008184349557755   -0.22274594752186502   -0.018838677231658815
-0.034008184349557755   -0.22274594752186502   -0.018838677231658815
1.0116956106745907   0.09591378633688441   0.06589971102334541
1.0116956106745907   0.09591378633688441   0.06589971102334541
1.0116956106745907   0.09591378633688441   0.06589971102334541
1.0116956106745907   0.09591378633688441   0.06589971102334541
0.4973121440879304   -0.05334624769179851   -0.040283372596030355
0.4973121440879304   -0.05334624769179851   -0.040283372596030355
0.4973121440879304   -0.05334624769179851   -0.040283372596030355
0.4973121440879304   -0.05334624769179851   -0.040283372596030355
0.10748743007798792   -0.062027055154537075   0.0034701158474018147
0.10748743007798792   -0.062027055154537075   0.0034701158474018147
0.10748743007798792   -0.062027055154537075   0.0034701158474018147
0.10748743007798792   -0.062027055154537075   0.0034701158474018147
-0.8397695894642991   -0.09711340770870268   -0.026439524859340074
-0.8397695894642991   -0.09711340770870268   -0.026439524859340074
-0.8397695894642991   -0.09711340770870268   -0.026439524859340074
-0.8397695894642991   -0.09711340770870268   -0.026439524859340074
-0.9122695846292658   -0.28046159800325376   -0.045336810057088325
-0.9122695846292658   -0.28046159800325376   -0.045336810057088325
-0.9122695846292658   -0.28046159800325376   -0.045336810057088325
-0.9122695846292658   -0.28046159800325376   -0.045336810057088325
0.11535226537728956   0.09202719313451904   0.03097969717482415
0.11535226537728956   0.09202719313451904   0.03097969717482415
0.11535226537728956   0.09202719313451904   0.03097969717482415
0.11535226537728956   0.09202719313451904   0.03097969717482415
-0.3834440746152618   -0.08272879020631912   -0.022556788749898377
-0.3834440746152618   -0.08272879020631912   -0.022556788749898377
-0.3834440746152618   -0.08272879020631912   -0.022556788749898377
-0.3834440746152618   -0.08272879020631912   -0.022556788749898377
0.08050254873564693   -0.06924012324885755   0.01799843034997987
0.08050254873564693   -0.06924012324885755   0.01799843034997987
0.08050254873564693   -0.06924012324885755   0.01799843034997987
0.08050254873564693   -0.06924012324885755   0.01799843034997987
-0.8747582965874792   -0.11653271021973438   -0.021709257631674195
-0.8747582965874792   -0.11653271021973438   -0.021709257631674195
-0.8747582965874792   -0.11653271021973438   -0.021709257631674195
-0.8747582965874792   -0.11653271021973438   -0.021709257631674195
-0.9544017830381016   -0.291592858391794   -0.029967066638368987
-0.9544017830381016   -0.291592858391794   -0.029967066638368987
-0.9544017830381016   -0.291592858391794   -0.029967066638368987
-0.9544017830381016   -0.291592858391794   -0.029967066638368987
0.07594153884144712   0.0725130096074654   0.035038703405967195
0.07594153884144712   0.0725130096074654   0.035038703405967195
0.07594153884144712   0.0725130096074654   0.035038703405967195
0.07594153884144712   0.0725130096074654   0.035038703405967195
-0.41829152917513024   -0.09436828307908827   -0.02706334971616965
-0.41829152917513024   -0.09436828307908827   -0.02706334971616965
-0.41829152917513024   -0.09436828307908827   -0.02706334971616965
-0.41829152917513024   -0.09436828307908827   -0.02706334971616965
0.04319940156699141   -0.08109250234572564   0.02493352898687966
0.04319940156699141   -0.08109250234572564   0.02493352898687966
0.04319940156699141   -0.08109250234572564   0.02493352898687966
0.04319940156699141   -0.08109250234572564   0.02493352898687966
-0.9211052433566758   -0.13743294403163347   -0.017644282591404315
-0.9211052433566758   -0.13743294403163347   -0.017644282591404315
-0.9211052433566758   -0.13743294403163347   -0.017644282591404315
-0.9211052433566758   -0.13743294403163347   -0.017644282591404315
-1.0011596760919972   -0.29974511012443267   -0.02664301816929344
-1.0011596760919972   -0.29974511012443267   -0.02664301816929344
-1.0011596760919972   -0.29974511012443267   -0.02664301816929344
-1.0011596760919972   -0.29974511012443267   -0.02664301816929344
0.03331412566283518   0.05584856679092328   0.039178358517521404
0.03331412566283518   0.05584856679092328   0.039178358517521404
0.03331412566283518   0.05584856679092328   0.039178358517521404
0.03331412566283518   0.05584856679092328   0.039178358517521404
-0.46357441996616017   -0.10830465410522563   -0.03790927774705812
-0.46357441996616017   -0.10830465410522563   -0.03790927774705812
-0.46357441996616017   -0.10830465410522563   -0.03790927774705812
-0.46357441996616017   -0.10830465410522563   -0.03790927774705812
-0.8270471062585003   -0.07311710146397922   0.013176584924918935
-0.8270471062585003   -0.07311710146397922   0.013176584924918935
-0.8270471062585003   -0.07311710146397922   0.013176584924918935
-0.8270471062585003   -0.07311710146397922   0.013176584924918935
-1.7622598785146397   -0.11363878717251807   -0.046658355986855776
-1.7622598785146397   -0.11363878717251807   -0.046658355986855776
-1.7622598785146397   -0.11363878717251807   -0.046658355986855776
-1.7622598785146397   -0.11363878717251807   -0.046658355986855776
-1.8446995264218282   -0.29376257581177256   -0.04522030917916298
-1.8446995264218282   -0.29376257581177256   -0.04522030917916298
-1.8446995264218282   -0.29376257581177256   -0.04522030917916298
-1.8446995264218282   -0.29376257581177256   -0.04522030917916298
-0.831324204210541   0.0702135502500961   0.008714943783170531
-0.831324204210541   0.0702135502500961   0.008714943783170531
-0.831324204210541   0.0702135502500961   0.008714943783170531
-0.831324204210541   0.0702135502500961   0.008714943783170531
-1.3054737338426354   -0.09782013749633581   -0.018994638593270767
-1.3054737338426354   -0.09782013749633581   -0.018994638593270767
-1.3054737338426354   -0.09782013749633581   -0.018994638593270767
-1.3054737338426354   -0.09782013749633581   -0.018994638593270767
-0.8569406553090991   -0.0808312433710921   0.03167748191157188
-0.8569406553090991   -0.0808312433710921   0.03167748191157188
-0.8569406553090991   -0.0808312433710921   0.03167748191157188
-0.8569406553090991   -0.0808312433710921   0.03167748191157188
-1.8138558194799763   -0.13749052634730274   -0.04727382393438859
-1.8138558194799763   -0.13749052634730274   -0.04727382393438859
-1.8138558194799763   -0.13749052634730274   -0.04727382393438859
-1.8138558194799763   -0.13749052634730274   -0.04727382393438859
-1.9030074377924409   -0.31268380340246094   -0.03170665057941525
-1.9030074377924409   -0.31268380340246094   -0.03170665057941525
-1.9030074377924409   -0.31268380340246094   -0.03170665057941525
-1.9030074377924409   -0.31268380340246094   -0.03170665057941525
-0.8781858298667544   0.04884005255845919   0.010679788268109447
-0.8781858298667544   0.04884005255845919   0.010679788268109447
-0.8781858298667544   0.04884005255845919   0.010679788268109447
-0.8781858298667544   0.04884005255845919   0.010679788268109447
-1.3423927343850965   -0.10832963990131064   -0.019071278664828016
-1.3423927343850965   -0.10832963990131064   -0.019071278664828016
-1.3423927343850965   -0.10832963990131064   -0.019071278664828016
-1.3423927343850965   -0.10832963990131064   -0.019071278664828016
-0.9034895107728799   -0.09986550051956494   0.03286693681550359
-0.9034895107728799   -0.09986550051956494   0.03286693681550359
-0.9034895107728799   -0.09986550051956494   0.03286693681550359
-0.9034895107728799   -0.09986550051956494   0.03286693681550359
-1.8742022675074337   -0.16047676094555552   -0.039887841611284836
-1.8742022675074337   -0.16047676094555552   -0.039887841611284836
-1.8742022675074337   -0.16047676094555552   -0.039887841611284836
-1.8742022675074337   -0.16047676094555552   -0.039887841611284836
-1.9690024488181759   -0.3376064508604057   -0.03396403634487703
-1.9690024488181759   -0.3376064508604057   -0.03396403634487703
-1.9690024488181759   -0.3376064508604057   -0.03396403634487703
-1.9690024488181759   -0.3376064508604057   -0.03396403634487703
-0.9288268022219165   0.022481872178991225   0.012794368877671727
-0.9288268022219165   0.022481872178991225   0.012794368877671727
-0.9288268022219165   0.022481872178991225   0.012794368877671727
-0.9288268022219165   0.022481872178991225   0.012794368877671727
-1.4077852676937754   -0.13384761643459434   -0.030950699751234552
-1.4077852676937754   -0.13384761643459434   -0.030950699751234552
-1.4077852676937754   -0.13384761643459434   -0.030950699751234552
-1.4077852676937754   -0.13384761643459434   -0.030950699751234552
-1.7024495238053303   0.08064368656723536   0.05811094381993667
-1.7024495238053303   0.08064368656723536   0.05811094381993667
-1.7024495238053303   0.08064368656723536   0.05811094381993667
-1.7024495238053303   0.08064368656723536   0.05811094381993667
-2.6399274751484683   -0.1315530536431384   -0.03565594448136514
-2.6399274751484683   -0.1315530536431384   -0.03565594448136514
-2.6399274751484683   -0.1315530536431384   -0.03565594448136514
-2.6399274751484683   -0.1315530536431384   -0.03565594448136514
-2.7051573021673097   -0.13394449315850848   0.059703095732203657
-2.7051573021673097   -0.13394449315850848   0.059703095732203657
-2.7051573021673097   -0.13394449315850848   0.059703095732203657
-2.7051573021673097   -0.13394449315850848   0.059703095732203657
-1.7688398441577449   0.05463509834203134   -0.0143195720125662
-1.7688398441577449   0.05463509834203134   -0.0143195720125662
-1.7688398441577449   0.05463509834203134   -0.0143195720125662
-1.7688398441577449   0.05463509834203134   -0.0143195720125662
-2.101390269794985   0.0016613695104871207   0.053299099632629715
-2.101390269794985   0.0016613695104871207   0.053299099632629715
-2.101390269794985   0.0016613695104871207   0.053299099632629715
-2.101390269794985   0.0016613695104871207   0.053299099632629715
-1.75028718108513   0.05975390020832766   0.07332494148420464
-1.75028718108513   0.05975390020832766   0.07332494148420464
-1.75028718108513   0.05975390020832766   0.07332494148420464
-1.75028718108513   0.05975390020832766   0.07332494148420464
-2.7224982322780873   -0.1378515620629689   -0.023094485917224877
-2.7224982322780873   -0.1378515620629689   -0.023094485917224877
-2.7224982322780873   -0.1378515620629689   -0.023094485917224877
-2.7224982322780873   -0.1378515620629689   -0.023094485917224877
-2.7875349540067353   -0.15629504247232973   0.08117679405379655
-2.7875349540067353   -0.15629504247232973   0.08117679405379655
-2.7875349540067353   -0.15629504247232973   0.08117679405379655
-2.7875349540067353   -0.15629504247232973   0.08117679405379655
-1.8292306693765505   0.03945339728483249   -0.014960009187276399
-1.8292306693765505   0.03945339728483249   -0.014960009187276399
-1.8292306693765505   0.03945339728483249   -0.014960009187276399
-1.8292306693765505   0.03945339728483249   -0.014960009187276399
-2.2075126611739786   -0.024513483239152867   0.029020770138206572
-2.2075126611739786   -0.024513483239152867   0.029020770138206572
-2.2075126611739786   -0.024513483239152867   0.029020770138206572
-2.2075126611739786   -0.024513483239152867   0.029020770138206572
-1.8122730707986563   0.03698187629659988   0.07229950469042723
-1.8122730707986563   0.03698187629659988   0.07229950469042723
-1.8122730707986563   0.03698187629659988   0.07229950469042723
-1.8122730707986563   0.03698187629659988   0.07229950469042723
-2.8076857594484825   -0.15701672834795016   -0.018855547279319165
-2.8076857594484825   -0.15701672834795016   -0.018855547279319165
-2.8076857594484825   -0.15701672834795016   -0.018855547279319165
-2.8076857594484825   -0.15701672834795016   -0.018855547279319165
-2.904606280848662   -0.24635891156648065   0.07057927768840198
-2.904606280848662   -0.24635891156648065   0.07057927768840198
-2.904606280848662   -0.24635891156648065   0.07057927768840198
-2.904606280848662   -0.24635891156648065   0.07057927768840198
-1.898856534785396   -0.006764645136370651   -0.014076271905041862
-1.898856534785396   -0.006764645136370651   -0.014076271905041862
-1.898856534785396   -0.006764645136370651   -0.014076271905041862
-1.898856534785396   -0.006764645136370651   -0.014076271905041862
-2.252932357501375   -0.05743056674787311   0.00760564181604699
-2.252932357501375   -0.05743056674787311   0.00760564181604699
-2.252932357501375   -0.05743056674787311   0.00760564181604699
-2.252932357501375   -0.05743056674787311   0.00760564181604699
1.7426501377494001   0.09308854982820913   -0.06235189698669061
1.7426501377494001   0.09308854982820913   -0.06235189698669061
1.7426501377494001   0.09308854982820913   -0.06235189698669061
1.7426501377494001   0.09308854982820913   -0.06235189698669061
0.8642703953470889   -0.000638104589966576   0.022656201568932763
0.8642703953470889   -0.000638104589966576   0.022656201568932763
0.8642703953470889   -0.000638104589966576   0.022656201568932763
0.8642703953470889   -0.000638104589966576   0.022656201568932763
0.7896633444943194   -0.12891610485817104   -0.05714744332537097
0.7896633444943194   -0.12891610485817104   -0.05714744332537097
0.7896633444943194   -0.12891610485817104   -0.05714744332537097
0.7896633444943194   -0.12891610485817104   -0.05714744332537097
1.7097097504516934   0.14102989150091552   0.028405718213001425
1.7097097504516934   0.14102989150091552   0.028405718213001425
1.7097097504516934   0.14102989150091552   0.028405718213001425
1.7097097504516934   0.14102989150091552   0.028405718213001425
1.2105762803685884   0.010704180478262382   -0.039834239563159304
1.2105762803685884   0.010704180478262382   -0.039834239563159304
1.2105762803685884   0.010704180478262382   -0.039834239563159304
1.2105762803685884   0.010704180478262382   -0.039834239563159304
1.6732596422237918   0.04722471422306879   -0.06003964564864431
1.6732596422237918   0.04722471422306879   -0.06003964564864431
1.6732596422237918   0.04722471422306879   -0.06003964564864431
1.6732596422237918   0.04722471422306879   -0.06003964564864431
0.8245464581556358   -0.036677922146909375   0.025029942269934415
0.8245464581556358   -0.036677922146909375   0.025029942269934415
0.8245464581556358   -0.036677922146909375   0.025029942269934415
0.8245464581556358   -0.036677922146909375   0.025029942269934415
0.7523458124143038   -0.13971535936034418   -0.049661516803053515
0.7523458124143038   -0.13971535936034418   -0.049661516803053515
0.7523458124143038   -0.13971535936034418   -0.049661516803053515
0.7523458124143038   -0.13971535936034418   -0.049661516803053515
1.653884066406337   0.12619808179869088   0.03880516246486796
1.653884066406337   0.12619808179869088   0.03880516246486796
1.653884066406337   0.12619808179869088   0.03880516246486796
1.653884066406337   0.12619808179869088   0.03880516246486796
1.1812944428915926   -0.008734000444675483   -0.0523988334629988
1.1812944428915926   -0.008734000444675483   -0.0523988334629988
1.1812944428915926   -0.008734000444675483   -0.0523988334629988
1.1812944428915926   -0.008734000444675483   -0.0523988334629988
1.618217699371637   0.033938002674782086   -0.047266593584694
1.618217699371637   0.033938002674782086   -0.047266593584694
1.618217699371637   0.033938002674782086   -0.047266593584694
1.618217699371637   0.033938002674782086   -0.047266593584694
0.7866104682709162   -0.048856991414529455   0.03080339453418688
0.7866104682709162   -0.048856991414529455   0.03080339453418688
0.7866104682709162   -0.048856991414529455   0.03080339453418688
0.7866104682709162   -0.048856991414529455   0.03080339453418688
0.7182600318827878   -0.1429846537514773   -0.04056709275268752
0.7182600318827878   -0.1429846537514773   -0.04056709275268752
0.7182600318827878   -0.1429846537514773   -0.04056709275268752
0.7182600318827878   -0.1429846537514773   -0.04056709275268752
1.5909492285898552   0.11314365864264431   0.04826097395214905
1.5909492285898552   0.11314365864264431   0.04826097395214905
1.5909492285898552   0.11314365864264431   0.04826097395214905
1.5909492285898552   0.11314365864264431   0.04826097395214905
1.1133128639012493   -0.022141895341279916   -0.07119980836093157
1.1133128639012493   -0.022141895341279916   -0.07119980836093157
1.1133128639012493   -0.022141895341279916   -0.07119980836093157
1.1133128639012493   -0.022141895341279916   -0.07119980836093157
0.8789966924010314   0.09095594585089427   0.004693636397784095
0.8789966924010314   0.09095594585089427   0.004693636397784095
0.8789966924010314   0.09095594585089427   0.004693636397784095
0.8789966924010314   0.09095594585089427   0.004693636397784095
0.03058965375197588   -0.028622339447515806   -0.003520182487141343
0.03058965375197588   -0.028622339447515806   -0.003520182487141343
0.03058965375197588   -0.028622339447515806   -0.003520182487141343
0.03058965375197588   -0.028622339447515806   -0.003520182487141343
-0.02564298674839755   -0.116126687262563   -0.03885012932973045
-0.02564298674839755   -0.116126687262563   -0.03885012932973045
-0.02564298674839755   -0.116126687262563   -0.03885012932973045
-0.02564298674839755   -0.116126687262563   -0.03885012932973045
0.8619806246430844   0.12766415351178623   0.04785869904848243
0.8619806246430844   0.12766415351178623   0.04785869904848243
0.8619806246430844   0.12766415351178623   0.04785869904848243
0.8619806246430844   0.12766415351178623   0.04785869904848243
0.4296828534955316   0.01818180403264809   -0.0049448897425130416
0.4296828534955316   0.01818180403264809   -0.0049448897425130416
0.4296828534955316   0.01818180403264809   -0.0049448897425130416
0.4296828534955316   0.01818180403264809   -0.0049448897425130416
0.8422468180731493   0.06716005292484303   0.009693766785753025
0.8422468180731493   0.06716005292484303   0.009693766785753025
0.8422468180731493   0.06716005292484303   0.009693766785753025
0.8422468180731493   0.06716005292484303   0.009693766785753025
-0.005560743662488108   -0.055274150159644375   0.0007085489969019532
-0.005560743662488108   -0.055274150159644375   0.0007085489969019532
-0.005560743662488108   -0.055274150159644375   0.0007085489969019532
-0.005560743662488108   -0.055274150159644375   0.0007085489969019532
-0.06099452437696441   -0.13359348464426102   -0.03356980808806039
-0.06099452437696441   -0.13359348464426102   -0.03356980808806039
-0.06099452437696441   -0.13359348464426102   -0.03356980808806039
-0.06099452437696441   -0.13359348464426102   -0.03356980808806039
0.8219362155652327   0.10560971784166974   0.05296542174956963
0.8219362155652327   0.10560971784166974   0.05296542174956963
0.8219362155652327   0.10560971784166974   0.05296542174956963
0.8219362155652327   0.10560971784166974   0.05296542174956963
0.3865269259683043   -0.0035431392486239277   -0.017293878175457147
0.3865269259683043   -0.0035431392486239277   -0.017293878175457147
0.3865269259683043   -0.0035431392486239277   -0.017293878175457147
0.3865269259683043   -0.0035431392486239277   -0.017293878175457147
0.8029394344604833   0.04885459629529407   0.014736637772205859
0.8029394344604833   0.04885459629529407   0.014736637772205859
0.8029394344604833   0.04885459629529407   0.014736637772205859
0.8029394344604833   0.04885459629529407   0.014736637772205859
-0.04196298167972881   -0.07680360150538762   0.004798022259244233
-0.04196298167972881   -0.07680360150538762   0.004798022259244233
-0.04196298167972881   -0.07680360150538762   0.004798022259244233
-0.04196298167972881   -0.07680360150538762   0.004798022259244233
-0.09599182112733963   -0.1441397406957526   -0.02668049233784797
-0.09599182112733963   -0.1441397406957526   -0.02668049233784797
-0.09599182112733963   -0.1441397406957526   -0.02668049233784797
-0.09599182112733963   -0.1441397406957526   -0.02668049233784797
0.7838512607358754   0.0869845387093167   0.05741985905194796
0.7838512607358754   0.0869845387093167   0.05741985905194796
0.7838512607358754   0.0869845387093167   0.05741985905194796
0.7838512607358754   0.0869845387093167   0.05741985905194796
0.3545762955351651   -0.01747443476533593   -0.026407692498955356
0.3545762955351651   -0.01747443476533593   -0.026407692498955356
0.3545762955351651   -0.01747443476533593   -0.026407692498955356
0.3545762955351651   -0.01747443476533593   -0.026407692498955356
0.05936245921781001   0.09195434006540822   0.01976716532910531
0.05936245921781001   0.09195434006540822   0.01976716532910531
0.05936245921781001   0.09195434006540822   0.01976716532910531
0.05936245921781001   0.09195434006540822   0.01976716532910531
-0.7771550847997247   -0.05018937812335644   -0.026753908677509756
-0.7771550847997247   -0.05018937812335644   -0.026753908677509756
-0.7771550847997247   -0.05018937812335644   -0.026753908677509756
-0.7771550847997247   -0.05018937812335644   -0.026753908677509756
-0.8210280566162156   -0.10635262296744102   -0.02453906134147102
-0.8210280566162156   -0.10635262296744102   -0.02453906134147102
-0.8210280566162156   -0.10635262296744102   -0.02453906134147102
-0.8210280566162156   -0.10635262296744102   -0.02453906134147102
0.030891749644848254   0.1045268006608359   0.023170064713103473
0.030891749644848254   0.1045268006608359   0.023170064713103473
0.030891749644848254   0.1045268006608359   0.023170064713103473
0.030891749644848254   0.1045268006608359   0.023170064713103473
-0.3765116754418699   0.011768714926900292   0.0014163169344838418
-0.3765116754418699   0.011768714926900292   0.0014163169344838418
-0.3765116754418699   0.011768714926900292   0.0014163169344838418
-0.3765116754418699   0.011768714926900292   0.0014163169344838418
0.02486613906125689   0.07270649243961952   0.024862320016359206
0.02486613906125689   0.07270649243961952   0.024862320016359206
0.02486613906125689   0.07270649243961952   0.024862320016359206
0.02486613906125689   0.07270649243961952   0.024862320016359206
-0.8140394543252095   -0.0735693230388107   -0.02237934981507165
-0.8140394543252095   -0.0735693230388107   -0.02237934981507165
-0.8140394543252095   -0.0735693230388107   -0.02237934981507165
-0.8140394543252095   -0.0735693230388107   -0.02237934981507165
-0.8589685462543057   -0.12554760541364285   -0.020354286603821232
-0.8589685462543057   -0.12554760541364285   -0.020354286603821232
-0.8589685462543057   -0.12554760541364285   -0.020354286603821232
-0.8589685462543057   -0.12554760541364285   -0.020354286603821232
-0.005568496990909017   0.08183751319567442   0.028129331002281148
-0.005568496990909017   0.08183751319567442   0.028129331002281148
-0.005568496990909017   0.08183751319567442   0.028129331002281148
-0.005568496990909017   0.08183751319567442   0.028129331002281148
-0.41285866554657796   -0.00700097033184148   -0.007873633064861406
-0.41285866554657796   -0.00700097033184148   -0.007873633064861406
-0.41285866554657796   -0.00700097033184148   -0.007873633064861406
-0.41285866554657796   -0.00700097033184148   -0.007873633064861406
-0.010717967260346527   0.05418105523005569   0.030038437620712313
-0.010717967260346527   0.05418105523005569   0.030038437620712313
-0.010717967260346527   0.05418105523005569   0.030038437620712313
-0.010717967260346527   0.05418105523005569   0.030038437620712313
-0.8529899972634608   -0.09706206872661541   -0.01894707833661606
-0.8529899972634608   -0.09706206872661541   -0.01894707833661606
-0.8529899972634608   -0.09706206872661541   -0.01894707833661606
-0.8529899972634608   -0.09706206872661541   -0.01894707833661606
-0.8966558497227717   -0.14066110729308529   -0.013400036516914614
-0.8966558497227717   -0.14066110729308529   -0.013400036516914614
-0.8966558497227717   -0.14066110729308529   -0.013400036516914614
-0.8966558497227717   -0.14066110729308529   -0.013400036516914614
-0.04333985357837814   0.06046353044217885   0.03197607426902804
-0.04333985357837814   0.06046353044217885   0.03197607426902804
-0.04333985357837814   0.06046353044217885   0.03197607426902804
-0.04333985357837814   0.06046353044217885   0.03197607426902804
-0.4519662069788162   -0.026090989940231055   -0.018020803574450614
-0.4519662069788162   -0.026090989940231055   -0.018020803574450614
-0.4519662069788162   -0.026090989940231055   -0.018020803574450614
-0.4519662069788162   -0.026090989940231055   -0.018020803574450614
-0.7327732709597713   0.1088194683463416   0.036146314052574346
-0.7327732709597713   0.1088194683463416   0.036146314052574346
-0.7327732709597713   0.1088194683463416   0.036146314052574346
-0.7327732709597713   0.1088194683463416   0.036146314052574346
-1.5578472688438563   -0.06906130359248336   -0.04387164934770198
-1.5578472688438563   -0.06906130359248336   -0.04387164934770198
-1.5578472688438563   -0.06906130359248336   -0.04387164934770198
-1.5578472688438563   -0.06906130359248336   -0.04387164934770198
-1.5920618230157377   -0.08505745808134535   -0.0069024790688400894
-1.5920618230157377   -0.08505745808134535   -0.0069024790688400894
-1.5920618230157377   -0.08505745808134535   -0.0069024790688400894
-1.5920618230157377   -0.08505745808134535   -0.0069024790688400894
-0.7793139975281728   0.07902202227486496   -0.0013434111435550733
-0.7793139975281728   0.07902202227486496   -0.0013434111435550733
-0.7793139975281728   0.07902202227486496   -0.0013434111435550733
-0.7793139975281728   0.07902202227486496   -0.0013434111435550733
-1.1570842228085378   0.012027520179920703   0.008420034214180389
-1.1570842228085378   0.012027520179920703   0.008420034214180389
-1.1570842228085378   0.012027520179920703   0.008420034214180389
-1.1570842228085378   0.012027520179920703   0.008420034214180389
-0.7689207035978889   0.08906689814378183   0.04057818263894708
-0.7689207035978889   0.08906689814378183   0.04057818263894708
-0.7689207035978889   0.08906689814378183   0.04057818263894708
-0.7689207035978889   0.08906689814378183   0.04057818263894708
-1.6011413433076038   -0.09378856031184651   -0.043568978297681416
-1.6011413433076038   -0.09378856031184651   -0.043568978297681416
-1.6011413433076038   -0.09378856031184651   -0.043568978297681416
-1.6011413433076038   -0.09378856031184651   -0.043568978297681416
-1.638790512365654   -0.10663476358682844   -0.00608960995942931
-1.638790512365654   -0.10663476358682844   -0.00608960995942931
-1.638790512365654   -0.10663476358682844   -0.00608960995942931
-1.638790512365654   -0.10663476358682844   -0.00608960995942931
-0.8176988138934894   0.05737010575632581   0.003076664030300477
-0.8176988138934894   0.05737010575632581   0.003076664030300477
-0.8176988138934894   0.05737010575632581   0.003076664030300477
-0.8176988138934894   0.05737010575632581   0.003076664030300477
-1.1898373600998862   -0.005163514601120245   0.0007959923488503745
-1.1898373600998862   -0.005163514601120245   0.0007959923488503745
-1.1898373600998862   -0.005163514601120245   0.0007959923488503745
-1.1898373600998862   -0.005163514601120245   0.0007959923488503745
-0.8063189043441128   0.0704556195967215   0.046890697936779274
-0.8063189043441128   0.0704556195967215   0.046890697936779274
-0.8063189043441128   0.0704556195967215   0.046890697936779274
-0.8063189043441128   0.0704556195967215   0.046890697936779274
-1.6475099867111522   -0.11705984222334903   -0.03926190305041087
-1.6475099867111522   -0.11705984222334903   -0.03926190305041087
-1.6475099867111522   -0.11705984222334903   -0.03926190305041087
-1.6475099867111522   -0.11705984222334903   -0.03926190305041087
-1.6818243601695249   -0.12972905705934476   0.004737280633539072
-1.6818243601695249   -0.12972905705934476   0.004737280633539072
-1.6818243601695249   -0.12972905705934476   0.004737280633539072
-1.6818243601695249   -0.12972905705934476   0.004737280633539072
-0.8583760198486282   0.03162489555754913   0.005713110003183378
-0.8583760198486282   0.03162489555754913   0.005713110003183378
-0.8583760198486282   0.03162489555754913   0.005713110003183378
-0.8583760198486282   0.03162489555754913   0.005713110003183378
-1.2408624846064973   -0.029241596849598234   -0.009435865635194572
-1.2408624846064973   -0.029241596849598234   -0.009435865635194572
-1.2408624846064973   -0.029241596849598234   -0.009435865635194572
-1.2408624846064973   -0.029241596849598234   -0.009435865635194572
-1.5024882515527398   0.11319867222946434   0.05066346128592067
-1.5024882515527398   0.11319867222946434   0.05066346128592067
-1.5024882515527398   0.11319867222946434   0.05066346128592067
-1.5024882515527398   0.11319867222946434   0.05066346128592067
-2.299379125535019   -0.10632254495665322   -0.04056823522397583
-2.299379125535019   -0.10632254495665322   -0.04056823522397583
-2.299379125535019   -0.10632254495665322   -0.04056823522397583
-2.299379125535019   -0.10632254495665322   -0.04056823522397583
-2.3311190041116387   -0.0463266116201132   0.04315103813060492
-2.3311190041116387   -0.0463266116201132   0.04315103813060492
-2.3311190041116387   -0.0463266116201132   0.04315103813060492
-2.3311190041116387   -0.0463266116201132   0.04315103813060492
-1.5688070453060237   0.04713774610001931   -0.022823794701634925
-1.5688070453060237   0.04713774610001931   -0.022823794701634925
-1.5688070453060237   0.04713774610001931   -0.022823794701634925
-1.5688070453060237   0.04713774610001931   -0.022823794701634925
-1.8403919043690367   0.023629365535190017   0.04221278754354352
-1.8403919043690367   0.023629365535190017   0.04221278754354352
-1.8403919043690367   0.023629365535190017   0.04221278754354352
-1.8403919043690367   0.023629365535190017   0.04221278754354352
-1.5390046987598964   0.11510931554159554   0.05821636858740628
-1.5390046987598964   0.11510931554159554   0.05821636858740628
-1.5390046987598964   0.11510931554159554   0.05821636858740628
-1.5390046987598964   0.11510931554159554   0.05821636858740628
-2.3591614907028933   -0.11253832110681461   -0.030849685338934507
-2.3591614907028933   -0.11253832110681461   -0.030849685338934507
-2.3591614907028933   -0.11253832110681461   -0.030849685338934507
-2.3591614907028933   -0.11253832110681461   -0.030849685338934507
-2.3891499810939667   -0.0576139248695256   0.059622691758287924
-2.3891499810939667   -0.0576139248695256   0.059622691758287924
-2.3891499810939667   -0.0576139248695256   0.059622691758287924
-2.3891499810939667   -0.0576139248695256   0.059622691758287924
-1.6133708220090988   0.03469270017677473   -0.020318621940255355
-1.6133708220090988   0.03469270017677473   -0.020318621940255355
-1.6133708220090988   0.03469270017677473   -0.020318621940255355
-1.6133708220090988   0.03469270017677473   -0.020318621940255355
-1.9200676861021988   0.011642214331305356   0.02704794887490948
-1.9200676861021988   0.011642214331305356   0.02704794887490948
-1.9200676861021988   0.011642214331305356   0.02704794887490948
-1.9200676861021988   0.011642214331305356   0.02704794887490948
-1.5804564037635243   0.1066579051148197   0.07228826434957213
-1.5804564037635243   0.1066579051148197   0.07228826434957213
-1.5804564037635243   0.1066579051148197   0.07228826434957213
-1.5804564037635243   0.1066579051148197   0.07228826434957213
-2.420367655224974   -0.12788238569299692   -0.026197218073237938
-2.420367655224974   -0.12788238569299692   -0.026197218073237938
-2.420367655224974   -0.12788238569299692   -0.026197218073237938
-2.420367655224974   -0.12788238569299692   -0.026197218073237938
-2.4678539946343143   -0.1058813046401304   0.05933789042507763
-2.4678539946343143   -0.1058813046401304   0.05933789042507763
-2.4678539946343143   -0.1058813046401304   0.05933789042507763
-2.4678539946343143   -0.1058813046401304   0.05933789042507763
-1.6611439971650337   -0.0025110205890283566   -0.01907894081432189
-1.6611439971650337   -0.0025110205890283566   -0.01907894081432189
-1.6611439971650337   -0.0025110205890283566   -0.01907894081432189
-1.6611439971650337   -0.0025110205890283566   -0.01907894081432189
-1.94347936639091   -0.0055608703064594645   0.02197913529584994
-1.94347936639091   -0.0055608703064594645   0.02197913529584994
-1.94347936639091   -0.0055608703064594645   0.02197913529584994
-1.94347936639091   -0.0055608703064594645   0.02197913529584994
1.319329941628317   0.07319512498137609   -0.06323719685558175
1.319329941628317   0.07319512498137609   -0.06323719685558175
1.319329941628317   0.07319512498137609   -0.06323719685558175
1.319329941628317   0.07319512498137609   -0.06323719685558175
0.6276516621911634   0.01282536604800405   0.024166873531118196
0.6276516621911634   0.01282536604800405   0.024166873531118196
0.6276516621911634   0.01282536604800405   0.024166873531118196
0.6276516621911634   0.01282536604800405   0.024166873531118196
0.5573668894636475   -0.10712416674713163   -0.06002171203918854
0.5573668894636475   -0.10712416674713163   -0.06002171203918854
0.5573668894636475   -0.10712416674713163   -0.06002171203918854
0.5573668894636475   -0.10712416674713163   -0.06002171203918854
1.2906056288666015   0.12139376808345359   0.02987553327711441
1.2906056288666015   0.12139376808345359   0.02987553327711441
1.2906056288666015   0.12139376808345359   0.02987553327711441
1.2906056288666015   0.12139376808345359   0.02987553327711441
0.8997404123076801   0.012177443243848757   -0.026599384542961624
0.8997404123076801   0.012177443243848757   -0.026599384542961624
0.8997404123076801   0.012177443243848757   -0.026599384542961624
0.8997404123076801   0.012177443243848757   -0.026599384542961624
1.2548896124916085   0.032435470136182504   -0.05974625065057903
1.2548896124916085   0.032435470136182504   -0.05974625065057903
1.2548896124916085   0.032435470136182504   -0.05974625065057903
1.2548896124916085   0.032435470136182504   -0.05974625065057903
0.5923772764323567   -0.01887149820614492   0.026777554263366546
0.5923772764323567   -0.01887149820614492   0.026777554263366546
0.5923772764323567   -0.01887149820614492   0.026777554263366546
0.5923772764323567   -0.01887149820614492   0.026777554263366546
0.5245207626249574   -0.1176703478457525   -0.05117368197596949
0.5245207626249574   -0.1176703478457525   -0.05117368197596949
0.5245207626249574   -0.1176703478457525   -0.05117368197596949
0.5245207626249574   -0.1176703478457525   -0.05117368197596949
1.2395363067876763   0.1063284475583981   0.03926330267802566
1.2395363067876763   0.1063284475583981   0.03926330267802566
1.2395363067876763   0.1063284475583981   0.03926330267802566
1.2395363067876763   0.1063284475583981   0.03926330267802566
0.8702605076216354   -0.006088489120873591   -0.03741868488442684
0.8702605076216354   -0.006088489120873591   -0.03741868488442684
0.8702605076216354   -0.006088489120873591   -0.03741868488442684
0.8702605076216354   -0.006088489120873591   -0.03741868488442684
1.2046595720810191   0.019028138151080093   -0.04782006144792982
1.2046595720810191   0.019028138151080093   -0.04782006144792982
1.2046595720810191   0.019028138151080093   -0.04782006144792982
1.2046595720810191   0.019028138151080093   -0.04782006144792982
0.5585111697580374   -0.031256366012000186   0.03236437185567334
0.5585111697580374   -0.031256366012000186   0.03236437185567334
0.5585111697580374   -0.031256366012000186   0.03236437185567334
0.5585111697580374   -0.031256366012000186   0.03236437185567334
0.49490747844248045   -0.12423963250727013   -0.042613731650048434
0.49490747844248045   -0.12423963250727013   -0.042613731650048434
0.49490747844248045   -0.12423963250727013   -0.042613731650048434
0.49490747844248045   -0.12423963250727013   -0.042613731650048434
1.181956682270472   0.0899648743328583   0.0466177020507365
1.181956682270472   0.0899648743328583   0.0466177020507365
1.181956682270472   0.0899648743328583   0.0466177020507365
1.181956682270472   0.0899648743328583   0.0466177020507365
0.8122237323406555   -0.01991681291452585   -0.05338709433179532
0.8122237323406555   -0.01991681291452585   -0.05338709433179532
0.8122237323406555   -0.01991681291452585   -0.05338709433179532
0.8122237323406555   -0.01991681291452585   -0.05338709433179532
0.6380295463384403   0.09278833969193427   -0.003906679376416786
0.6380295463384403   0.09278833969193427   -0.003906679376416786
0.6380295463384403   0.09278833969193427   -0.003906679376416786
0.6380295463384403   0.09278833969193427   -0.003906679376416786
-0.04142561327303707   -0.008878986786707198   -0.000258601918879366
-0.04142561327303707   -0.008878986786707198   -0.000258601918879366
-0.04142561327303707   -0.008878986786707198   -0.000258601918879366
-0.04142561327303707   -0.008878986786707198   -0.000258601918879366
-0.090935928403689   -0.08011569074272831   -0.03812396917731682
-0.090935928403689   -0.08011569074272831   -0.03812396917731682
-0.090935928403689   -0.08011569074272831   -0.03812396917731682
-0.090935928403689   -0.08011569074272831   -0.03812396917731682
0.6213371424872447   0.11030540829243995   0.042399978039221645
0.6213371424872447   0.11030540829243995   0.042399978039221645
0.6213371424872447   0.11030540829243995   0.042399978039221645
0.6213371424872447   0.11030540829243995   0.042399978039221645
0.2774131325945465   0.02725055856797106   0.001960237252934316
0.2774131325945465   0.02725055856797106   0.001960237252934316
0.2774131325945465   0.02725055856797106   0.001960237252934316
0.2774131325945465   0.02725055856797106   0.001960237252934316
0.6045379957570326   0.06695484871751131   0.001754803963098307
0.6045379957570326   0.06695484871751131   0.001754803963098307
0.6045379957570326   0.06695484871751131   0.001754803963098307
0.6045379957570326   0.06695484871751131   0.001754803963098307
-0.07384786870699805   -0.03647621820130918   0.003676856764718745
-0.07384786870699805   -0.03647621820130918   0.003676856764718745
-0.07384786870699805   -0.03647621820130918   0.003676856764718745
-0.07384786870699805   -0.03647621820130918   0.003676856764718745
-0.12187688161033201   -0.10004787047448414   -0.031509422655635166
-0.12187688161033201   -0.10004787047448414   -0.031509422655635166
-0.12187688161033201   -0.10004787047448414   -0.031509422655635166
-0.12187688161033201   -0.10004787047448414   -0.031509422655635166
0.5848662961945597   0.08652831680770703   0.04635532121857753
0.5848662961945597   0.08652831680770703   0.04635532121857753
0.5848662961945597   0.08652831680770703   0.04635532121857753
0.5848662961945597   0.08652831680770703   0.04635532121857753
0.23930372715363243   0.00374667138570485   -0.009842377932042564
0.23930372715363243   0.00374667138570485   -0.009842377932042564
0.23930372715363243   0.00374667138570485   -0.009842377932042564
0.23930372715363243   0.00374667138570485   -0.009842377932042564
0.568622323305226   0.045572174796388726   0.0060915987832324756
0.568622323305226   0.045572174796388726   0.0060915987832324756
0.568622323305226   0.045572174796388726   0.0060915987832324756
0.568622323305226   0.045572174796388726   0.0060915987832324756
-0.10586647357934968   -0.05932529332152654   0.007820040346318917
-0.10586647357934968   -0.05932529332152654   0.007820040346318917
-0.10586647357934968   -0.05932529332152654   0.007820040346318917
-0.10586647357934968   -0.05932529332152654   0.007820040346318917
-0.15241651178281587   -0.11681185447590656   -0.025294334355476972
-0.15241651178281587   -0.11681185447590656   -0.025294334355476972
-0.15241651178281587   -0.11681185447590656   -0.025294334355476972
-0.15241651178281587   -0.11681185447590656   -0.025294334355476972
0.551193787065042   0.06452167536334202   0.0500565035921427
0.551193787065042   0.06452167536334202   0.0500565035921427
0.551193787065042   0.06452167536334202   0.0500565035921427
0.551193787065042   0.06452167536334202   0.0500565035921427
0.21003912760991705   -0.014097805063904206   -0.019684609875731743
0.21003912760991705   -0.014097805063904206   -0.019684609875731743
0.21003912760991705   -0.014097805063904206   -0.019684609875731743
0.21003912760991705   -0.014097805063904206   -0.019684609875731743
-0.014364890806561746   0.11079387261344677   0.015372151013343265
-0.014364890806561746   0.11079387261344677   0.015372151013343265
-0.014364890806561746   0.11079387261344677   0.015372151013343265
-0.014364890806561746   0.11079387261344677   0.015372151013343265
-0.6962379998126106   -0.030059498077084024   -0.02309516639305207
-0.6962379998126106   -0.030059498077084024   -0.02309516639305207
-0.6962379998126106   -0.030059498077084024   -0.02309516639305207
-0.6962379998126106   -0.030059498077084024   -0.02309516639305207
-0.7281497342194402   -0.05551927254374875   -0.018018817445531306
-0.7281497342194402   -0.05551927254374875   -0.018018817445531306
-0.7281497342194402   -0.05551927254374875   -0.018018817445531306
-0.7281497342194402   -0.05551927254374875   -0.018018817445531306
-0.04577734921152873   0.08908865649166355   0.01846457954909645
-0.04577734921152873   0.08908865649166355   0.01846457954909645
-0.04577734921152873   0.08908865649166355   0.01846457954909645
-0.04577734921152873   0.08908865649166355   0.01846457954909645
-0.37025402436786004   0.02877296716562293   0.0072657222758408
-0.37025402436786004   0.02877296716562293   0.0072657222758408
-0.37025402436786004   0.02877296716562293   0.0072657222758408
-0.37025402436786004   0.02877296716562293   0.0072657222758408
-0.04515611670226699   0.08901257847182803   0.021646820115240658
-0.04515611670226699   0.08901257847182803   0.021646820115240658
-0.04515611670226699   0.08901257847182803   0.021646820115240658
-0.04515611670226699   0.08901257847182803   0.021646820115240658
-0.7281724107529167   -0.054844638548138175   -0.018806834108524247
-0.7281724107529167   -0.054844638548138175   -0.018806834108524247
-0.7281724107529167   -0.054844638548138175   -0.018806834108524247
-0.7281724107529167   -0.054844638548138175   -0.018806834108524247
-0.7598416102688034   -0.0770918322287148   -0.012244282841770468
-0.7598416102688034   -0.0770918322287148   -0.012244282841770468
-0.7598416102688034   -0.0770918322287148   -0.012244282841770468
-0.7598416102688034   -0.0770918322287148   -0.012244282841770468
-0.07803325517352187   0.0646048466185463   0.02305599243538508
-0.07803325517352187   0.0646048466185463   0.02305599243538508
-0.07803325517352187   0.0646048466185463   0.02305599243538508
-0.07803325517352187   0.0646048466185463   0.02305599243538508
-0.40227198845527035   0.007500700418178435   -0.002314923134710746
-0.40227198845527035   0.007500700418178435   -0.002314923134710746
-0.40227198845527035   0.007500700418178435   -0.002314923134710746
-0.40227198845527035   0.007500700418178435   -0.002314923134710746
-0.07677361295765696   0.06730202819043316   0.026657021942822753
-0.07677361295765696   0.06730202819043316   0.026657021942822753
-0.07677361295765696   0.06730202819043316   0.026657021942822753
-0.07677361295765696   0.06730202819043316   0.026657021942822753
-0.7609237106428423   -0.07961147195877553   -0.015135144981903725
-0.7609237106428423   -0.07961147195877553   -0.015135144981903725
-0.7609237106428423   -0.07961147195877553   -0.015135144981903725
-0.7609237106428423   -0.07961147195877553   -0.015135144981903725
-0.7911637140261637   -0.0968024355103653   -0.006529895045906987
-0.7911637140261637   -0.0968024355103653   -0.006529895045906987
-0.7911637140261637   -0.0968024355103653   -0.006529895045906987
-0.7911637140261637   -0.0968024355103653   -0.006529895045906987
-0.11041839739226443   0.040924724061110355   0.026959659060263343
-0.11041839739226443   0.040924724061110355   0.026959659060263343
-0.11041839739226443   0.040924724061110355   0.026959659060263343
-0.11041839739226443   0.040924724061110355   0.026959659060263343
-0.43575413721105366   -0.013952254751822463   -0.012982368604580408
-0.43575413721105366   -0.013952254751822463   -0.012982368604580408
-0.43575413721105366   -0.013952254751822463   -0.012982368604580408
-0.43575413721105366   -0.013952254751822463   -0.012982368604580408
-0.6534530010337202   0.12728828810328824   0.0334820413210201
-0.6534530010337202   0.12728828810328824   0.0334820413210201
-0.6534530010337202   0.12728828810328824   0.0334820413210201
-0.6534530010337202   0.12728828810328824   0.0334820413210201
-1.3359067173363042   -0.0516843098088314   -0.04166778343899518
-1.3359067173363042   -0.0516843098088314   -0.04166778343899518
-1.3359067173363042   -0.0516843098088314   -0.04166778343899518
-1.3359067173363042   -0.0516843098088314   -0.04166778343899518
-1.353353523583023   -0.034738883982085134   0.003891583626544348
-1.353353523583023   -0.034738883982085134   0.003891583626544348
-1.353353523583023   -0.034738883982085134   0.003891583626544348
-1.353353523583023   -0.034738883982085134   0.003891583626544348
-0.7017295296988102   0.06395375447395737   -0.0053908218600837166
-0.7017295296988102   0.06395375447395737   -0.0053908218600837166
-0.7017295296988102   0.06395375447395737   -0.0053908218600837166
-0.7017295296988102   0.06395375447395737   -0.0053908218600837166
-1.0045522899170065   0.02749278793352322   0.0123162619688435
-1.0045522899170065   0.02749278793352322   0.0123162619688435
-1.0045522899170065   0.02749278793352322   0.0123162619688435
-1.0045522899170065   0.02749278793352322   0.0123162619688435
-0.6842979320053869   0.10619841818694198   0.03952250289404419
-0.6842979320053869   0.10619841818694198   0.03952250289404419
-0.6842979320053869   0.10619841818694198   0.03952250289404419
-0.6842979320053869   0.10619841818694198   0.03952250289404419
-1.3706196329743536   -0.07681805939297798   -0.04035978791921699
-1.3706196329743536   -0.07681805939297798   -0.04035978791921699
-1.3706196329743536   -0.07681805939297798   -0.04035978791921699
-1.3706196329743536   -0.07681805939297798   -0.04035978791921699
-1.3902550460477745   -0.05654507795547964   0.006056977625558582
-1.3902550460477745   -0.05654507795547964   0.006056977625558582
-1.3902550460477745   -0.05654507795547964   0.006056977625558582
-1.3902550460477745   -0.05654507795547964   0.006056977625558582
-0.7338627023552319   0.04127865768061639   -0.0007202331832359826
-0.7338627023552319   0.04127865768061639   -0.0007202331832359826
-0.7338627023552319   0.04127865768061639   -0.0007202331832359826
-0.7338627023552319   0.04127865768061639   -0.0007202331832359826
-1.0316550778044453   0.008502258661384876   0.003395477480692931
-1.0316550778044453   0.008502258661384876   0.003395477480692931
-1.0316550778044453   0.008502258661384876   0.003395477480692931
-1.0316550778044453   0.008502258661384876   0.003395477480692931
-0.7157054662301294   0.08618530292292947   0.045159302199958826
-0.7157054662301294   0.08618530292292947   0.045159302199958826
-0.7157054662301294   0.08618530292292947   0.045159302199958826
-0.7157054662301294   0.08618530292292947   0.045159302199958826
-1.4074762187446765   -0.10051565976959292   -0.036078304044838014
-1.4074762187446765   -0.10051565976959292   -0.036078304044838014
-1.4074762187446765   -0.10051565976959292   -0.036078304044838014
-1.4074762187446765   -0.10051565976959292   -0.036078304044838014
-1.4237344366342122   -0.08000872366486955   0.012903430676673835
-1.4237344366342122   -0.08000872366486955   0.012903430676673835
-1.4237344366342122   -0.08000872366486955   0.012903430676673835
-1.4237344366342122   -0.08000872366486955   0.012903430676673835
-0.7668947648630231   0.015349563911353198   0.0026628513480858734
-0.7668947648630231   0.015349563911353198   0.0026628513480858734
-0.7668947648630231   0.015349563911353198   0.0026628513480858734
-0.7668947648630231   0.015349563911353198   0.0026628513480858734
-1.0728672309606806   -0.015285364048657768   -0.00791956352180339
-1.0728672309606806   -0.015285364048657768   -0.00791956352180339
-1.0728672309606806   -0.015285364048657768   -0.00791956352180339
-1.0728672309606806   -0.015285364048657768   -0.00791956352180339
-1.2849356117811788   0.11415040978705843   0.04735302474074189
-1.2849356117811788   0.11415040978705843   0.04735302474074189
-1.2849356117811788   0.11415040978705843   0.04735302474074189
-1.2849356117811788   0.11415040978705843   0.04735302474074189
-1.9439027634369124   -0.08965086716579124   -0.04600078146877079
-1.9439027634369124   -0.08965086716579124   -0.04600078146877079
-1.9439027634369124   -0.08965086716579124   -0.04600078146877079
-1.9439027634369124   -0.08965086716579124   -0.04600078146877079
-1.9656353035632028   -0.0189313947695271   0.04365875920781259
-1.9656353035632028   -0.0189313947695271   0.04365875920781259
-1.9656353035632028   -0.0189313947695271   0.04365875920781259
-1.9656353035632028   -0.0189313947695271   0.04365875920781259
-1.3461501784491727   0.03212419917792625   -0.02695477386421659
-1.3461501784491727   0.03212419917792625   -0.02695477386421659
-1.3461501784491727   0.03212419917792625   -0.02695477386421659
-1.3461501784491727   0.03212419917792625   -0.02695477386421659
-1.5628418153326218   0.02573108031288368   0.0382271930804535
-1.5628418153326218   0.02573108031288368   0.0382271930804535
-1.5628418153326218   0.02573108031288368   0.0382271930804535
-1.5628418153326218   0.02573108031288368   0.0382271930804535
-1.313293149311081   0.113913498700139   0.055541072304021
-1.313293149311081   0.113913498700139   0.055541072304021
-1.313293149311081   0.113913498700139   0.055541072304021
-1.313293149311081   0.113913498700139   0.055541072304021
-1.9979338073230186   -0.10016216891346114   -0.03660298544730785
-1.9979338073230186   -0.10016216891346114   -0.03660298544730785
-1.9979338073230186   -0.10016216891346114   -0.03660298544730785
-1.9979338073230186   -0.10016216891346114   -0.03660298544730785
-2.013933707544014   -0.030432755665967648   0.05461698438100929
-2.013933707544014   -0.030432755665967648   0.05461698438100929
-2.013933707544014   -0.030432755665967648   0.05461698438100929
-2.013933707544014   -0.030432755665967648   0.05461698438100929
-1.3808394254763945   0.01969178089000767   -0.023101778363028014
-1.3808394254763945   0.01969178089000767   -0.023101778363028014
-1.3808394254763945   0.01969178089000767   -0.023101778363028014
-1.3808394254763945   0.01969178089000767   -0.023101778363028014
-1.6302023339770932   0.012887857653199719   0.023191790500525902
-1.6302023339770932   0.012887857653199719   0.023191790500525902
-1.6302023339770932   0.012887857653199719   0.023191790500525902
-1.6302023339770932   0.012887857653199719   0.023191790500525902
-1.3459852922844515   0.10533805350591169   0.06552261498078221
-1.3459852922844515   0.10533805350591169   0.06552261498078221
-1.3459852922844515   0.10533805350591169   0.06552261498078221
-1.3459852922844515   0.10533805350591169   0.06552261498078221
-2.0478701072474625   -0.11516129479336323   -0.030336475008814423
-2.0478701072474625   -0.11516129479336323   -0.030336475008814423
-2.0478701072474625   -0.11516129479336323   -0.030336475008814423
-2.0478701072474625   -0.11516129479336323   -0.030336475008814423
-2.0776758517555556   -0.07126883270044976   0.05366385321915408
-2.0776758517555556   -0.07126883270044976   0.05366385321915408
-2.0776758517555556   -0.07126883270044976   0.05366385321915408
-2.0776758517555556   -0.07126883270044976   0.05366385321915408
-1.417459967885435   -0.014800856104364934   -0.020932093139944083
-1.417459967885435   -0.014800856104364934   -0.020932093139944083
-1.417459967885435   -0.014800856104364934   -0.020932093139944083
-1.417459967885435   -0.014800856104364934   -0.020932093139944083
-1.6477124584045897   -0.0030624610251447915   0.018151622158649905
-1.6477124584045897   -0.0030624610251447915   0.018151622158649905
-1.6477124584045897   -0.0030624610251447915   0.018151622158649905
-1.6477124584045897   -0.0030624610251447915   0.018151622158649905
0.9046791497091226   0.051124776678276695   -0.061363560835416345
0.9046791497091226   0.051124776678276695   -0.061363560835416345
0.9046791497091226   0.051124776678276695   -0.061363560835416345
0.9046791497091226   0.051124776678276695   -0.061363560835416345
0.38643886602594657   0.02491150541459798   0.026377481809159147
0.38643886602594657   0.02491150541459798   0.026377481809159147
0.38643886602594657   0.02491150541459798   0.026377481809159147
0.38643886602594657   0.02491150541459798   0.026377481809159147
0.3231588270065467   -0.08951047113235566   -0.05719886094187708
0.3231588270065467   -0.08951047113235566   -0.05719886094187708
0.3231588270065467   -0.08951047113235566   -0.05719886094187708
0.3231588270065467   -0.08951047113235566   -0.05719886094187708
0.8833305197983987   0.10293036029945866   0.03204326280132576
0.8833305197983987   0.10293036029945866   0.03204326280132576
0.8833305197983987   0.10293036029945866   0.03204326280132576
0.8833305197983987   0.10293036029945866   0.03204326280132576
0.5913289473404559   0.01312472977217903   -0.01616053863770846
0.5913289473404559   0.01312472977217903   -0.01616053863770846
0.5913289473404559   0.01312472977217903   -0.01616053863770846
0.5913289473404559   0.01312472977217903   -0.01616053863770846
0.8479808522712451   0.015448969334957513   -0.057223683869948284
0.8479808522712451   0.015448969334957513   -0.057223683869948284
0.8479808522712451   0.015448969334957513   -0.057223683869948284
0.8479808522712451   0.015448969334957513   -0.057223683869948284
0.35784471739880475   -0.002692857302760518   0.029412977189823847
0.35784471739880475   -0.002692857302760518   0.029412977189823847
0.35784471739880475   -0.002692857302760518   0.029412977189823847
0.35784471739880475   -0.002692857302760518   0.029412977189823847
0.2961927357671116   -0.09992701877813616   -0.048670457984080734
0.2961927357671116   -0.09992701877813616   -0.048670457984080734
0.2961927357671116   -0.09992701877813616   -0.048670457984080734
0.2961927357671116   -0.09992701877813616   -0.048670457984080734
0.838971877415831   0.08815264682635877   0.04127309729091541
0.838971877415831   0.08815264682635877   0.04127309729091541
0.838971877415831   0.08815264682635877   0.04127309729091541
0.838971877415831   0.08815264682635877   0.04127309729091541
0.5633953768399398   -0.0040423676833065   -0.026375471071715156
0.5633953768399398   -0.0040423676833065   -0.026375471071715156
0.5633953768399398   -0.0040423676833065   -0.026375471071715156
0.5633953768399398   -0.0040423676833065   -0.026375471071715156
0.8042080085457889   0.002109506106522052   -0.04650310633946697
0.8042080085457889   0.002109506106522052   -0.04650310633946697
0.8042080085457889   0.002109506106522052   -0.04650310633946697
0.8042080085457889   0.002109506106522052   -0.04650310633946697
0.32997971957387595   -0.014860763121578205   0.03519820539318552
0.32997971957387595   -0.014860763121578205   0.03519820539318552
0.32997971957387595   -0.014860763121578205   0.03519820539318552
0.32997971957387595   -0.014860763121578205   0.03519820539318552
0.27208076026355515   -0.10944576859045518   -0.040559590558914095
0.27208076026355515   -0.10944576859045518   -0.040559590558914095
0.27208076026355515   -0.10944576859045518   -0.040559590558914095
0.27208076026355515   -0.10944576859045518   -0.040559590558914095
0.7872018840087639   0.06868557507728044   0.0470878779908758
0.7872018840087639   0.06868557507728044   0.0470878779908758
0.7872018840087639   0.06868557507728044   0.0470878779908758
0.7872018840087639   0.06868557507728044   0.0470878779908758
0.5162989772201335   -0.018150062527414274   -0.040374683078400246
0.5162989772201335   -0.018150062527414274   -0.040374683078400246
0.5162989772201335   -0.018150062527414274   -0.040374683078400246
0.5162989772201335   -0.018150062527414274   -0.040374683078400246
0.3889593329054886   0.07502332263089852   -0.011132001009437864
0.3889593329054886   0.07502332263089852   -0.011132001009437864
0.3889593329054886   0.07502332263089852   -0.011132001009437864
0.3889593329054886   0.07502332263089852   -0.011132001009437864
-0.11970303545029017   0.006620336198859975   0.003621808576281667
-0.11970303545029017   0.006620336198859975   0.003621808576281667
-0.11970303545029017   0.006620336198859975   0.003621808576281667
-0.11970303545029017   0.006620336198859975   0.003621808576281667
-0.16296314984953833   -0.062075737664717315   -0.035205459409781634
-0.16296314984953833   -0.062075737664717315   -0.035205459409781634
-0.16296314984953833   -0.062075737664717315   -0.035205459409781634
-0.16296314984953833   -0.062075737664717315   -0.035205459409781634
0.3781001029586685   0.09022468297799847   0.03777236470838364
0.3781001029586685   0.09022468297799847   0.03777236470838364
0.3781001029586685   0.09022468297799847   0.03777236470838364
0.3781001029586685   0.09022468297799847   0.03777236470838364
0.11843951607612513   0.026117113967365314   0.004535128117519418
0.11843951607612513   0.026117113967365314   0.004535128117519418
0.11843951607612513   0.026117113967365314   0.004535128117519418
0.11843951607612513   0.026117113967365314   0.004535128117519418
0.36101032124745963   0.048558063552264684   -0.0060099244219309535
0.36101032124745963   0.048558063552264684   -0.0060099244219309535
0.36101032124745963   0.048558063552264684   -0.0060099244219309535
0.36101032124745963   0.048558063552264684   -0.0060099244219309535
-0.1461239728329703   -0.02065972293361547   0.007574410941952748
-0.1461239728329703   -0.02065972293361547   0.007574410941952748
-0.1461239728329703   -0.02065972293361547   0.007574410941952748
-0.1461239728329703   -0.02065972293361547   0.007574410941952748
-0.1880466763352759   -0.08301966058969851   -0.028471593238614687
-0.1880466763352759   -0.08301966058969851   -0.028471593238614687
-0.1880466763352759   -0.08301966058969851   -0.028471593238614687
-0.1880466763352759   -0.08301966058969851   -0.028471593238614687
0.3473402504911388   0.06607453465756571   0.041065562200355905
0.3473402504911388   0.06607453465756571   0.041065562200355905
0.3473402504911388   0.06607453465756571   0.041065562200355905
0.3473402504911388   0.06607453465756571   0.041065562200355905
0.08752301207450912   0.002455552316074151   -0.00683157346342474
0.08752301207450912   0.002455552316074151   -0.00683157346342474
0.08752301207450912   0.002455552316074151   -0.00683157346342474
0.08752301207450912   0.002455552316074151   -0.00683157346342474
0.3307906469193798   0.026100448757316617   -0.0017083697581948085
0.3307906469193798   0.026100448757316617   -0.0017083697581948085
0.3307906469193798   0.026100448757316617   -0.0017083697581948085
0.3307906469193798   0.026100448757316617   -0.0017083697581948085
-0.17213353711967497   -0.043682039045608315   0.01175648129529964
-0.17213353711967497   -0.043682039045608315   0.01175648129529964
-0.17213353711967497   -0.043682039045608315   0.01175648129529964
-0.17213353711967497   -0.043682039045608315   0.01175648129529964
-0.21279907598523032   -0.10273800235338673   -0.022249021941228866
-0.21279907598523032   -0.10273800235338673   -0.022249021941228866
-0.21279907598523032   -0.10273800235338673   -0.022249021941228866
-0.21279907598523032   -0.10273800235338673   -0.022249021941228866
0.3195819812803371   0.04284161297979476   0.044659132954752344
0.3195819812803371   0.04284161297979476   0.044659132954752344
0.3195819812803371   0.04284161297979476   0.044659132954752344
0.3195819812803371   0.04284161297979476   0.044659132954752344
0.06267559147564374   -0.017214059152107285   -0.01688061571792079
0.06267559147564374   -0.017214059152107285   -0.01688061571792079
0.06267559147564374   -0.017214059152107285   -0.01688061571792079
0.06267559147564374   -0.017214059152107285   -0.01688061571792079
-0.10094344565671001   0.0953553873177625   0.008684706425279985
-0.10094344565671001   0.0953553873177625   0.008684706425279985
-0.10094344565671001   0.0953553873177625   0.008684706425279985
-0.10094344565671001   0.0953553873177625   0.008684706425279985
-0.6183621069795568   -0.015472799431875198   -0.018786813989718317
-0.6183621069795568   -0.015472799431875198   -0.018786813989718317
-0.6183621069795568   -0.015472799431875198   -0.018786813989718317
-0.6183621069795568   -0.015472799431875198   -0.018786813989718317
-0.6431008545659987   -0.036833466702825335   -0.013822531068877965
-0.6431008545659987   -0.036833466702825335   -0.013822531068877965
-0.6431008545659987   -0.036833466702825335   -0.013822531068877965
-0.6431008545659987   -0.036833466702825335   -0.013822531068877965
-0.12681971472350584   0.06880131089482741   0.014634667660832018
-0.12681971472350584   0.06880131089482741   0.014634667660832018
-0.12681971472350584   0.06880131089482741   0.014634667660832018
-0.12681971472350584   0.06880131089482741   0.014634667660832018
-0.3714015984580778   0.02753375177479439   0.007332207412361843
-0.3714015984580778   0.02753375177479439   0.007332207412361843
-0.3714015984580778   0.02753375177479439   0.007332207412361843
-0.3714015984580778   0.02753375177479439   0.007332207412361843
-0.1260374325466734   0.07234433483565036   0.015003054604175198
-0.1260374325466734   0.07234433483565036   0.015003054604175198
-0.1260374325466734   0.07234433483565036   0.015003054604175198
-0.1260374325466734   0.07234433483565036   0.015003054604175198
-0.6439514602323334   -0.040444814133149876   -0.014464211970226917
-0.6439514602323334   -0.040444814133149876   -0.014464211970226917
-0.6439514602323334   -0.040444814133149876   -0.014464211970226917
-0.6439514602323334   -0.040444814133149876   -0.014464211970226917
-0.6684419206272114   -0.059652548577103795   -0.007822318089175922
-0.6684419206272114   -0.059652548577103795   -0.007822318089175922
-0.6684419206272114   -0.059652548577103795   -0.007822318089175922
-0.6684419206272114   -0.059652548577103795   -0.007822318089175922
-0.1531404549785662   0.04394732821306226   0.019092524742169114
-0.1531404549785662   0.04394732821306226   0.019092524742169114
-0.1531404549785662   0.04394732821306226   0.019092524742169114
-0.1531404549785662   0.04394732821306226   0.019092524742169114
-0.39745616185391053   0.005324287083237331   -0.0024435804862186286
-0.39745616185391053   0.005324287083237331   -0.0024435804862186286
-0.39745616185391053   0.005324287083237331   -0.0024435804862186286
-0.39745616185391053   0.005324287083237331   -0.0024435804862186286
-0.1518152803849403   0.049308656894882105   0.020357069028482517
-0.1518152803849403   0.049308656894882105   0.020357069028482517
-0.1518152803849403   0.049308656894882105   0.020357069028482517
-0.1518152803849403   0.049308656894882105   0.020357069028482517
-0.6701686736986843   -0.06541545573677   -0.01069317628687418
-0.6701686736986843   -0.06541545573677   -0.01069317628687418
-0.6701686736986843   -0.06541545573677   -0.01069317628687418
-0.6701686736986843   -0.06541545573677   -0.01069317628687418
-0.6933588939383465   -0.08145342136459231   -0.001990571522167927
-0.6933588939383465   -0.08145342136459231   -0.001990571522167927
-0.6933588939383465   -0.08145342136459231   -0.001990571522167927
-0.6933588939383465   -0.08145342136459231   -0.001990571522167927
-0.17923614471766627   0.01979605371531841   0.02303157832788634
-0.17923614471766627   0.01979605371531841   0.02303157832788634
-0.17923614471766627   0.01979605371531841   0.02303157832788634
-0.17923614471766627   0.01979605371531841   0.02303157832788634
-0.42458153671375576   -0.01691093132212952   -0.013038540399384329
-0.42458153671375576   -0.01691093132212952   -0.013038540399384329
-0.42458153671375576   -0.01691093132212952   -0.013038540399384329
-0.42458153671375576   -0.01691093132212952   -0.013038540399384329
-0.5833460593471771   0.11277125285404502   0.028049371886260034
-0.5833460593471771   0.11277125285404502   0.028049371886260034
-0.5833460593471771   0.11277125285404502   0.028049371886260034
-0.5833460593471771   0.11277125285404502   0.028049371886260034
-1.1080907352510587   -0.03743621785897927   -0.038274521016753896
-1.1080907352510587   -0.03743621785897927   -0.038274521016753896
-1.1080907352510587   -0.03743621785897927   -0.038274521016753896
-1.1080907352510587   -0.03743621785897927   -0.038274521016753896
-1.1173950848512575   -0.01627803247974907   0.009115798523831403
-1.1173950848512575   -0.01627803247974907   0.009115798523831403
-1.1173950848512575   -0.01627803247974907   0.009115798523831403
-1.1173950848512575   -0.01627803247974907   0.009115798523831403
-0.6256419150505179   0.044822429602686564   -0.008183729796998176
-0.6256419150505179   0.044822429602686564   -0.008183729796998176
-0.6256419150505179   0.044822429602686564   -0.008183729796998176
-0.6256419150505179   0.044822429602686564   -0.008183729796998176
-0.853535153739634   0.026226438319578826   0.010654311087119249
-0.853535153739634   0.026226438319578826   0.010654311087119249
-0.853535153739634   0.026226438319578826   0.010654311087119249
-0.853535153739634   0.026226438319578826   0.010654311087119249
-0.6079733943081136   0.09064950552304823   0.034331797994674035
-0.6079733943081136   0.09064950552304823   0.034331797994674035
-0.6079733943081136   0.09064950552304823   0.034331797994674035
-0.6079733943081136   0.09064950552304823   0.034331797994674035
-1.1358320399749513   -0.06287354278138932   -0.036473466793005595
-1.1358320399749513   -0.06287354278138932   -0.036473466793005595
-1.1358320399749513   -0.06287354278138932   -0.036473466793005595
-1.1358320399749513   -0.06287354278138932   -0.036473466793005595
-1.1472636332157067   -0.03887758028396854   0.011899507854314276
-1.1472636332157067   -0.03887758028396854   0.011899507854314276
-1.1472636332157067   -0.03887758028396854   0.011899507854314276
-1.1472636332157067   -0.03887758028396854   0.011899507854314276
-0.6512532152071083   0.021920217143976517   -0.0034515567097570393
-0.6512532152071083   0.021920217143976517   -0.0034515567097570393
-0.6512532152071083   0.021920217143976517   -0.0034515567097570393
-0.6512532152071083   0.021920217143976517   -0.0034515567097570393
-0.8754887916181153   0.00607675879130995   0.0008504657194438117
-0.8754887916181153   0.00607675879130995   0.0008504657194438117
-0.8754887916181153   0.00607675879130995   0.0008504657194438117
-0.8754887916181153   0.00607675879130995   0.0008504657194438117
-0.6329501813469699   0.06966831205491786   0.04031551768000942
-0.6329501813469699   0.06966831205491786   0.04031551768000942
-0.6329501813469699   0.06966831205491786   0.04031551768000942
-0.6329501813469699   0.06966831205491786   0.04031551768000942
-1.165631836054159   -0.08669084417323408   -0.03212824244869779
-1.165631836054159   -0.08669084417323408   -0.03212824244869779
-1.165631836054159   -0.08669084417323408   -0.03212824244869779
-1.165631836054159   -0.08669084417323408   -0.03212824244869779
-1.1738653371333914   -0.06294554163132302   0.018157895905073038
-1.1738653371333914   -0.06294554163132302   0.018157895905073038
-1.1738653371333914   -0.06294554163132302   0.018157895905073038
-1.1738653371333914   -0.06294554163132302   0.018157895905073038
-0.6773108793651192   -0.0034711614565261784   0.00026724143588720967
-0.6773108793651192   -0.0034711614565261784   0.00026724143588720967
-0.6773108793651192   -0.0034711614565261784   0.00026724143588720967
-0.6773108793651192   -0.0034711614565261784   0.00026724143588720967
-0.9083879944077526   -0.017288758820524996   -0.01051978252180965
-0.9083879944077526   -0.017288758820524996   -0.01051978252180965
-0.9083879944077526   -0.017288758820524996   -0.01051978252180965
-0.9083879944077526   -0.017288758820524996   -0.01051978252180965
-1.063226135027301   0.10450588938207006   0.04410637286098576
-1.063226135027301   0.10450588938207006   0.04410637286098576
-1.063226135027301   0.10450588938207006   0.04410637286098576
-1.063226135027301   0.10450588938207006   0.04410637286098576
-1.5684834647388992   -0.07217194327529836   -0.04978363246684915
-1.5684834647388992   -0.07217194327529836   -0.04978363246684915
-1.5684834647388992   -0.07217194327529836   -0.04978363246684915
-1.5684834647388992   -0.07217194327529836   -0.04978363246684915
-1.5836971567611873   -0.0012501448455488062   0.04372048433042268
-1.5836971567611873   -0.0012501448455488062   0.04372048433042268
-1.5836971567611873   -0.0012501448455488062   0.04372048433042268
-1.5836971567611873   -0.0012501448455488062   0.04372048433042268
-1.1189058995310754   0.015195002454942763   -0.02991130980997324
-1.1189058995310754   0.015195002454942763   -0.02991130980997324
-1.1189058995310754   0.015195002454942763   -0.02991130980997324
-1.1189058995310754   0.015195002454942763   -0.02991130980997324
-1.274916841349871   0.024303615563898928   0.032237815023602845
-1.274916841349871   0.024303615563898928   0.032237815023602845
-1.274916841349871   0.024303615563898928   0.032237815023602845
-1.274916841349871   0.024303615563898928   0.032237815023602845
-1.0855493366792877   0.10004051973794265   0.05202598716598032
-1.0855493366792877   0.10004051973794265   0.05202598716598032
-1.0855493366792877   0.10004051973794265   0.05202598716598032
-1.0855493366792877   0.10004051973794265   0.05202598716598032
-1.6177086584673437   -0.08675060098292386   -0.040836568062976406
-1.6177086584673437   -0.08675060098292386   -0.040836568062976406
-1.6177086584673437   -0.08675060098292386   -0.040836568062976406
-1.6177086584673437   -0.08675060098292386   -0.040836568062976406
-1.62588458653965   -0.013676080366277432   0.05510407641880222
-1.62588458653965   -0.013676080366277432   0.05510407641880222
-1.62588458653965   -0.013676080366277432   0.05510407641880222
-1.62588458653965   -0.013676080366277432   0.05510407641880222
-1.1464395593494916   0.002635465844194995   -0.025493168942796393
-1.1464395593494916   0.002635465844194995   -0.025493168942796393
-1.1464395593494916   0.002635465844194995   -0.025493168942796393
-1.1464395593494916   0.002635465844194995   -0.025493168942796393
-1.3317455844669799   0.010014579832232584   0.01683536931599869
-1.3317455844669799   0.010014579832232584   0.01683536931599869
-1.3317455844669799   0.010014579832232584   0.01683536931599869
-1.3317455844669799   0.010014579832232584   0.01683536931599869
-1.1115199948897767   0.09043670543328017   0.06130341376671661
-1.1115199948897767   0.09043670543328017   0.06130341376671661
-1.1115199948897767   0.09043670543328017   0.06130341376671661
-1.1115199948897767   0.09043670543328017   0.06130341376671661
-1.66127774190806   -0.10195091086405372   -0.03358686992547151
-1.66127774190806   -0.10195091086405372   -0.03358686992547151
-1.66127774190806   -0.10195091086405372   -0.03358686992547151
-1.66127774190806   -0.10195091086405372   -0.03358686992547151
-1.6823229568790632   -0.05252707548999408   0.05529979892553884
-1.6823229568790632   -0.05252707548999408   0.05529979892553884
-1.6823229568790632   -0.05252707548999408   0.05529979892553884
-1.6823229568790632   -0.05252707548999408   0.05529979892553884
-1.17524358590434   -0.029138721664107303   -0.02254016791690938
-1.17524358590434   -0.029138721664107303   -0.02254016791690938
-1.17524358590434   -0.029138721664107303   -0.02254016791690938
-1.17524358590434   -0.029138721664107303   -0.02254016791690938
-1.3479172141636102   -0.006271924171089127   0.009491278940365971
-1.3479172141636102   -0.006271924171089127   0.009491278940365971
-1.3479172141636102   -0.006271924171089127   0.009491278940365971
-1.3479172141636102   -0.006271924171089127   0.009491278940365971
0.49644991060095184   0.029640033070995983   -0.059990924483856164
0.49644991060095184   0.029640033070995983   -0.059990924483856164
0.49644991060095184   0.029640033070995983   -0.059990924483856164
0.49644991060095184   0.029640033070995983   -0.059990924483856164
0.14396821183324585   0.0361104770805542   0.028726895023737258
0.14396821183324585   0.0361104770805542   0.028726895023737258
0.14396821183324585   0.0361104770805542   0.028726895023737258
0.14396821183324585   0.0361104770805542   0.028726895023737258
0.08810616627222294   -0.0731014945947448   -0.052891658143454326
0.08810616627222294   -0.0731014945947448   -0.052891658143454326
0.08810616627222294   -0.0731014945947448   -0.052891658143454326
0.08810616627222294   -0.0731014945947448   -0.052891658143454326
0.48267919449855967   0.08487532255338756   0.034565393676818525
0.48267919449855967   0.08487532255338756   0.034565393676818525
0.48267919449855967   0.08487532255338756   0.034565393676818525
0.48267919449855967   0.08487532255338756   0.034565393676818525
0.28509794463116545   0.01414660432305588   -0.006607481594909391
0.28509794463116545   0.01414660432305588   -0.006607481594909391
0.28509794463116545   0.01414660432305588   -0.006607481594909391
0.28509794463116545   0.01414660432305588   -0.006607481594909391
0.4474633336755747   -0.0016495392185967434   -0.05498904866612729
0.4474633336755747   -0.0016495392185967434   -0.05498904866612729
0.4474633336755747   -0.0016495392185967434   -0.05498904866612729
0.4474633336755747   -0.0016495392185967434   -0.05498904866612729
0.1222228005664551   0.012324140648496223   0.032265878084466425
0.1222228005664551   0.012324140648496223   0.032265878084466425
0.1222228005664551   0.012324140648496223   0.032265878084466425
0.1222228005664551   0.012324140648496223   0.032265878084466425
0.06701325224663081   -0.08347567348091262   -0.04490987907624136
0.06701325224663081   -0.08347567348091262   -0.04490987907624136
0.06701325224663081   -0.08347567348091262   -0.04490987907624136
0.06701325224663081   -0.08347567348091262   -0.04490987907624136
0.4447654589040591   0.07055825023897856   0.04438737413230477
0.4447654589040591   0.07055825023897856   0.04438737413230477
0.4447654589040591   0.07055825023897856   0.04438737413230477
0.4447654589040591   0.07055825023897856   0.04438737413230477
0.2585903214347559   -0.002050967435335768   -0.017127128337631997
0.2585903214347559   -0.002050967435335768   -0.017127128337631997
0.2585903214347559   -0.002050967435335768   -0.017127128337631997
0.2585903214347559   -0.002050967435335768   -0.017127128337631997
0.4097553817160837   -0.014971853404567442   -0.04513290816402982
0.4097553817160837   -0.014971853404567442   -0.04513290816402982
0.4097553817160837   -0.014971853404567442   -0.04513290816402982
0.4097553817160837   -0.014971853404567442   -0.04513290816402982
0.10055263206858453   0.0005837327966216783   0.0387276137559949
0.10055263206858453   0.0005837327966216783   0.0387276137559949
0.10055263206858453   0.0005837327966216783   0.0387276137559949
0.10055263206858453   0.0005837327966216783   0.0387276137559949
0.04814977603093151   -0.09602244609862369   -0.03740011991081247
0.04814977603093151   -0.09602244609862369   -0.03740011991081247
0.04814977603093151   -0.09602244609862369   -0.03740011991081247
0.04814977603093151   -0.09602244609862369   -0.03740011991081247
0.3978266239975844   0.047632255742111454   0.04926724826744398
0.3978266239975844   0.047632255742111454   0.04926724826744398
0.3978266239975844   0.047632255742111454   0.04926724826744398
0.3978266239975844   0.047632255742111454   0.04926724826744398
0.22203689520957218   -0.016490230978339383   -0.02997292155011476
0.22203689520957218   -0.016490230978339383   -0.02997292155011476
0.22203689520957218   -0.016490230978339383   -0.02997292155011476
0.22203689520957218   -0.016490230978339383   -0.02997292155011476
0.1383185940956286   0.054015130896690244   -0.017425847480485798
0.1383185940956286   0.054015130896690244   -0.017425847480485798
0.1383185940956286   0.054015130896690244   -0.017425847480485798
0.1383185940956286   0.054015130896690244   -0.017425847480485798
-0.20263708275695036   0.01749901285947663   0.007001011109895525
-0.20263708275695036   0.01749901285947663   0.007001011109895525
-0.20263708275695036   0.01749901285947663   0.007001011109895525
-0.20263708275695036   0.01749901285947663   0.007001011109895525
-0.23861721117580148   -0.04684403286696956   -0.0308539003819865
-0.23861721117580148   -0.04684403286696956   -0.0308539003819865
-0.23861721117580148   -0.04684403286696956   -0.0308539003819865
-0.23861721117580148   -0.04684403286696956   -0.0308539003819865
0.13327090696983307   0.0670543434290898   0.032776207320762786
0.13327090696983307   0.0670543434290898   0.032776207320762786
0.13327090696983307   0.0670543434290898   0.032776207320762786
0.13327090696983307   0.0670543434290898   0.032776207320762786
-0.04360110461304414   0.02196533159486518   0.005549097368413568
-0.04360110461304414   0.02196533159486518   0.005549097368413568
-0.04360110461304414   0.02196533159486518   0.005549097368413568
-0.04360110461304414   0.02196533159486518   0.005549097368413568
0.11629221719295925   0.027746711046897063   -0.01280960918141412
0.11629221719295925   0.027746711046897063   -0.01280960918141412
0.11629221719295925   0.027746711046897063   -0.01280960918141412
0.11629221719295925   0.027746711046897063   -0.01280960918141412
-0.22257452677405087   -0.008472405859900126   0.010987894619697111
-0.22257452677405087   -0.008472405859900126   0.010987894619697111
-0.22257452677405087   -0.008472405859900126   0.010987894619697111
-0.22257452677405087   -0.008472405859900126   0.010987894619697111
-0.257487518848571   -0.06793479415139199   -0.024153312504722704
-0.257487518848571   -0.06793479415139199   -0.024153312504722704
-0.257487518848571   -0.06793479415139199   -0.024153312504722704
-0.257487518848571   -0.06793479415139199   -0.024153312504722704
0.10851195957596851   0.04337425194405472   0.03573373214548176
0.10851195957596851   0.04337425194405472   0.03573373214548176
0.10851195957596851   0.04337425194405472   0.03573373214548176
0.10851195957596851   0.04337425194405472   0.03573373214548176
-0.06691042171841942   -0.0007720788409439506   -0.005345057815045122
-0.06691042171841942   -0.0007720788409439506   -0.005345057815045122
-0.06691042171841942   -0.0007720788409439506   -0.005345057815045122
-0.06691042171841942   -0.0007720788409439506   -0.005345057815045122
0.09203589923728854   0.0051217403716261704   -0.008394057975491474
0.09203589923728854   0.0051217403716261704   -0.008394057975491474
0.09203589923728854   0.0051217403716261704   -0.008394057975491474
0.09203589923728854   0.0051217403716261704   -0.008394057975491474
-0.24222279243604414   -0.030893616505116173   0.01512914191163994
-0.24222279243604414   -0.030893616505116173   0.01512914191163994
-0.24222279243604414   -0.030893616505116173   0.01512914191163994
-0.24222279243604414   -0.030893616505116173   0.01512914191163994
-0.27621441344103087   -0.088868906028541   -0.018097067365558474
-0.27621441344103087   -0.088868906028541   -0.018097067365558474
-0.27621441344103087   -0.088868906028541   -0.018097067365558474
-0.27621441344103087   -0.088868906028541   -0.018097067365558474
0.0868343745330996   0.020111009009858932   0.03988941749154633
0.0868343745330996   0.020111009009858932   0.03988941749154633
0.0868343745330996   0.020111009009858932   0.03988941749154633
0.0868343745330996   0.020111009009858932   0.03988941749154633
-0.08709451264728922   -0.021147231554226625   -0.015637307610550426
-0.08709451264728922   -0.021147231554226625   -0.015637307610550426
-0.08709451264728922   -0.021147231554226625   -0.015637307610550426
-0.08709451264728922   -0.021147231554226625   -0.015637307610550426
-0.1922091713929864   0.0740358888676841   0.0026036919215076254
-0.1922091713929864   0.0740358888676841   0.0026036919215076254
-0.1922091713929864   0.0740358888676841   0.0026036919215076254
-0.1922091713929864   0.0740358888676841   0.0026036919215076254
-0.5446641713832058   -0.006424995662583519   -0.014952608458498159
-0.5446641713832058   -0.006424995662583519   -0.014952608458498159
-0.5446641713832058   -0.006424995662583519   -0.014952608458498159
-0.5446641713832058   -0.006424995662583519   -0.014952608458498159
-0.561656189300705   -0.02287826215238889   -0.008926722998050307
-0.561656189300705   -0.02287826215238889   -0.008926722998050307
-0.561656189300705   -0.02287826215238889   -0.008926722998050307
-0.561656189300705   -0.02287826215238889   -0.008926722998050307
-0.21216645617630142   0.04413375657867863   0.010422085169865515
-0.21216645617630142   0.04413375657867863   0.010422085169865515
-0.21216645617630142   0.04413375657867863   0.010422085169865515
-0.21216645617630142   0.04413375657867863   0.010422085169865515
-0.37678027015403015   0.021752825962065597   0.0057577374742419744
-0.37678027015403015   0.021752825962065597   0.0057577374742419744
-0.37678027015403015   0.021752825962065597   0.0057577374742419744
-0.37678027015403015   0.021752825962065597   0.0057577374742419744
-0.2111502854726135   0.05077966855519687   0.008857026711786953
-0.2111502854726135   0.05077966855519687   0.008857026711786953
-0.2111502854726135   0.05077966855519687   0.008857026711786953
-0.2111502854726135   0.05077966855519687   0.008857026711786953
-0.5634916390742478   -0.030343453198767176   -0.010638780819386323
-0.5634916390742478   -0.030343453198767176   -0.010638780819386323
-0.5634916390742478   -0.030343453198767176   -0.010638780819386323
-0.5634916390742478   -0.030343453198767176   -0.010638780819386323
-0.5804435676181765   -0.04590263894525702   -0.0028541984098169777
-0.5804435676181765   -0.04590263894525702   -0.0028541984098169777
-0.5804435676181765   -0.04590263894525702   -0.0028541984098169777
-0.5804435676181765   -0.04590263894525702   -0.0028541984098169777
-0.23208560634639966   0.02011774664794576   0.014803709206796332
-0.23208560634639966   0.02011774664794576   0.014803709206796332
-0.23208560634639966   0.02011774664794576   0.014803709206796332
-0.23208560634639966   0.02011774664794576   0.014803709206796332
-0.39638280082719946   -0.00011257655094429331   -0.004010551488729551
-0.39638280082719946   -0.00011257655094429331   -0.004010551488729551
-0.39638280082719946   -0.00011257655094429331   -0.004010551488729551
-0.39638280082719946   -0.00011257655094429331   -0.004010551488729551
-0.23072307757797164   0.027465932236770484   0.014268167460115676
-0.23072307757797164   0.027465932236770484   0.014268167460115676
-0.23072307757797164   0.027465932236770484   0.014268167460115676
-0.23072307757797164   0.027465932236770484   0.014268167460115676
-0.5829709452205963   -0.05441567336807425   -0.006978051999107015
-0.5829709452205963   -0.05441567336807425   -0.006978051999107015
-0.5829709452205963   -0.05441567336807425   -0.006978051999107015
-0.5829709452205963   -0.05441567336807425   -0.006978051999107015
-0.5988719478167828   -0.06813288600282308   0.003022682836295483
-0.5988719478167828   -0.06813288600282308   0.003022682836295483
-0.5988719478167828   -0.06813288600282308   0.003022682836295483
-0.5988719478167828   -0.06813288600282308   0.003022682836295483
-0.2516617409171755   -0.0030189052427161828   0.018816294467893464
-0.2516617409171755   -0.0030189052427161828   0.018816294467893464
-0.2516617409171755   -0.0030189052427161828   0.018816294467893464
-0.2516617409171755   -0.0030189052427161828   0.018816294467893464
-0.4170065878245598   -0.022031033412441142   -0.014615728161688005
-0.4170065878245598   -0.022031033412441142   -0.014615728161688005
-0.4170065878245598   -0.022031033412441142   -0.014615728161688005
-0.4170065878245598   -0.022031033412441142   -0.014615728161688005
-0.5171493337635574   0.09303856953108657   0.023158014446073932
-0.5171493337635574   0.09303856953108657   0.023158014446073932
-0.5171493337635574   0.09303856953108657   0.023158014446073932
-0.5171493337635574   0.09303856953108657   0.023158014446073932
-0.8791502189401539   -0.026041483291911388   -0.034146933238616305
-0.8791502189401539   -0.026041483291911388   -0.034146933238616305
-0.8791502189401539   -0.026041483291911388   -0.034146933238616305
-0.8791502189401539   -0.026041483291911388   -0.034146933238616305
-0.8808341131428689   -0.001715056938591586   0.014321035588961945
-0.8808341131428689   -0.001715056938591586   0.014321035588961945
-0.8808341131428689   -0.001715056938591586   0.014321035588961945
-0.8808341131428689   -0.001715056938591586   0.014321035588961945
-0.5529160870314476   0.0226779322095583   -0.01078240601371816
-0.5529160870314476   0.0226779322095583   -0.01078240601371816
-0.5529160870314476   0.0226779322095583   -0.01078240601371816
-0.5529160870314476   0.0226779322095583   -0.01078240601371816
-0.7039161717283174   0.021950816931026046   0.007589134893162729
-0.7039161717283174   0.021950816931026046   0.007589134893162729
-0.7039161717283174   0.021950816931026046   0.007589134893162729
-0.7039161717283174   0.021950816931026046   0.007589134893162729
-0.5353272687798358   0.07040835692250327   0.029431260531403214
-0.5353272687798358   0.07040835692250327   0.029431260531403214
-0.5353272687798358   0.07040835692250327   0.029431260531403214
-0.5353272687798358   0.07040835692250327   0.029431260531403214
-0.8999967496492246   -0.05101929990627538   -0.03218790397514043
-0.8999967496492246   -0.05101929990627538   -0.03218790397514043
-0.8999967496492246   -0.05101929990627538   -0.03218790397514043
-0.8999967496492246   -0.05101929990627538   -0.03218790397514043
-0.9039613454797572   -0.02441252232931196   0.01759287619644946
-0.9039613454797572   -0.02441252232931196   0.01759287619644946
-0.9039613454797572   -0.02441252232931196   0.01759287619644946
-0.9039613454797572   -0.02441252232931196   0.01759287619644946
-0.5718022158513665   0.000568439178354363   -0.006118517699385928
-0.5718022158513665   0.000568439178354363   -0.006118517699385928
-0.5718022158513665   0.000568439178354363   -0.006118517699385928
-0.5718022158513665   0.000568439178354363   -0.006118517699385928
-0.7205825738344687   0.00156921093852877   -0.002653339585108827
-0.7205825738344687   0.00156921093852877   -0.002653339585108827
-0.7205825738344687   0.00156921093852877   -0.002653339585108827
-0.7205825738344687   0.00156921093852877   -0.002653339585108827
-0.5537455498502984   0.04921559321179303   0.03551765827251559
-0.5537455498502984   0.04921559321179303   0.03551765827251559
-0.5537455498502984   0.04921559321179303   0.03551765827251559
-0.5537455498502984   0.04921559321179303   0.03551765827251559
-0.9229989547416133   -0.0740406196235413   -0.027967072818617517
-0.9229989547416133   -0.0740406196235413   -0.027967072818617517
-0.9229989547416133   -0.0740406196235413   -0.027967072818617517
-0.9229989547416133   -0.0740406196235413   -0.027967072818617517
-0.9239430534499797   -0.048064070811790344   0.023934868744426845
-0.9239430534499797   -0.048064070811790344   0.023934868744426845
-0.9239430534499797   -0.048064070811790344   0.023934868744426845
-0.9239430534499797   -0.048064070811790344   0.023934868744426845
-0.590923731815854   -0.023069707097789688   -0.0022994160641016184
-0.590923731815854   -0.023069707097789688   -0.0022994160641016184
-0.590923731815854   -0.023069707097789688   -0.0022994160641016184
-0.590923731815854   -0.023069707097789688   -0.0022994160641016184
-0.7453494937125786   -0.020626272096965464   -0.013811518037254895
-0.7453494937125786   -0.020626272096965464   -0.013811518037254895
-0.7453494937125786   -0.020626272096965464   -0.013811518037254895
-0.7453494937125786   -0.020626272096965464   -0.013811518037254895
-0.8405938324347499   0.09156784406516891   0.04102567193133784
-0.8405938324347499   0.09156784406516891   0.04102567193133784
-0.8405938324347499   0.09156784406516891   0.04102567193133784
-0.8405938324347499   0.09156784406516891   0.04102567193133784
-1.1827135778393612   -0.054390499140999   -0.051888542012012616
-1.1827135778393612   -0.054390499140999   -0.051888542012012616
-1.1827135778393612   -0.054390499140999   -0.051888542012012616
-1.1827135778393612   -0.054390499140999   -0.051888542012012616
-1.1913972416884955   0.015304787651145124   0.043128958328520275
-1.1913972416884955   0.015304787651145124   0.043128958328520275
-1.1913972416884955   0.015304787651145124   0.043128958328520275
-1.1913972416884955   0.015304787651145124   0.043128958328520275
-0.8902455506664705   -0.002744588368462808   -0.03170662059918991
-0.8902455506664705   -0.002744588368462808   -0.03170662059918991
-0.8902455506664705   -0.002744588368462808   -0.03170662059918991
-0.8902455506664705   -0.002744588368462808   -0.03170662059918991
-0.9821451780585224   0.021999013080328117   0.023754581133749716
-0.9821451780585224   0.021999013080328117   0.023754581133749716
-0.9821451780585224   0.021999013080328117   0.023754581133749716
-0.9821451780585224   0.021999013080328117   0.023754581133749716
-0.8569986503917673   0.0832628106049674   0.048520481800903334
-0.8569986503917673   0.0832628106049674   0.048520481800903334
-0.8569986503917673   0.0832628106049674   0.048520481800903334
-0.8569986503917673   0.0832628106049674   0.048520481800903334
-1.226318523348663   -0.07237699270774822   -0.04379566961342435
-1.226318523348663   -0.07237699270774822   -0.04379566961342435
-1.226318523348663   -0.07237699270774822   -0.04379566961342435
-1.226318523348663   -0.07237699270774822   -0.04379566961342435
-1.2274086538277569   0.002557282655631432   0.055085009592651266
-1.2274086538277569   0.002557282655631432   0.055085009592651266
-1.2274086538277569   0.002557282655631432   0.055085009592651266
-1.2274086538277569   0.002557282655631432   0.055085009592651266
-0.9110562182402597   -0.015081726852748445   -0.027212283082642452
-0.9110562182402597   -0.015081726852748445   -0.027212283082642452
-0.9110562182402597   -0.015081726852748445   -0.027212283082642452
-0.9110562182402597   -0.015081726852748445   -0.027212283082642452
-1.0281434788218955   0.006918491590442971   0.008524930189264951
-1.0281434788218955   0.006918491590442971   0.008524930189264951
-1.0281434788218955   0.006918491590442971   0.008524930189264951
-1.0281434788218955   0.006918491590442971   0.008524930189264951
-0.8763975999759166   0.0732852564872799   0.05771382489905312
-0.8763975999759166   0.0732852564872799   0.05771382489905312
-0.8763975999759166   0.0732852564872799   0.05771382489905312
-0.8763975999759166   0.0732852564872799   0.05771382489905312
-1.263653062339762   -0.08739549093205712   -0.036184259379683836
-1.263653062339762   -0.08739549093205712   -0.036184259379683836
-1.263653062339762   -0.08739549093205712   -0.036184259379683836
-1.263653062339762   -0.08739549093205712   -0.036184259379683836
-1.2772148447372498   -0.03364766824064522   0.05688635803337223
-1.2772148447372498   -0.03364766824064522   0.05688635803337223
-1.2772148447372498   -0.03364766824064522   0.05688635803337223
-1.2772148447372498   -0.03364766824064522   0.05688635803337223
-0.9325287358990728   -0.04332725765620252   -0.02373035665664166
-0.9325287358990728   -0.04332725765620252   -0.02373035665664166
-0.9325287358990728   -0.04332725765620252   -0.02373035665664166
-0.9325287358990728   -0.04332725765620252   -0.02373035665664166
-1.0431829736884917   -0.009111116900412775   -0.0005433129280134202
-1.0431829736884917   -0.009111116900412775   -0.0005433129280134202
-1.0431829736884917   -0.009111116900412775   -0.0005433129280134202
-1.0431829736884917   -0.009111116900412775   -0.0005433129280134202
0.0883169712221536   0.007269194641423325   -0.05982827656085554
0.0883169712221536   0.007269194641423325   -0.05982827656085554
0.0883169712221536   0.007269194641423325   -0.05982827656085554
0.0883169712221536   0.007269194641423325   -0.05982827656085554
-0.09810158163956981   0.04488691368774557   0.03061314526353402
-0.09810158163956981   0.04488691368774557   0.03061314526353402
-0.09810158163956981   0.04488691368774557   0.03061314526353402
-0.09810158163956981   0.04488691368774557   0.03061314526353402
-0.1468569479744272   -0.057580240778494746   -0.04817628050960618
-0.1468569479744272   -0.057580240778494746   -0.04817628050960618
-0.1468569479744272   -0.057580240778494746   -0.04817628050960618
-0.1468569479744272   -0.057580240778494746   -0.04817628050960618
0.08092964429130098   0.06329910126356215   0.03759693646111348
0.08092964429130098   0.06329910126356215   0.03759693646111348
0.08092964429130098   0.06329910126356215   0.03759693646111348
0.08092964429130098   0.06329910126356215   0.03759693646111348
-0.02092536065112665   0.013889954491573398   0.005204253764298398
-0.02092536065112665   0.013889954491573398   0.005204253764298398
-0.02092536065112665   0.013889954491573398   0.005204253764298398
-0.02092536065112665   0.013889954491573398   0.005204253764298398
0.04604188450207568   -0.02006147535463594   -0.05348128586681499
0.04604188450207568   -0.02006147535463594   -0.05348128586681499
0.04604188450207568   -0.02006147535463594   -0.05348128586681499
0.04604188450207568   -0.02006147535463594   -0.05348128586681499
-0.11403286610259805   0.023716657922307195   0.03464723014873769
-0.11403286610259805   0.023716657922307195   0.03464723014873769
-0.11403286610259805   0.023716657922307195   0.03464723014873769
-0.11403286610259805   0.023716657922307195   0.03464723014873769
-0.16291808186640178   -0.06802224796659914   -0.04083157612512288
-0.16291808186640178   -0.06802224796659914   -0.04083157612512288
-0.16291808186640178   -0.06802224796659914   -0.04083157612512288
-0.16291808186640178   -0.06802224796659914   -0.04083157612512288
0.04785504425610514   0.04911387894839263   0.05155751129365891
0.04785504425610514   0.04911387894839263   0.05155751129365891
0.04785504425610514   0.04911387894839263   0.05155751129365891
0.04785504425610514   0.04911387894839263   0.05155751129365891
-0.047036006546875266   -0.001753517698542515   -0.006861190104187575
-0.047036006546875266   -0.001753517698542515   -0.006861190104187575
-0.047036006546875266   -0.001753517698542515   -0.006861190104187575
-0.047036006546875266   -0.001753517698542515   -0.006861190104187575
0.012162839106108322   -0.03366472970721589   -0.0441249058007167
0.012162839106108322   -0.03366472970721589   -0.0441249058007167
0.012162839106108322   -0.03366472970721589   -0.0441249058007167
0.012162839106108322   -0.03366472970721589   -0.0441249058007167
-0.13008892569076688   0.011893311714647366   0.04339864507180463
-0.13008892569076688   0.011893311714647366   0.04339864507180463
-0.13008892569076688   0.011893311714647366   0.04339864507180463
-0.13008892569076688   0.011893311714647366   0.04339864507180463
-0.1776291471649615   -0.0840806727853127   -0.03384162320710022
-0.1776291471649615   -0.0840806727853127   -0.03384162320710022
-0.1776291471649615   -0.0840806727853127   -0.03384162320710022
-0.1776291471649615   -0.0840806727853127   -0.03384162320710022
0.001922385930837895   0.01937415557323168   0.05877362747257672
0.001922385930837895   0.01937415557323168   0.05877362747257672
0.001922385930837895   0.01937415557323168   0.05877362747257672
0.001922385930837895   0.01937415557323168   0.05877362747257672
-0.07505640113521882   -0.017507551112591616   -0.02076956385851771
-0.07505640113521882   -0.017507551112591616   -0.02076956385851771
-0.07505640113521882   -0.017507551112591616   -0.02076956385851771
-0.07505640113521882   -0.017507551112591616   -0.02076956385851771
-0.11207471924706755   0.029448464601855073   -0.023814093688064288
-0.11207471924706755   0.029448464601855073   -0.023814093688064288
-0.11207471924706755   0.029448464601855073   -0.023814093688064288
-0.11207471924706755   0.029448464601855073   -0.023814093688064288
-0.2867001439231224   0.01205854543258661   0.007994995084593903
-0.2867001439231224   0.01205854543258661   0.007994995084593903
-0.2867001439231224   0.01205854543258661   0.007994995084593903
-0.2867001439231224   0.01205854543258661   0.007994995084593903
-0.31184700428456213   -0.03353399524942316   -0.02504757481740679
-0.31184700428456213   -0.03353399524942316   -0.02504757481740679
-0.31184700428456213   -0.03353399524942316   -0.02504757481740679
-0.31184700428456213   -0.03353399524942316   -0.02504757481740679
-0.11521154670710429   0.028547262946696284   0.023923222101817264
-0.11521154670710429   0.028547262946696284   0.023923222101817264
-0.11521154670710429   0.028547262946696284   0.023923222101817264
-0.11521154670710429   0.028547262946696284   0.023923222101817264
-0.2060344222011685   0.008547442254959924   0.00455038119284667
-0.2060344222011685   0.008547442254959924   0.00455038119284667
-0.2060344222011685   0.008547442254959924   0.00455038119284667
-0.2060344222011685   0.008547442254959924   0.00455038119284667
-0.12878365679299458   0.00417514678015353   -0.019565212161090903
-0.12878365679299458   0.00417514678015353   -0.019565212161090903
-0.12878365679299458   0.00417514678015353   -0.019565212161090903
-0.12878365679299458   0.00417514678015353   -0.019565212161090903
-0.2999682141120482   -0.010855198996256692   0.011667579791996311
-0.2999682141120482   -0.010855198996256692   0.011667579791996311
-0.2999682141120482   -0.010855198996256692   0.011667579791996311
-0.2999682141120482   -0.010855198996256692   0.011667579791996311
-0.32434962765030917   -0.05404098000730424   -0.018480840385035367
-0.32434962765030917   -0.05404098000730424   -0.018480840385035367
-0.32434962765030917   -0.05404098000730424   -0.018480840385035367
-0.32434962765030917   -0.05404098000730424   -0.018480840385035367
-0.13457533956591544   0.005887069615913707   0.02697281779479551
-0.13457533956591544   0.005887069615913707   0.02697281779479551
-0.13457533956591544   0.005887069615913707   0.02697281779479551
-0.13457533956591544   0.005887069615913707   0.02697281779479551
-0.22182889797845845   -0.012028688247294035   -0.005771715907139473
-0.22182889797845845   -0.012028688247294035   -0.005771715907139473
-0.22182889797845845   -0.012028688247294035   -0.005771715907139473
-0.22182889797845845   -0.012028688247294035   -0.005771715907139473
-0.14765661494708618   -0.017929589407234475   -0.014616900087909508
-0.14765661494708618   -0.017929589407234475   -0.014616900087909508
-0.14765661494708618   -0.017929589407234475   -0.014616900087909508
-0.14765661494708618   -0.017929589407234475   -0.014616900087909508
-0.31308585066675676   -0.0320418193817743   0.015838883907196767
-0.31308585066675676   -0.0320418193817743   0.015838883907196767
-0.31308585066675676   -0.0320418193817743   0.015838883907196767
-0.31308585066675676   -0.0320418193817743   0.015838883907196767
-0.3369346827041953   -0.075153738025107   -0.012665260445988452
-0.3369346827041953   -0.075153738025107   -0.012665260445988452
-0.3369346827041953   -0.075153738025107   -0.012665260445988452
-0.3369346827041953   -0.075153738025107   -0.012665260445988452
-0.15076849888027916   -0.017085935549978226   0.03346688098097706
-0.15076849888027916   -0.017085935549978226   0.03346688098097706
-0.15076849888027916   -0.017085935549978226   0.03346688098097706
-0.15076849888027916   -0.017085935549978226   0.03346688098097706
-0.23761175845689786   -0.032391867758316   -0.016272421020744395
-0.23761175845689786   -0.032391867758316   -0.016272421020744395
-0.23761175845689786   -0.032391867758316   -0.016272421020744395
-0.23761175845689786   -0.032391867758316   -0.016272421020744395
-0.281476784086412   0.04869755952385042   -0.0025272198231222447
-0.281476784086412   0.04869755952385042   -0.0025272198231222447
-0.281476784086412   0.04869755952385042   -0.0025272198231222447
-0.281476784086412   0.04869755952385042   -0.0025272198231222447
-0.4736253759289322   -0.01620942929911076   -0.013374084995934975
-0.4736253759289322   -0.01620942929911076   -0.013374084995934975
-0.4736253759289322   -0.01620942929911076   -0.013374084995934975
-0.4736253759289322   -0.01620942929911076   -0.013374084995934975
-0.4785971670712458   -0.011799629507292853   -0.002814134365047613
-0.4785971670712458   -0.011799629507292853   -0.002814134365047613
-0.4785971670712458   -0.011799629507292853   -0.002814134365047613
-0.4785971670712458   -0.011799629507292853   -0.002814134365047613
-0.298855117102791   0.0026879787332357297   0.003689887108790004
-0.298855117102791   0.0026879787332357297   0.003689887108790004
-0.298855117102791   0.0026879787332357297   0.003689887108790004
-0.298855117102791   0.0026879787332357297   0.003689887108790004
-0.3823389436213783   0.005472367670577141   0.0015423065248322161
-0.3823389436213783   0.005472367670577141   0.0015423065248322161
-0.3823389436213783   0.005472367670577141   0.0015423065248322161
-0.3823389436213783   0.005472367670577141   0.0015423065248322161
-0.2941230136550921   0.026388087220876225   0.0036502958596441454
-0.2941230136550921   0.026388087220876225   0.0036502958596441454
-0.2941230136550921   0.026388087220876225   0.0036502958596441454
-0.2941230136550921   0.026388087220876225   0.0036502958596441454
-0.4849578124403364   -0.0371282799163251   -0.009288710801468775
-0.4849578124403364   -0.0371282799163251   -0.009288710801468775
-0.4849578124403364   -0.0371282799163251   -0.009288710801468775
-0.4849578124403364   -0.0371282799163251   -0.009288710801468775
-0.49031916353606303   -0.03383002671431809   0.003298399585140461
-0.49031916353606303   -0.03383002671431809   0.003298399585140461
-0.49031916353606303   -0.03383002671431809   0.003298399585140461
-0.49031916353606303   -0.03383002671431809   0.003298399585140461
-0.312115809850096   -0.018968193195760014   0.007615461804486086
-0.312115809850096   -0.018968193195760014   0.007615461804486086
-0.312115809850096   -0.018968193195760014   0.007615461804486086
-0.312115809850096   -0.018968193195760014   0.007615461804486086
-0.395047684559654   -0.014563466302381423   -0.007937983915919707
-0.395047684559654   -0.014563466302381423   -0.007937983915919707
-0.395047684559654   -0.014563466302381423   -0.007937983915919707
-0.395047684559654   -0.014563466302381423   -0.007937983915919707
-0.3072373623643408   0.003945462342082304   0.009094043695420124
-0.3072373623643408   0.003945462342082304   0.009094043695420124
-0.3072373623643408   0.003945462342082304   0.009094043695420124
-0.3072373623643408   0.003945462342082304   0.009094043695420124
-0.4971607670245683   -0.05870683825490656   -0.006032806316805134
-0.4971607670245683   -0.05870683825490656   -0.006032806316805134
-0.4971607670245683   -0.05870683825490656   -0.006032806316805134
-0.4971607670245683   -0.05870683825490656   -0.006032806316805134
-0.5017360406498997   -0.054965220171989806   0.009159019554249574
-0.5017360406498997   -0.054965220171989806   0.009159019554249574
-0.5017360406498997   -0.054965220171989806   0.009159019554249574
-0.5017360406498997   -0.054965220171989806   0.009159019554249574
-0.32484838920970777   -0.039401892561352736   0.012014361562690881
-0.32484838920970777   -0.039401892561352736   0.012014361562690881
-0.32484838920970777   -0.039401892561352736   0.012014361562690881
-0.32484838920970777   -0.039401892561352736   0.012014361562690881
-0.40872335877594534   -0.034724914212791946   -0.01823908914621605
-0.40872335877594534   -0.034724914212791946   -0.01823908914621605
-0.40872335877594534   -0.034724914212791946   -0.01823908914621605
-0.40872335877594534   -0.034724914212791946   -0.01823908914621605
-0.4497087556070006   0.07056342790447345   0.019436159410154676
-0.4497087556070006   0.07056342790447345   0.019436159410154676
-0.4497087556070006   0.07056342790447345   0.019436159410154676
-0.4497087556070006   0.07056342790447345   0.019436159410154676
-0.6531373444661611   -0.02694220870377223   -0.030010136534264722
-0.6531373444661611   -0.02694220870377223   -0.030010136534264722
-0.6531373444661611   -0.02694220870377223   -0.030010136534264722
-0.6531373444661611   -0.02694220870377223   -0.030010136534264722
-0.644355445779914   0.01057354715935177   0.020135027483684675
-0.644355445779914   0.01057354715935177   0.020135027483684675
-0.644355445779914   0.01057354715935177   0.020135027483684675
-0.644355445779914   0.01057354715935177   0.020135027483684675
-0.48025073842629973   -0.00952029084335379   -0.013361329804256881
-0.48025073842629973   -0.00952029084335379   -0.013361329804256881
-0.48025073842629973   -0.00952029084335379   -0.013361329804256881
-0.48025073842629973   -0.00952029084335379   -0.013361329804256881
-0.5549412910461669   0.011249040837430599   0.0026605790819587416
-0.5549412910461669   0.011249040837430599   0.0026605790819587416
-0.5549412910461669   0.011249040837430599   0.0026605790819587416
-0.5549412910461669   0.011249040837430599   0.0026605790819587416
-0.4608754968703618   0.048367874059112484   0.025626713072966836
-0.4608754968703618   0.048367874059112484   0.025626713072966836
-0.4608754968703618   0.048367874059112484   0.025626713072966836
-0.4608754968703618   0.048367874059112484   0.025626713072966836
-0.6661086872146769   -0.04969261762195089   -0.028365014908834727
-0.6661086872146769   -0.04969261762195089   -0.028365014908834727
-0.6661086872146769   -0.04969261762195089   -0.028365014908834727
-0.6661086872146769   -0.04969261762195089   -0.028365014908834727
-0.6600679089149672   -0.011104844858224244   0.023780755181321667
-0.6600679089149672   -0.011104844858224244   0.023780755181321667
-0.6600679089149672   -0.011104844858224244   0.023780755181321667
-0.6600679089149672   -0.011104844858224244   0.023780755181321667
-0.4918715585409688   -0.029206498429479977   -0.009087103724226227
-0.4918715585409688   -0.029206498429479977   -0.009087103724226227
-0.4918715585409688   -0.029206498429479977   -0.009087103724226227
-0.4918715585409688   -0.029206498429479977   -0.009087103724226227
-0.5656157864392929   -0.008058894236671693   -0.007616306793367986
-0.5656157864392929   -0.008058894236671693   -0.007616306793367986
-0.5656157864392929   -0.008058894236671693   -0.007616306793367986
-0.5656157864392929   -0.008058894236671693   -0.007616306793367986
-0.47227763745382717   0.028026882545110057   0.031649120736883876
-0.47227763745382717   0.028026882545110057   0.031649120736883876
-0.47227763745382717   0.028026882545110057   0.031649120736883876
-0.47227763745382717   0.028026882545110057   0.031649120736883876
-0.6815396395846495   -0.07021603541536267   -0.024466707609958983
-0.6815396395846495   -0.07021603541536267   -0.024466707609958983
-0.6815396395846495   -0.07021603541536267   -0.024466707609958983
-0.6815396395846495   -0.07021603541536267   -0.024466707609958983
-0.6728414008098351   -0.032936297192996095   0.030285302453847383
-0.6728414008098351   -0.032936297192996095   0.030285302453847383
-0.6728414008098351   -0.032936297192996095   0.030285302453847383
-0.6728414008098351   -0.032936297192996095   0.030285302453847383
-0.5035341596691841   -0.04935889876618538   -0.005437896947984071
-0.5035341596691841   -0.04935889876618538   -0.005437896947984071
-0.5035341596691841   -0.04935889876618538   -0.005437896947984071
-0.5035341596691841   -0.04935889876618538   -0.005437896947984071
-0.5816783359323836   -0.027744262334235187   -0.01814594756007517
-0.5816783359323836   -0.027744262334235187   -0.01814594756007517
-0.5816783359323836   -0.027744262334235187   -0.01814594756007517
-0.5816783359323836   -0.027744262334235187   -0.01814594756007517
-0.618768380454762   0.07646228641842936   0.038430188400529815
-0.618768380454762   0.07646228641842936   0.038430188400529815
-0.618768380454762   0.07646228641842936   0.038430188400529815
-0.618768380454762   0.07646228641842936   0.038430188400529815
-0.7960216573544123   -0.039787627900245925   -0.05023295211377381
-0.7960216573544123   -0.039787627900245925   -0.05023295211377381
-0.7960216573544123   -0.039787627900245925   -0.05023295211377381
-0.7960216573544123   -0.039787627900245925   -0.05023295211377381
-0.796636043326835   0.0307913022531609   0.04236332516932386
-0.796636043326835   0.0307913022531609   0.04236332516932386
-0.796636043326835   0.0307913022531609   0.04236332516932386
-0.796636043326835   0.0307913022531609   0.04236332516932386
-0.6611535919277862   -0.02254767650874781   -0.030734479587585024
-0.6611535919277862   -0.02254767650874781   -0.030734479587585024
-0.6611535919277862   -0.02254767650874781   -0.030734479587585024
-0.6611535919277862   -0.02254767650874781   -0.030734479587585024
-0.6891015702804966   0.01817254235287613   0.013301005121802455
-0.6891015702804966   0.01817254235287613   0.013301005121802455
-0.6891015702804966   0.01817254235287613   0.013301005121802455
-0.6891015702804966   0.01817254235287613   0.013301005121802455
-0.6284243030592915   0.06502820243502622   0.045336085811106895
-0.6284243030592915   0.06502820243502622   0.045336085811106895
-0.6284243030592915   0.06502820243502622   0.045336085811106895
-0.6284243030592915   0.06502820243502622   0.045336085811106895
-0.8318343026712177   -0.05925354716649461   -0.04358312213291822
-0.8318343026712177   -0.05925354716649461   -0.04358312213291822
-0.8318343026712177   -0.05925354716649461   -0.04358312213291822
-0.8318343026712177   -0.05925354716649461   -0.04358312213291822
-0.8252159341163083   0.01844670410779517   0.05458958759615491
-0.8252159341163083   0.01844670410779517   0.05458958759615491
-0.8252159341163083   0.01844670410779517   0.05458958759615491
-0.8252159341163083   0.01844670410779517   0.05458958759615491
-0.6747617582448728   -0.03386352561328884   -0.026929810713141517
-0.6747617582448728   -0.03386352561328884   -0.026929810713141517
-0.6747617582448728   -0.03386352561328884   -0.026929810713141517
-0.6747617582448728   -0.03386352561328884   -0.026929810713141517
-0.723109276061366   0.0031591600115964125   -0.0009473593592258661
-0.723109276061366   0.0031591600115964125   -0.0009473593592258661
-0.723109276061366   0.0031591600115964125   -0.0009473593592258661
-0.723109276061366   0.0031591600115964125   -0.0009473593592258661
-0.640666541236695   0.055312679089487365   0.054370069624971734
-0.640666541236695   0.055312679089487365   0.054370069624971734
-0.640666541236695   0.055312679089487365   0.054370069624971734
-0.640666541236695   0.055312679089487365   0.054370069624971734
-0.8618287228055133   -0.073247072276003   -0.03678057946607177
-0.8618287228055133   -0.073247072276003   -0.03678057946607177
-0.8618287228055133   -0.073247072276003   -0.03678057946607177
-0.8618287228055133   -0.073247072276003   -0.03678057946607177
-0.8674664668710439   -0.014023230144973003   0.05772751187147696
-0.8674664668710439   -0.014023230144973003   0.05772751187147696
-0.8674664668710439   -0.014023230144973003   0.05772751187147696
-0.8674664668710439   -0.014023230144973003   0.05772751187147696
-0.6884247147250507   -0.05730587396689024   -0.02326169034834491
-0.6884247147250507   -0.05730587396689024   -0.02326169034834491
-0.6884247147250507   -0.05730587396689024   -0.02326169034834491
-0.6884247147250507   -0.05730587396689024   -0.02326169034834491
-0.7361853576353273   -0.011708408879486792   -0.01106771847808661
-0.7361853576353273   -0.011708408879486792   -0.01106771847808661
-0.7361853576353273   -0.011708408879486792   -0.01106771847808661
-0.7361853576353273   -0.011708408879486792   -0.01106771847808661
-0.33916608569561424   -0.022151064722881794   -0.06351224273355835
-0.33916608569561424   -0.022151064722881794   -0.06351224273355835
-0.33916608569561424   -0.022151064722881794   -0.06351224273355835
-0.33916608569561424   -0.022151064722881794   -0.06351224273355835
-0.3351807204834885   0.04867504361581268   0.028580316222023658
-0.3351807204834885   0.04867504361581268   0.028580316222023658
-0.3351807204834885   0.04867504361581268   0.028580316222023658
-0.3351807204834885   0.04867504361581268   0.028580316222023658
-0.37706606836770307   -0.044427974504572615   -0.043042729720556276
-0.37706606836770307   -0.044427974504572615   -0.043042729720556276
-0.37706606836770307   -0.044427974504572615   -0.043042729720556276
-0.37706606836770307   -0.044427974504572615   -0.043042729720556276
-0.3461447067153104   0.025356212249529997   0.04296820037680592
-0.3461447067153104   0.025356212249529997   0.04296820037680592
-0.3461447067153104   0.025356212249529997   0.04296820037680592
-0.3461447067153104   0.025356212249529997   0.04296820037680592
-0.3318534658425938   0.008181667447498583   0.029157502459896862
-0.3318534658425938   0.008181667447498583   0.029157502459896862
-0.3318534658425938   0.008181667447498583   0.029157502459896862
-0.3318534658425938   0.008181667447498583   0.029157502459896862
-0.37985579033235406   -0.047019645037639404   -0.05321136042123927
-0.37985579033235406   -0.047019645037639404   -0.05321136042123927
-0.37985579033235406   -0.047019645037639404   -0.05321136042123927
-0.37985579033235406   -0.047019645037639404   -0.05321136042123927
-0.3475480896618285   0.02375477787142838   0.036364411432815866
-0.3475480896618285   0.02375477787142838   0.036364411432815866
-0.3475480896618285   0.02375477787142838   0.036364411432815866
-0.3475480896618285   0.02375477787142838   0.036364411432815866
-0.3896587249957935   -0.05598399146206804   -0.03641807150677645
-0.3896587249957935   -0.05598399146206804   -0.03641807150677645
-0.3896587249957935   -0.05598399146206804   -0.03641807150677645
-0.3896587249957935   -0.05598399146206804   -0.03641807150677645
-0.3786382391108396   0.00961873545138743   0.07985268595428845
-0.3786382391108396   0.00961873545138743   0.07985268595428845
-0.3786382391108396   0.00961873545138743   0.07985268595428845
-0.3786382391108396   0.00961873545138743   0.07985268595428845
-0.3618202937809001   -0.011673998484799553   0.011645414845673299
-0.3618202937809001   -0.011673998484799553   0.011645414845673299
-0.3618202937809001   -0.011673998484799553   0.011645414845673299
-0.3618202937809001   -0.011673998484799553   0.011645414845673299
-0.417329001821581   -0.06252575912956343   -0.04145663301846597
-0.417329001821581   -0.06252575912956343   -0.04145663301846597
-0.417329001821581   -0.06252575912956343   -0.04145663301846597
-0.417329001821581   -0.06252575912956343   -0.04145663301846597
-0.36088438704505543   0.006244078358879829   0.04522554842596628
-0.36088438704505543   0.006244078358879829   0.04522554842596628
-0.36088438704505543   0.006244078358879829   0.04522554842596628
-0.36088438704505543   0.006244078358879829   0.04522554842596628
-0.3999656465207216   -0.07848880072814449   -0.028653121582744672
-0.3999656465207216   -0.07848880072814449   -0.028653121582744672
-0.3999656465207216   -0.07848880072814449   -0.028653121582744672
-0.3999656465207216   -0.07848880072814449   -0.028653121582744672
-0.42915173468509404   -0.04238761023909625   0.0747341152686684
-0.42915173468509404   -0.04238761023909625   0.0747341152686684
-0.42915173468509404   -0.04238761023909625   0.0747341152686684
-0.42915173468509404   -0.04238761023909625   0.0747341152686684
-0.3877558537106171   -0.03514972627203552   -0.016086407265722684
-0.3877558537106171   -0.03514972627203552   -0.016086407265722684
-0.3877558537106171   -0.03514972627203552   -0.016086407265722684
-0.3877558537106171   -0.03514972627203552   -0.016086407265722684
-0.3592976432638971   -0.010604836887774222   -0.0327244171764355
-0.3592976432638971   -0.010604836887774222   -0.0327244171764355
-0.3592976432638971   -0.010604836887774222   -0.0327244171764355
-0.3592976432638971   -0.010604836887774222   -0.0327244171764355
-0.3637873315887265   -0.04468085589145751   -0.0019013013399332077
-0.3637873315887265   -0.04468085589145751   -0.0019013013399332077
-0.3637873315887265   -0.04468085589145751   -0.0019013013399332077
-0.3637873315887265   -0.04468085589145751   -0.0019013013399332077
-0.36640082035824   -0.02973604798092687   -0.01630405888513213
-0.36640082035824   -0.02973604798092687   -0.01630405888513213
-0.36640082035824   -0.02973604798092687   -0.01630405888513213
-0.36640082035824   -0.02973604798092687   -0.01630405888513213
-0.37186826040486837   -0.0608245532712836   -0.0006571111396715696
-0.37186826040486837   -0.0608245532712836   -0.0006571111396715696
-0.37186826040486837   -0.0608245532712836   -0.0006571111396715696
-0.37186826040486837   -0.0608245532712836   -0.0006571111396715696
-0.3622311539751144   -0.0380440804838701   -0.0013215157062553707
-0.3622311539751144   -0.0380440804838701   -0.0013215157062553707
-0.3622311539751144   -0.0380440804838701   -0.0013215157062553707
-0.3622311539751144   -0.0380440804838701   -0.0013215157062553707
-0.371881197343933   -0.03323381785190733   -0.028312531254372116
-0.371881197343933   -0.03323381785190733   -0.028312531254372116
-0.371881197343933   -0.03323381785190733   -0.028312531254372116
-0.371881197343933   -0.03323381785190733   -0.028312531254372116
-0.36872339483918054   -0.05966229482030406   0.0020093155495383413
-0.36872339483918054   -0.05966229482030406   0.0020093155495383413
-0.36872339483918054   -0.05966229482030406   0.0020093155495383413
-0.36872339483918054   -0.05966229482030406   0.0020093155495383413
-0.3725150076336337   -0.04919747435334279   -0.010510233983738005
-0.3725150076336337   -0.04919747435334279   -0.010510233983738005
-0.3725150076336337   -0.04919747435334279   -0.010510233983738005
-0.3725150076336337   -0.04919747435334279   -0.010510233983738005
-0.385299103598287   -0.07888934087712533   0.008285384895813423
-0.385299103598287   -0.07888934087712533   0.008285384895813423
-0.385299103598287   -0.07888934087712533   0.008285384895813423
-0.385299103598287   -0.07888934087712533   0.008285384895813423
-0.37051992453057525   -0.0537605810119398   -0.010326490478975957
-0.37051992453057525   -0.0537605810119398   -0.010326490478975957
-0.37051992453057525   -0.0537605810119398   -0.010326490478975957
-0.37051992453057525   -0.0537605810119398   -0.010326490478975957
-0.3861855299363718   -0.05403062462624161   -0.021005463045494086
-0.3861855299363718   -0.05403062462624161   -0.021005463045494086
-0.3861855299363718   -0.05403062462624161   -0.021005463045494086
-0.3861855299363718   -0.05403062462624161   -0.021005463045494086
-0.3746158769426697   -0.07704348625134791   0.006831431369083312
-0.3746158769426697   -0.07704348625134791   0.006831431369083312
-0.3746158769426697   -0.07704348625134791   0.006831431369083312
-0.3746158769426697   -0.07704348625134791   0.006831431369083312
-0.3779994128588143   -0.07017977861756121   -0.004771420378372032
-0.3779994128588143   -0.07017977861756121   -0.004771420378372032
-0.3779994128588143   -0.07017977861756121   -0.004771420378372032
-0.3779994128588143   -0.07017977861756121   -0.004771420378372032
-0.39557258514009047   -0.1018464237857665   0.016669808378029997
-0.39557258514009047   -0.1018464237857665   0.016669808378029997
-0.39557258514009047   -0.1018464237857665   0.016669808378029997
-0.39557258514009047   -0.1018464237857665   0.016669808378029997
-0.3819372258284166   -0.07276068677278896   -0.021787104055532636
-0.3819372258284166   -0.07276068677278896   -0.021787104055532636
-0.3819372258284166   -0.07276068677278896   -0.021787104055532636
-0.3819372258284166   -0.07276068677278896   -0.021787104055532636
-0.35382495080589793   0.009226185051028568   -0.005996438368272634
-0.35382495080589793   0.009226185051028568   -0.005996438368272634
-0.35382495080589793   0.009226185051028568   -0.005996438368272634
-0.35382495080589793   0.009226185051028568   -0.005996438368272634
-0.3999948723983012   -0.07593454140875208   -0.01916314976296563
-0.3999948723983012   -0.07593454140875208   -0.01916314976296563
-0.3999948723983012   -0.07593454140875208   -0.01916314976296563
-0.3999948723983012   -0.07593454140875208   -0.01916314976296563
-0.3836312873515274   -0.013991571898329044   0.005068304199702538
-0.3836312873515274   -0.013991571898329044   0.005068304199702538
-0.3836312873515274   -0.013991571898329044   0.005068304199702538
-0.3836312873515274   -0.013991571898329044   0.005068304199702538
-0.37599550853627245   -0.08217231850422876   -0.011841229251996554
-0.37599550853627245   -0.08217231850422876   -0.011841229251996554
-0.37599550853627245   -0.08217231850422876   -0.011841229251996554
-0.37599550853627245   -0.08217231850422876   -0.011841229251996554
-0.3780974778971348   -0.0420064246404237   -0.008576146010128946
-0.3780974778971348   -0.0420064246404237   -0.008576146010128946
-0.3780974778971348   -0.0420064246404237   -0.008576146010128946
-0.3780974778971348   -0.0420064246404237   -0.008576146010128946
-0.359227196887337   -0.010132343789778495   -3.9645721765714514e-05
-0.359227196887337   -0.010132343789778495   -3.9645721765714514e-05
-0.359227196887337   -0.010132343789778495   -3.9645721765714514e-05
-0.359227196887337   -0.010132343789778495   -3.9645721765714514e-05
-0.40251937704500507   -0.08815132465731583   -0.015212391508699224
-0.40251937704500507   -0.08815132465731583   -0.015212391508699224
-0.40251937704500507   -0.08815132465731583   -0.015212391508699224
-0.40251937704500507   -0.08815132465731583   -0.015212391508699224
-0.3880169484739646   -0.0335067600900111   0.010823765957068568
-0.3880169484739646   -0.0335067600900111   0.010823765957068568
-0.3880169484739646   -0.0335067600900111   0.010823765957068568
-0.3880169484739646   -0.0335067600900111   0.010823765957068568
-0.3817179763737262   -0.09755450853686098   -0.008168043500682209
-0.3817179763737262   -0.09755450853686098   -0.008168043500682209
-0.3817179763737262   -0.09755450853686098   -0.008168043500682209
-0.3817179763737262   -0.09755450853686098   -0.008168043500682209
-0.3827586030564505   -0.05687473266561712   -0.016297633127208375
-0.3827586030564505   -0.05687473266561712   -0.016297633127208375
-0.3827586030564505   -0.05687473266561712   -0.016297633127208375
-0.3827586030564505   -0.05687473266561712   -0.016297633127208375
-0.36541599153739024   -0.029994872887740665   0.005782245031877083
-0.36541599153739024   -0.029994872887740665   0.005782245031877083
-0.36541599153739024   -0.029994872887740665   0.005782245031877083
-0.36541599153739024   -0.029994872887740665   0.005782245031877083
-0.40668683764501123   -0.10343430007384852   -0.012598139914334746
-0.40668683764501123   -0.10343430007384852   -0.012598139914334746
-0.40668683764501123   -0.10343430007384852   -0.012598139914334746
-0.40668683764501123   -0.10343430007384852   -0.012598139914334746
-0.391582693474482   -0.051861240122923966   0.016451928019609027
-0.391582693474482   -0.051861240122923966   0.016451928019609027
-0.391582693474482   -0.051861240122923966   0.016451928019609027
-0.391582693474482   -0.051861240122923966   0.016451928019609027
-0.3859716708122652   -0.1123178821738514   -0.0024946065893364094
-0.3859716708122652   -0.1123178821738514   -0.0024946065893364094
-0.3859716708122652   -0.1123178821738514   -0.0024946065893364094
-0.3859716708122652   -0.1123178821738514   -0.0024946065893364094
-0.388317408162285   -0.07242594593615904   -0.024781864604962924
-0.388317408162285   -0.07242594593615904   -0.024781864604962924
-0.388317408162285   -0.07242594593615904   -0.024781864604962924
-0.388317408162285   -0.07242594593615904   -0.024781864604962924
-0.3693392147527344   0.03954630329749112   0.018634293758625173
-0.3693392147527344   0.03954630329749112   0.018634293758625173
-0.3693392147527344   0.03954630329749112   0.018634293758625173
-0.3693392147527344   0.03954630329749112   0.018634293758625173
-0.4362636077650016   -0.056607123563702254   -0.026692307221066976
-0.4362636077650016   -0.056607123563702254   -0.026692307221066976
-0.4362636077650016   -0.056607123563702254   -0.026692307221066976
-0.4362636077650016   -0.056607123563702254   -0.026692307221066976
-0.4126958856776487   0.01182944277089594   0.025832485518371414
-0.4126958856776487   0.01182944277089594   0.025832485518371414
-0.4126958856776487   0.01182944277089594   0.025832485518371414
-0.4126958856776487   0.01182944277089594   0.025832485518371414
-0.39773441876594817   -0.06326231167998801   -0.01617661309074231
-0.39773441876594817   -0.06326231167998801   -0.01617661309074231
-0.39773441876594817   -0.06326231167998801   -0.01617661309074231
-0.39773441876594817   -0.06326231167998801   -0.01617661309074231
-0.403978293319938   -0.01669727642059894   -0.00512232556854722
-0.403978293319938   -0.01669727642059894   -0.00512232556854722
-0.403978293319938   -0.01669727642059894   -0.00512232556854722
-0.403978293319938   -0.01669727642059894   -0.00512232556854722
-0.3730710846596076   0.019469545852525444   0.024408199908447094
-0.3730710846596076   0.019469545852525444   0.024408199908447094
-0.3730710846596076   0.019469545852525444   0.024408199908447094
-0.3730710846596076   0.019469545852525444   0.024408199908447094
-0.4401731949502892   -0.07371638992791235   -0.026008228146022938
-0.4401731949502892   -0.07371638992791235   -0.026008228146022938
-0.4401731949502892   -0.07371638992791235   -0.026008228146022938
-0.4401731949502892   -0.07371638992791235   -0.026008228146022938
-0.4203194083115077   -0.007221223707817331   0.029287119654626
-0.4203194083115077   -0.007221223707817331   0.029287119654626
-0.4203194083115077   -0.007221223707817331   0.029287119654626
-0.4203194083115077   -0.007221223707817331   0.029287119654626
-0.401548223002551   -0.07745955917261388   -0.012879807603268002
-0.401548223002551   -0.07745955917261388   -0.012879807603268002
-0.401548223002551   -0.07745955917261388   -0.012879807603268002
-0.401548223002551   -0.07745955917261388   -0.012879807603268002
-0.4078129583687203   -0.032810871540705853   -0.014177132901667966
-0.4078129583687203   -0.032810871540705853   -0.014177132901667966
-0.4078129583687203   -0.032810871540705853   -0.014177132901667966
-0.4078129583687203   -0.032810871540705853   -0.014177132901667966
-0.3771654027296804   0.0015559169960975838   0.03001881759237327
-0.3771654027296804   0.0015559169960975838   0.03001881759237327
-0.3771654027296804   0.0015559169960975838   0.03001881759237327
-0.3771654027296804   0.0015559169960975838   0.03001881759237327
-0.44714085414355864   -0.08867532543570664   -0.023366007777739395
-0.44714085414355864   -0.08867532543570664   -0.023366007777739395
-0.44714085414355864   -0.08867532543570664   -0.023366007777739395
-0.44714085414355864   -0.08867532543570664   -0.023366007777739395
-0.4253558121398589   -0.02549270508157203   0.03571472394575747
-0.4253558121398589   -0.02549270508157203   0.03571472394575747
-0.4253558121398589   -0.02549270508157203   0.03571472394575747
-0.4253558121398589   -0.02549270508157203   0.03571472394575747
-0.40482111188371084   -0.09171939116846174   -0.009882012980997319
-0.40482111188371084   -0.09171939116846174   -0.009882012980997319
-0.40482111188371084   -0.09171939116846174   -0.009882012980997319
-0.40482111188371084   -0.09171939116846174   -0.009882012980997319
-0.4145402995889953   -0.047994491831605916   -0.02294885121042893
-0.4145402995889953   -0.047994491831605916   -0.02294885121042893
-0.4145402995889953   -0.047994491831605916   -0.02294885121042893
-0.4145402995889953   -0.047994491831605916   -0.02294885121042893
-0.4008182828719627   0.05673756346257375   0.037189630217844175
-0.4008182828719627   0.05673756346257375   0.037189630217844175
-0.4008182828719627   0.05673756346257375   0.037189630217844175
-0.4008182828719627   0.05673756346257375   0.037189630217844175
-0.4280769664743131   -0.03415139831194844   -0.03869111060938678
-0.4280769664743131   -0.03415139831194844   -0.03869111060938678
-0.4280769664743131   -0.03415139831194844   -0.03869111060938678
-0.4280769664743131   -0.03415139831194844   -0.03869111060938678
-0.4184197402622705   0.04041143866543659   0.04132724461779065
-0.4184197402622705   0.04041143866543659   0.04132724461779065
-0.4184197402622705   0.04041143866543659   0.04132724461779065
-0.4184197402622705   0.04041143866543659   0.04132724461779065
-0.43374090533810894   -0.0439140233250715   -0.02364914668796248
-0.43374090533810894   -0.0439140233250715   -0.02364914668796248
-0.43374090533810894   -0.0439140233250715   -0.02364914668796248
-0.43374090533810894   -0.0439140233250715   -0.02364914668796248
-0.4059827330625653   0.01015720425791554   0.0015517704735051423
-0.4059827330625653   0.01015720425791554   0.0015517704735051423
-0.4059827330625653   0.01015720425791554   0.0015517704735051423
-0.4059827330625653   0.01015720425791554   0.0015517704735051423
-0.40285775041366256   0.04385742386119332   0.04299518074799696
-0.40285775041366256   0.04385742386119332   0.04299518074799696
-0.40285775041366256   0.04385742386119332   0.04299518074799696
-0.40285775041366256   0.04385742386119332   0.04299518074799696
-0.4515937516764028   -0.04965086501052304   -0.034480508776911015
-0.4515937516764028   -0.04965086501052304   -0.034480508776911015
-0.4515937516764028   -0.04965086501052304   -0.034480508776911015
-0.4515937516764028   -0.04965086501052304   -0.034480508776911015
-0.4368492425668215   0.02974777034292478   0.05321415338984471
-0.4368492425668215   0.02974777034292478   0.05321415338984471
-0.4368492425668215   0.02974777034292478   0.05321415338984471
-0.4368492425668215   0.02974777034292478   0.05321415338984471
-0.43950278106403184   -0.052266750360525784   -0.021584217455294152
-0.43950278106403184   -0.052266750360525784   -0.021584217455294152
-0.43950278106403184   -0.052266750360525784   -0.021584217455294152
-0.43950278106403184   -0.052266750360525784   -0.021584217455294152
-0.4258300033348645   -0.002766310380224374   -0.009125928190015918
-0.4258300033348645   -0.002766310380224374   -0.009125928190015918
-0.4258300033348645   -0.002766310380224374   -0.009125928190015918
-0.4258300033348645   -0.002766310380224374   -0.009125928190015918
-0.4073808706764206   0.03529194238956433   0.05146664173267221
-0.4073808706764206   0.03529194238956433   0.05146664173267221
-0.4073808706764206   0.03529194238956433   0.05146664173267221
-0.4073808706764206   0.03529194238956433   0.05146664173267221
-0.47195826690410425   -0.060798036356844505   -0.031785161596799956
-0.47195826690410425   -0.060798036356844505   -0.031785161596799956
-0.47195826690410425   -0.060798036356844505   -0.031785161596799956
-0.47195826690410425   -0.060798036356844505   -0.031785161596799956
-0.46938437525333554   0.0025271592677443833   0.056863136353113075
-0.46938437525333554   0.0025271592677443833   0.056863136353113075
-0.46938437525333554   0.0025271592677443833   0.056863136353113075
-0.46938437525333554   0.0025271592677443833   0.056863136353113075
-0.4447573255682024   -0.0680260927516709   -0.018759455525860995
-0.4447573255682024   -0.0680260927516709   -0.018759455525860995
-0.4447573255682024   -0.0680260927516709   -0.018759455525860995
-0.4447573255682024   -0.0680260927516709   -0.018759455525860995
-0.4352435194255826   -0.014652660807623619   -0.018762706603043553
-0.4352435194255826   -0.014652660807623619   -0.018762706603043553
-0.4352435194255826   -0.014652660807623619   -0.018762706603043553
-0.4352435194255826   -0.014652660807623619   -0.018762706603043553
-0.8628257945448132   -0.07881029830068453   -0.08120131929913761
-0.8628257945448132   -0.07881029830068453   -0.08120131929913761
-0.8628257945448132   -0.07881029830068453   -0.08120131929913761
-0.8628257945448132   -0.07881029830068453   -0.08120131929913761
-0.5468777664720035   0.046865003518193615   0.01915734658137172
-0.5468777664720035   0.046865003518193615   0.01915734658137172
-0.5468777664720035   0.046865003518193615   0.01915734658137172
-0.5468777664720035   0.046865003518193615   0.01915734658137172
-0.5742091653944978   -0.03608582901910086   -0.036177547287160924
-0.5742091653944978   -0.03608582901910086   -0.036177547287160924
-0.5742091653944978   -0.03608582901910086   -0.036177547287160924
-0.5742091653944978   -0.03608582901910086   -0.036177547287160924
-0.9170722999838884   -0.103023954730134   0.0911130605916659
-0.9170722999838884   -0.103023954730134   0.0911130605916659
-0.9170722999838884   -0.103023954730134   0.0911130605916659
-0.9170722999838884   -0.103023954730134   0.0911130605916659
-0.6667861747181321   -0.025282226858428444   0.08830430105429034
-0.6667861747181321   -0.025282226858428444   0.08830430105429034
-0.6667861747181321   -0.025282226858428444   0.08830430105429034
-0.6667861747181321   -0.025282226858428444   0.08830430105429034
-0.9497534401170488   -0.1158520778891927   -0.05946451691506928
-0.9497534401170488   -0.1158520778891927   -0.05946451691506928
-0.9497534401170488   -0.1158520778891927   -0.05946451691506928
-0.9497534401170488   -0.1158520778891927   -0.05946451691506928
-0.5645050596636499   -0.04623474026235323   0.02249189261033124
-0.5645050596636499   -0.04623474026235323   0.02249189261033124
-0.5645050596636499   -0.04623474026235323   0.02249189261033124
-0.5645050596636499   -0.04623474026235323   0.02249189261033124
-0.5829113233800604   -0.05239401746910166   -0.02593799437893632
-0.5829113233800604   -0.05239401746910166   -0.02593799437893632
-0.5829113233800604   -0.05239401746910166   -0.02593799437893632
-0.5829113233800604   -0.05239401746910166   -0.02593799437893632
-0.9461082203477055   -0.14399377553155807   0.0023312407481333244
-0.9461082203477055   -0.14399377553155807   0.0023312407481333244
-0.9461082203477055   -0.14399377553155807   0.0023312407481333244
-0.9461082203477055   -0.14399377553155807   0.0023312407481333244
-0.7380327106388685   -0.08688913926387362   0.02037494946489453
-0.7380327106388685   -0.08688913926387362   0.02037494946489453
-0.7380327106388685   -0.08688913926387362   0.02037494946489453
-0.7380327106388685   -0.08688913926387362   0.02037494946489453
-0.9535236175633013   -0.13089731800186805   -0.0478422028595272
-0.9535236175633013   -0.13089731800186805   -0.0478422028595272
-0.9535236175633013   -0.13089731800186805   -0.0478422028595272
-0.9535236175633013   -0.13089731800186805   -0.0478422028595272
-0.5824671940255226   -0.07246174285984924   -0.003649622215505459
-0.5824671940255226   -0.07246174285984924   -0.003649622215505459
-0.5824671940255226   -0.07246174285984924   -0.003649622215505459
-0.5824671940255226   -0.07246174285984924   -0.003649622215505459
-0.5832023853360712   -0.09191868417065402   -0.018870603738143407
-0.5832023853360712   -0.09191868417065402   -0.018870603738143407
-0.5832023853360712   -0.09191868417065402   -0.018870603738143407
-0.5832023853360712   -0.09191868417065402   -0.018870603738143407
-0.9685615450236182   -0.21997267330476067   0.014554985660769175
-0.9685615450236182   -0.21997267330476067   0.014554985660769175
-0.9685615450236182   -0.21997267330476067   0.014554985660769175
-0.9685615450236182   -0.21997267330476067   0.014554985660769175
-0.7371134182421354   -0.11946673100975858   0.0014950074451607065
-0.7371134182421354   -0.11946673100975858   0.0014950074451607065
-0.7371134182421354   -0.11946673100975858   0.0014950074451607065
-0.7371134182421354   -0.11946673100975858   0.0014950074451607065
-0.5905529510216213   -0.10010369503312799   -0.05224987761539087
-0.5905529510216213   -0.10010369503312799   -0.05224987761539087
-0.5905529510216213   -0.10010369503312799   -0.05224987761539087
-0.5905529510216213   -0.10010369503312799   -0.05224987761539087
-0.40540673223299545   -0.2616283580968712   -0.04906910765822015
-0.40540673223299545   -0.2616283580968712   -0.04906910765822015
-0.40540673223299545   -0.2616283580968712   -0.04906910765822015
-0.40540673223299545   -0.2616283580968712   -0.04906910765822015
-0.3561135435241449   -0.05815443976765589   -0.0030612605022564705
-0.3561135435241449   -0.05815443976765589   -0.0030612605022564705
-0.3561135435241449   -0.05815443976765589   -0.0030612605022564705
-0.3561135435241449   -0.05815443976765589   -0.0030612605022564705
-0.627656379513076   -0.27760672514055906   -0.061892721758593325
-0.627656379513076   -0.27760672514055906   -0.061892721758593325
-0.627656379513076   -0.27760672514055906   -0.061892721758593325
-0.627656379513076   -0.27760672514055906   -0.061892721758593325
-0.48918125708445337   -0.1850922811201589   -0.014249299874278882
-0.48918125708445337   -0.1850922811201589   -0.014249299874278882
-0.48918125708445337   -0.1850922811201589   -0.014249299874278882
-0.48918125708445337   -0.1850922811201589   -0.014249299874278882
-0.5900617682512397   -0.11219759227551448   -0.03932879831445475
-0.5900617682512397   -0.11219759227551448   -0.03932879831445475
-0.5900617682512397   -0.11219759227551448   -0.03932879831445475
-0.5900617682512397   -0.11219759227551448   -0.03932879831445475
-0.3961022541870201   -0.22595767203373907   -0.03520158155054917
-0.3961022541870201   -0.22595767203373907   -0.03520158155054917
-0.3961022541870201   -0.22595767203373907   -0.03520158155054917
-0.3961022541870201   -0.22595767203373907   -0.03520158155054917
-0.36004492759341394   -0.07537509277371139   0.0006024494080101519
-0.36004492759341394   -0.07537509277371139   0.0006024494080101519
-0.36004492759341394   -0.07537509277371139   0.0006024494080101519
-0.36004492759341394   -0.07537509277371139   0.0006024494080101519
-0.6297887509713214   -0.27616771017134656   -0.03655143963300171
-0.6297887509713214   -0.27616771017134656   -0.03655143963300171
-0.6297887509713214   -0.27616771017134656   -0.03655143963300171
-0.6297887509713214   -0.27616771017134656   -0.03655143963300171
-0.4836679443246508   -0.17350013856247354   -0.015137587732650695
-0.4836679443246508   -0.17350013856247354   -0.015137587732650695
-0.4836679443246508   -0.17350013856247354   -0.015137587732650695
-0.4836679443246508   -0.17350013856247354   -0.015137587732650695
-0.5989757419486778   -0.12917713872049266   -0.029476965970632464
-0.5989757419486778   -0.12917713872049266   -0.029476965970632464
-0.5989757419486778   -0.12917713872049266   -0.029476965970632464
-0.5989757419486778   -0.12917713872049266   -0.029476965970632464
-0.39580648449545863   -0.22731421210396544   -0.026266215771958937
-0.39580648449545863   -0.22731421210396544   -0.026266215771958937
-0.39580648449545863   -0.22731421210396544   -0.026266215771958937
-0.39580648449545863   -0.22731421210396544   -0.026266215771958937
-0.35976745586758413   -0.09685145524999708   0.005839521784370661
-0.35976745586758413   -0.09685145524999708   0.005839521784370661
-0.35976745586758413   -0.09685145524999708   0.005839521784370661
-0.35976745586758413   -0.09685145524999708   0.005839521784370661
-0.6280933672060768   -0.2808014074826539   -0.05444278977617721
-0.6280933672060768   -0.2808014074826539   -0.05444278977617721
-0.6280933672060768   -0.2808014074826539   -0.05444278977617721
-0.6280933672060768   -0.2808014074826539   -0.05444278977617721
-0.49082854299652895   -0.18664929610921713   -0.028106925159294874
-0.49082854299652895   -0.18664929610921713   -0.028106925159294874
-0.49082854299652895   -0.18664929610921713   -0.028106925159294874
-0.49082854299652895   -0.18664929610921713   -0.028106925159294874
-0.3570498769856399   -0.06441295856440783   -0.0045002309539057175
-0.3570498769856399   -0.06441295856440783   -0.0045002309539057175
-0.3570498769856399   -0.06441295856440783   -0.0045002309539057175
-0.3570498769856399   -0.06441295856440783   -0.0045002309539057175
-0.2990895910065272   -0.2000909677885741   -0.034542304696970436
-0.2990895910065272   -0.2000909677885741   -0.034542304696970436
-0.2990895910065272   -0.2000909677885741   -0.034542304696970436
-0.2990895910065272   -0.2000909677885741   -0.034542304696970436
-0.2577314186564069   -0.0533916300254413   0.013798123262075277
-0.2577314186564069   -0.0533916300254413   0.013798123262075277
-0.2577314186564069   -0.0533916300254413   0.013798123262075277
-0.2577314186564069   -0.0533916300254413   0.013798123262075277
-0.3950341148021712   -0.21762470342280218   -0.03819385323724173
-0.3950341148021712   -0.21762470342280218   -0.03819385323724173
-0.3950341148021712   -0.21762470342280218   -0.03819385323724173
-0.3950341148021712   -0.21762470342280218   -0.03819385323724173
-0.3257788871642857   -0.13576553982947692   -0.0159445190650116
-0.3257788871642857   -0.13576553982947692   -0.0159445190650116
-0.3257788871642857   -0.13576553982947692   -0.0159445190650116
-0.3257788871642857   -0.13576553982947692   -0.0159445190650116
-0.3590000364849415   -0.0762788427152853   0.0006306776413898573
-0.3590000364849415   -0.0762788427152853   0.0006306776413898573
-0.3590000364849415   -0.0762788427152853   0.0006306776413898573
-0.3590000364849415   -0.0762788427152853   0.0006306776413898573
-0.29588399853584024   -0.1968559922951605   -0.03350041386536431
-0.29588399853584024   -0.1968559922951605   -0.03350041386536431
-0.29588399853584024   -0.1968559922951605   -0.03350041386536431
-0.29588399853584024   -0.1968559922951605   -0.03350041386536431
-0.2576976446397214   -0.06754207240537438   0.017873805422746004
-0.2576976446397214   -0.06754207240537438   0.017873805422746004
-0.2576976446397214   -0.06754207240537438   0.017873805422746004
-0.2576976446397214   -0.06754207240537438   0.017873805422746004
-0.39615267055755976   -0.22107602314043398   -0.03423533504599618
-0.39615267055755976   -0.22107602314043398   -0.03423533504599618
-0.39615267055755976   -0.22107602314043398   -0.03423533504599618
-0.39615267055755976   -0.22107602314043398   -0.03423533504599618
-0.32508972876754777   -0.14110447898186157   -0.020687778028104443
-0.32508972876754777   -0.14110447898186157   -0.020687778028104443
-0.32508972876754777   -0.14110447898186157   -0.020687778028104443
-0.32508972876754777   -0.14110447898186157   -0.020687778028104443
-0.36188211006532983   -0.09062119810008445   0.006662642374804082
-0.36188211006532983   -0.09062119810008445   0.006662642374804082
-0.36188211006532983   -0.09062119810008445   0.006662642374804082
-0.36188211006532983   -0.09062119810008445   0.006662642374804082
-0.29313144332589636   -0.19916013563966767   -0.027677124773828048
-0.29313144332589636   -0.19916013563966767   -0.027677124773828048
-0.29313144332589636   -0.19916013563966767   -0.027677124773828048
-0.29313144332589636   -0.19916013563966767   -0.027677124773828048
-0.2545212350668655   -0.08106719331634518   0.022308401952795057
-0.2545212350668655   -0.08106719331634518   0.022308401952795057
-0.2545212350668655   -0.08106719331634518   0.022308401952795057
-0.2545212350668655   -0.08106719331634518   0.022308401952795057
-0.3912853727028567   -0.22391863887445307   -0.024682878767536172
-0.3912853727028567   -0.22391863887445307   -0.024682878767536172
-0.3912853727028567   -0.22391863887445307   -0.024682878767536172
-0.3912853727028567   -0.22391863887445307   -0.024682878767536172
-0.3239770650738128   -0.148118361948425   -0.023961850631768214
-0.3239770650738128   -0.148118361948425   -0.023961850631768214
-0.3239770650738128   -0.148118361948425   -0.023961850631768214
-0.3239770650738128   -0.148118361948425   -0.023961850631768214
-0.24906804266825208   -0.00894554604914266   0.02442001525496608
-0.24906804266825208   -0.00894554604914266   0.02442001525496608
-0.24906804266825208   -0.00894554604914266   0.02442001525496608
-0.24906804266825208   -0.00894554604914266   0.02442001525496608
-0.23509036386290913   -0.10583200610864137   -0.020639962536669564
-0.23509036386290913   -0.10583200610864137   -0.020639962536669564
-0.23509036386290913   -0.10583200610864137   -0.020639962536669564
-0.23509036386290913   -0.10583200610864137   -0.020639962536669564
-0.20258606309856161   -0.015337909003510366   0.0282970446242594
-0.20258606309856161   -0.015337909003510366   0.0282970446242594
-0.20258606309856161   -0.015337909003510366   0.0282970446242594
-0.20258606309856161   -0.015337909003510366   0.0282970446242594
-0.27722438783223813   -0.12242273511510342   -0.014635617527418671
-0.27722438783223813   -0.12242273511510342   -0.014635617527418671
-0.27722438783223813   -0.12242273511510342   -0.014635617527418671
-0.27722438783223813   -0.12242273511510342   -0.014635617527418671
-0.24179994732348176   -0.06255812025096032   -0.008643573475204964
-0.24179994732348176   -0.06255812025096032   -0.008643573475204964
-0.24179994732348176   -0.06255812025096032   -0.008643573475204964
-0.24179994732348176   -0.06255812025096032   -0.008643573475204964
-0.24911367380328334   -0.024669830474046795   0.028165047976298943
-0.24911367380328334   -0.024669830474046795   0.028165047976298943
-0.24911367380328334   -0.024669830474046795   0.028165047976298943
-0.24911367380328334   -0.024669830474046795   0.028165047976298943
-0.23294595566350002   -0.11533999218055054   -0.0235003350233924
-0.23294595566350002   -0.11533999218055054   -0.0235003350233924
-0.23294595566350002   -0.11533999218055054   -0.0235003350233924
-0.23294595566350002   -0.11533999218055054   -0.0235003350233924
-0.202760072464594   -0.029044200705238724   0.030408834195650835
-0.202760072464594   -0.029044200705238724   0.030408834195650835
-0.202760072464594   -0.029044200705238724   0.030408834195650835
-0.202760072464594   -0.029044200705238724   0.030408834195650835
-0.27700514149365985   -0.12987692271202056   -0.016328828540300377
-0.27700514149365985   -0.12987692271202056   -0.016328828540300377
-0.27700514149365985   -0.12987692271202056   -0.016328828540300377
-0.27700514149365985   -0.12987692271202056   -0.016328828540300377
-0.24063110823732325   -0.07357442675332979   -0.01466158832321754
-0.24063110823732325   -0.07357442675332979   -0.01466158832321754
-0.24063110823732325   -0.07357442675332979   -0.01466158832321754
-0.24063110823732325   -0.07357442675332979   -0.01466158832321754
-0.24894550844299876   -0.03795380994987746   0.03204622395086195
-0.24894550844299876   -0.03795380994987746   0.03204622395086195
-0.24894550844299876   -0.03795380994987746   0.03204622395086195
-0.24894550844299876   -0.03795380994987746   0.03204622395086195
-0.23218123309918184   -0.12232884105130859   -0.023412328631210868
-0.23218123309918184   -0.12232884105130859   -0.023412328631210868
-0.23218123309918184   -0.12232884105130859   -0.023412328631210868
-0.23218123309918184   -0.12232884105130859   -0.023412328631210868
-0.20089603561119038   -0.041910801161024074   0.035235860783670664
-0.20089603561119038   -0.041910801161024074   0.035235860783670664
-0.20089603561119038   -0.041910801161024074   0.035235860783670664
-0.20089603561119038   -0.041910801161024074   0.035235860783670664
-0.2724737315082001   -0.13733976523988944   -0.011181508330333392
-0.2724737315082001   -0.13733976523988944   -0.011181508330333392
-0.2724737315082001   -0.13733976523988944   -0.011181508330333392
-0.2724737315082001   -0.13733976523988944   -0.011181508330333392
-0.23976982915540535   -0.083030619588571   -0.018831320724946643
-0.23976982915540535   -0.083030619588571   -0.018831320724946643
-0.23976982915540535   -0.083030619588571   -0.018831320724946643
-0.23976982915540535   -0.083030619588571   -0.018831320724946643
-0.19669439566275623   0.0274707603694425   0.03803711198601105
-0.19669439566275623   0.0274707603694425   0.03803711198601105
-0.19669439566275623   0.0274707603694425   0.03803711198601105
-0.19669439566275623   0.0274707603694425   0.03803711198601105
-0.13012805002679698   -0.03474112299025549   -0.012666736507440298
-0.13012805002679698   -0.03474112299025549   -0.012666736507440298
-0.13012805002679698   -0.03474112299025549   -0.012666736507440298
-0.13012805002679698   -0.03474112299025549   -0.012666736507440298
-0.11342401019156632   0.032388684483059274   0.03754749720616411
-0.11342401019156632   0.032388684483059274   0.03754749720616411
-0.11342401019156632   0.032388684483059274   0.03754749720616411
-0.11342401019156632   0.032388684483059274   0.03754749720616411
-0.21715562894692206   -0.05333506607442431   -0.006553627546628832
-0.21715562894692206   -0.05333506607442431   -0.006553627546628832
-0.21715562894692206   -0.05333506607442431   -0.006553627546628832
-0.21715562894692206   -0.05333506607442431   -0.006553627546628832
-0.1621176638977577   -0.003386100173001158   -0.006903377677265702
-0.1621176638977577   -0.003386100173001158   -0.006903377677265702
-0.1621176638977577   -0.003386100173001158   -0.006903377677265702
-0.1621176638977577   -0.003386100173001158   -0.006903377677265702
-0.19343830138363488   0.01717992970207697   0.0415180144933058
-0.19343830138363488   0.01717992970207697   0.0415180144933058
-0.19343830138363488   0.01717992970207697   0.0415180144933058
-0.19343830138363488   0.01717992970207697   0.0415180144933058
-0.13736315876657731   -0.038348132305159426   -0.01141142888065684
-0.13736315876657731   -0.038348132305159426   -0.01141142888065684
-0.13736315876657731   -0.038348132305159426   -0.01141142888065684
-0.13736315876657731   -0.038348132305159426   -0.01141142888065684
-0.11835493780160675   0.02572827831567566   0.04724308266328794
-0.11835493780160675   0.02572827831567566   0.04724308266328794
-0.11835493780160675   0.02572827831567566   0.04724308266328794
-0.11835493780160675   0.02572827831567566   0.04724308266328794
-0.21606694615067368   -0.05676100021272432   -0.008408734727262088
-0.21606694615067368   -0.05676100021272432   -0.008408734727262088
-0.21606694615067368   -0.05676100021272432   -0.008408734727262088
-0.21606694615067368   -0.05676100021272432   -0.008408734727262088
-0.16683796642792753   -0.010662473804116085   -0.009701990730621843
-0.16683796642792753   -0.010662473804116085   -0.009701990730621843
-0.16683796642792753   -0.010662473804116085   -0.009701990730621843
-0.16683796642792753   -0.010662473804116085   -0.009701990730621843
-0.19121781088034795   0.011268562874665232   0.047807378536977016
-0.19121781088034795   0.011268562874665232   0.047807378536977016
-0.19121781088034795   0.011268562874665232   0.047807378536977016
-0.19121781088034795   0.011268562874665232   0.047807378536977016
-0.144905208168883   -0.04400241986866057   -0.01577757098874169
-0.144905208168883   -0.04400241986866057   -0.01577757098874169
-0.144905208168883   -0.04400241986866057   -0.01577757098874169
-0.144905208168883   -0.04400241986866057   -0.01577757098874169
-0.13545304660933266   0.007418491762479062   0.04915918808601908
-0.13545304660933266   0.007418491762479062   0.04915918808601908
-0.13545304660933266   0.007418491762479062   0.04915918808601908
-0.13545304660933266   0.007418491762479062   0.04915918808601908
-0.21293391456733798   -0.059806032036259026   -0.007058303121832378
-0.21293391456733798   -0.059806032036259026   -0.007058303121832378
-0.21293391456733798   -0.059806032036259026   -0.007058303121832378
-0.21293391456733798   -0.059806032036259026   -0.007058303121832378
-0.16907489400096237   -0.01591164111629799   -0.014261252882170878
-0.16907489400096237   -0.01591164111629799   -0.014261252882170878
-0.16907489400096237   -0.01591164111629799   -0.014261252882170878
-0.16907489400096237   -0.01591164111629799   -0.014261252882170878
-2.0329447681185724   -0.28799082765129486   -0.16905480761950195
-2.0329447681185724   -0.28799082765129486   -0.16905480761950195
-2.0329447681185724   -0.28799082765129486   -0.16905480761950195
-2.0329447681185724   -0.28799082765129486   -0.16905480761950195
-0.7054155377513559   -1.1092771455558914   -0.13233723607415016
-0.7054155377513559   -1.1092771455558914   -0.13233723607415016
-0.7054155377513559   -1.1092771455558914   -0.13233723607415016
-0.7054155377513559   -1.1092771455558914   -0.13233723607415016
-0.5452529742092955   -0.04673004252863926   0.0007632958245468689
-0.5452529742092955   -0.04673004252863926   0.0007632958245468689
-0.5452529742092955   -0.04673004252863926   0.0007632958245468689
-0.5452529742092955   -0.04673004252863926   0.0007632958245468689
-2.1705071269656457   -1.3039782982507946   -0.6948970850432881
-2.1705071269656457   -1.3039782982507946   -0.6948970850432881
-2.1705071269656457   -1.3039782982507946   -0.6948970850432881
-2.1705071269656457   -1.3039782982507946   -0.6948970850432881
-1.329451240521335   -0.648719590990623   -0.09452639311759813
-1.329451240521335   -0.648719590990623   -0.09452639311759813
-1.329451240521335   -0.648719590990623   -0.09452639311759813
-1.329451240521335   -0.648719590990623   -0.09452639311759813
-1.8890024078208356   -0.3615857882748883   -0.22976599929515842
-1.8890024078208356   -0.3615857882748883   -0.22976599929515842
-1.8890024078208356   -0.3615857882748883   -0.22976599929515842
-1.8890024078208356   -0.3615857882748883   -0.22976599929515842
-0.7617540994932981   -0.9241189586437398   -0.20435341448036173
-0.7617540994932981   -0.9241189586437398   -0.20435341448036173
-0.7617540994932981   -0.9241189586437398   -0.20435341448036173
-0.7617540994932981   -0.9241189586437398   -0.20435341448036173
-0.5562283029556673   -0.06229708521030977   0.02093477496233654
-0.5562283029556673   -0.06229708521030977   0.02093477496233654
-0.5562283029556673   -0.06229708521030977   0.02093477496233654
-0.5562283029556673   -0.06229708521030977   0.02093477496233654
-2.031085388852979   -1.1631536987831352   -0.6388478175272229
-2.031085388852979   -1.1631536987831352   -0.6388478175272229
-2.031085388852979   -1.1631536987831352   -0.6388478175272229
-2.031085388852979   -1.1631536987831352   -0.6388478175272229
-1.252162516037691   -0.5849631137485164   0.05068911617700106
-1.252162516037691   -0.5849631137485164   0.05068911617700106
-1.252162516037691   -0.5849631137485164   0.05068911617700106
-1.252162516037691   -0.5849631137485164   0.05068911617700106
-1.7738102479580047   -0.34427132630862045   -0.17135448552687965
-1.7738102479580047   -0.34427132630862045   -0.17135448552687965
-1.7738102479580047   -0.34427132630862045   -0.17135448552687965
-1.7738102479580047   -0.34427132630862045   -0.17135448552687965
-0.7412750591774482   -0.8089510730116327   -0.15764501834524058
-0.7412750591774482   -0.8089510730116327   -0.15764501834524058
-0.7412750591774482   -0.8089510730116327   -0.15764501834524058
-0.7412750591774482   -0.8089510730116327   -0.15764501834524058
-0.6391378078560052   -0.16364291904720654   -0.03321998021907336
-0.6391378078560052   -0.16364291904720654   -0.03321998021907336
-0.6391378078560052   -0.16364291904720654   -0.03321998021907336
-0.6391378078560052   -0.16364291904720654   -0.03321998021907336
-1.8511738049794686   -0.9775438149726235   -0.5657435239904185
-1.8511738049794686   -0.9775438149726235   -0.5657435239904185
-1.8511738049794686   -0.9775438149726235   -0.5657435239904185
-1.8511738049794686   -0.9775438149726235   -0.5657435239904185
-1.1598654821527903   -0.5071381820936254   0.21472460169670374
-1.1598654821527903   -0.5071381820936254   0.21472460169670374
-1.1598654821527903   -0.5071381820936254   0.21472460169670374
-1.1598654821527903   -0.5071381820936254   0.21472460169670374
-0.5222066490688559   -0.283573756313257   -0.041996181904288755
-0.5222066490688559   -0.283573756313257   -0.041996181904288755
-0.5222066490688559   -0.283573756313257   -0.041996181904288755
-0.5222066490688559   -0.283573756313257   -0.041996181904288755
-0.24138498133153136   -0.35020157124373275   -0.059639038115596586
-0.24138498133153136   -0.35020157124373275   -0.059639038115596586
-0.24138498133153136   -0.35020157124373275   -0.059639038115596586
-0.24138498133153136   -0.35020157124373275   -0.059639038115596586
-0.21295547422164207   -0.1811860798102799   0.005509599601368632
-0.21295547422164207   -0.1811860798102799   0.005509599601368632
-0.21295547422164207   -0.1811860798102799   0.005509599601368632
-0.21295547422164207   -0.1811860798102799   0.005509599601368632
-0.6385923209863141   -0.5129552641493486   0.00029178356016673623
-0.6385923209863141   -0.5129552641493486   0.00029178356016673623
-0.6385923209863141   -0.5129552641493486   0.00029178356016673623
-0.6385923209863141   -0.5129552641493486   0.00029178356016673623
-0.3430375286574865   -0.24878868928449716   0.10988852639985187
-0.3430375286574865   -0.24878868928449716   0.10988852639985187
-0.3430375286574865   -0.24878868928449716   0.10988852639985187
-0.3430375286574865   -0.24878868928449716   0.10988852639985187
-0.594248764379055   -0.2639464977271792   -0.0269991998257149
-0.594248764379055   -0.2639464977271792   -0.0269991998257149
-0.594248764379055   -0.2639464977271792   -0.0269991998257149
-0.594248764379055   -0.2639464977271792   -0.0269991998257149
-0.2753160992814775   -0.4482119146850262   -0.03926769082305835
-0.2753160992814775   -0.4482119146850262   -0.03926769082305835
-0.2753160992814775   -0.4482119146850262   -0.03926769082305835
-0.2753160992814775   -0.4482119146850262   -0.03926769082305835
-0.22998802411706853   -0.18776533031235193   0.005659732807718559
-0.22998802411706853   -0.18776533031235193   0.005659732807718559
-0.22998802411706853   -0.18776533031235193   0.005659732807718559
-0.22998802411706853   -0.18776533031235193   0.005659732807718559
-0.6697038677721674   -0.5063504649359013   -0.10238966939456776
-0.6697038677721674   -0.5063504649359013   -0.10238966939456776
-0.6697038677721674   -0.5063504649359013   -0.10238966939456776
-0.6697038677721674   -0.5063504649359013   -0.10238966939456776
-0.40899327964926213   -0.3191756510432736   0.05018926063510275
-0.40899327964926213   -0.3191756510432736   0.05018926063510275
-0.40899327964926213   -0.3191756510432736   0.05018926063510275
-0.40899327964926213   -0.3191756510432736   0.05018926063510275
-0.613163019587001   -0.27561621220734206   -0.05041968119729966
-0.613163019587001   -0.27561621220734206   -0.05041968119729966
-0.613163019587001   -0.27561621220734206   -0.05041968119729966
-0.613163019587001   -0.27561621220734206   -0.05041968119729966
-0.2848469517372275   -0.4168176624759039   -0.039582573129520536
-0.2848469517372275   -0.4168176624759039   -0.039582573129520536
-0.2848469517372275   -0.4168176624759039   -0.039582573129520536
-0.2848469517372275   -0.4168176624759039   -0.039582573129520536
-0.25624601665178603   -0.19387670351359176   0.008333379514850463
-0.25624601665178603   -0.19387670351359176   0.008333379514850463
-0.25624601665178603   -0.19387670351359176   0.008333379514850463
-0.25624601665178603   -0.19387670351359176   0.008333379514850463
-0.7159990798810897   -0.4919747095900508   -0.08919454980165223
-0.7159990798810897   -0.4919747095900508   -0.08919454980165223
-0.7159990798810897   -0.4919747095900508   -0.08919454980165223
-0.7159990798810897   -0.4919747095900508   -0.08919454980165223
-0.42789829103680266   -0.30081678487027663   0.05310748860920721
-0.42789829103680266   -0.30081678487027663   0.05310748860920721
-0.42789829103680266   -0.30081678487027663   0.05310748860920721
-0.42789829103680266   -0.30081678487027663   0.05310748860920721
-0.1907483655774398   -0.1690381399009474   0.012380609312075734
-0.1907483655774398   -0.1690381399009474   0.012380609312075734
-0.1907483655774398   -0.1690381399009474   0.012380609312075734
-0.1907483655774398   -0.1690381399009474   0.012380609312075734
-0.1164517853318477   -0.10903610265968726   -0.02910528856095947
-0.1164517853318477   -0.10903610265968726   -0.02910528856095947
-0.1164517853318477   -0.10903610265968726   -0.02910528856095947
-0.1164517853318477   -0.10903610265968726   -0.02910528856095947
-0.11295805397076727   -0.15107320974530603   0.012487554318835074
-0.11295805397076727   -0.15107320974530603   0.012487554318835074
-0.11295805397076727   -0.15107320974530603   0.012487554318835074
-0.11295805397076727   -0.15107320974530603   0.012487554318835074
-0.21043894828899373   -0.1497369444061028   -0.01335690613956297
-0.21043894828899373   -0.1497369444061028   -0.01335690613956297
-0.21043894828899373   -0.1497369444061028   -0.01335690613956297
-0.21043894828899373   -0.1497369444061028   -0.01335690613956297
-0.13314843573651972   -0.12209355009374621   0.055096854251981985
-0.13314843573651972   -0.12209355009374621   0.055096854251981985
-0.13314843573651972   -0.12209355009374621   0.055096854251981985
-0.13314843573651972   -0.12209355009374621   0.055096854251981985
-0.2091803941224319   -0.17014617048498043   0.013345090772120018
-0.2091803941224319   -0.17014617048498043   0.013345090772120018
-0.2091803941224319   -0.17014617048498043   0.013345090772120018
-0.2091803941224319   -0.17014617048498043   0.013345090772120018
-0.11603490142214713   -0.13248227695124576   -0.02148761573212446
-0.11603490142214713   -0.13248227695124576   -0.02148761573212446
-0.11603490142214713   -0.13248227695124576   -0.02148761573212446
-0.11603490142214713   -0.13248227695124576   -0.02148761573212446
-0.1141619717053777   -0.15561226913421486   0.011092736132917426
-0.1141619717053777   -0.15561226913421486   0.011092736132917426
-0.1141619717053777   -0.15561226913421486   0.011092736132917426
-0.1141619717053777   -0.15561226913421486   0.011092736132917426
-0.2233560651820607   -0.17476041813618395   0.025814615306593645
-0.2233560651820607   -0.17476041813618395   0.025814615306593645
-0.2233560651820607   -0.17476041813618395   0.025814615306593645
-0.2233560651820607   -0.17476041813618395   0.025814615306593645
-0.14467669220831833   -0.1360218680209076   0.04673261145951542
-0.14467669220831833   -0.1360218680209076   0.04673261145951542
-0.14467669220831833   -0.1360218680209076   0.04673261145951542
-0.14467669220831833   -0.1360218680209076   0.04673261145951542
-0.22525225470454566   -0.17644518587419644   0.01801843543217744
-0.22525225470454566   -0.17644518587419644   0.01801843543217744
-0.22525225470454566   -0.17644518587419644   0.01801843543217744
-0.22525225470454566   -0.17644518587419644   0.01801843543217744
-0.12193135958928986   -0.16359307880260013   -0.01977339361825804
-0.12193135958928986   -0.16359307880260013   -0.01977339361825804
-0.12193135958928986   -0.16359307880260013   -0.01977339361825804
-0.12193135958928986   -0.16359307880260013   -0.01977339361825804
-0.11534635078096786   -0.16067903600411282   0.015576113662268506
-0.11534635078096786   -0.16067903600411282   0.015576113662268506
-0.11534635078096786   -0.16067903600411282   0.015576113662268506
-0.11534635078096786   -0.16067903600411282   0.015576113662268506
-0.26106724053637803   -0.21515528752294313   0.0055058441012416845
-0.26106724053637803   -0.21515528752294313   0.0055058441012416845
-0.26106724053637803   -0.21515528752294313   0.0055058441012416845
-0.26106724053637803   -0.21515528752294313   0.0055058441012416845
-0.1614342777215613   -0.15512056514229658   0.02216331560107289
-0.1614342777215613   -0.15512056514229658   0.02216331560107289
-0.1614342777215613   -0.15512056514229658   0.02216331560107289
-0.1614342777215613   -0.15512056514229658   0.02216331560107289
-0.0957461561437637   -0.06729818426126977   0.032684938981043035
-0.0957461561437637   -0.06729818426126977   0.032684938981043035
-0.0957461561437637   -0.06729818426126977   0.032684938981043035
-0.0957461561437637   -0.06729818426126977   0.032684938981043035
-0.06696028083823581   0.0003068136340537049   -0.006523350224735754
-0.06696028083823581   0.0003068136340537049   -0.006523350224735754
-0.06696028083823581   0.0003068136340537049   -0.006523350224735754
-0.06696028083823581   0.0003068136340537049   -0.006523350224735754
-0.06355883103165214   -0.07270411583254376   0.020291922084801267
-0.06355883103165214   -0.07270411583254376   0.020291922084801267
-0.06355883103165214   -0.07270411583254376   0.020291922084801267
-0.06355883103165214   -0.07270411583254376   0.020291922084801267
-0.08856986132680494   -0.012435840815538227   -0.004208851391121112
-0.08856986132680494   -0.012435840815538227   -0.004208851391121112
-0.08856986132680494   -0.012435840815538227   -0.004208851391121112
-0.08856986132680494   -0.012435840815538227   -0.004208851391121112
-0.07278835311679738   -0.03662930307911905   0.016213610216979004
-0.07278835311679738   -0.03662930307911905   0.016213610216979004
-0.07278835311679738   -0.03662930307911905   0.016213610216979004
-0.07278835311679738   -0.03662930307911905   0.016213610216979004
-0.0944352336900639   -0.07677674298814766   0.030805188965193533
-0.0944352336900639   -0.07677674298814766   0.030805188965193533
-0.0944352336900639   -0.07677674298814766   0.030805188965193533
-0.0944352336900639   -0.07677674298814766   0.030805188965193533
-0.05601968567596128   -0.0066894406675024375   -0.008027026301785823
-0.05601968567596128   -0.0066894406675024375   -0.008027026301785823
-0.05601968567596128   -0.0066894406675024375   -0.008027026301785823
-0.05601968567596128   -0.0066894406675024375   -0.008027026301785823
-0.058179871977981926   -0.0791061740321465   0.018699645343392024
-0.058179871977981926   -0.0791061740321465   0.018699645343392024
-0.058179871977981926   -0.0791061740321465   0.018699645343392024
-0.058179871977981926   -0.0791061740321465   0.018699645343392024
-0.0891344356377192   -0.024808987898345986   0.0054271352353411064
-0.0891344356377192   -0.024808987898345986   0.0054271352353411064
-0.0891344356377192   -0.024808987898345986   0.0054271352353411064
-0.0891344356377192   -0.024808987898345986   0.0054271352353411064
-0.06670138566575502   -0.041969198982171815   0.019375815912954394
-0.06670138566575502   -0.041969198982171815   0.019375815912954394
-0.06670138566575502   -0.041969198982171815   0.019375815912954394
-0.06670138566575502   -0.041969198982171815   0.019375815912954394
-0.094850332807338   -0.08314371914076324   0.03518238062966436
-0.094850332807338   -0.08314371914076324   0.03518238062966436
-0.094850332807338   -0.08314371914076324   0.03518238062966436
-0.094850332807338   -0.08314371914076324   0.03518238062966436
-0.05295421325009081   -0.021261681231456914   -0.013016553817841923
-0.05295421325009081   -0.021261681231456914   -0.013016553817841923
-0.05295421325009081   -0.021261681231456914   -0.013016553817841923
-0.05295421325009081   -0.021261681231456914   -0.013016553817841923
-0.04852130033774238   -0.0862040542848578   0.020544615274367087
-0.04852130033774238   -0.0862040542848578   0.020544615274367087
-0.04852130033774238   -0.0862040542848578   0.020544615274367087
-0.04852130033774238   -0.0862040542848578   0.020544615274367087
-0.09591923055133504   -0.055095807619610984   0.007128486425930775
-0.09591923055133504   -0.055095807619610984   0.007128486425930775
-0.09591923055133504   -0.055095807619610984   0.007128486425930775
-0.09591923055133504   -0.055095807619610984   0.007128486425930775
-0.06405665894127441   -0.05299979741017327   0.016816212377140417
-0.06405665894127441   -0.05299979741017327   0.016816212377140417
-0.06405665894127441   -0.05299979741017327   0.016816212377140417
-0.06405665894127441   -0.05299979741017327   0.016816212377140417
-0.061529318973934745   -0.011916979110025278   0.03285525184084853
-0.061529318973934745   -0.011916979110025278   0.03285525184084853
-0.061529318973934745   -0.011916979110025278   0.03285525184084853
-0.061529318973934745   -0.011916979110025278   0.03285525184084853
-0.010649438149017186   0.007250716626740807   -0.000663310380067777
-0.010649438149017186   0.007250716626740807   -0.000663310380067777
-0.010649438149017186   0.007250716626740807   -0.000663310380067777
-0.010649438149017186   0.007250716626740807   -0.000663310380067777
0.0037597411862198326   -0.0037806846581518675   0.020302909401583788
0.0037597411862198326   -0.0037806846581518675   0.020302909401583788
0.0037597411862198326   -0.0037806846581518675   0.020302909401583788
0.0037597411862198326   -0.0037806846581518675   0.020302909401583788
-0.05249974800706368   0.005479856467093168   -0.0025966350918934364
-0.05249974800706368   0.005479856467093168   -0.0025966350918934364
-0.05249974800706368   0.005479856467093168   -0.0025966350918934364
-0.05249974800706368   0.005479856467093168   -0.0025966350918934364
-0.03075000130242195   -0.0022948770567130863   -0.0025630154853757605
-0.03075000130242195   -0.0022948770567130863   -0.0025630154853757605
-0.03075000130242195   -0.0022948770567130863   -0.0025630154853757605
-0.03075000130242195   -0.0022948770567130863   -0.0025630154853757605
-0.048539424821862444   -0.011470110233205804   0.03415494753440406
-0.048539424821862444   -0.011470110233205804   0.03415494753440406
-0.048539424821862444   -0.011470110233205804   0.03415494753440406
-0.048539424821862444   -0.011470110233205804   0.03415494753440406
0.0016409472206593669   0.015010811261785318   -0.009082556346155728
0.0016409472206593669   0.015010811261785318   -0.009082556346155728
0.0016409472206593669   0.015010811261785318   -0.009082556346155728
0.0016409472206593669   0.015010811261785318   -0.009082556346155728
0.011079948118822472   -0.00464636523112678   0.025017545911229455
0.011079948118822472   -0.00464636523112678   0.025017545911229455
0.011079948118822472   -0.00464636523112678   0.025017545911229455
0.011079948118822472   -0.00464636523112678   0.025017545911229455
-0.04601272217653139   0.0042641381557479135   -0.0038349178372496786
-0.04601272217653139   0.0042641381557479135   -0.0038349178372496786
-0.04601272217653139   0.0042641381557479135   -0.0038349178372496786
-0.04601272217653139   0.0042641381557479135   -0.0038349178372496786
-0.020025332324492662   -0.0004923781803566054   0.0032571706808325334
-0.020025332324492662   -0.0004923781803566054   0.0032571706808325334
-0.020025332324492662   -0.0004923781803566054   0.0032571706808325334
-0.020025332324492662   -0.0004923781803566054   0.0032571706808325334
-0.041325122999770605   -0.01279787116385905   0.03666508736616119
-0.041325122999770605   -0.01279787116385905   0.03666508736616119
-0.041325122999770605   -0.01279787116385905   0.03666508736616119
-0.041325122999770605   -0.01279787116385905   0.03666508736616119
0.008057009178371549   0.01408030432479004   -0.008823818346941978
0.008057009178371549   0.01408030432479004   -0.008823818346941978
0.008057009178371549   0.01408030432479004   -0.008823818346941978
0.008057009178371549   0.01408030432479004   -0.008823818346941978
0.0185939832559441   -0.00723358499296514   0.024276034271362622
0.0185939832559441   -0.00723358499296514   0.024276034271362622
0.0185939832559441   -0.00723358499296514   0.024276034271362622
0.0185939832559441   -0.00723358499296514   0.024276034271362622
-0.03536684705354186   0.0044663097856272455   -0.004353482375115401
-0.03536684705354186   0.0044663097856272455   -0.004353482375115401
-0.03536684705354186   0.0044663097856272455   -0.004353482375115401
-0.03536684705354186   0.0044663097856272455   -0.004353482375115401
-0.01043086665189451   0.0006527942810092462   0.008401486732983127
-0.01043086665189451   0.0006527942810092462   0.008401486732983127
-0.01043086665189451   0.0006527942810092462   0.008401486732983127
-0.01043086665189451   0.0006527942810092462   0.008401486732983127
              </DataArray>   
             <DataArray type="Float64" NumberOfComponents="3" Name="Displacements" format="ascii">   
0.0   0.0   0.0
-0.005657454371326296   -0.003710417997012766   -0.0018951020828680291
0.0   0.0   0.0
0.0   0.0   0.0
-0.005657454371326296   -0.003710417997012766   -0.0018951020828680291
-0.0036002029751276182   -0.0033341701742071335   -0.0013923256780783017
0.0   0.0   0.0
-0.0035291894524932753   -0.003501562893390205   -0.0011664219379384285
0.0   0.0   0.0
0.0   0.0   0.0
-0.0035291894524932753   -0.003501562893390205   -0.0011664219379384285
0.0   0.0   0.0
0.0   0.0   0.0
-0.0035291894524932753   -0.003501562893390205   -0.0011664219379384285
-0.005921024795561706   -0.003952981468764112   -0.001521428381745183
-0.005657454371326296   -0.003710417997012766   -0.0018951020828680291
0.0   0.0   0.0
-0.0035291894524932753   -0.003501562893390205   -0.0011664219379384285
-0.005657454371326296   -0.003710417997012766   -0.0018951020828680291
0.0   0.0   0.0
0.0   0.0   0.0
-0.005921024795561706   -0.003952981468764112   -0.001521428381745183
0.0   0.0   0.0
0.0   0.0   0.0
-0.005921024795561706   -0.003952981468764112   -0.001521428381745183
-0.0035291894524932753   -0.003501562893390205   -0.0011664219379384285
0.0   0.0   0.0
-0.003539344428136857   -0.003587323230306956   -0.0009408205744761682
0.0   0.0   0.0
0.0   0.0   0.0
-0.003539344428136857   -0.003587323230306956   -0.0009408205744761682
0.0   0.0   0.0
0.0   0.0   0.0
-0.003539344428136857   -0.003587323230306956   -0.0009408205744761682
-0.006106220473083524   -0.004070923492190183   -0.001163347161672367
-0.005921024795561706   -0.003952981468764112   -0.001521428381745183
0.0   0.0   0.0
-0.003539344428136857   -0.003587323230306956   -0.0009408205744761682
-0.005921024795561706   -0.003952981468764112   -0.001521428381745183
0.0   0.0   0.0
0.0   0.0   0.0
-0.006106220473083524   -0.004070923492190183   -0.001163347161672367
0.0   0.0   0.0
0.0   0.0   0.0
-0.006106220473083524   -0.004070923492190183   -0.001163347161672367
-0.003539344428136857   -0.003587323230306956   -0.0009408205744761682
0.0   0.0   0.0
-0.003537711822524481   -0.0036093283574441526   -0.0007075170578145348
0.0   0.0   0.0
0.0   0.0   0.0
-0.003537711822524481   -0.0036093283574441526   -0.0007075170578145348
0.0   0.0   0.0
0.0   0.0   0.0
-0.003537711822524481   -0.0036093283574441526   -0.0007075170578145348
-0.006504982482989135   -0.004160164779726801   -0.000747893563719456
-0.006106220473083524   -0.004070923492190183   -0.001163347161672367
0.0   0.0   0.0
-0.003537711822524481   -0.0036093283574441526   -0.0007075170578145348
-0.006106220473083524   -0.004070923492190183   -0.001163347161672367
0.0   0.0   0.0
0.0   0.0   0.0
-0.0036002029751276182   -0.0033341701742071335   -0.0013923256780783017
0.0   0.0   0.0
0.0   0.0   0.0
-0.0036002029751276182   -0.0033341701742071335   -0.0013923256780783017
-0.0016393182623533782   -0.0031961376465193575   -0.0010589449471464173
0.0   0.0   0.0
-0.0015768700257757842   -0.0033051149794914737   -0.0009523223334710414
0.0   0.0   0.0
0.0   0.0   0.0
-0.0015768700257757842   -0.0033051149794914737   -0.0009523223334710414
0.0   0.0   0.0
0.0   0.0   0.0
-0.0015768700257757842   -0.0033051149794914737   -0.0009523223334710414
-0.0035291894524932753   -0.003501562893390205   -0.0011664219379384285
-0.0036002029751276182   -0.0033341701742071335   -0.0013923256780783017
0.0   0.0   0.0
-0.0015768700257757842   -0.0033051149794914737   -0.0009523223334710414
-0.0036002029751276182   -0.0033341701742071335   -0.0013923256780783017
0.0   0.0   0.0
0.0   0.0   0.0
-0.0035291894524932753   -0.003501562893390205   -0.0011664219379384285
0.0   0.0   0.0
0.0   0.0   0.0
-0.0035291894524932753   -0.003501562893390205   -0.0011664219379384285
-0.0015768700257757842   -0.0033051149794914737   -0.0009523223334710414
0.0   0.0   0.0
-0.0015418797609498083   -0.0033466448707419813   -0.0008484614230397525
0.0   0.0   0.0
0.0   0.0   0.0
-0.0015418797609498083   -0.0033466448707419813   -0.0008484614230397525
0.0   0.0   0.0
0.0   0.0   0.0
-0.0015418797609498083   -0.0033466448707419813   -0.0008484614230397525
-0.003539344428136857   -0.003587323230306956   -0.0009408205744761682
-0.0035291894524932753   -0.003501562893390205   -0.0011664219379384285
0.0   0.0   0.0
-0.0015418797609498083   -0.0033466448707419813   -0.0008484614230397525
-0.0035291894524932753   -0.003501562893390205   -0.0011664219379384285
0.0   0.0   0.0
0.0   0.0   0.0
-0.003539344428136857   -0.003587323230306956   -0.0009408205744761682
0.0   0.0   0.0
0.0   0.0   0.0
-0.003539344428136857   -0.003587323230306956   -0.0009408205744761682
-0.0015418797609498083   -0.0033466448707419813   -0.0008484614230397525
0.0   0.0   0.0
-0.0015100517594576022   -0.0033292997501590564   -0.0007410644240465848
0.0   0.0   0.0
0.0   0.0   0.0
-0.0015100517594576022   -0.0033292997501590564   -0.0007410644240465848
0.0   0.0   0.0
0.0   0.0   0.0
-0.0015100517594576022   -0.0033292997501590564   -0.0007410644240465848
-0.003537711822524481   -0.0036093283574441526   -0.0007075170578145348
-0.003539344428136857   -0.003587323230306956   -0.0009408205744761682
0.0   0.0   0.0
-0.0015100517594576022   -0.0033292997501590564   -0.0007410644240465848
-0.003539344428136857   -0.003587323230306956   -0.0009408205744761682
0.0   0.0   0.0
0.0   0.0   0.0
-0.0016393182623533782   -0.0031961376465193575   -0.0010589449471464173
0.0   0.0   0.0
0.0   0.0   0.0
-0.0016393182623533782   -0.0031961376465193575   -0.0010589449471464173
0.00021352209533884409   -0.0032137918208268866   -0.0008464591433449492
0.0   0.0   0.0
0.0002532890463706976   -0.0032703006552544343   -0.0008612707147211244
0.0   0.0   0.0
0.0   0.0   0.0
0.0002532890463706976   -0.0032703006552544343   -0.0008612707147211244
0.0   0.0   0.0
0.0   0.0   0.0
0.0002532890463706976   -0.0032703006552544343   -0.0008612707147211244
-0.0015768700257757842   -0.0033051149794914737   -0.0009523223334710414
-0.0016393182623533782   -0.0031961376465193575   -0.0010589449471464173
0.0   0.0   0.0
0.0002532890463706976   -0.0032703006552544343   -0.0008612707147211244
-0.0016393182623533782   -0.0031961376465193575   -0.0010589449471464173
0.0   0.0   0.0
0.0   0.0   0.0
-0.0015768700257757842   -0.0033051149794914737   -0.0009523223334710414
0.0   0.0   0.0
0.0   0.0   0.0
-0.0015768700257757842   -0.0033051149794914737   -0.0009523223334710414
0.0002532890463706976   -0.0032703006552544343   -0.0008612707147211244
0.0   0.0   0.0
0.0002846489407771994   -0.0032656375119853873   -0.0008746303399264998
0.0   0.0   0.0
0.0   0.0   0.0
0.0002846489407771994   -0.0032656375119853873   -0.0008746303399264998
0.0   0.0   0.0
0.0   0.0   0.0
0.0002846489407771994   -0.0032656375119853873   -0.0008746303399264998
-0.0015418797609498083   -0.0033466448707419813   -0.0008484614230397525
-0.0015768700257757842   -0.0033051149794914737   -0.0009523223334710414
0.0   0.0   0.0
0.0002846489407771994   -0.0032656375119853873   -0.0008746303399264998
-0.0015768700257757842   -0.0033051149794914737   -0.0009523223334710414
0.0   0.0   0.0
0.0   0.0   0.0
-0.0015418797609498083   -0.0033466448707419813   -0.0008484614230397525
0.0   0.0   0.0
0.0   0.0   0.0
-0.0015418797609498083   -0.0033466448707419813   -0.0008484614230397525
0.0002846489407771994   -0.0032656375119853873   -0.0008746303399264998
0.0   0.0   0.0
0.0003269108959065523   -0.003194781877201078   -0.0008883373704115747
0.0   0.0   0.0
0.0   0.0   0.0
0.0003269108959065523   -0.003194781877201078   -0.0008883373704115747
0.0   0.0   0.0
0.0   0.0   0.0
0.0003269108959065523   -0.003194781877201078   -0.0008883373704115747
-0.0015100517594576022   -0.0033292997501590564   -0.0007410644240465848
-0.0015418797609498083   -0.0033466448707419813   -0.0008484614230397525
0.0   0.0   0.0
0.0003269108959065523   -0.003194781877201078   -0.0008883373704115747
-0.0015418797609498083   -0.0033466448707419813   -0.0008484614230397525
0.0   0.0   0.0
0.0   0.0   0.0
0.00021352209533884409   -0.0032137918208268866   -0.0008464591433449492
0.0   0.0   0.0
0.0   0.0   0.0
0.00021352209533884409   -0.0032137918208268866   -0.0008464591433449492
0.0022245803807178924   -0.00337034351607592   -0.0007413193687467153
0.0   0.0   0.0
0.0022282482649457454   -0.0033883540856367335   -0.0008839050566956324
0.0   0.0   0.0
0.0   0.0   0.0
0.0022282482649457454   -0.0033883540856367335   -0.0008839050566956324
0.0   0.0   0.0
0.0   0.0   0.0
0.0022282482649457454   -0.0033883540856367335   -0.0008839050566956324
0.0002532890463706976   -0.0032703006552544343   -0.0008612707147211244
0.00021352209533884409   -0.0032137918208268866   -0.0008464591433449492
0.0   0.0   0.0
0.0022282482649457454   -0.0033883540856367335   -0.0008839050566956324
0.00021352209533884409   -0.0032137918208268866   -0.0008464591433449492
0.0   0.0   0.0
0.0   0.0   0.0
0.0002532890463706976   -0.0032703006552544343   -0.0008612707147211244
0.0   0.0   0.0
0.0   0.0   0.0
0.0002532890463706976   -0.0032703006552544343   -0.0008612707147211244
0.0022282482649457454   -0.0033883540856367335   -0.0008839050566956324
0.0   0.0   0.0
0.002218456985415717   -0.0033399676068278346   -0.0010206677527339514
0.0   0.0   0.0
0.0   0.0   0.0
0.002218456985415717   -0.0033399676068278346   -0.0010206677527339514
0.0   0.0   0.0
0.0   0.0   0.0
0.002218456985415717   -0.0033399676068278346   -0.0010206677527339514
0.0002846489407771994   -0.0032656375119853873   -0.0008746303399264998
0.0002532890463706976   -0.0032703006552544343   -0.0008612707147211244
0.0   0.0   0.0
0.002218456985415717   -0.0033399676068278346   -0.0010206677527339514
0.0002532890463706976   -0.0032703006552544343   -0.0008612707147211244
0.0   0.0   0.0
0.0   0.0   0.0
0.0002846489407771994   -0.0032656375119853873   -0.0008746303399264998
0.0   0.0   0.0
0.0   0.0   0.0
0.0002846489407771994   -0.0032656375119853873   -0.0008746303399264998
0.002218456985415717   -0.0033399676068278346   -0.0010206677527339514
0.0   0.0   0.0
0.002261183511961748   -0.0032103485034798655   -0.0011548083876949664
0.0   0.0   0.0
0.0   0.0   0.0
0.002261183511961748   -0.0032103485034798655   -0.0011548083876949664
0.0   0.0   0.0
0.0   0.0   0.0
0.002261183511961748   -0.0032103485034798655   -0.0011548083876949664
0.0003269108959065523   -0.003194781877201078   -0.0008883373704115747
0.0002846489407771994   -0.0032656375119853873   -0.0008746303399264998
0.0   0.0   0.0
0.002261183511961748   -0.0032103485034798655   -0.0011548083876949664
0.0002846489407771994   -0.0032656375119853873   -0.0008746303399264998
0.0   0.0   0.0
0.0   0.0   0.0
0.0022245803807178924   -0.00337034351607592   -0.0007413193687467153
0.0   0.0   0.0
0.0   0.0   0.0
0.0022245803807178924   -0.00337034351607592   -0.0007413193687467153
0.005020786195869488   -0.0037670851748749395   -0.0006993413488721137
0.0   0.0   0.0
0.004714954661692302   -0.0037260093081743764   -0.0010225445359795607
0.0   0.0   0.0
0.0   0.0   0.0
0.004714954661692302   -0.0037260093081743764   -0.0010225445359795607
0.0   0.0   0.0
0.0   0.0   0.0
0.004714954661692302   -0.0037260093081743764   -0.0010225445359795607
0.0022282482649457454   -0.0033883540856367335   -0.0008839050566956324
0.0022245803807178924   -0.00337034351607592   -0.0007413193687467153
0.0   0.0   0.0
0.004714954661692302   -0.0037260093081743764   -0.0010225445359795607
0.0022245803807178924   -0.00337034351607592   -0.0007413193687467153
0.0   0.0   0.0
0.0   0.0   0.0
0.0022282482649457454   -0.0033883540856367335   -0.0008839050566956324
0.0   0.0   0.0
0.0   0.0   0.0
0.0022282482649457454   -0.0033883540856367335   -0.0008839050566956324
0.004714954661692302   -0.0037260093081743764   -0.0010225445359795607
0.0   0.0   0.0
0.004573811486716679   -0.003648540816815152   -0.001295836576678931
0.0   0.0   0.0
0.0   0.0   0.0
0.004573811486716679   -0.003648540816815152   -0.001295836576678931
0.0   0.0   0.0
0.0   0.0   0.0
0.004573811486716679   -0.003648540816815152   -0.001295836576678931
0.002218456985415717   -0.0033399676068278346   -0.0010206677527339514
0.0022282482649457454   -0.0033883540856367335   -0.0008839050566956324
0.0   0.0   0.0
0.004573811486716679   -0.003648540816815152   -0.001295836576678931
0.0022282482649457454   -0.0033883540856367335   -0.0008839050566956324
0.0   0.0   0.0
0.0   0.0   0.0
0.002218456985415717   -0.0033399676068278346   -0.0010206677527339514
0.0   0.0   0.0
0.0   0.0   0.0
0.002218456985415717   -0.0033399676068278346   -0.0010206677527339514
0.004573811486716679   -0.003648540816815152   -0.001295836576678931
0.0   0.0   0.0
0.0043638623487086935   -0.00345028623878708   -0.0015850000185975196
0.0   0.0   0.0
0.0   0.0   0.0
0.0043638623487086935   -0.00345028623878708   -0.0015850000185975196
0.0   0.0   0.0
0.0   0.0   0.0
0.0043638623487086935   -0.00345028623878708   -0.0015850000185975196
0.002261183511961748   -0.0032103485034798655   -0.0011548083876949664
0.002218456985415717   -0.0033399676068278346   -0.0010206677527339514
0.0   0.0   0.0
0.0043638623487086935   -0.00345028623878708   -0.0015850000185975196
0.002218456985415717   -0.0033399676068278346   -0.0010206677527339514
0.0   0.0   0.0
-0.005657454371326296   -0.003710417997012766   -0.0018951020828680291
-0.010568009568650928   -0.010359413525258007   -0.0025531477520086355
-0.0036002029751276182   -0.0033341701742071335   -0.0013923256780783017
-0.005921024795561706   -0.003952981468764112   -0.001521428381745183
-0.010568009568650928   -0.010359413525258007   -0.0025531477520086355
-0.006745201808141694   -0.010020990946668066   -0.0021014283444408697
-0.0036002029751276182   -0.0033341701742071335   -0.0013923256780783017
-0.00675343847119955   -0.010192279392970207   -0.0018924617884192988
-0.005921024795561706   -0.003952981468764112   -0.001521428381745183
-0.0035291894524932753   -0.003501562893390205   -0.0011664219379384285
-0.00675343847119955   -0.010192279392970207   -0.0018924617884192988
-0.0036002029751276182   -0.0033341701742071335   -0.0013923256780783017
-0.005921024795561706   -0.003952981468764112   -0.001521428381745183
-0.00675343847119955   -0.010192279392970207   -0.0018924617884192988
-0.010884990016690464   -0.010598400298485012   -0.00221377943763443
-0.010568009568650928   -0.010359413525258007   -0.0025531477520086355
-0.005921024795561706   -0.003952981468764112   -0.001521428381745183
-0.00675343847119955   -0.010192279392970207   -0.0018924617884192988
-0.010568009568650928   -0.010359413525258007   -0.0025531477520086355
-0.0036002029751276182   -0.0033341701742071335   -0.0013923256780783017
-0.005921024795561706   -0.003952981468764112   -0.001521428381745183
-0.010884990016690464   -0.010598400298485012   -0.00221377943763443
-0.0035291894524932753   -0.003501562893390205   -0.0011664219379384285
-0.006106220473083524   -0.004070923492190183   -0.001163347161672367
-0.010884990016690464   -0.010598400298485012   -0.00221377943763443
-0.00675343847119955   -0.010192279392970207   -0.0018924617884192988
-0.0035291894524932753   -0.003501562893390205   -0.0011664219379384285
-0.006780323929068511   -0.010296674137223344   -0.001691636221706318
-0.006106220473083524   -0.004070923492190183   -0.001163347161672367
-0.003539344428136857   -0.003587323230306956   -0.0009408205744761682
-0.006780323929068511   -0.010296674137223344   -0.001691636221706318
-0.0035291894524932753   -0.003501562893390205   -0.0011664219379384285
-0.006106220473083524   -0.004070923492190183   -0.001163347161672367
-0.006780323929068511   -0.010296674137223344   -0.001691636221706318
-0.011105338535717234   -0.010733346713570246   -0.0018814560430906679
-0.010884990016690464   -0.010598400298485012   -0.00221377943763443
-0.006106220473083524   -0.004070923492190183   -0.001163347161672367
-0.006780323929068511   -0.010296674137223344   -0.001691636221706318
-0.010884990016690464   -0.010598400298485012   -0.00221377943763443
-0.0035291894524932753   -0.003501562893390205   -0.0011664219379384285
-0.006106220473083524   -0.004070923492190183   -0.001163347161672367
-0.011105338535717234   -0.010733346713570246   -0.0018814560430906679
-0.003539344428136857   -0.003587323230306956   -0.0009408205744761682
-0.006504982482989135   -0.004160164779726801   -0.000747893563719456
-0.011105338535717234   -0.010733346713570246   -0.0018814560430906679
-0.006780323929068511   -0.010296674137223344   -0.001691636221706318
-0.003539344428136857   -0.003587323230306956   -0.0009408205744761682
-0.006760421927994121   -0.01035080809483104   -0.0015036394064420857
-0.006504982482989135   -0.004160164779726801   -0.000747893563719456
-0.003537711822524481   -0.0036093283574441526   -0.0007075170578145348
-0.006760421927994121   -0.01035080809483104   -0.0015036394064420857
-0.003539344428136857   -0.003587323230306956   -0.0009408205744761682
-0.006504982482989135   -0.004160164779726801   -0.000747893563719456
-0.006760421927994121   -0.01035080809483104   -0.0015036394064420857
-0.011365793978022808   -0.010811740604480674   -0.0015790652849818527
-0.011105338535717234   -0.010733346713570246   -0.0018814560430906679
-0.006504982482989135   -0.004160164779726801   -0.000747893563719456
-0.006760421927994121   -0.01035080809483104   -0.0015036394064420857
-0.011105338535717234   -0.010733346713570246   -0.0018814560430906679
-0.003539344428136857   -0.003587323230306956   -0.0009408205744761682
-0.0036002029751276182   -0.0033341701742071335   -0.0013923256780783017
-0.006745201808141694   -0.010020990946668066   -0.0021014283444408697
-0.0016393182623533782   -0.0031961376465193575   -0.0010589449471464173
-0.0035291894524932753   -0.003501562893390205   -0.0011664219379384285
-0.006745201808141694   -0.010020990946668066   -0.0021014283444408697
-0.003129290604022373   -0.00986351988515277   -0.0017930466300588182
-0.0016393182623533782   -0.0031961376465193575   -0.0010589449471464173
-0.0031025692044388932   -0.009972553838398302   -0.0016859873624330496
-0.0035291894524932753   -0.003501562893390205   -0.0011664219379384285
-0.0015768700257757842   -0.0033051149794914737   -0.0009523223334710414
-0.0031025692044388932   -0.009972553838398302   -0.0016859873624330496
-0.0016393182623533782   -0.0031961376465193575   -0.0010589449471464173
-0.0035291894524932753   -0.003501562893390205   -0.0011664219379384285
-0.0031025692044388932   -0.009972553838398302   -0.0016859873624330496
-0.00675343847119955   -0.010192279392970207   -0.0018924617884192988
-0.006745201808141694   -0.010020990946668066   -0.0021014283444408697
-0.0035291894524932753   -0.003501562893390205   -0.0011664219379384285
-0.0031025692044388932   -0.009972553838398302   -0.0016859873624330496
-0.006745201808141694   -0.010020990946668066   -0.0021014283444408697
-0.0016393182623533782   -0.0031961376465193575   -0.0010589449471464173
-0.0035291894524932753   -0.003501562893390205   -0.0011664219379384285
-0.00675343847119955   -0.010192279392970207   -0.0018924617884192988
-0.0015768700257757842   -0.0033051149794914737   -0.0009523223334710414
-0.003539344428136857   -0.003587323230306956   -0.0009408205744761682
-0.00675343847119955   -0.010192279392970207   -0.0018924617884192988
-0.0031025692044388932   -0.009972553838398302   -0.0016859873624330496
-0.0015768700257757842   -0.0033051149794914737   -0.0009523223334710414
-0.0030789208234700653   -0.010025426566395206   -0.001588924656154852
-0.003539344428136857   -0.003587323230306956   -0.0009408205744761682
-0.0015418797609498083   -0.0033466448707419813   -0.0008484614230397525
-0.0030789208234700653   -0.010025426566395206   -0.001588924656154852
-0.0015768700257757842   -0.0033051149794914737   -0.0009523223334710414
-0.003539344428136857   -0.003587323230306956   -0.0009408205744761682
-0.0030789208234700653   -0.010025426566395206   -0.001588924656154852
-0.006780323929068511   -0.010296674137223344   -0.001691636221706318
-0.00675343847119955   -0.010192279392970207   -0.0018924617884192988
-0.003539344428136857   -0.003587323230306956   -0.0009408205744761682
-0.0030789208234700653   -0.010025426566395206   -0.001588924656154852
-0.00675343847119955   -0.010192279392970207   -0.0018924617884192988
-0.0015768700257757842   -0.0033051149794914737   -0.0009523223334710414
-0.003539344428136857   -0.003587323230306956   -0.0009408205744761682
-0.006780323929068511   -0.010296674137223344   -0.001691636221706318
-0.0015418797609498083   -0.0033466448707419813   -0.0008484614230397525
-0.003537711822524481   -0.0036093283574441526   -0.0007075170578145348
-0.006780323929068511   -0.010296674137223344   -0.001691636221706318
-0.0030789208234700653   -0.010025426566395206   -0.001588924656154852
-0.0015418797609498083   -0.0033466448707419813   -0.0008484614230397525
-0.0030435015905859045   -0.010024131774992333   -0.0015044066487414599
-0.003537711822524481   -0.0036093283574441526   -0.0007075170578145348
-0.0015100517594576022   -0.0033292997501590564   -0.0007410644240465848
-0.0030435015905859045   -0.010024131774992333   -0.0015044066487414599
-0.0015418797609498083   -0.0033466448707419813   -0.0008484614230397525
-0.003537711822524481   -0.0036093283574441526   -0.0007075170578145348
-0.0030435015905859045   -0.010024131774992333   -0.0015044066487414599
-0.006760421927994121   -0.01035080809483104   -0.0015036394064420857
-0.006780323929068511   -0.010296674137223344   -0.001691636221706318
-0.003537711822524481   -0.0036093283574441526   -0.0007075170578145348
-0.0030435015905859045   -0.010024131774992333   -0.0015044066487414599
-0.006780323929068511   -0.010296674137223344   -0.001691636221706318
-0.0015418797609498083   -0.0033466448707419813   -0.0008484614230397525
-0.0016393182623533782   -0.0031961376465193575   -0.0010589449471464173
-0.003129290604022373   -0.00986351988515277   -0.0017930466300588182
0.00021352209533884409   -0.0032137918208268866   -0.0008464591433449492
-0.0015768700257757842   -0.0033051149794914737   -0.0009523223334710414
-0.003129290604022373   -0.00986351988515277   -0.0017930466300588182
0.0003577212729633205   -0.009868191840172348   -0.0015980380530031904
0.00021352209533884409   -0.0032137918208268866   -0.0008464591433449492
0.0003906136314241044   -0.00991987087254592   -0.001591000220712051
-0.0015768700257757842   -0.0033051149794914737   -0.0009523223334710414
0.0002532890463706976   -0.0032703006552544343   -0.0008612707147211244
0.0003906136314241044   -0.00991987087254592   -0.001591000220712051
0.00021352209533884409   -0.0032137918208268866   -0.0008464591433449492
-0.0015768700257757842   -0.0033051149794914737   -0.0009523223334710414
0.0003906136314241044   -0.00991987087254592   -0.001591000220712051
-0.0031025692044388932   -0.009972553838398302   -0.0016859873624330496
-0.003129290604022373   -0.00986351988515277   -0.0017930466300588182
-0.0015768700257757842   -0.0033051149794914737   -0.0009523223334710414
0.0003906136314241044   -0.00991987087254592   -0.001591000220712051
-0.003129290604022373   -0.00986351988515277   -0.0017930466300588182
0.00021352209533884409   -0.0032137918208268866   -0.0008464591433449492
-0.0015768700257757842   -0.0033051149794914737   -0.0009523223334710414
-0.0031025692044388932   -0.009972553838398302   -0.0016859873624330496
0.0002532890463706976   -0.0032703006552544343   -0.0008612707147211244
-0.0015418797609498083   -0.0033466448707419813   -0.0008484614230397525
-0.0031025692044388932   -0.009972553838398302   -0.0016859873624330496
0.0003906136314241044   -0.00991987087254592   -0.001591000220712051
0.0002532890463706976   -0.0032703006552544343   -0.0008612707147211244
0.0004126577168889096   -0.009916706152590105   -0.0015953093764246515
-0.0015418797609498083   -0.0033466448707419813   -0.0008484614230397525
0.0002846489407771994   -0.0032656375119853873   -0.0008746303399264998
0.0004126577168889096   -0.009916706152590105   -0.0015953093764246515
0.0002532890463706976   -0.0032703006552544343   -0.0008612707147211244
-0.0015418797609498083   -0.0033466448707419813   -0.0008484614230397525
0.0004126577168889096   -0.009916706152590105   -0.0015953093764246515
-0.0030789208234700653   -0.010025426566395206   -0.001588924656154852
-0.0031025692044388932   -0.009972553838398302   -0.0016859873624330496
-0.0015418797609498083   -0.0033466448707419813   -0.0008484614230397525
0.0004126577168889096   -0.009916706152590105   -0.0015953093764246515
-0.0031025692044388932   -0.009972553838398302   -0.0016859873624330496
0.0002532890463706976   -0.0032703006552544343   -0.0008612707147211244
-0.0015418797609498083   -0.0033466448707419813   -0.0008484614230397525
-0.0030789208234700653   -0.010025426566395206   -0.001588924656154852
0.0002846489407771994   -0.0032656375119853873   -0.0008746303399264998
-0.0015100517594576022   -0.0033292997501590564   -0.0007410644240465848
-0.0030789208234700653   -0.010025426566395206   -0.001588924656154852
0.0004126577168889096   -0.009916706152590105   -0.0015953093764246515
0.0002846489407771994   -0.0032656375119853873   -0.0008746303399264998
0.0004363283085909262   -0.009857022759294204   -0.0016111452887882626
-0.0015100517594576022   -0.0033292997501590564   -0.0007410644240465848
0.0003269108959065523   -0.003194781877201078   -0.0008883373704115747
0.0004363283085909262   -0.009857022759294204   -0.0016111452887882626
0.0002846489407771994   -0.0032656375119853873   -0.0008746303399264998
-0.0015100517594576022   -0.0033292997501590564   -0.0007410644240465848
0.0004363283085909262   -0.009857022759294204   -0.0016111452887882626
-0.0030435015905859045   -0.010024131774992333   -0.0015044066487414599
-0.0030789208234700653   -0.010025426566395206   -0.001588924656154852
-0.0015100517594576022   -0.0033292997501590564   -0.0007410644240465848
0.0004363283085909262   -0.009857022759294204   -0.0016111452887882626
-0.0030789208234700653   -0.010025426566395206   -0.001588924656154852
0.0002846489407771994   -0.0032656375119853873   -0.0008746303399264998
0.00021352209533884409   -0.0032137918208268866   -0.0008464591433449492
0.0003577212729633205   -0.009868191840172348   -0.0015980380530031904
0.0022245803807178924   -0.00337034351607592   -0.0007413193687467153
0.0002532890463706976   -0.0032703006552544343   -0.0008612707147211244
0.0003577212729633205   -0.009868191840172348   -0.0015980380530031904
0.0040528244788302645   -0.010029148742326592   -0.0015070103573860023
0.0022245803807178924   -0.00337034351607592   -0.0007413193687467153
0.004071296099547364   -0.010028727018844495   -0.0016032394075653769
0.0002532890463706976   -0.0032703006552544343   -0.0008612707147211244
0.0022282482649457454   -0.0033883540856367335   -0.0008839050566956324
0.004071296099547364   -0.010028727018844495   -0.0016032394075653769
0.0022245803807178924   -0.00337034351607592   -0.0007413193687467153
0.0002532890463706976   -0.0032703006552544343   -0.0008612707147211244
0.004071296099547364   -0.010028727018844495   -0.0016032394075653769
0.0003906136314241044   -0.00991987087254592   -0.001591000220712051
0.0003577212729633205   -0.009868191840172348   -0.0015980380530031904
0.0002532890463706976   -0.0032703006552544343   -0.0008612707147211244
0.004071296099547364   -0.010028727018844495   -0.0016032394075653769
0.0003577212729633205   -0.009868191840172348   -0.0015980380530031904
0.0022245803807178924   -0.00337034351607592   -0.0007413193687467153
0.0002532890463706976   -0.0032703006552544343   -0.0008612707147211244
0.0003906136314241044   -0.00991987087254592   -0.001591000220712051
0.0022282482649457454   -0.0033883540856367335   -0.0008839050566956324
0.0002846489407771994   -0.0032656375119853873   -0.0008746303399264998
0.0003906136314241044   -0.00991987087254592   -0.001591000220712051
0.004071296099547364   -0.010028727018844495   -0.0016032394075653769
0.0022282482649457454   -0.0033883540856367335   -0.0008839050566956324
0.004052202537654913   -0.009974519619091664   -0.0017123065514699498
0.0002846489407771994   -0.0032656375119853873   -0.0008746303399264998
0.002218456985415717   -0.0033399676068278346   -0.0010206677527339514
0.004052202537654913   -0.009974519619091664   -0.0017123065514699498
0.0022282482649457454   -0.0033883540856367335   -0.0008839050566956324
0.0002846489407771994   -0.0032656375119853873   -0.0008746303399264998
0.004052202537654913   -0.009974519619091664   -0.0017123065514699498
0.0004126577168889096   -0.009916706152590105   -0.0015953093764246515
0.0003906136314241044   -0.00991987087254592   -0.001591000220712051
0.0002846489407771994   -0.0032656375119853873   -0.0008746303399264998
0.004052202537654913   -0.009974519619091664   -0.0017123065514699498
0.0003906136314241044   -0.00991987087254592   -0.001591000220712051
0.0022282482649457454   -0.0033883540856367335   -0.0008839050566956324
0.0002846489407771994   -0.0032656375119853873   -0.0008746303399264998
0.0004126577168889096   -0.009916706152590105   -0.0015953093764246515
0.002218456985415717   -0.0033399676068278346   -0.0010206677527339514
0.0003269108959065523   -0.003194781877201078   -0.0008883373704115747
0.0004126577168889096   -0.009916706152590105   -0.0015953093764246515
0.004052202537654913   -0.009974519619091664   -0.0017123065514699498
0.002218456985415717   -0.0033399676068278346   -0.0010206677527339514
0.004041159120562009   -0.00985169345538846   -0.0018301774416422934
0.0003269108959065523   -0.003194781877201078   -0.0008883373704115747
0.002261183511961748   -0.0032103485034798655   -0.0011548083876949664
0.004041159120562009   -0.00985169345538846   -0.0018301774416422934
0.002218456985415717   -0.0033399676068278346   -0.0010206677527339514
0.0003269108959065523   -0.003194781877201078   -0.0008883373704115747
0.004041159120562009   -0.00985169345538846   -0.0018301774416422934
0.0004363283085909262   -0.009857022759294204   -0.0016111452887882626
0.0004126577168889096   -0.009916706152590105   -0.0015953093764246515
0.0003269108959065523   -0.003194781877201078   -0.0008883373704115747
0.004041159120562009   -0.00985169345538846   -0.0018301774416422934
0.0004126577168889096   -0.009916706152590105   -0.0015953093764246515
0.002218456985415717   -0.0033399676068278346   -0.0010206677527339514
0.0022245803807178924   -0.00337034351607592   -0.0007413193687467153
0.0040528244788302645   -0.010029148742326592   -0.0015070103573860023
0.005020786195869488   -0.0037670851748749395   -0.0006993413488721137
0.0022282482649457454   -0.0033883540856367335   -0.0008839050566956324
0.0040528244788302645   -0.010029148742326592   -0.0015070103573860023
0.00851139777258415   -0.01032837703651718   -0.001482424573164025
0.005020786195869488   -0.0037670851748749395   -0.0006993413488721137
0.008337840053303099   -0.010300250439508045   -0.0016988787232917778
0.0022282482649457454   -0.0033883540856367335   -0.0008839050566956324
0.004714954661692302   -0.0037260093081743764   -0.0010225445359795607
0.008337840053303099   -0.010300250439508045   -0.0016988787232917778
0.005020786195869488   -0.0037670851748749395   -0.0006993413488721137
0.0022282482649457454   -0.0033883540856367335   -0.0008839050566956324
0.008337840053303099   -0.010300250439508045   -0.0016988787232917778
0.004071296099547364   -0.010028727018844495   -0.0016032394075653769
0.0040528244788302645   -0.010029148742326592   -0.0015070103573860023
0.0022282482649457454   -0.0033883540856367335   -0.0008839050566956324
0.008337840053303099   -0.010300250439508045   -0.0016988787232917778
0.0040528244788302645   -0.010029148742326592   -0.0015070103573860023
0.005020786195869488   -0.0037670851748749395   -0.0006993413488721137
0.0022282482649457454   -0.0033883540856367335   -0.0008839050566956324
0.004071296099547364   -0.010028727018844495   -0.0016032394075653769
0.004714954661692302   -0.0037260093081743764   -0.0010225445359795607
0.002218456985415717   -0.0033399676068278346   -0.0010206677527339514
0.004071296099547364   -0.010028727018844495   -0.0016032394075653769
0.008337840053303099   -0.010300250439508045   -0.0016988787232917778
0.004714954661692302   -0.0037260093081743764   -0.0010225445359795607
0.008182768377417004   -0.010216667529206675   -0.0019423482494710846
0.002218456985415717   -0.0033399676068278346   -0.0010206677527339514
0.004573811486716679   -0.003648540816815152   -0.001295836576678931
0.008182768377417004   -0.010216667529206675   -0.0019423482494710846
0.004714954661692302   -0.0037260093081743764   -0.0010225445359795607
0.002218456985415717   -0.0033399676068278346   -0.0010206677527339514
0.008182768377417004   -0.010216667529206675   -0.0019423482494710846
0.004052202537654913   -0.009974519619091664   -0.0017123065514699498
0.004071296099547364   -0.010028727018844495   -0.0016032394075653769
0.002218456985415717   -0.0033399676068278346   -0.0010206677527339514
0.008182768377417004   -0.010216667529206675   -0.0019423482494710846
0.004071296099547364   -0.010028727018844495   -0.0016032394075653769
0.004714954661692302   -0.0037260093081743764   -0.0010225445359795607
0.002218456985415717   -0.0033399676068278346   -0.0010206677527339514
0.004052202537654913   -0.009974519619091664   -0.0017123065514699498
0.004573811486716679   -0.003648540816815152   -0.001295836576678931
0.002261183511961748   -0.0032103485034798655   -0.0011548083876949664
0.004052202537654913   -0.009974519619091664   -0.0017123065514699498
0.008182768377417004   -0.010216667529206675   -0.0019423482494710846
0.004573811486716679   -0.003648540816815152   -0.001295836576678931
0.007950567626051494   -0.01003062056772316   -0.0021957687000877853
0.002261183511961748   -0.0032103485034798655   -0.0011548083876949664
0.0043638623487086935   -0.00345028623878708   -0.0015850000185975196
0.007950567626051494   -0.01003062056772316   -0.0021957687000877853
0.004573811486716679   -0.003648540816815152   -0.001295836576678931
0.002261183511961748   -0.0032103485034798655   -0.0011548083876949664
0.007950567626051494   -0.01003062056772316   -0.0021957687000877853
0.004041159120562009   -0.00985169345538846   -0.0018301774416422934
0.004052202537654913   -0.009974519619091664   -0.0017123065514699498
0.002261183511961748   -0.0032103485034798655   -0.0011548083876949664
0.007950567626051494   -0.01003062056772316   -0.0021957687000877853
0.004052202537654913   -0.009974519619091664   -0.0017123065514699498
0.004573811486716679   -0.003648540816815152   -0.001295836576678931
-0.010568009568650928   -0.010359413525258007   -0.0025531477520086355
-0.014481282327756776   -0.019430666269310396   -0.0029078817778069505
-0.006745201808141694   -0.010020990946668066   -0.0021014283444408697
-0.010884990016690464   -0.010598400298485012   -0.00221377943763443
-0.014481282327756776   -0.019430666269310396   -0.0029078817778069505
-0.009310330347501524   -0.019171995940643814   -0.0025414346445880634
-0.006745201808141694   -0.010020990946668066   -0.0021014283444408697
-0.00933105158393927   -0.019319867539102302   -0.0023792816926256027
-0.010884990016690464   -0.010598400298485012   -0.00221377943763443
-0.00675343847119955   -0.010192279392970207   -0.0018924617884192988
-0.00933105158393927   -0.019319867539102302   -0.0023792816926256027
-0.006745201808141694   -0.010020990946668066   -0.0021014283444408697
-0.010884990016690464   -0.010598400298485012   -0.00221377943763443
-0.00933105158393927   -0.019319867539102302   -0.0023792816926256027
-0.014739211533885273   -0.01963274046136205   -0.0026547286261185657
-0.014481282327756776   -0.019430666269310396   -0.0029078817778069505
-0.010884990016690464   -0.010598400298485012   -0.00221377943763443
-0.00933105158393927   -0.019319867539102302   -0.0023792816926256027
-0.014481282327756776   -0.019430666269310396   -0.0029078817778069505
-0.006745201808141694   -0.010020990946668066   -0.0021014283444408697
-0.010884990016690464   -0.010598400298485012   -0.00221377943763443
-0.014739211533885273   -0.01963274046136205   -0.0026547286261185657
-0.00675343847119955   -0.010192279392970207   -0.0018924617884192988
-0.011105338535717234   -0.010733346713570246   -0.0018814560430906679
-0.014739211533885273   -0.01963274046136205   -0.0026547286261185657
-0.00933105158393927   -0.019319867539102302   -0.0023792816926256027
-0.00675343847119955   -0.010192279392970207   -0.0018924617884192988
-0.009355414943502977   -0.019422755062198347   -0.0022288529540057476
-0.011105338535717234   -0.010733346713570246   -0.0018814560430906679
-0.006780323929068511   -0.010296674137223344   -0.001691636221706318
-0.009355414943502977   -0.019422755062198347   -0.0022288529540057476
-0.00675343847119955   -0.010192279392970207   -0.0018924617884192988
-0.011105338535717234   -0.010733346713570246   -0.0018814560430906679
-0.009355414943502977   -0.019422755062198347   -0.0022288529540057476
-0.014901954427215532   -0.019759434807184287   -0.0024187625575018174
-0.014739211533885273   -0.01963274046136205   -0.0026547286261185657
-0.011105338535717234   -0.010733346713570246   -0.0018814560430906679
-0.009355414943502977   -0.019422755062198347   -0.0022288529540057476
-0.014739211533885273   -0.01963274046136205   -0.0026547286261185657
-0.00675343847119955   -0.010192279392970207   -0.0018924617884192988
-0.011105338535717234   -0.010733346713570246   -0.0018814560430906679
-0.014901954427215532   -0.019759434807184287   -0.0024187625575018174
-0.006780323929068511   -0.010296674137223344   -0.001691636221706318
-0.011365793978022808   -0.010811740604480674   -0.0015790652849818527
-0.014901954427215532   -0.019759434807184287   -0.0024187625575018174
-0.009355414943502977   -0.019422755062198347   -0.0022288529540057476
-0.006780323929068511   -0.010296674137223344   -0.001691636221706318
-0.009338203188104056   -0.019490417829691985   -0.002087651367977156
-0.011365793978022808   -0.010811740604480674   -0.0015790652849818527
-0.006760421927994121   -0.01035080809483104   -0.0015036394064420857
-0.009338203188104056   -0.019490417829691985   -0.002087651367977156
-0.006780323929068511   -0.010296674137223344   -0.001691636221706318
-0.011365793978022808   -0.010811740604480674   -0.0015790652849818527
-0.009338203188104056   -0.019490417829691985   -0.002087651367977156
-0.01508712309799237   -0.019850506047146013   -0.002201590599619383
-0.014901954427215532   -0.019759434807184287   -0.0024187625575018174
-0.011365793978022808   -0.010811740604480674   -0.0015790652849818527
-0.009338203188104056   -0.019490417829691985   -0.002087651367977156
-0.014901954427215532   -0.019759434807184287   -0.0024187625575018174
-0.006780323929068511   -0.010296674137223344   -0.001691636221706318
-0.006745201808141694   -0.010020990946668066   -0.0021014283444408697
-0.009310330347501524   -0.019171995940643814   -0.0025414346445880634
-0.003129290604022373   -0.00986351988515277   -0.0017930466300588182
-0.00675343847119955   -0.010192279392970207   -0.0018924617884192988
-0.009310330347501524   -0.019171995940643814   -0.0025414346445880634
-0.004434436758186473   -0.019043045602981534   -0.002286832920498486
-0.003129290604022373   -0.00986351988515277   -0.0017930466300588182
-0.004423639723081638   -0.01913761590878485   -0.002195218046838171
-0.00675343847119955   -0.010192279392970207   -0.0018924617884192988
-0.0031025692044388932   -0.009972553838398302   -0.0016859873624330496
-0.004423639723081638   -0.01913761590878485   -0.002195218046838171
-0.003129290604022373   -0.00986351988515277   -0.0017930466300588182
-0.00675343847119955   -0.010192279392970207   -0.0018924617884192988
-0.004423639723081638   -0.01913761590878485   -0.002195218046838171
-0.00933105158393927   -0.019319867539102302   -0.0023792816926256027
-0.009310330347501524   -0.019171995940643814   -0.0025414346445880634
-0.00675343847119955   -0.010192279392970207   -0.0018924617884192988
-0.004423639723081638   -0.01913761590878485   -0.002195218046838171
-0.009310330347501524   -0.019171995940643814   -0.0025414346445880634
-0.003129290604022373   -0.00986351988515277   -0.0017930466300588182
-0.00675343847119955   -0.010192279392970207   -0.0018924617884192988
-0.00933105158393927   -0.019319867539102302   -0.0023792816926256027
-0.0031025692044388932   -0.009972553838398302   -0.0016859873624330496
-0.006780323929068511   -0.010296674137223344   -0.001691636221706318
-0.00933105158393927   -0.019319867539102302   -0.0023792816926256027
-0.004423639723081638   -0.01913761590878485   -0.002195218046838171
-0.0031025692044388932   -0.009972553838398302   -0.0016859873624330496
-0.004410342942589458   -0.019193159100265183   -0.0021147690858996605
-0.006780323929068511   -0.010296674137223344   -0.001691636221706318
-0.0030789208234700653   -0.010025426566395206   -0.001588924656154852
-0.004410342942589458   -0.019193159100265183   -0.0021147690858996605
-0.0031025692044388932   -0.009972553838398302   -0.0016859873624330496
-0.006780323929068511   -0.010296674137223344   -0.001691636221706318
-0.004410342942589458   -0.019193159100265183   -0.0021147690858996605
-0.009355414943502977   -0.019422755062198347   -0.0022288529540057476
-0.00933105158393927   -0.019319867539102302   -0.0023792816926256027
-0.006780323929068511   -0.010296674137223344   -0.001691636221706318
-0.004410342942589458   -0.019193159100265183   -0.0021147690858996605
-0.00933105158393927   -0.019319867539102302   -0.0023792816926256027
-0.0031025692044388932   -0.009972553838398302   -0.0016859873624330496
-0.006780323929068511   -0.010296674137223344   -0.001691636221706318
-0.009355414943502977   -0.019422755062198347   -0.0022288529540057476
-0.0030789208234700653   -0.010025426566395206   -0.001588924656154852
-0.006760421927994121   -0.01035080809483104   -0.0015036394064420857
-0.009355414943502977   -0.019422755062198347   -0.0022288529540057476
-0.004410342942589458   -0.019193159100265183   -0.0021147690858996605
-0.0030789208234700653   -0.010025426566395206   -0.001588924656154852
-0.0043882917020744185   -0.019210469281682387   -0.0020454519598749133
-0.006760421927994121   -0.01035080809483104   -0.0015036394064420857
-0.0030435015905859045   -0.010024131774992333   -0.0015044066487414599
-0.0043882917020744185   -0.019210469281682387   -0.0020454519598749133
-0.0030789208234700653   -0.010025426566395206   -0.001588924656154852
-0.006760421927994121   -0.01035080809483104   -0.0015036394064420857
-0.0043882917020744185   -0.019210469281682387   -0.0020454519598749133
-0.009338203188104056   -0.019490417829691985   -0.002087651367977156
-0.009355414943502977   -0.019422755062198347   -0.0022288529540057476
-0.006760421927994121   -0.01035080809483104   -0.0015036394064420857
-0.0043882917020744185   -0.019210469281682387   -0.0020454519598749133
-0.009355414943502977   -0.019422755062198347   -0.0022288529540057476
-0.0030789208234700653   -0.010025426566395206   -0.001588924656154852
-0.003129290604022373   -0.00986351988515277   -0.0017930466300588182
-0.004434436758186473   -0.019043045602981534   -0.002286832920498486
0.0003577212729633205   -0.009868191840172348   -0.0015980380530031904
-0.0031025692044388932   -0.009972553838398302   -0.0016859873624330496
-0.004434436758186473   -0.019043045602981534   -0.002286832920498486
0.0002983847598458566   -0.019036186284795583   -0.002128937276033636
0.0003577212729633205   -0.009868191840172348   -0.0015980380530031904
0.000318490786474629   -0.0190782977883642   -0.00210748071804631
-0.0031025692044388932   -0.009972553838398302   -0.0016859873624330496
0.0003906136314241044   -0.00991987087254592   -0.001591000220712051
0.000318490786474629   -0.0190782977883642   -0.00210748071804631
0.0003577212729633205   -0.009868191840172348   -0.0015980380530031904
-0.0031025692044388932   -0.009972553838398302   -0.0016859873624330496
0.000318490786474629   -0.0190782977883642   -0.00210748071804631
-0.004423639723081638   -0.01913761590878485   -0.002195218046838171
-0.004434436758186473   -0.019043045602981534   -0.002286832920498486
-0.0031025692044388932   -0.009972553838398302   -0.0016859873624330496
0.000318490786474629   -0.0190782977883642   -0.00210748071804631
-0.004434436758186473   -0.019043045602981534   -0.002286832920498486
0.0003577212729633205   -0.009868191840172348   -0.0015980380530031904
-0.0031025692044388932   -0.009972553838398302   -0.0016859873624330496
-0.004423639723081638   -0.01913761590878485   -0.002195218046838171
0.0003906136314241044   -0.00991987087254592   -0.001591000220712051
-0.0030789208234700653   -0.010025426566395206   -0.001588924656154852
-0.004423639723081638   -0.01913761590878485   -0.002195218046838171
0.000318490786474629   -0.0190782977883642   -0.00210748071804631
0.0003906136314241044   -0.00991987087254592   -0.001591000220712051
0.0003312704665884159   -0.019081539393917806   -0.0020968974261892414
-0.0030789208234700653   -0.010025426566395206   -0.001588924656154852
0.0004126577168889096   -0.009916706152590105   -0.0015953093764246515
0.0003312704665884159   -0.019081539393917806   -0.0020968974261892414
0.0003906136314241044   -0.00991987087254592   -0.001591000220712051
-0.0030789208234700653   -0.010025426566395206   -0.001588924656154852
0.0003312704665884159   -0.019081539393917806   -0.0020968974261892414
-0.004410342942589458   -0.019193159100265183   -0.0021147690858996605
-0.004423639723081638   -0.01913761590878485   -0.002195218046838171
-0.0030789208234700653   -0.010025426566395206   -0.001588924656154852
0.0003312704665884159   -0.019081539393917806   -0.0020968974261892414
-0.004423639723081638   -0.01913761590878485   -0.002195218046838171
0.0003906136314241044   -0.00991987087254592   -0.001591000220712051
-0.0030789208234700653   -0.010025426566395206   -0.001588924656154852
-0.004410342942589458   -0.019193159100265183   -0.0021147690858996605
0.0004126577168889096   -0.009916706152590105   -0.0015953093764246515
-0.0030435015905859045   -0.010024131774992333   -0.0015044066487414599
-0.004410342942589458   -0.019193159100265183   -0.0021147690858996605
0.0003312704665884159   -0.019081539393917806   -0.0020968974261892414
0.0004126577168889096   -0.009916706152590105   -0.0015953093764246515
0.00034042607541039343   -0.019045331202247773   -0.0020978492760533006
-0.0030435015905859045   -0.010024131774992333   -0.0015044066487414599
0.0004363283085909262   -0.009857022759294204   -0.0016111452887882626
0.00034042607541039343   -0.019045331202247773   -0.0020978492760533006
0.0004126577168889096   -0.009916706152590105   -0.0015953093764246515
-0.0030435015905859045   -0.010024131774992333   -0.0015044066487414599
0.00034042607541039343   -0.019045331202247773   -0.0020978492760533006
-0.0043882917020744185   -0.019210469281682387   -0.0020454519598749133
-0.004410342942589458   -0.019193159100265183   -0.0021147690858996605
-0.0030435015905859045   -0.010024131774992333   -0.0015044066487414599
0.00034042607541039343   -0.019045331202247773   -0.0020978492760533006
-0.004410342942589458   -0.019193159100265183   -0.0021147690858996605
0.0004126577168889096   -0.009916706152590105   -0.0015953093764246515
0.0003577212729633205   -0.009868191840172348   -0.0015980380530031904
0.0002983847598458566   -0.019036186284795583   -0.002128937276033636
0.0040528244788302645   -0.010029148742326592   -0.0015070103573860023
0.0003906136314241044   -0.00991987087254592   -0.001591000220712051
0.0002983847598458566   -0.019036186284795583   -0.002128937276033636
0.00523312210371699   -0.019144163260805345   -0.002065041662997216
0.0040528244788302645   -0.010029148742326592   -0.0015070103573860023
0.005250616069255348   -0.019138201370709203   -0.0021152027223180995
0.0003906136314241044   -0.00991987087254592   -0.001591000220712051
0.004071296099547364   -0.010028727018844495   -0.0016032394075653769
0.005250616069255348   -0.019138201370709203   -0.0021152027223180995
0.0040528244788302645   -0.010029148742326592   -0.0015070103573860023
0.0003906136314241044   -0.00991987087254592   -0.001591000220712051
0.005250616069255348   -0.019138201370709203   -0.0021152027223180995
0.000318490786474629   -0.0190782977883642   -0.00210748071804631
0.0002983847598458566   -0.019036186284795583   -0.002128937276033636
0.0003906136314241044   -0.00991987087254592   -0.001591000220712051
0.005250616069255348   -0.019138201370709203   -0.0021152027223180995
0.0002983847598458566   -0.019036186284795583   -0.002128937276033636
0.0040528244788302645   -0.010029148742326592   -0.0015070103573860023
0.0003906136314241044   -0.00991987087254592   -0.001591000220712051
0.000318490786474629   -0.0190782977883642   -0.00210748071804631
0.004071296099547364   -0.010028727018844495   -0.0016032394075653769
0.0004126577168889096   -0.009916706152590105   -0.0015953093764246515
0.000318490786474629   -0.0190782977883642   -0.00210748071804631
0.005250616069255348   -0.019138201370709203   -0.0021152027223180995
0.004071296099547364   -0.010028727018844495   -0.0016032394075653769
0.005236995383624426   -0.019094194730381982   -0.00217543808178959
0.0004126577168889096   -0.009916706152590105   -0.0015953093764246515
0.004052202537654913   -0.009974519619091664   -0.0017123065514699498
0.005236995383624426   -0.019094194730381982   -0.00217543808178959
0.004071296099547364   -0.010028727018844495   -0.0016032394075653769
0.0004126577168889096   -0.009916706152590105   -0.0015953093764246515
0.005236995383624426   -0.019094194730381982   -0.00217543808178959
0.0003312704665884159   -0.019081539393917806   -0.0020968974261892414
0.000318490786474629   -0.0190782977883642   -0.00210748071804631
0.0004126577168889096   -0.009916706152590105   -0.0015953093764246515
0.005236995383624426   -0.019094194730381982   -0.00217543808178959
0.000318490786474629   -0.0190782977883642   -0.00210748071804631
0.004071296099547364   -0.010028727018844495   -0.0016032394075653769
0.0004126577168889096   -0.009916706152590105   -0.0015953093764246515
0.0003312704665884159   -0.019081539393917806   -0.0020968974261892414
0.004052202537654913   -0.009974519619091664   -0.0017123065514699498
0.0004363283085909262   -0.009857022759294204   -0.0016111452887882626
0.0003312704665884159   -0.019081539393917806   -0.0020968974261892414
0.005236995383624426   -0.019094194730381982   -0.00217543808178959
0.004052202537654913   -0.009974519619091664   -0.0017123065514699498
0.005216773717624045   -0.019002732172272906   -0.002246940452668204
0.0004363283085909262   -0.009857022759294204   -0.0016111452887882626
0.004041159120562009   -0.00985169345538846   -0.0018301774416422934
0.005216773717624045   -0.019002732172272906   -0.002246940452668204
0.004052202537654913   -0.009974519619091664   -0.0017123065514699498
0.0004363283085909262   -0.009857022759294204   -0.0016111452887882626
0.005216773717624045   -0.019002732172272906   -0.002246940452668204
0.00034042607541039343   -0.019045331202247773   -0.0020978492760533006
0.0003312704665884159   -0.019081539393917806   -0.0020968974261892414
0.0004363283085909262   -0.009857022759294204   -0.0016111452887882626
0.005216773717624045   -0.019002732172272906   -0.002246940452668204
0.0003312704665884159   -0.019081539393917806   -0.0020968974261892414
0.004052202537654913   -0.009974519619091664   -0.0017123065514699498
0.0040528244788302645   -0.010029148742326592   -0.0015070103573860023
0.00523312210371699   -0.019144163260805345   -0.002065041662997216
0.00851139777258415   -0.01032837703651718   -0.001482424573164025
0.004071296099547364   -0.010028727018844495   -0.0016032394075653769
0.00523312210371699   -0.019144163260805345   -0.002065041662997216
0.010852882059983615   -0.01934007095189031   -0.0020661425841481235
0.00851139777258415   -0.01032837703651718   -0.001482424573164025
0.010758035957687855   -0.019306424423851002   -0.0021971664421099758
0.004071296099547364   -0.010028727018844495   -0.0016032394075653769
0.008337840053303099   -0.010300250439508045   -0.0016988787232917778
0.010758035957687855   -0.019306424423851002   -0.0021971664421099758
0.00851139777258415   -0.01032837703651718   -0.001482424573164025
0.004071296099547364   -0.010028727018844495   -0.0016032394075653769
0.010758035957687855   -0.019306424423851002   -0.0021971664421099758
0.005250616069255348   -0.019138201370709203   -0.0021152027223180995
0.00523312210371699   -0.019144163260805345   -0.002065041662997216
0.004071296099547364   -0.010028727018844495   -0.0016032394075653769
0.010758035957687855   -0.019306424423851002   -0.0021971664421099758
0.00523312210371699   -0.019144163260805345   -0.002065041662997216
0.00851139777258415   -0.01032837703651718   -0.001482424573164025
0.004071296099547364   -0.010028727018844495   -0.0016032394075653769
0.005250616069255348   -0.019138201370709203   -0.0021152027223180995
0.008337840053303099   -0.010300250439508045   -0.0016988787232917778
0.004052202537654913   -0.009974519619091664   -0.0017123065514699498
0.005250616069255348   -0.019138201370709203   -0.0021152027223180995
0.010758035957687855   -0.019306424423851002   -0.0021971664421099758
0.008337840053303099   -0.010300250439508045   -0.0016988787232917778
0.010663420715295628   -0.019238653953463667   -0.0023463565652814297
0.004052202537654913   -0.009974519619091664   -0.0017123065514699498
0.008182768377417004   -0.010216667529206675   -0.0019423482494710846
0.010663420715295628   -0.019238653953463667   -0.0023463565652814297
0.008337840053303099   -0.010300250439508045   -0.0016988787232917778
0.004052202537654913   -0.009974519619091664   -0.0017123065514699498
0.010663420715295628   -0.019238653953463667   -0.0023463565652814297
0.005236995383624426   -0.019094194730381982   -0.00217543808178959
0.005250616069255348   -0.019138201370709203   -0.0021152027223180995
0.004052202537654913   -0.009974519619091664   -0.0017123065514699498
0.010663420715295628   -0.019238653953463667   -0.0023463565652814297
0.005250616069255348   -0.019138201370709203   -0.0021152027223180995
0.008337840053303099   -0.010300250439508045   -0.0016988787232917778
0.004052202537654913   -0.009974519619091664   -0.0017123065514699498
0.005236995383624426   -0.019094194730381982   -0.00217543808178959
0.008182768377417004   -0.010216667529206675   -0.0019423482494710846
0.004041159120562009   -0.00985169345538846   -0.0018301774416422934
0.005236995383624426   -0.019094194730381982   -0.00217543808178959
0.010663420715295628   -0.019238653953463667   -0.0023463565652814297
0.008182768377417004   -0.010216667529206675   -0.0019423482494710846
0.01049560850033957   -0.019096412027241532   -0.0025137321766218698
0.004041159120562009   -0.00985169345538846   -0.0018301774416422934
0.007950567626051494   -0.01003062056772316   -0.0021957687000877853
0.01049560850033957   -0.019096412027241532   -0.0025137321766218698
0.008182768377417004   -0.010216667529206675   -0.0019423482494710846
0.004041159120562009   -0.00985169345538846   -0.0018301774416422934
0.01049560850033957   -0.019096412027241532   -0.0025137321766218698
0.005216773717624045   -0.019002732172272906   -0.002246940452668204
0.005236995383624426   -0.019094194730381982   -0.00217543808178959
0.004041159120562009   -0.00985169345538846   -0.0018301774416422934
0.01049560850033957   -0.019096412027241532   -0.0025137321766218698
0.005236995383624426   -0.019094194730381982   -0.00217543808178959
0.008182768377417004   -0.010216667529206675   -0.0019423482494710846
-0.014481282327756776   -0.019430666269310396   -0.0029078817778069505
-0.017294669432360285   -0.030188521997796806   -0.003100992935009299
-0.009310330347501524   -0.019171995940643814   -0.0025414346445880634
-0.014739211533885273   -0.01963274046136205   -0.0026547286261185657
-0.017294669432360285   -0.030188521997796806   -0.003100992935009299
-0.011225487213478767   -0.03002390083461683   -0.002802155015281039
-0.009310330347501524   -0.019171995940643814   -0.0025414346445880634
-0.011239246433542106   -0.03015112500783717   -0.0026860698663806895
-0.014739211533885273   -0.01963274046136205   -0.0026547286261185657
-0.00933105158393927   -0.019319867539102302   -0.0023792816926256027
-0.011239246433542106   -0.03015112500783717   -0.0026860698663806895
-0.009310330347501524   -0.019171995940643814   -0.0025414346445880634
-0.014739211533885273   -0.01963274046136205   -0.0026547286261185657
-0.011239246433542106   -0.03015112500783717   -0.0026860698663806895
-0.01746856298298484   -0.030360627689699844   -0.002932843606726298
-0.017294669432360285   -0.030188521997796806   -0.003100992935009299
-0.014739211533885273   -0.01963274046136205   -0.0026547286261185657
-0.011239246433542106   -0.03015112500783717   -0.0026860698663806895
-0.017294669432360285   -0.030188521997796806   -0.003100992935009299
-0.009310330347501524   -0.019171995940643814   -0.0025414346445880634
-0.014739211533885273   -0.01963274046136205   -0.0026547286261185657
-0.01746856298298484   -0.030360627689699844   -0.002932843606726298
-0.00933105158393927   -0.019319867539102302   -0.0023792816926256027
-0.014901954427215532   -0.019759434807184287   -0.0024187625575018174
-0.01746856298298484   -0.030360627689699844   -0.002932843606726298
-0.011239246433542106   -0.03015112500783717   -0.0026860698663806895
-0.00933105158393927   -0.019319867539102302   -0.0023792816926256027
-0.011249144737888727   -0.03025196947203857   -0.002581548256266912
-0.014901954427215532   -0.019759434807184287   -0.0024187625575018174
-0.009355414943502977   -0.019422755062198347   -0.0022288529540057476
-0.011249144737888727   -0.03025196947203857   -0.002581548256266912
-0.00933105158393927   -0.019319867539102302   -0.0023792816926256027
-0.014901954427215532   -0.019759434807184287   -0.0024187625575018174
-0.011249144737888727   -0.03025196947203857   -0.002581548256266912
-0.01756846771099012   -0.03048237489032946   -0.002780818842017219
-0.01746856298298484   -0.030360627689699844   -0.002932843606726298
-0.014901954427215532   -0.019759434807184287   -0.0024187625575018174
-0.011249144737888727   -0.03025196947203857   -0.002581548256266912
-0.01746856298298484   -0.030360627689699844   -0.002932843606726298
-0.00933105158393927   -0.019319867539102302   -0.0023792816926256027
-0.014901954427215532   -0.019759434807184287   -0.0024187625575018174
-0.01756846771099012   -0.03048237489032946   -0.002780818842017219
-0.009355414943502977   -0.019422755062198347   -0.0022288529540057476
-0.01508712309799237   -0.019850506047146013   -0.002201590599619383
-0.01756846771099012   -0.03048237489032946   -0.002780818842017219
-0.011249144737888727   -0.03025196947203857   -0.002581548256266912
-0.009355414943502977   -0.019422755062198347   -0.0022288529540057476
-0.011226130003014666   -0.03033479529244282   -0.0024870545965342042
-0.01508712309799237   -0.019850506047146013   -0.002201590599619383
-0.009338203188104056   -0.019490417829691985   -0.002087651367977156
-0.011226130003014666   -0.03033479529244282   -0.0024870545965342042
-0.009355414943502977   -0.019422755062198347   -0.0022288529540057476
-0.01508712309799237   -0.019850506047146013   -0.002201590599619383
-0.011226130003014666   -0.03033479529244282   -0.0024870545965342042
-0.017671395480311353   -0.030591472141572134   -0.0026468338719025353
-0.01756846771099012   -0.03048237489032946   -0.002780818842017219
-0.01508712309799237   -0.019850506047146013   -0.002201590599619383
-0.011226130003014666   -0.03033479529244282   -0.0024870545965342042
-0.01756846771099012   -0.03048237489032946   -0.002780818842017219
-0.009355414943502977   -0.019422755062198347   -0.0022288529540057476
-0.009310330347501524   -0.019171995940643814   -0.0025414346445880634
-0.011225487213478767   -0.03002390083461683   -0.002802155015281039
-0.004434436758186473   -0.019043045602981534   -0.002286832920498486
-0.00933105158393927   -0.019319867539102302   -0.0023792816926256027
-0.011225487213478767   -0.03002390083461683   -0.002802155015281039
-0.005535576838380119   -0.029938836574509613   -0.002595219933678859
-0.004434436758186473   -0.019043045602981534   -0.002286832920498486
-0.005525310166337149   -0.030018684044261314   -0.002518604272183509
-0.00933105158393927   -0.019319867539102302   -0.0023792816926256027
-0.004423639723081638   -0.01913761590878485   -0.002195218046838171
-0.005525310166337149   -0.030018684044261314   -0.002518604272183509
-0.004434436758186473   -0.019043045602981534   -0.002286832920498486
-0.00933105158393927   -0.019319867539102302   -0.0023792816926256027
-0.005525310166337149   -0.030018684044261314   -0.002518604272183509
-0.011239246433542106   -0.03015112500783717   -0.0026860698663806895
-0.011225487213478767   -0.03002390083461683   -0.002802155015281039
-0.00933105158393927   -0.019319867539102302   -0.0023792816926256027
-0.005525310166337149   -0.030018684044261314   -0.002518604272183509
-0.011225487213478767   -0.03002390083461683   -0.002802155015281039
-0.004434436758186473   -0.019043045602981534   -0.002286832920498486
-0.00933105158393927   -0.019319867539102302   -0.0023792816926256027
-0.011239246433542106   -0.03015112500783717   -0.0026860698663806895
-0.004423639723081638   -0.01913761590878485   -0.002195218046838171
-0.009355414943502977   -0.019422755062198347   -0.0022288529540057476
-0.011239246433542106   -0.03015112500783717   -0.0026860698663806895
-0.005525310166337149   -0.030018684044261314   -0.002518604272183509
-0.004423639723081638   -0.01913761590878485   -0.002195218046838171
-0.005511190999104117   -0.030076427601808384   -0.002453379555560752
-0.009355414943502977   -0.019422755062198347   -0.0022288529540057476
-0.004410342942589458   -0.019193159100265183   -0.0021147690858996605
-0.005511190999104117   -0.030076427601808384   -0.002453379555560752
-0.004423639723081638   -0.01913761590878485   -0.002195218046838171
-0.009355414943502977   -0.019422755062198347   -0.0022288529540057476
-0.005511190999104117   -0.030076427601808384   -0.002453379555560752
-0.011249144737888727   -0.03025196947203857   -0.002581548256266912
-0.011239246433542106   -0.03015112500783717   -0.0026860698663806895
-0.009355414943502977   -0.019422755062198347   -0.0022288529540057476
-0.005511190999104117   -0.030076427601808384   -0.002453379555560752
-0.011239246433542106   -0.03015112500783717   -0.0026860698663806895
-0.004423639723081638   -0.01913761590878485   -0.002195218046838171
-0.009355414943502977   -0.019422755062198347   -0.0022288529540057476
-0.011249144737888727   -0.03025196947203857   -0.002581548256266912
-0.004410342942589458   -0.019193159100265183   -0.0021147690858996605
-0.009338203188104056   -0.019490417829691985   -0.002087651367977156
-0.011249144737888727   -0.03025196947203857   -0.002581548256266912
-0.005511190999104117   -0.030076427601808384   -0.002453379555560752
-0.004410342942589458   -0.019193159100265183   -0.0021147690858996605
-0.005490008823127952   -0.03011244550615315   -0.0023997336667894546
-0.009338203188104056   -0.019490417829691985   -0.002087651367977156
-0.0043882917020744185   -0.019210469281682387   -0.0020454519598749133
-0.005490008823127952   -0.03011244550615315   -0.0023997336667894546
-0.004410342942589458   -0.019193159100265183   -0.0021147690858996605
-0.009338203188104056   -0.019490417829691985   -0.002087651367977156
-0.005490008823127952   -0.03011244550615315   -0.0023997336667894546
-0.011226130003014666   -0.03033479529244282   -0.0024870545965342042
-0.011249144737888727   -0.03025196947203857   -0.002581548256266912
-0.009338203188104056   -0.019490417829691985   -0.002087651367977156
-0.005490008823127952   -0.03011244550615315   -0.0023997336667894546
-0.011249144737888727   -0.03025196947203857   -0.002581548256266912
-0.004410342942589458   -0.019193159100265183   -0.0021147690858996605
-0.004434436758186473   -0.019043045602981534   -0.002286832920498486
-0.005535576838380119   -0.029938836574509613   -0.002595219933678859
0.0002983847598458566   -0.019036186284795583   -0.002128937276033636
-0.004423639723081638   -0.01913761590878485   -0.002195218046838171
-0.005535576838380119   -0.029938836574509613   -0.002595219933678859
-1.188589771161564e-07   -0.02992421978218667   -0.002474660309216678
0.0002983847598458566   -0.019036186284795583   -0.002128937276033636
1.9428086685632913e-05   -0.029956442593549158   -0.0024378180149542622
-0.004423639723081638   -0.01913761590878485   -0.002195218046838171
0.000318490786474629   -0.0190782977883642   -0.00210748071804631
1.9428086685632913e-05   -0.029956442593549158   -0.0024378180149542622
0.0002983847598458566   -0.019036186284795583   -0.002128937276033636
-0.004423639723081638   -0.01913761590878485   -0.002195218046838171
1.9428086685632913e-05   -0.029956442593549158   -0.0024378180149542622
-0.005525310166337149   -0.030018684044261314   -0.002518604272183509
-0.005535576838380119   -0.029938836574509613   -0.002595219933678859
-0.004423639723081638   -0.01913761590878485   -0.002195218046838171
1.9428086685632913e-05   -0.029956442593549158   -0.0024378180149542622
-0.005535576838380119   -0.029938836574509613   -0.002595219933678859
0.0002983847598458566   -0.019036186284795583   -0.002128937276033636
-0.004423639723081638   -0.01913761590878485   -0.002195218046838171
-0.005525310166337149   -0.030018684044261314   -0.002518604272183509
0.000318490786474629   -0.0190782977883642   -0.00210748071804631
-0.004410342942589458   -0.019193159100265183   -0.0021147690858996605
-0.005525310166337149   -0.030018684044261314   -0.002518604272183509
1.9428086685632913e-05   -0.029956442593549158   -0.0024378180149542622
0.000318490786474629   -0.0190782977883642   -0.00210748071804631
3.327021859282646e-05   -0.029966409386762594   -0.0024122214431063715
-0.004410342942589458   -0.019193159100265183   -0.0021147690858996605
0.0003312704665884159   -0.019081539393917806   -0.0020968974261892414
3.327021859282646e-05   -0.029966409386762594   -0.0024122214431063715
0.000318490786474629   -0.0190782977883642   -0.00210748071804631
-0.004410342942589458   -0.019193159100265183   -0.0021147690858996605
3.327021859282646e-05   -0.029966409386762594   -0.0024122214431063715
-0.005511190999104117   -0.030076427601808384   -0.002453379555560752
-0.005525310166337149   -0.030018684044261314   -0.002518604272183509
-0.004410342942589458   -0.019193159100265183   -0.0021147690858996605
3.327021859282646e-05   -0.029966409386762594   -0.0024122214431063715
-0.005525310166337149   -0.030018684044261314   -0.002518604272183509
0.000318490786474629   -0.0190782977883642   -0.00210748071804631
-0.004410342942589458   -0.019193159100265183   -0.0021147690858996605
-0.005511190999104117   -0.030076427601808384   -0.002453379555560752
0.0003312704665884159   -0.019081539393917806   -0.0020968974261892414
-0.0043882917020744185   -0.019210469281682387   -0.0020454519598749133
-0.005511190999104117   -0.030076427601808384   -0.002453379555560752
3.327021859282646e-05   -0.029966409386762594   -0.0024122214431063715
0.0003312704665884159   -0.019081539393917806   -0.0020968974261892414
4.1961051610023994e-05   -0.02995381519237173   -0.0023983689610255266
-0.0043882917020744185   -0.019210469281682387   -0.0020454519598749133
0.00034042607541039343   -0.019045331202247773   -0.0020978492760533006
4.1961051610023994e-05   -0.02995381519237173   -0.0023983689610255266
0.0003312704665884159   -0.019081539393917806   -0.0020968974261892414
-0.0043882917020744185   -0.019210469281682387   -0.0020454519598749133
4.1961051610023994e-05   -0.02995381519237173   -0.0023983689610255266
-0.005490008823127952   -0.03011244550615315   -0.0023997336667894546
-0.005511190999104117   -0.030076427601808384   -0.002453379555560752
-0.0043882917020744185   -0.019210469281682387   -0.0020454519598749133
4.1961051610023994e-05   -0.02995381519237173   -0.0023983689610255266
-0.005511190999104117   -0.030076427601808384   -0.002453379555560752
0.0003312704665884159   -0.019081539393917806   -0.0020968974261892414
0.0002983847598458566   -0.019036186284795583   -0.002128937276033636
-1.188589771161564e-07   -0.02992421978218667   -0.002474660309216678
0.00523312210371699   -0.019144163260805345   -0.002065041662997216
0.000318490786474629   -0.0190782977883642   -0.00210748071804631
-1.188589771161564e-07   -0.02992421978218667   -0.002474660309216678
0.005725678295580676   -0.02997403830266297   -0.002439980822751599
0.00523312210371699   -0.019144163260805345   -0.002065041662997216
0.0057496349623657565   -0.029961412731901158   -0.002443752116047076
0.000318490786474629   -0.0190782977883642   -0.00210748071804631
0.005250616069255348   -0.019138201370709203   -0.0021152027223180995
0.0057496349623657565   -0.029961412731901158   -0.002443752116047076
0.00523312210371699   -0.019144163260805345   -0.002065041662997216
0.000318490786474629   -0.0190782977883642   -0.00210748071804631
0.0057496349623657565   -0.029961412731901158   -0.002443752116047076
1.9428086685632913e-05   -0.029956442593549158   -0.0024378180149542622
-1.188589771161564e-07   -0.02992421978218667   -0.002474660309216678
0.000318490786474629   -0.0190782977883642   -0.00210748071804631
0.0057496349623657565   -0.029961412731901158   -0.002443752116047076
-1.188589771161564e-07   -0.02992421978218667   -0.002474660309216678
0.00523312210371699   -0.019144163260805345   -0.002065041662997216
0.000318490786474629   -0.0190782977883642   -0.00210748071804631
1.9428086685632913e-05   -0.029956442593549158   -0.0024378180149542622
0.005250616069255348   -0.019138201370709203   -0.0021152027223180995
0.0003312704665884159   -0.019081539393917806   -0.0020968974261892414
1.9428086685632913e-05   -0.029956442593549158   -0.0024378180149542622
0.0057496349623657565   -0.029961412731901158   -0.002443752116047076
0.005250616069255348   -0.019138201370709203   -0.0021152027223180995
0.005751220088380556   -0.029928225207182343   -0.002458164386084088
0.0003312704665884159   -0.019081539393917806   -0.0020968974261892414
0.005236995383624426   -0.019094194730381982   -0.00217543808178959
0.005751220088380556   -0.029928225207182343   -0.002458164386084088
0.005250616069255348   -0.019138201370709203   -0.0021152027223180995
0.0003312704665884159   -0.019081539393917806   -0.0020968974261892414
0.005751220088380556   -0.029928225207182343   -0.002458164386084088
3.327021859282646e-05   -0.029966409386762594   -0.0024122214431063715
1.9428086685632913e-05   -0.029956442593549158   -0.0024378180149542622
0.0003312704665884159   -0.019081539393917806   -0.0020968974261892414
0.005751220088380556   -0.029928225207182343   -0.002458164386084088
1.9428086685632913e-05   -0.029956442593549158   -0.0024378180149542622
0.005250616069255348   -0.019138201370709203   -0.0021152027223180995
0.0003312704665884159   -0.019081539393917806   -0.0020968974261892414
3.327021859282646e-05   -0.029966409386762594   -0.0024122214431063715
0.005236995383624426   -0.019094194730381982   -0.00217543808178959
0.00034042607541039343   -0.019045331202247773   -0.0020978492760533006
3.327021859282646e-05   -0.029966409386762594   -0.0024122214431063715
0.005751220088380556   -0.029928225207182343   -0.002458164386084088
0.005236995383624426   -0.019094194730381982   -0.00217543808178959
0.0057384338772907125   -0.029866160498138426   -0.0024836220311279826
0.00034042607541039343   -0.019045331202247773   -0.0020978492760533006
0.005216773717624045   -0.019002732172272906   -0.002246940452668204
0.0057384338772907125   -0.029866160498138426   -0.0024836220311279826
0.005236995383624426   -0.019094194730381982   -0.00217543808178959
0.00034042607541039343   -0.019045331202247773   -0.0020978492760533006
0.0057384338772907125   -0.029866160498138426   -0.0024836220311279826
4.1961051610023994e-05   -0.02995381519237173   -0.0023983689610255266
3.327021859282646e-05   -0.029966409386762594   -0.0024122214431063715
0.00034042607541039343   -0.019045331202247773   -0.0020978492760533006
0.0057384338772907125   -0.029866160498138426   -0.0024836220311279826
3.327021859282646e-05   -0.029966409386762594   -0.0024122214431063715
0.005236995383624426   -0.019094194730381982   -0.00217543808178959
0.00523312210371699   -0.019144163260805345   -0.002065041662997216
0.005725678295580676   -0.02997403830266297   -0.002439980822751599
0.010852882059983615   -0.01934007095189031   -0.0020661425841481235
0.005250616069255348   -0.019138201370709203   -0.0021152027223180995
0.005725678295580676   -0.02997403830266297   -0.002439980822751599
0.01204839344078964   -0.03006563634839807   -0.0024723834647180105
0.010852882059983615   -0.01934007095189031   -0.0020661425841481235
0.012036905294648141   -0.030022646038264312   -0.00252000516087714
0.005250616069255348   -0.019138201370709203   -0.0021152027223180995
0.010758035957687855   -0.019306424423851002   -0.0021971664421099758
0.012036905294648141   -0.030022646038264312   -0.00252000516087714
0.010852882059983615   -0.01934007095189031   -0.0020661425841481235
0.005250616069255348   -0.019138201370709203   -0.0021152027223180995
0.012036905294648141   -0.030022646038264312   -0.00252000516087714
0.0057496349623657565   -0.029961412731901158   -0.002443752116047076
0.005725678295580676   -0.02997403830266297   -0.002439980822751599
0.005250616069255348   -0.019138201370709203   -0.0021152027223180995
0.012036905294648141   -0.030022646038264312   -0.00252000516087714
0.005725678295580676   -0.02997403830266297   -0.002439980822751599
0.010852882059983615   -0.01934007095189031   -0.0020661425841481235
0.005250616069255348   -0.019138201370709203   -0.0021152027223180995
0.0057496349623657565   -0.029961412731901158   -0.002443752116047076
0.010758035957687855   -0.019306424423851002   -0.0021971664421099758
0.005236995383624426   -0.019094194730381982   -0.00217543808178959
0.0057496349623657565   -0.029961412731901158   -0.002443752116047076
0.012036905294648141   -0.030022646038264312   -0.00252000516087714
0.010758035957687855   -0.019306424423851002   -0.0021971664421099758
0.012006436841737099   -0.029968484934369988   -0.00258488938542752
0.005236995383624426   -0.019094194730381982   -0.00217543808178959
0.010663420715295628   -0.019238653953463667   -0.0023463565652814297
0.012006436841737099   -0.029968484934369988   -0.00258488938542752
0.010758035957687855   -0.019306424423851002   -0.0021971664421099758
0.005236995383624426   -0.019094194730381982   -0.00217543808178959
0.012006436841737099   -0.029968484934369988   -0.00258488938542752
0.005751220088380556   -0.029928225207182343   -0.002458164386084088
0.0057496349623657565   -0.029961412731901158   -0.002443752116047076
0.005236995383624426   -0.019094194730381982   -0.00217543808178959
0.012006436841737099   -0.029968484934369988   -0.00258488938542752
0.0057496349623657565   -0.029961412731901158   -0.002443752116047076
0.010758035957687855   -0.019306424423851002   -0.0021971664421099758
0.005236995383624426   -0.019094194730381982   -0.00217543808178959
0.005751220088380556   -0.029928225207182343   -0.002458164386084088
0.010663420715295628   -0.019238653953463667   -0.0023463565652814297
0.005216773717624045   -0.019002732172272906   -0.002246940452668204
0.005751220088380556   -0.029928225207182343   -0.002458164386084088
0.012006436841737099   -0.029968484934369988   -0.00258488938542752
0.010663420715295628   -0.019238653953463667   -0.0023463565652814297
0.011923850801799241   -0.029865168962203485   -0.0026669110028697558
0.005216773717624045   -0.019002732172272906   -0.002246940452668204
0.01049560850033957   -0.019096412027241532   -0.0025137321766218698
0.011923850801799241   -0.029865168962203485   -0.0026669110028697558
0.010663420715295628   -0.019238653953463667   -0.0023463565652814297
0.005216773717624045   -0.019002732172272906   -0.002246940452668204
0.011923850801799241   -0.029865168962203485   -0.0026669110028697558
0.0057384338772907125   -0.029866160498138426   -0.0024836220311279826
0.005751220088380556   -0.029928225207182343   -0.002458164386084088
0.005216773717624045   -0.019002732172272906   -0.002246940452668204
0.011923850801799241   -0.029865168962203485   -0.0026669110028697558
0.005751220088380556   -0.029928225207182343   -0.002458164386084088
0.010663420715295628   -0.019238653953463667   -0.0023463565652814297
-0.017294669432360285   -0.030188521997796806   -0.003100992935009299
-0.018998696337767344   -0.04190011448837429   -0.0031575768537826293
-0.011225487213478767   -0.03002390083461683   -0.002802155015281039
-0.01746856298298484   -0.030360627689699844   -0.002932843606726298
-0.018998696337767344   -0.04190011448837429   -0.0031575768537826293
-0.012483199184964246   -0.04183299168275451   -0.00291948740046907
-0.011225487213478767   -0.03002390083461683   -0.002802155015281039
-0.012478431999830938   -0.04194153122396914   -0.002848273422026889
-0.01746856298298484   -0.030360627689699844   -0.002932843606726298
-0.011239246433542106   -0.03015112500783717   -0.0026860698663806895
-0.012478431999830938   -0.04194153122396914   -0.002848273422026889
-0.011225487213478767   -0.03002390083461683   -0.002802155015281039
-0.01746856298298484   -0.030360627689699844   -0.002932843606726298
-0.012478431999830938   -0.04194153122396914   -0.002848273422026889
-0.019080060366121643   -0.042046010949555006   -0.003070824448768977
-0.018998696337767344   -0.04190011448837429   -0.0031575768537826293
-0.01746856298298484   -0.030360627689699844   -0.002932843606726298
-0.012478431999830938   -0.04194153122396914   -0.002848273422026889
-0.018998696337767344   -0.04190011448837429   -0.0031575768537826293
-0.011225487213478767   -0.03002390083461683   -0.002802155015281039
-0.01746856298298484   -0.030360627689699844   -0.002932843606726298
-0.019080060366121643   -0.042046010949555006   -0.003070824448768977
-0.011239246433542106   -0.03015112500783717   -0.0026860698663806895
-0.01756846771099012   -0.03048237489032946   -0.002780818842017219
-0.019080060366121643   -0.042046010949555006   -0.003070824448768977
-0.012478431999830938   -0.04194153122396914   -0.002848273422026889
-0.011239246433542106   -0.03015112500783717   -0.0026860698663806895
-0.012461897379903478   -0.04204164318162613   -0.0027888837205614363
-0.01756846771099012   -0.03048237489032946   -0.002780818842017219
-0.011249144737888727   -0.03025196947203857   -0.002581548256266912
-0.012461897379903478   -0.04204164318162613   -0.0027888837205614363
-0.011239246433542106   -0.03015112500783717   -0.0026860698663806895
-0.01756846771099012   -0.03048237489032946   -0.002780818842017219
-0.012461897379903478   -0.04204164318162613   -0.0027888837205614363
-0.019106132631171096   -0.04216498842021515   -0.003001091548479727
-0.019080060366121643   -0.042046010949555006   -0.003070824448768977
-0.01756846771099012   -0.03048237489032946   -0.002780818842017219
-0.012461897379903478   -0.04204164318162613   -0.0027888837205614363
-0.019080060366121643   -0.042046010949555006   -0.003070824448768977
-0.011239246433542106   -0.03015112500783717   -0.0026860698663806895
-0.01756846771099012   -0.03048237489032946   -0.002780818842017219
-0.019106132631171096   -0.04216498842021515   -0.003001091548479727
-0.011249144737888727   -0.03025196947203857   -0.002581548256266912
-0.017671395480311353   -0.030591472141572134   -0.0026468338719025353
-0.019106132631171096   -0.04216498842021515   -0.003001091548479727
-0.012461897379903478   -0.04204164318162613   -0.0027888837205614363
-0.011249144737888727   -0.03025196947203857   -0.002581548256266912
-0.012420851815735455   -0.04214095719849775   -0.002740491093750518
-0.017671395480311353   -0.030591472141572134   -0.0026468338719025353
-0.011226130003014666   -0.03033479529244282   -0.0024870545965342042
-0.012420851815735455   -0.04214095719849775   -0.002740491093750518
-0.011249144737888727   -0.03025196947203857   -0.002581548256266912
-0.017671395480311353   -0.030591472141572134   -0.0026468338719025353
-0.012420851815735455   -0.04214095719849775   -0.002740491093750518
-0.019115039260357333   -0.042294181802009154   -0.0029498384446728773
-0.019106132631171096   -0.04216498842021515   -0.003001091548479727
-0.017671395480311353   -0.030591472141572134   -0.0026468338719025353
-0.012420851815735455   -0.04214095719849775   -0.002740491093750518
-0.019106132631171096   -0.04216498842021515   -0.003001091548479727
-0.011249144737888727   -0.03025196947203857   -0.002581548256266912
-0.011225487213478767   -0.03002390083461683   -0.002802155015281039
-0.012483199184964246   -0.04183299168275451   -0.00291948740046907
-0.005535576838380119   -0.029938836574509613   -0.002595219933678859
-0.011239246433542106   -0.03015112500783717   -0.0026860698663806895
-0.012483199184964246   -0.04183299168275451   -0.00291948740046907
-0.006430712404687731   -0.041794504330504564   -0.0027573919620512313
-0.005535576838380119   -0.029938836574509613   -0.002595219933678859
-0.006408296309626791   -0.04186021331486823   -0.0026953310798353237
-0.011239246433542106   -0.03015112500783717   -0.0026860698663806895
-0.005525310166337149   -0.030018684044261314   -0.002518604272183509
-0.006408296309626791   -0.04186021331486823   -0.0026953310798353237
-0.005535576838380119   -0.029938836574509613   -0.002595219933678859
-0.011239246433542106   -0.03015112500783717   -0.0026860698663806895
-0.006408296309626791   -0.04186021331486823   -0.0026953310798353237
-0.012478431999830938   -0.04194153122396914   -0.002848273422026889
-0.012483199184964246   -0.04183299168275451   -0.00291948740046907
-0.011239246433542106   -0.03015112500783717   -0.0026860698663806895
-0.006408296309626791   -0.04186021331486823   -0.0026953310798353237
-0.012483199184964246   -0.04183299168275451   -0.00291948740046907
-0.005535576838380119   -0.029938836574509613   -0.002595219933678859
-0.011239246433542106   -0.03015112500783717   -0.0026860698663806895
-0.012478431999830938   -0.04194153122396914   -0.002848273422026889
-0.005525310166337149   -0.030018684044261314   -0.002518604272183509
-0.011249144737888727   -0.03025196947203857   -0.002581548256266912
-0.012478431999830938   -0.04194153122396914   -0.002848273422026889
-0.006408296309626791   -0.04186021331486823   -0.0026953310798353237
-0.005525310166337149   -0.030018684044261314   -0.002518604272183509
-0.006380761812352697   -0.041920507212486434   -0.002645105012914913
-0.011249144737888727   -0.03025196947203857   -0.002581548256266912
-0.005511190999104117   -0.030076427601808384   -0.002453379555560752
-0.006380761812352697   -0.041920507212486434   -0.002645105012914913
-0.005525310166337149   -0.030018684044261314   -0.002518604272183509
-0.011249144737888727   -0.03025196947203857   -0.002581548256266912
-0.006380761812352697   -0.041920507212486434   -0.002645105012914913
-0.012461897379903478   -0.04204164318162613   -0.0027888837205614363
-0.012478431999830938   -0.04194153122396914   -0.002848273422026889
-0.011249144737888727   -0.03025196947203857   -0.002581548256266912
-0.006380761812352697   -0.041920507212486434   -0.002645105012914913
-0.012478431999830938   -0.04194153122396914   -0.002848273422026889
-0.005525310166337149   -0.030018684044261314   -0.002518604272183509
-0.011249144737888727   -0.03025196947203857   -0.002581548256266912
-0.012461897379903478   -0.04204164318162613   -0.0027888837205614363
-0.005511190999104117   -0.030076427601808384   -0.002453379555560752
-0.011226130003014666   -0.03033479529244282   -0.0024870545965342042
-0.012461897379903478   -0.04204164318162613   -0.0027888837205614363
-0.006380761812352697   -0.041920507212486434   -0.002645105012914913
-0.005511190999104117   -0.030076427601808384   -0.002453379555560752
-0.0063476417494099414   -0.04197558398898054   -0.002606997499174249
-0.011226130003014666   -0.03033479529244282   -0.0024870545965342042
-0.005490008823127952   -0.03011244550615315   -0.0023997336667894546
-0.0063476417494099414   -0.04197558398898054   -0.002606997499174249
-0.005511190999104117   -0.030076427601808384   -0.002453379555560752
-0.011226130003014666   -0.03033479529244282   -0.0024870545965342042
-0.0063476417494099414   -0.04197558398898054   -0.002606997499174249
-0.012420851815735455   -0.04214095719849775   -0.002740491093750518
-0.012461897379903478   -0.04204164318162613   -0.0027888837205614363
-0.011226130003014666   -0.03033479529244282   -0.0024870545965342042
-0.0063476417494099414   -0.04197558398898054   -0.002606997499174249
-0.012461897379903478   -0.04204164318162613   -0.0027888837205614363
-0.005511190999104117   -0.030076427601808384   -0.002453379555560752
-0.005535576838380119   -0.029938836574509613   -0.002595219933678859
-0.006430712404687731   -0.041794504330504564   -0.0027573919620512313
-1.188589771161564e-07   -0.02992421978218667   -0.002474660309216678
-0.005525310166337149   -0.030018684044261314   -0.002518604272183509
-0.006430712404687731   -0.041794504330504564   -0.0027573919620512313
-0.000541992114951843   -0.04177247891444964   -0.0026735085598427214
-1.188589771161564e-07   -0.02992421978218667   -0.002474660309216678
-0.000510600168064047   -0.041794572760207434   -0.002621219132524728
-0.005525310166337149   -0.030018684044261314   -0.002518604272183509
1.9428086685632913e-05   -0.029956442593549158   -0.0024378180149542622
-0.000510600168064047   -0.041794572760207434   -0.002621219132524728
-1.188589771161564e-07   -0.02992421978218667   -0.002474660309216678
-0.005525310166337149   -0.030018684044261314   -0.002518604272183509
-0.000510600168064047   -0.041794572760207434   -0.002621219132524728
-0.006408296309626791   -0.04186021331486823   -0.0026953310798353237
-0.006430712404687731   -0.041794504330504564   -0.0027573919620512313
-0.005525310166337149   -0.030018684044261314   -0.002518604272183509
-0.000510600168064047   -0.041794572760207434   -0.002621219132524728
-0.006430712404687731   -0.041794504330504564   -0.0027573919620512313
-1.188589771161564e-07   -0.02992421978218667   -0.002474660309216678
-0.005525310166337149   -0.030018684044261314   -0.002518604272183509
-0.006408296309626791   -0.04186021331486823   -0.0026953310798353237
1.9428086685632913e-05   -0.029956442593549158   -0.0024378180149542622
-0.005511190999104117   -0.030076427601808384   -0.002453379555560752
-0.006408296309626791   -0.04186021331486823   -0.0026953310798353237
-0.000510600168064047   -0.041794572760207434   -0.002621219132524728
1.9428086685632913e-05   -0.029956442593549158   -0.0024378180149542622
-0.00048343934092428636   -0.041810869038265794   -0.002580661770080815
-0.005511190999104117   -0.030076427601808384   -0.002453379555560752
3.327021859282646e-05   -0.029966409386762594   -0.0024122214431063715
-0.00048343934092428636   -0.041810869038265794   -0.002580661770080815
1.9428086685632913e-05   -0.029956442593549158   -0.0024378180149542622
-0.005511190999104117   -0.030076427601808384   -0.002453379555560752
-0.00048343934092428636   -0.041810869038265794   -0.002580661770080815
-0.006380761812352697   -0.041920507212486434   -0.002645105012914913
-0.006408296309626791   -0.04186021331486823   -0.0026953310798353237
-0.005511190999104117   -0.030076427601808384   -0.002453379555560752
-0.00048343934092428636   -0.041810869038265794   -0.002580661770080815
-0.006408296309626791   -0.04186021331486823   -0.0026953310798353237
1.9428086685632913e-05   -0.029956442593549158   -0.0024378180149542622
-0.005511190999104117   -0.030076427601808384   -0.002453379555560752
-0.006380761812352697   -0.041920507212486434   -0.002645105012914913
3.327021859282646e-05   -0.029966409386762594   -0.0024122214431063715
-0.005490008823127952   -0.03011244550615315   -0.0023997336667894546
-0.006380761812352697   -0.041920507212486434   -0.002645105012914913
-0.00048343934092428636   -0.041810869038265794   -0.002580661770080815
3.327021859282646e-05   -0.029966409386762594   -0.0024122214431063715
-0.0004627804218204693   -0.0418212846558909   -0.002552264628588843
-0.005490008823127952   -0.03011244550615315   -0.0023997336667894546
4.1961051610023994e-05   -0.02995381519237173   -0.0023983689610255266
-0.0004627804218204693   -0.0418212846558909   -0.002552264628588843
3.327021859282646e-05   -0.029966409386762594   -0.0024122214431063715
-0.005490008823127952   -0.03011244550615315   -0.0023997336667894546
-0.0004627804218204693   -0.0418212846558909   -0.002552264628588843
-0.0063476417494099414   -0.04197558398898054   -0.002606997499174249
-0.006380761812352697   -0.041920507212486434   -0.002645105012914913
-0.005490008823127952   -0.03011244550615315   -0.0023997336667894546
-0.0004627804218204693   -0.0418212846558909   -0.002552264628588843
-0.006380761812352697   -0.041920507212486434   -0.002645105012914913
3.327021859282646e-05   -0.029966409386762594   -0.0024122214431063715
-1.188589771161564e-07   -0.02992421978218667   -0.002474660309216678
-0.000541992114951843   -0.04177247891444964   -0.0026735085598427214
0.005725678295580676   -0.02997403830266297   -0.002439980822751599
1.9428086685632913e-05   -0.029956442593549158   -0.0024378180149542622
-0.000541992114951843   -0.04177247891444964   -0.0026735085598427214
0.005526497557397771   -0.04176312237453797   -0.002668566986112355
0.005725678295580676   -0.02997403830266297   -0.002439980822751599
0.005568133643947994   -0.04174297445473878   -0.0026265399220277903
1.9428086685632913e-05   -0.029956442593549158   -0.0024378180149542622
0.0057496349623657565   -0.029961412731901158   -0.002443752116047076
0.005568133643947994   -0.04174297445473878   -0.0026265399220277903
0.005725678295580676   -0.02997403830266297   -0.002439980822751599
1.9428086685632913e-05   -0.029956442593549158   -0.0024378180149542622
0.005568133643947994   -0.04174297445473878   -0.0026265399220277903
-0.000510600168064047   -0.041794572760207434   -0.002621219132524728
-0.000541992114951843   -0.04177247891444964   -0.0026735085598427214
1.9428086685632913e-05   -0.029956442593549158   -0.0024378180149542622
0.005568133643947994   -0.04174297445473878   -0.0026265399220277903
-0.000541992114951843   -0.04177247891444964   -0.0026735085598427214
0.005725678295580676   -0.02997403830266297   -0.002439980822751599
1.9428086685632913e-05   -0.029956442593549158   -0.0024378180149542622
-0.000510600168064047   -0.041794572760207434   -0.002621219132524728
0.0057496349623657565   -0.029961412731901158   -0.002443752116047076
3.327021859282646e-05   -0.029966409386762594   -0.0024122214431063715
-0.000510600168064047   -0.041794572760207434   -0.002621219132524728
0.005568133643947994   -0.04174297445473878   -0.0026265399220277903
0.0057496349623657565   -0.029961412731901158   -0.002443752116047076
0.005595937423207144   -0.041719457584422956   -0.002595909202415257
3.327021859282646e-05   -0.029966409386762594   -0.0024122214431063715
0.005751220088380556   -0.029928225207182343   -0.002458164386084088
0.005595937423207144   -0.041719457584422956   -0.002595909202415257
0.0057496349623657565   -0.029961412731901158   -0.002443752116047076
3.327021859282646e-05   -0.029966409386762594   -0.0024122214431063715
0.005595937423207144   -0.041719457584422956   -0.002595909202415257
-0.00048343934092428636   -0.041810869038265794   -0.002580661770080815
-0.000510600168064047   -0.041794572760207434   -0.002621219132524728
3.327021859282646e-05   -0.029966409386762594   -0.0024122214431063715
0.005595937423207144   -0.041719457584422956   -0.002595909202415257
-0.000510600168064047   -0.041794572760207434   -0.002621219132524728
0.0057496349623657565   -0.029961412731901158   -0.002443752116047076
3.327021859282646e-05   -0.029966409386762594   -0.0024122214431063715
-0.00048343934092428636   -0.041810869038265794   -0.002580661770080815
0.005751220088380556   -0.029928225207182343   -0.002458164386084088
4.1961051610023994e-05   -0.02995381519237173   -0.0023983689610255266
-0.00048343934092428636   -0.041810869038265794   -0.002580661770080815
0.005595937423207144   -0.041719457584422956   -0.002595909202415257
0.005751220088380556   -0.029928225207182343   -0.002458164386084088
0.005601462168180389   -0.041684846674386225   -0.0025764407207032837
4.1961051610023994e-05   -0.02995381519237173   -0.0023983689610255266
0.0057384338772907125   -0.029866160498138426   -0.0024836220311279826
0.005601462168180389   -0.041684846674386225   -0.0025764407207032837
0.005751220088380556   -0.029928225207182343   -0.002458164386084088
4.1961051610023994e-05   -0.02995381519237173   -0.0023983689610255266
0.005601462168180389   -0.041684846674386225   -0.0025764407207032837
-0.0004627804218204693   -0.0418212846558909   -0.002552264628588843
-0.00048343934092428636   -0.041810869038265794   -0.002580661770080815
4.1961051610023994e-05   -0.02995381519237173   -0.0023983689610255266
0.005601462168180389   -0.041684846674386225   -0.0025764407207032837
-0.00048343934092428636   -0.041810869038265794   -0.002580661770080815
0.005751220088380556   -0.029928225207182343   -0.002458164386084088
0.005725678295580676   -0.02997403830266297   -0.002439980822751599
0.005526497557397771   -0.04176312237453797   -0.002668566986112355
0.01204839344078964   -0.03006563634839807   -0.0024723834647180105
0.0057496349623657565   -0.029961412731901158   -0.002443752116047076
0.005526497557397771   -0.04176312237453797   -0.002668566986112355
0.01210308001483887   -0.04175021270190208   -0.0027346226119046705
0.01204839344078964   -0.03006563634839807   -0.0024723834647180105
0.012184681315478023   -0.0416966857428005   -0.0027002472655799385
0.0057496349623657565   -0.029961412731901158   -0.002443752116047076
0.012036905294648141   -0.030022646038264312   -0.00252000516087714
0.012184681315478023   -0.0416966857428005   -0.0027002472655799385
0.01204839344078964   -0.03006563634839807   -0.0024723834647180105
0.0057496349623657565   -0.029961412731901158   -0.002443752116047076
0.012184681315478023   -0.0416966857428005   -0.0027002472655799385
0.005568133643947994   -0.04174297445473878   -0.0026265399220277903
0.005526497557397771   -0.04176312237453797   -0.002668566986112355
0.0057496349623657565   -0.029961412731901158   -0.002443752116047076
0.012184681315478023   -0.0416966857428005   -0.0027002472655799385
0.005526497557397771   -0.04176312237453797   -0.002668566986112355
0.01204839344078964   -0.03006563634839807   -0.0024723834647180105
0.0057496349623657565   -0.029961412731901158   -0.002443752116047076
0.005568133643947994   -0.04174297445473878   -0.0026265399220277903
0.012036905294648141   -0.030022646038264312   -0.00252000516087714
0.005751220088380556   -0.029928225207182343   -0.002458164386084088
0.005568133643947994   -0.04174297445473878   -0.0026265399220277903
0.012184681315478023   -0.0416966857428005   -0.0027002472655799385
0.012036905294648141   -0.030022646038264312   -0.00252000516087714
0.012227711436318683   -0.04165439202275041   -0.002683185932072061
0.005751220088380556   -0.029928225207182343   -0.002458164386084088
0.012006436841737099   -0.029968484934369988   -0.00258488938542752
0.012227711436318683   -0.04165439202275041   -0.002683185932072061
0.012036905294648141   -0.030022646038264312   -0.00252000516087714
0.005751220088380556   -0.029928225207182343   -0.002458164386084088
0.012227711436318683   -0.04165439202275041   -0.002683185932072061
0.005595937423207144   -0.041719457584422956   -0.002595909202415257
0.005568133643947994   -0.04174297445473878   -0.0026265399220277903
0.005751220088380556   -0.029928225207182343   -0.002458164386084088
0.012227711436318683   -0.04165439202275041   -0.002683185932072061
0.005568133643947994   -0.04174297445473878   -0.0026265399220277903
0.012036905294648141   -0.030022646038264312   -0.00252000516087714
0.005751220088380556   -0.029928225207182343   -0.002458164386084088
0.005595937423207144   -0.041719457584422956   -0.002595909202415257
0.012006436841737099   -0.029968484934369988   -0.00258488938542752
0.0057384338772907125   -0.029866160498138426   -0.0024836220311279826
0.005595937423207144   -0.041719457584422956   -0.002595909202415257
0.012227711436318683   -0.04165439202275041   -0.002683185932072061
0.012006436841737099   -0.029968484934369988   -0.00258488938542752
0.012237837792076212   -0.041586461532964566   -0.002683733545103117
0.0057384338772907125   -0.029866160498138426   -0.0024836220311279826
0.011923850801799241   -0.029865168962203485   -0.0026669110028697558
0.012237837792076212   -0.041586461532964566   -0.002683733545103117
0.012006436841737099   -0.029968484934369988   -0.00258488938542752
0.0057384338772907125   -0.029866160498138426   -0.0024836220311279826
0.012237837792076212   -0.041586461532964566   -0.002683733545103117
0.005601462168180389   -0.041684846674386225   -0.0025764407207032837
0.005595937423207144   -0.041719457584422956   -0.002595909202415257
0.0057384338772907125   -0.029866160498138426   -0.0024836220311279826
0.012237837792076212   -0.041586461532964566   -0.002683733545103117
0.005595937423207144   -0.041719457584422956   -0.002595909202415257
0.012006436841737099   -0.029968484934369988   -0.00258488938542752
-0.018998696337767344   -0.04190011448837429   -0.0031575768537826293
-0.019593311208063364   -0.053824030852554244   -0.003104055388462842
-0.012483199184964246   -0.04183299168275451   -0.00291948740046907
-0.019080060366121643   -0.042046010949555006   -0.003070824448768977
-0.019593311208063364   -0.053824030852554244   -0.003104055388462842
-0.013084876140136472   -0.05385516429071467   -0.0029279648571052
-0.012483199184964246   -0.04183299168275451   -0.00291948740046907
-0.013049917797553847   -0.053944636652515046   -0.002900949532816249
-0.019080060366121643   -0.042046010949555006   -0.003070824448768977
-0.012478431999830938   -0.04194153122396914   -0.002848273422026889
-0.013049917797553847   -0.053944636652515046   -0.002900949532816249
-0.012483199184964246   -0.04183299168275451   -0.00291948740046907
-0.019080060366121643   -0.042046010949555006   -0.003070824448768977
-0.013049917797553847   -0.053944636652515046   -0.002900949532816249
-0.0195709618010356   -0.053943734472656164   -0.003098379233935612
-0.019593311208063364   -0.053824030852554244   -0.003104055388462842
-0.019080060366121643   -0.042046010949555006   -0.003070824448768977
-0.013049917797553847   -0.053944636652515046   -0.002900949532816249
-0.019593311208063364   -0.053824030852554244   -0.003104055388462842
-0.012483199184964246   -0.04183299168275451   -0.00291948740046907
-0.019080060366121643   -0.042046010949555006   -0.003070824448768977
-0.0195709618010356   -0.053943734472656164   -0.003098379233935612
-0.012478431999830938   -0.04194153122396914   -0.002848273422026889
-0.019106132631171096   -0.04216498842021515   -0.003001091548479727
-0.0195709618010356   -0.053943734472656164   -0.003098379233935612
-0.013049917797553847   -0.053944636652515046   -0.002900949532816249
-0.012478431999830938   -0.04194153122396914   -0.002848273422026889
-0.012995309989390939   -0.05404374777839535   -0.0028861264679119385
-0.019106132631171096   -0.04216498842021515   -0.003001091548479727
-0.012461897379903478   -0.04204164318162613   -0.0027888837205614363
-0.012995309989390939   -0.05404374777839535   -0.0028861264679119385
-0.012478431999830938   -0.04194153122396914   -0.002848273422026889
-0.019106132631171096   -0.04216498842021515   -0.003001091548479727
-0.012995309989390939   -0.05404374777839535   -0.0028861264679119385
-0.019511237049206938   -0.054059936540014834   -0.003110923531181307
-0.0195709618010356   -0.053943734472656164   -0.003098379233935612
-0.019106132631171096   -0.04216498842021515   -0.003001091548479727
-0.012995309989390939   -0.05404374777839535   -0.0028861264679119385
-0.0195709618010356   -0.053943734472656164   -0.003098379233935612
-0.012478431999830938   -0.04194153122396914   -0.002848273422026889
-0.019106132631171096   -0.04216498842021515   -0.003001091548479727
-0.019511237049206938   -0.054059936540014834   -0.003110923531181307
-0.012461897379903478   -0.04204164318162613   -0.0027888837205614363
-0.019115039260357333   -0.042294181802009154   -0.0029498384446728773
-0.019511237049206938   -0.054059936540014834   -0.003110923531181307
-0.012995309989390939   -0.05404374777839535   -0.0028861264679119385
-0.012461897379903478   -0.04204164318162613   -0.0027888837205614363
-0.012924542717297496   -0.05415932054598784   -0.002883299443522923
-0.019115039260357333   -0.042294181802009154   -0.0029498384446728773
-0.012420851815735455   -0.04214095719849775   -0.002740491093750518
-0.012924542717297496   -0.05415932054598784   -0.002883299443522923
-0.012461897379903478   -0.04204164318162613   -0.0027888837205614363
-0.019115039260357333   -0.042294181802009154   -0.0029498384446728773
-0.012924542717297496   -0.05415932054598784   -0.002883299443522923
-0.01941421196040382   -0.05420959970242125   -0.0031426075299874397
-0.019511237049206938   -0.054059936540014834   -0.003110923531181307
-0.019115039260357333   -0.042294181802009154   -0.0029498384446728773
-0.012924542717297496   -0.05415932054598784   -0.002883299443522923
-0.019511237049206938   -0.054059936540014834   -0.003110923531181307
-0.012461897379903478   -0.04204164318162613   -0.0027888837205614363
-0.012483199184964246   -0.04183299168275451   -0.00291948740046907
-0.013084876140136472   -0.05385516429071467   -0.0029279648571052
-0.006430712404687731   -0.041794504330504564   -0.0027573919620512313
-0.012478431999830938   -0.04194153122396914   -0.002848273422026889
-0.013084876140136472   -0.05385516429071467   -0.0029279648571052
-0.00712324632310327   -0.05386194279404244   -0.0028109173897141004
-0.006430712404687731   -0.041794504330504564   -0.0027573919620512313
-0.007076416358861862   -0.05391327780095843   -0.002762989832378501
-0.012478431999830938   -0.04194153122396914   -0.002848273422026889
-0.006408296309626791   -0.04186021331486823   -0.0026953310798353237
-0.007076416358861862   -0.05391327780095843   -0.002762989832378501
-0.006430712404687731   -0.041794504330504564   -0.0027573919620512313
-0.012478431999830938   -0.04194153122396914   -0.002848273422026889
-0.007076416358861862   -0.05391327780095843   -0.002762989832378501
-0.013049917797553847   -0.053944636652515046   -0.002900949532816249
-0.013084876140136472   -0.05385516429071467   -0.0029279648571052
-0.012478431999830938   -0.04194153122396914   -0.002848273422026889
-0.007076416358861862   -0.05391327780095843   -0.002762989832378501
-0.013084876140136472   -0.05385516429071467   -0.0029279648571052
-0.006430712404687731   -0.041794504330504564   -0.0027573919620512313
-0.012478431999830938   -0.04194153122396914   -0.002848273422026889
-0.013049917797553847   -0.053944636652515046   -0.002900949532816249
-0.006408296309626791   -0.04186021331486823   -0.0026953310798353237
-0.012461897379903478   -0.04204164318162613   -0.0027888837205614363
-0.013049917797553847   -0.053944636652515046   -0.002900949532816249
-0.007076416358861862   -0.05391327780095843   -0.002762989832378501
-0.006408296309626791   -0.04186021331486823   -0.0026953310798353237
-0.0070234920992179066   -0.053975678082890506   -0.002727301214831331
-0.012461897379903478   -0.04204164318162613   -0.0027888837205614363
-0.006380761812352697   -0.041920507212486434   -0.002645105012914913
-0.0070234920992179066   -0.053975678082890506   -0.002727301214831331
-0.006408296309626791   -0.04186021331486823   -0.0026953310798353237
-0.012461897379903478   -0.04204164318162613   -0.0027888837205614363
-0.0070234920992179066   -0.053975678082890506   -0.002727301214831331
-0.012995309989390939   -0.05404374777839535   -0.0028861264679119385
-0.013049917797553847   -0.053944636652515046   -0.002900949532816249
-0.012461897379903478   -0.04204164318162613   -0.0027888837205614363
-0.0070234920992179066   -0.053975678082890506   -0.002727301214831331
-0.013049917797553847   -0.053944636652515046   -0.002900949532816249
-0.006408296309626791   -0.04186021331486823   -0.0026953310798353237
-0.012461897379903478   -0.04204164318162613   -0.0027888837205614363
-0.012995309989390939   -0.05404374777839535   -0.0028861264679119385
-0.006380761812352697   -0.041920507212486434   -0.002645105012914913
-0.012420851815735455   -0.04214095719849775   -0.002740491093750518
-0.012995309989390939   -0.05404374777839535   -0.0028861264679119385
-0.0070234920992179066   -0.053975678082890506   -0.002727301214831331
-0.006380761812352697   -0.041920507212486434   -0.002645105012914913
-0.006966452478105301   -0.05404933813500372   -0.0027042476916578646
-0.012420851815735455   -0.04214095719849775   -0.002740491093750518
-0.0063476417494099414   -0.04197558398898054   -0.002606997499174249
-0.006966452478105301   -0.05404933813500372   -0.0027042476916578646
-0.006380761812352697   -0.041920507212486434   -0.002645105012914913
-0.012420851815735455   -0.04214095719849775   -0.002740491093750518
-0.006966452478105301   -0.05404933813500372   -0.0027042476916578646
-0.012924542717297496   -0.05415932054598784   -0.002883299443522923
-0.012995309989390939   -0.05404374777839535   -0.0028861264679119385
-0.012420851815735455   -0.04214095719849775   -0.002740491093750518
-0.006966452478105301   -0.05404933813500372   -0.0027042476916578646
-0.012995309989390939   -0.05404374777839535   -0.0028861264679119385
-0.006380761812352697   -0.041920507212486434   -0.002645105012914913
-0.006430712404687731   -0.041794504330504564   -0.0027573919620512313
-0.00712324632310327   -0.05386194279404244   -0.0028109173897141004
-0.000541992114951843   -0.04177247891444964   -0.0026735085598427214
-0.006408296309626791   -0.04186021331486823   -0.0026953310798353237
-0.00712324632310327   -0.05386194279404244   -0.0028109173897141004
-0.0013302970056765359   -0.05383036370683544   -0.0027630233498285852
-0.000541992114951843   -0.04177247891444964   -0.0026735085598427214
-0.0012749073413126952   -0.053842289531721065   -0.00269522414353282
-0.006408296309626791   -0.04186021331486823   -0.0026953310798353237
-0.000510600168064047   -0.041794572760207434   -0.002621219132524728
-0.0012749073413126952   -0.053842289531721065   -0.00269522414353282
-0.000541992114951843   -0.04177247891444964   -0.0026735085598427214
-0.006408296309626791   -0.04186021331486823   -0.0026953310798353237
-0.0012749073413126952   -0.053842289531721065   -0.00269522414353282
-0.007076416358861862   -0.05391327780095843   -0.002762989832378501
-0.00712324632310327   -0.05386194279404244   -0.0028109173897141004
-0.006408296309626791   -0.04186021331486823   -0.0026953310798353237
-0.0012749073413126952   -0.053842289531721065   -0.00269522414353282
-0.00712324632310327   -0.05386194279404244   -0.0028109173897141004
-0.000541992114951843   -0.04177247891444964   -0.0026735085598427214
-0.006408296309626791   -0.04186021331486823   -0.0026953310798353237
-0.007076416358861862   -0.05391327780095843   -0.002762989832378501
-0.000510600168064047   -0.041794572760207434   -0.002621219132524728
-0.006380761812352697   -0.041920507212486434   -0.002645105012914913
-0.007076416358861862   -0.05391327780095843   -0.002762989832378501
-0.0012749073413126952   -0.053842289531721065   -0.00269522414353282
-0.000510600168064047   -0.041794572760207434   -0.002621219132524728
-0.001222513317332363   -0.053864412877556306   -0.0026395767537614736
-0.006380761812352697   -0.041920507212486434   -0.002645105012914913
-0.00048343934092428636   -0.041810869038265794   -0.002580661770080815
-0.001222513317332363   -0.053864412877556306   -0.0026395767537614736
-0.000510600168064047   -0.041794572760207434   -0.002621219132524728
-0.006380761812352697   -0.041920507212486434   -0.002645105012914913
-0.001222513317332363   -0.053864412877556306   -0.0026395767537614736
-0.0070234920992179066   -0.053975678082890506   -0.002727301214831331
-0.007076416358861862   -0.05391327780095843   -0.002762989832378501
-0.006380761812352697   -0.041920507212486434   -0.002645105012914913
-0.001222513317332363   -0.053864412877556306   -0.0026395767537614736
-0.007076416358861862   -0.05391327780095843   -0.002762989832378501
-0.000510600168064047   -0.041794572760207434   -0.002621219132524728
-0.006380761812352697   -0.041920507212486434   -0.002645105012914913
-0.0070234920992179066   -0.053975678082890506   -0.002727301214831331
-0.00048343934092428636   -0.041810869038265794   -0.002580661770080815
-0.0063476417494099414   -0.04197558398898054   -0.002606997499174249
-0.0070234920992179066   -0.053975678082890506   -0.002727301214831331
-0.001222513317332363   -0.053864412877556306   -0.0026395767537614736
-0.00048343934092428636   -0.041810869038265794   -0.002580661770080815
-0.001178054248652167   -0.05389723926671503   -0.0025965058959839756
-0.0063476417494099414   -0.04197558398898054   -0.002606997499174249
-0.0004627804218204693   -0.0418212846558909   -0.002552264628588843
-0.001178054248652167   -0.05389723926671503   -0.0025965058959839756
-0.00048343934092428636   -0.041810869038265794   -0.002580661770080815
-0.0063476417494099414   -0.04197558398898054   -0.002606997499174249
-0.001178054248652167   -0.05389723926671503   -0.0025965058959839756
-0.006966452478105301   -0.05404933813500372   -0.0027042476916578646
-0.0070234920992179066   -0.053975678082890506   -0.002727301214831331
-0.0063476417494099414   -0.04197558398898054   -0.002606997499174249
-0.001178054248652167   -0.05389723926671503   -0.0025965058959839756
-0.0070234920992179066   -0.053975678082890506   -0.002727301214831331
-0.00048343934092428636   -0.041810869038265794   -0.002580661770080815
-0.000541992114951843   -0.04177247891444964   -0.0026735085598427214
-0.0013302970056765359   -0.05383036370683544   -0.0027630233498285852
0.005526497557397771   -0.04176312237453797   -0.002668566986112355
-0.000510600168064047   -0.041794572760207434   -0.002621219132524728
-0.0013302970056765359   -0.05383036370683544   -0.0027630233498285852
0.004637132159525854   -0.05376015624166937   -0.002786563621234679
0.005526497557397771   -0.04176312237453797   -0.002668566986112355
0.00470779142618268   -0.05373254456449552   -0.002699247344597387
-0.000510600168064047   -0.041794572760207434   -0.002621219132524728
0.005568133643947994   -0.04174297445473878   -0.0026265399220277903
0.00470779142618268   -0.05373254456449552   -0.002699247344597387
0.005526497557397771   -0.04176312237453797   -0.002668566986112355
-0.000510600168064047   -0.041794572760207434   -0.002621219132524728
0.00470779142618268   -0.05373254456449552   -0.002699247344597387
-0.0012749073413126952   -0.053842289531721065   -0.00269522414353282
-0.0013302970056765359   -0.05383036370683544   -0.0027630233498285852
-0.000510600168064047   -0.041794572760207434   -0.002621219132524728
0.00470779142618268   -0.05373254456449552   -0.002699247344597387
-0.0013302970056765359   -0.05383036370683544   -0.0027630233498285852
0.005526497557397771   -0.04176312237453797   -0.002668566986112355
-0.000510600168064047   -0.041794572760207434   -0.002621219132524728
-0.0012749073413126952   -0.053842289531721065   -0.00269522414353282
0.005568133643947994   -0.04174297445473878   -0.0026265399220277903
-0.00048343934092428636   -0.041810869038265794   -0.002580661770080815
-0.0012749073413126952   -0.053842289531721065   -0.00269522414353282
0.00470779142618268   -0.05373254456449552   -0.002699247344597387
0.005568133643947994   -0.04174297445473878   -0.0026265399220277903
0.004773071113111001   -0.05371818816515977   -0.0026240468634424496
-0.00048343934092428636   -0.041810869038265794   -0.002580661770080815
0.005595937423207144   -0.041719457584422956   -0.002595909202415257
0.004773071113111001   -0.05371818816515977   -0.0026240468634424496
0.005568133643947994   -0.04174297445473878   -0.0026265399220277903
-0.00048343934092428636   -0.041810869038265794   -0.002580661770080815
0.004773071113111001   -0.05371818816515977   -0.0026240468634424496
-0.001222513317332363   -0.053864412877556306   -0.0026395767537614736
-0.0012749073413126952   -0.053842289531721065   -0.00269522414353282
-0.00048343934092428636   -0.041810869038265794   -0.002580661770080815
0.004773071113111001   -0.05371818816515977   -0.0026240468634424496
-0.0012749073413126952   -0.053842289531721065   -0.00269522414353282
0.005568133643947994   -0.04174297445473878   -0.0026265399220277903
-0.00048343934092428636   -0.041810869038265794   -0.002580661770080815
-0.001222513317332363   -0.053864412877556306   -0.0026395767537614736
0.005595937423207144   -0.041719457584422956   -0.002595909202415257
-0.0004627804218204693   -0.0418212846558909   -0.002552264628588843
-0.001222513317332363   -0.053864412877556306   -0.0026395767537614736
0.004773071113111001   -0.05371818816515977   -0.0026240468634424496
0.005595937423207144   -0.041719457584422956   -0.002595909202415257
0.0048080445223773124   -0.05371012286929082   -0.0025601712091705814
-0.0004627804218204693   -0.0418212846558909   -0.002552264628588843
0.005601462168180389   -0.041684846674386225   -0.0025764407207032837
0.0048080445223773124   -0.05371012286929082   -0.0025601712091705814
0.005595937423207144   -0.041719457584422956   -0.002595909202415257
-0.0004627804218204693   -0.0418212846558909   -0.002552264628588843
0.0048080445223773124   -0.05371012286929082   -0.0025601712091705814
-0.001178054248652167   -0.05389723926671503   -0.0025965058959839756
-0.001222513317332363   -0.053864412877556306   -0.0026395767537614736
-0.0004627804218204693   -0.0418212846558909   -0.002552264628588843
0.0048080445223773124   -0.05371012286929082   -0.0025601712091705814
-0.001222513317332363   -0.053864412877556306   -0.0026395767537614736
0.005595937423207144   -0.041719457584422956   -0.002595909202415257
0.005526497557397771   -0.04176312237453797   -0.002668566986112355
0.004637132159525854   -0.05376015624166937   -0.002786563621234679
0.01210308001483887   -0.04175021270190208   -0.0027346226119046705
0.005568133643947994   -0.04174297445473878   -0.0026265399220277903
0.004637132159525854   -0.05376015624166937   -0.002786563621234679
0.011026542741692407   -0.05364221293407059   -0.0028852581331678387
0.01210308001483887   -0.04175021270190208   -0.0027346226119046705
0.011211028212814996   -0.05357876474353617   -0.0027706737630486286
0.005568133643947994   -0.04174297445473878   -0.0026265399220277903
0.012184681315478023   -0.0416966857428005   -0.0027002472655799385
0.011211028212814996   -0.05357876474353617   -0.0027706737630486286
0.01210308001483887   -0.04175021270190208   -0.0027346226119046705
0.005568133643947994   -0.04174297445473878   -0.0026265399220277903
0.011211028212814996   -0.05357876474353617   -0.0027706737630486286
0.00470779142618268   -0.05373254456449552   -0.002699247344597387
0.004637132159525854   -0.05376015624166937   -0.002786563621234679
0.005568133643947994   -0.04174297445473878   -0.0026265399220277903
0.011211028212814996   -0.05357876474353617   -0.0027706737630486286
0.004637132159525854   -0.05376015624166937   -0.002786563621234679
0.01210308001483887   -0.04175021270190208   -0.0027346226119046705
0.005568133643947994   -0.04174297445473878   -0.0026265399220277903
0.00470779142618268   -0.05373254456449552   -0.002699247344597387
0.012184681315478023   -0.0416966857428005   -0.0027002472655799385
0.005595937423207144   -0.041719457584422956   -0.002595909202415257
0.00470779142618268   -0.05373254456449552   -0.002699247344597387
0.011211028212814996   -0.05357876474353617   -0.0027706737630486286
0.012184681315478023   -0.0416966857428005   -0.0027002472655799385
0.011337740234505594   -0.05354799911447169   -0.002673341754523182
0.005595937423207144   -0.041719457584422956   -0.002595909202415257
0.012227711436318683   -0.04165439202275041   -0.002683185932072061
0.011337740234505594   -0.05354799911447169   -0.002673341754523182
0.012184681315478023   -0.0416966857428005   -0.0027002472655799385
0.005595937423207144   -0.041719457584422956   -0.002595909202415257
0.011337740234505594   -0.05354799911447169   -0.002673341754523182
0.004773071113111001   -0.05371818816515977   -0.0026240468634424496
0.00470779142618268   -0.05373254456449552   -0.002699247344597387
0.005595937423207144   -0.041719457584422956   -0.002595909202415257
0.011337740234505594   -0.05354799911447169   -0.002673341754523182
0.00470779142618268   -0.05373254456449552   -0.002699247344597387
0.012184681315478023   -0.0416966857428005   -0.0027002472655799385
0.005595937423207144   -0.041719457584422956   -0.002595909202415257
0.004773071113111001   -0.05371818816515977   -0.0026240468634424496
0.012227711436318683   -0.04165439202275041   -0.002683185932072061
0.005601462168180389   -0.041684846674386225   -0.0025764407207032837
0.004773071113111001   -0.05371818816515977   -0.0026240468634424496
0.011337740234505594   -0.05354799911447169   -0.002673341754523182
0.012227711436318683   -0.04165439202275041   -0.002683185932072061
0.01145018079306294   -0.05351448518127046   -0.0025939777815911073
0.005601462168180389   -0.041684846674386225   -0.0025764407207032837
0.012237837792076212   -0.041586461532964566   -0.002683733545103117
0.01145018079306294   -0.05351448518127046   -0.0025939777815911073
0.012227711436318683   -0.04165439202275041   -0.002683185932072061
0.005601462168180389   -0.041684846674386225   -0.0025764407207032837
0.01145018079306294   -0.05351448518127046   -0.0025939777815911073
0.0048080445223773124   -0.05371012286929082   -0.0025601712091705814
0.004773071113111001   -0.05371818816515977   -0.0026240468634424496
0.005601462168180389   -0.041684846674386225   -0.0025764407207032837
0.01145018079306294   -0.05351448518127046   -0.0025939777815911073
0.004773071113111001   -0.05371818816515977   -0.0026240468634424496
0.012227711436318683   -0.04165439202275041   -0.002683185932072061
-0.019593311208063364   -0.053824030852554244   -0.003104055388462842
-0.019068995412258864   -0.06521139699937055   -0.002967619809720396
-0.013084876140136472   -0.05385516429071467   -0.0029279648571052
-0.0195709618010356   -0.053943734472656164   -0.003098379233935612
-0.019068995412258864   -0.06521139699937055   -0.002967619809720396
-0.013031250657283182   -0.06534258932980722   -0.0028615233847303764
-0.013084876140136472   -0.05385516429071467   -0.0029279648571052
-0.012954888179322142   -0.06540939778722035   -0.002877546083976228
-0.0195709618010356   -0.053943734472656164   -0.003098379233935612
-0.013049917797553847   -0.053944636652515046   -0.002900949532816249
-0.012954888179322142   -0.06540939778722035   -0.002877546083976228
-0.013084876140136472   -0.05385516429071467   -0.0029279648571052
-0.0195709618010356   -0.053943734472656164   -0.003098379233935612
-0.012954888179322142   -0.06540939778722035   -0.002877546083976228
-0.018931156521681914   -0.06530159968493116   -0.0030432182204353153
-0.019068995412258864   -0.06521139699937055   -0.002967619809720396
-0.0195709618010356   -0.053943734472656164   -0.003098379233935612
-0.012954888179322142   -0.06540939778722035   -0.002877546083976228
-0.019068995412258864   -0.06521139699937055   -0.002967619809720396
-0.013084876140136472   -0.05385516429071467   -0.0029279648571052
-0.0195709618010356   -0.053943734472656164   -0.003098379233935612
-0.018931156521681914   -0.06530159968493116   -0.0030432182204353153
-0.013049917797553847   -0.053944636652515046   -0.002900949532816249
-0.019511237049206938   -0.054059936540014834   -0.003110923531181307
-0.018931156521681914   -0.06530159968493116   -0.0030432182204353153
-0.012954888179322142   -0.06540939778722035   -0.002877546083976228
-0.013049917797553847   -0.053944636652515046   -0.002900949532816249
-0.012851481518736945   -0.06550448274751008   -0.0029060745613197466
-0.019511237049206938   -0.054059936540014834   -0.003110923531181307
-0.012995309989390939   -0.05404374777839535   -0.0028861264679119385
-0.012851481518736945   -0.06550448274751008   -0.0029060745613197466
-0.013049917797553847   -0.053944636652515046   -0.002900949532816249
-0.019511237049206938   -0.054059936540014834   -0.003110923531181307
-0.012851481518736945   -0.06550448274751008   -0.0029060745613197466
-0.01877378079049484   -0.06541226868192197   -0.0031384855907699784
-0.018931156521681914   -0.06530159968493116   -0.0030432182204353153
-0.019511237049206938   -0.054059936540014834   -0.003110923531181307
-0.012851481518736945   -0.06550448274751008   -0.0029060745613197466
-0.018931156521681914   -0.06530159968493116   -0.0030432182204353153
-0.013049917797553847   -0.053944636652515046   -0.002900949532816249
-0.019511237049206938   -0.054059936540014834   -0.003110923531181307
-0.01877378079049484   -0.06541226868192197   -0.0031384855907699784
-0.012995309989390939   -0.05404374777839535   -0.0028861264679119385
-0.01941421196040382   -0.05420959970242125   -0.0031426075299874397
-0.01877378079049484   -0.06541226868192197   -0.0031384855907699784
-0.012851481518736945   -0.06550448274751008   -0.0029060745613197466
-0.012995309989390939   -0.05404374777839535   -0.0028861264679119385
-0.012740518402601698   -0.065633643095593   -0.002947479004443854
-0.01941421196040382   -0.05420959970242125   -0.0031426075299874397
-0.012924542717297496   -0.05415932054598784   -0.002883299443522923
-0.012740518402601698   -0.065633643095593   -0.002947479004443854
-0.012995309989390939   -0.05404374777839535   -0.0028861264679119385
-0.01941421196040382   -0.05420959970242125   -0.0031426075299874397
-0.012740518402601698   -0.065633643095593   -0.002947479004443854
-0.01855945512646772   -0.06558070909510892   -0.0032537828100949184
-0.01877378079049484   -0.06541226868192197   -0.0031384855907699784
-0.01941421196040382   -0.05420959970242125   -0.0031426075299874397
-0.012740518402601698   -0.065633643095593   -0.002947479004443854
-0.01877378079049484   -0.06541226868192197   -0.0031384855907699784
-0.012995309989390939   -0.05404374777839535   -0.0028861264679119385
-0.013084876140136472   -0.05385516429071467   -0.0029279648571052
-0.013031250657283182   -0.06534258932980722   -0.0028615233847303764
-0.00712324632310327   -0.05386194279404244   -0.0028109173897141004
-0.013049917797553847   -0.053944636652515046   -0.002900949532816249
-0.013031250657283182   -0.06534258932980722   -0.0028615233847303764
-0.007619302714258593   -0.06539453375795422   -0.0027936086452889177
-0.00712324632310327   -0.05386194279404244   -0.0028109173897141004
-0.007536135719706936   -0.06542928176715863   -0.0027587124980617207
-0.013049917797553847   -0.053944636652515046   -0.002900949532816249
-0.007076416358861862   -0.05391327780095843   -0.002762989832378501
-0.007536135719706936   -0.06542928176715863   -0.0027587124980617207
-0.00712324632310327   -0.05386194279404244   -0.0028109173897141004
-0.013049917797553847   -0.053944636652515046   -0.002900949532816249
-0.007536135719706936   -0.06542928176715863   -0.0027587124980617207
-0.012954888179322142   -0.06540939778722035   -0.002877546083976228
-0.013031250657283182   -0.06534258932980722   -0.0028615233847303764
-0.013049917797553847   -0.053944636652515046   -0.002900949532816249
-0.007536135719706936   -0.06542928176715863   -0.0027587124980617207
-0.013031250657283182   -0.06534258932980722   -0.0028615233847303764
-0.00712324632310327   -0.05386194279404244   -0.0028109173897141004
-0.013049917797553847   -0.053944636652515046   -0.002900949532816249
-0.012954888179322142   -0.06540939778722035   -0.002877546083976228
-0.007076416358861862   -0.05391327780095843   -0.002762989832378501
-0.012995309989390939   -0.05404374777839535   -0.0028861264679119385
-0.012954888179322142   -0.06540939778722035   -0.002877546083976228
-0.007536135719706936   -0.06542928176715863   -0.0027587124980617207
-0.007076416358861862   -0.05391327780095843   -0.002762989832378501
-0.00744666795315713   -0.06549121989932905   -0.0027361700175882945
-0.012995309989390939   -0.05404374777839535   -0.0028861264679119385
-0.0070234920992179066   -0.053975678082890506   -0.002727301214831331
-0.00744666795315713   -0.06549121989932905   -0.0027361700175882945
-0.007076416358861862   -0.05391327780095843   -0.002762989832378501
-0.012995309989390939   -0.05404374777839535   -0.0028861264679119385
-0.00744666795315713   -0.06549121989932905   -0.0027361700175882945
-0.012851481518736945   -0.06550448274751008   -0.0029060745613197466
-0.012954888179322142   -0.06540939778722035   -0.002877546083976228
-0.012995309989390939   -0.05404374777839535   -0.0028861264679119385
-0.00744666795315713   -0.06549121989932905   -0.0027361700175882945
-0.012954888179322142   -0.06540939778722035   -0.002877546083976228
-0.007076416358861862   -0.05391327780095843   -0.002762989832378501
-0.012995309989390939   -0.05404374777839535   -0.0028861264679119385
-0.012851481518736945   -0.06550448274751008   -0.0029060745613197466
-0.0070234920992179066   -0.053975678082890506   -0.002727301214831331
-0.012924542717297496   -0.05415932054598784   -0.002883299443522923
-0.012851481518736945   -0.06550448274751008   -0.0029060745613197466
-0.00744666795315713   -0.06549121989932905   -0.0027361700175882945
-0.0070234920992179066   -0.053975678082890506   -0.002727301214831331
-0.007354705487832063   -0.06558113271775191   -0.002726584562974324
-0.012924542717297496   -0.05415932054598784   -0.002883299443522923
-0.006966452478105301   -0.05404933813500372   -0.0027042476916578646
-0.007354705487832063   -0.06558113271775191   -0.002726584562974324
-0.0070234920992179066   -0.053975678082890506   -0.002727301214831331
-0.012924542717297496   -0.05415932054598784   -0.002883299443522923
-0.007354705487832063   -0.06558113271775191   -0.002726584562974324
-0.012740518402601698   -0.065633643095593   -0.002947479004443854
-0.012851481518736945   -0.06550448274751008   -0.0029060745613197466
-0.012924542717297496   -0.05415932054598784   -0.002883299443522923
-0.007354705487832063   -0.06558113271775191   -0.002726584562974324
-0.012851481518736945   -0.06550448274751008   -0.0029060745613197466
-0.0070234920992179066   -0.053975678082890506   -0.002727301214831331
-0.00712324632310327   -0.05386194279404244   -0.0028109173897141004
-0.007619302714258593   -0.06539453375795422   -0.0027936086452889177
-0.0013302970056765359   -0.05383036370683544   -0.0027630233498285852
-0.007076416358861862   -0.05391327780095843   -0.002762989832378501
-0.007619302714258593   -0.06539453375795422   -0.0027936086452889177
-0.002371295942417896   -0.06535472280432791   -0.0027823085671498256
-0.0013302970056765359   -0.05383036370683544   -0.0027630233498285852
-0.002279307021974146   -0.06535555894113249   -0.0026982401491172474
-0.007076416358861862   -0.05391327780095843   -0.002762989832378501
-0.0012749073413126952   -0.053842289531721065   -0.00269522414353282
-0.002279307021974146   -0.06535555894113249   -0.0026982401491172474
-0.0013302970056765359   -0.05383036370683544   -0.0027630233498285852
-0.007076416358861862   -0.05391327780095843   -0.002762989832378501
-0.002279307021974146   -0.06535555894113249   -0.0026982401491172474
-0.007536135719706936   -0.06542928176715863   -0.0027587124980617207
-0.007619302714258593   -0.06539453375795422   -0.0027936086452889177
-0.007076416358861862   -0.05391327780095843   -0.002762989832378501
-0.002279307021974146   -0.06535555894113249   -0.0026982401491172474
-0.007619302714258593   -0.06539453375795422   -0.0027936086452889177
-0.0013302970056765359   -0.05383036370683544   -0.0027630233498285852
-0.007076416358861862   -0.05391327780095843   -0.002762989832378501
-0.007536135719706936   -0.06542928176715863   -0.0027587124980617207
-0.0012749073413126952   -0.053842289531721065   -0.00269522414353282
-0.0070234920992179066   -0.053975678082890506   -0.002727301214831331
-0.007536135719706936   -0.06542928176715863   -0.0027587124980617207
-0.002279307021974146   -0.06535555894113249   -0.0026982401491172474
-0.0012749073413126952   -0.053842289531721065   -0.00269522414353282
-0.002189731376863961   -0.06538158977107657   -0.0026265554190601633
-0.0070234920992179066   -0.053975678082890506   -0.002727301214831331
-0.001222513317332363   -0.053864412877556306   -0.0026395767537614736
-0.002189731376863961   -0.06538158977107657   -0.0026265554190601633
-0.0012749073413126952   -0.053842289531721065   -0.00269522414353282
-0.0070234920992179066   -0.053975678082890506   -0.002727301214831331
-0.002189731376863961   -0.06538158977107657   -0.0026265554190601633
-0.00744666795315713   -0.06549121989932905   -0.0027361700175882945
-0.007536135719706936   -0.06542928176715863   -0.0027587124980617207
-0.0070234920992179066   -0.053975678082890506   -0.002727301214831331
-0.002189731376863961   -0.06538158977107657   -0.0026265554190601633
-0.007536135719706936   -0.06542928176715863   -0.0027587124980617207
-0.0012749073413126952   -0.053842289531721065   -0.00269522414353282
-0.0070234920992179066   -0.053975678082890506   -0.002727301214831331
-0.00744666795315713   -0.06549121989932905   -0.0027361700175882945
-0.001222513317332363   -0.053864412877556306   -0.0026395767537614736
-0.006966452478105301   -0.05404933813500372   -0.0027042476916578646
-0.00744666795315713   -0.06549121989932905   -0.0027361700175882945
-0.002189731376863961   -0.06538158977107657   -0.0026265554190601633
-0.001222513317332363   -0.053864412877556306   -0.0026395767537614736
-0.0021098163352133805   -0.0654349750923245   -0.0025676851327493195
-0.006966452478105301   -0.05404933813500372   -0.0027042476916578646
-0.001178054248652167   -0.05389723926671503   -0.0025965058959839756
-0.0021098163352133805   -0.0654349750923245   -0.0025676851327493195
-0.001222513317332363   -0.053864412877556306   -0.0026395767537614736
-0.006966452478105301   -0.05404933813500372   -0.0027042476916578646
-0.0021098163352133805   -0.0654349750923245   -0.0025676851327493195
-0.007354705487832063   -0.06558113271775191   -0.002726584562974324
-0.00744666795315713   -0.06549121989932905   -0.0027361700175882945
-0.006966452478105301   -0.05404933813500372   -0.0027042476916578646
-0.0021098163352133805   -0.0654349750923245   -0.0025676851327493195
-0.00744666795315713   -0.06549121989932905   -0.0027361700175882945
-0.001222513317332363   -0.053864412877556306   -0.0026395767537614736
-0.0013302970056765359   -0.05383036370683544   -0.0027630233498285852
-0.002371295942417896   -0.06535472280432791   -0.0027823085671498256
0.004637132159525854   -0.05376015624166937   -0.002786563621234679
-0.0012749073413126952   -0.053842289531721065   -0.00269522414353282
-0.002371295942417896   -0.06535472280432791   -0.0027823085671498256
0.0030578036313158746   -0.06522587718576604   -0.0028320684791701065
0.004637132159525854   -0.05376015624166937   -0.002786563621234679
0.003170271265786826   -0.06519051638890577   -0.002699294286543566
-0.0012749073413126952   -0.053842289531721065   -0.00269522414353282
0.00470779142618268   -0.05373254456449552   -0.002699247344597387
0.003170271265786826   -0.06519051638890577   -0.002699294286543566
0.004637132159525854   -0.05376015624166937   -0.002786563621234679
-0.0012749073413126952   -0.053842289531721065   -0.00269522414353282
0.003170271265786826   -0.06519051638890577   -0.002699294286543566
-0.002279307021974146   -0.06535555894113249   -0.0026982401491172474
-0.002371295942417896   -0.06535472280432791   -0.0027823085671498256
-0.0012749073413126952   -0.053842289531721065   -0.00269522414353282
0.003170271265786826   -0.06519051638890577   -0.002699294286543566
-0.002371295942417896   -0.06535472280432791   -0.0027823085671498256
0.004637132159525854   -0.05376015624166937   -0.002786563621234679
-0.0012749073413126952   -0.053842289531721065   -0.00269522414353282
-0.002279307021974146   -0.06535555894113249   -0.0026982401491172474
0.00470779142618268   -0.05373254456449552   -0.002699247344597387
-0.001222513317332363   -0.053864412877556306   -0.0026395767537614736
-0.002279307021974146   -0.06535555894113249   -0.0026982401491172474
0.003170271265786826   -0.06519051638890577   -0.002699294286543566
0.00470779142618268   -0.05373254456449552   -0.002699247344597387
0.0032855806676735473   -0.06518393794770615   -0.002579697836860985
-0.001222513317332363   -0.053864412877556306   -0.0026395767537614736
0.004773071113111001   -0.05371818816515977   -0.0026240468634424496
0.0032855806676735473   -0.06518393794770615   -0.002579697836860985
0.00470779142618268   -0.05373254456449552   -0.002699247344597387
-0.001222513317332363   -0.053864412877556306   -0.0026395767537614736
0.0032855806676735473   -0.06518393794770615   -0.002579697836860985
-0.002189731376863961   -0.06538158977107657   -0.0026265554190601633
-0.002279307021974146   -0.06535555894113249   -0.0026982401491172474
-0.001222513317332363   -0.053864412877556306   -0.0026395767537614736
0.0032855806676735473   -0.06518393794770615   -0.002579697836860985
-0.002279307021974146   -0.06535555894113249   -0.0026982401491172474
0.00470779142618268   -0.05373254456449552   -0.002699247344597387
-0.001222513317332363   -0.053864412877556306   -0.0026395767537614736
-0.002189731376863961   -0.06538158977107657   -0.0026265554190601633
0.004773071113111001   -0.05371818816515977   -0.0026240468634424496
-0.001178054248652167   -0.05389723926671503   -0.0025965058959839756
-0.002189731376863961   -0.06538158977107657   -0.0026265554190601633
0.0032855806676735473   -0.06518393794770615   -0.002579697836860985
0.004773071113111001   -0.05371818816515977   -0.0026240468634424496
0.003362242294098512   -0.06520082832261911   -0.0024715416527909305
-0.001178054248652167   -0.05389723926671503   -0.0025965058959839756
0.0048080445223773124   -0.05371012286929082   -0.0025601712091705814
0.003362242294098512   -0.06520082832261911   -0.0024715416527909305
0.004773071113111001   -0.05371818816515977   -0.0026240468634424496
-0.001178054248652167   -0.05389723926671503   -0.0025965058959839756
0.003362242294098512   -0.06520082832261911   -0.0024715416527909305
-0.0021098163352133805   -0.0654349750923245   -0.0025676851327493195
-0.002189731376863961   -0.06538158977107657   -0.0026265554190601633
-0.001178054248652167   -0.05389723926671503   -0.0025965058959839756
0.003362242294098512   -0.06520082832261911   -0.0024715416527909305
-0.002189731376863961   -0.06538158977107657   -0.0026265554190601633
0.004773071113111001   -0.05371818816515977   -0.0026240468634424496
0.004637132159525854   -0.05376015624166937   -0.002786563621234679
0.0030578036313158746   -0.06522587718576604   -0.0028320684791701065
0.011026542741692407   -0.05364221293407059   -0.0028852581331678387
0.00470779142618268   -0.05373254456449552   -0.002699247344597387
0.0030578036313158746   -0.06522587718576604   -0.0028320684791701065
0.008833820165617779   -0.06500437462049724   -0.0029606299224168757
0.011026542741692407   -0.05364221293407059   -0.0028852581331678387
0.00913302844631646   -0.06493144195437638   -0.0027674524764471488
0.00470779142618268   -0.05373254456449552   -0.002699247344597387
0.011211028212814996   -0.05357876474353617   -0.0027706737630486286
0.00913302844631646   -0.06493144195437638   -0.0027674524764471488
0.011026542741692407   -0.05364221293407059   -0.0028852581331678387
0.00470779142618268   -0.05373254456449552   -0.002699247344597387
0.00913302844631646   -0.06493144195437638   -0.0027674524764471488
0.003170271265786826   -0.06519051638890577   -0.002699294286543566
0.0030578036313158746   -0.06522587718576604   -0.0028320684791701065
0.00470779142618268   -0.05373254456449552   -0.002699247344597387
0.00913302844631646   -0.06493144195437638   -0.0027674524764471488
0.0030578036313158746   -0.06522587718576604   -0.0028320684791701065
0.011026542741692407   -0.05364221293407059   -0.0028852581331678387
0.00470779142618268   -0.05373254456449552   -0.002699247344597387
0.003170271265786826   -0.06519051638890577   -0.002699294286543566
0.011211028212814996   -0.05357876474353617   -0.0027706737630486286
0.004773071113111001   -0.05371818816515977   -0.0026240468634424496
0.003170271265786826   -0.06519051638890577   -0.002699294286543566
0.00913302844631646   -0.06493144195437638   -0.0027674524764471488
0.011211028212814996   -0.05357876474353617   -0.0027706737630486286
0.009354561003815477   -0.06491140379302003   -0.0025917976861407903
0.004773071113111001   -0.05371818816515977   -0.0026240468634424496
0.011337740234505594   -0.05354799911447169   -0.002673341754523182
0.009354561003815477   -0.06491140379302003   -0.0025917976861407903
0.011211028212814996   -0.05357876474353617   -0.0027706737630486286
0.004773071113111001   -0.05371818816515977   -0.0026240468634424496
0.009354561003815477   -0.06491140379302003   -0.0025917976861407903
0.0032855806676735473   -0.06518393794770615   -0.002579697836860985
0.003170271265786826   -0.06519051638890577   -0.002699294286543566
0.004773071113111001   -0.05371818816515977   -0.0026240468634424496
0.009354561003815477   -0.06491140379302003   -0.0025917976861407903
0.003170271265786826   -0.06519051638890577   -0.002699294286543566
0.011211028212814996   -0.05357876474353617   -0.0027706737630486286
0.004773071113111001   -0.05371818816515977   -0.0026240468634424496
0.0032855806676735473   -0.06518393794770615   -0.002579697836860985
0.011337740234505594   -0.05354799911447169   -0.002673341754523182
0.0048080445223773124   -0.05371012286929082   -0.0025601712091705814
0.0032855806676735473   -0.06518393794770615   -0.002579697836860985
0.009354561003815477   -0.06491140379302003   -0.0025917976861407903
0.011337740234505594   -0.05354799911447169   -0.002673341754523182
0.009579100326287442   -0.06491120057824458   -0.0024344625723422223
0.0048080445223773124   -0.05371012286929082   -0.0025601712091705814
0.01145018079306294   -0.05351448518127046   -0.0025939777815911073
0.009579100326287442   -0.06491120057824458   -0.0024344625723422223
0.011337740234505594   -0.05354799911447169   -0.002673341754523182
0.0048080445223773124   -0.05371012286929082   -0.0025601712091705814
0.009579100326287442   -0.06491120057824458   -0.0024344625723422223
0.003362242294098512   -0.06520082832261911   -0.0024715416527909305
0.0032855806676735473   -0.06518393794770615   -0.002579697836860985
0.0048080445223773124   -0.05371012286929082   -0.0025601712091705814
0.009579100326287442   -0.06491120057824458   -0.0024344625723422223
0.0032855806676735473   -0.06518393794770615   -0.002579697836860985
0.011337740234505594   -0.05354799911447169   -0.002673341754523182
-0.019068995412258864   -0.06521139699937055   -0.002967619809720396
-0.017402593739095792   -0.07528846568716555   -0.002767299308521139
-0.013031250657283182   -0.06534258932980722   -0.0028615233847303764
-0.018931156521681914   -0.06530159968493116   -0.0030432182204353153
-0.017402593739095792   -0.07528846568716555   -0.002767299308521139
-0.01232078384511211   -0.07552524560055777   -0.0027501638590309834
-0.013031250657283182   -0.06534258932980722   -0.0028615233847303764
-0.012193911405107036   -0.07555949999350565   -0.002806139187139075
-0.018931156521681914   -0.06530159968493116   -0.0030432182204353153
-0.012954888179322142   -0.06540939778722035   -0.002877546083976228
-0.012193911405107036   -0.07555949999350565   -0.002806139187139075
-0.013031250657283182   -0.06534258932980722   -0.0028615233847303764
-0.018931156521681914   -0.06530159968493116   -0.0030432182204353153
-0.012193911405107036   -0.07555949999350565   -0.002806139187139075
-0.01713841567410492   -0.07533930818721327   -0.002923967450281406
-0.017402593739095792   -0.07528846568716555   -0.002767299308521139
-0.018931156521681914   -0.06530159968493116   -0.0030432182204353153
-0.012193911405107036   -0.07555949999350565   -0.002806139187139075
-0.017402593739095792   -0.07528846568716555   -0.002767299308521139
-0.013031250657283182   -0.06534258932980722   -0.0028615233847303764
-0.018931156521681914   -0.06530159968493116   -0.0030432182204353153
-0.01713841567410492   -0.07533930818721327   -0.002923967450281406
-0.012954888179322142   -0.06540939778722035   -0.002877546083976228
-0.01877378079049484   -0.06541226868192197   -0.0031384855907699784
-0.01713841567410492   -0.07533930818721327   -0.002923967450281406
-0.012193911405107036   -0.07555949999350565   -0.002806139187139075
-0.012954888179322142   -0.06540939778722035   -0.002877546083976228
-0.012034559679658148   -0.07564153149544026   -0.0028748107130176946
-0.01877378079049484   -0.06541226868192197   -0.0031384855907699784
-0.012851481518736945   -0.06550448274751008   -0.0029060745613197466
-0.012034559679658148   -0.07564153149544026   -0.0028748107130176946
-0.012954888179322142   -0.06540939778722035   -0.002877546083976228
-0.01877378079049484   -0.06541226868192197   -0.0031384855907699784
-0.012034559679658148   -0.07564153149544026   -0.0028748107130176946
-0.016874871000121847   -0.07543557635426393   -0.0031013092665380616
-0.01713841567410492   -0.07533930818721327   -0.002923967450281406
-0.01877378079049484   -0.06541226868192197   -0.0031384855907699784
-0.012034559679658148   -0.07564153149544026   -0.0028748107130176946
-0.01713841567410492   -0.07533930818721327   -0.002923967450281406
-0.012954888179322142   -0.06540939778722035   -0.002877546083976228
-0.01877378079049484   -0.06541226868192197   -0.0031384855907699784
-0.016874871000121847   -0.07543557635426393   -0.0031013092665380616
-0.012851481518736945   -0.06550448274751008   -0.0029060745613197466
-0.01855945512646772   -0.06558070909510892   -0.0032537828100949184
-0.016874871000121847   -0.07543557635426393   -0.0031013092665380616
-0.012034559679658148   -0.07564153149544026   -0.0028748107130176946
-0.012851481518736945   -0.06550448274751008   -0.0029060745613197466
-0.011877323110473454   -0.075775998723408   -0.0029560593439329607
-0.01855945512646772   -0.06558070909510892   -0.0032537828100949184
-0.012740518402601698   -0.065633643095593   -0.002947479004443854
-0.011877323110473454   -0.075775998723408   -0.0029560593439329607
-0.012851481518736945   -0.06550448274751008   -0.0029060745613197466
-0.01855945512646772   -0.06558070909510892   -0.0032537828100949184
-0.011877323110473454   -0.075775998723408   -0.0029560593439329607
-0.016537276572625728   -0.07561508748031745   -0.003298940769734119
-0.016874871000121847   -0.07543557635426393   -0.0031013092665380616
-0.01855945512646772   -0.06558070909510892   -0.0032537828100949184
-0.011877323110473454   -0.075775998723408   -0.0029560593439329607
-0.016874871000121847   -0.07543557635426393   -0.0031013092665380616
-0.012851481518736945   -0.06550448274751008   -0.0029060745613197466
-0.013031250657283182   -0.06534258932980722   -0.0028615233847303764
-0.01232078384511211   -0.07552524560055777   -0.0027501638590309834
-0.007619302714258593   -0.06539453375795422   -0.0027936086452889177
-0.012954888179322142   -0.06540939778722035   -0.002877546083976228
-0.01232078384511211   -0.07552524560055777   -0.0027501638590309834
-0.0079210376874194   -0.07563623198458119   -0.0027433419914007387
-0.007619302714258593   -0.06539453375795422   -0.0027936086452889177
-0.007790854471224195   -0.07564747651375074   -0.0027183116527077053
-0.012954888179322142   -0.06540939778722035   -0.002877546083976228
-0.007536135719706936   -0.06542928176715863   -0.0027587124980617207
-0.007790854471224195   -0.07564747651375074   -0.0027183116527077053
-0.007619302714258593   -0.06539453375795422   -0.0027936086452889177
-0.012954888179322142   -0.06540939778722035   -0.002877546083976228
-0.007790854471224195   -0.07564747651375074   -0.0027183116527077053
-0.012193911405107036   -0.07555949999350565   -0.002806139187139075
-0.01232078384511211   -0.07552524560055777   -0.0027501638590309834
-0.012954888179322142   -0.06540939778722035   -0.002877546083976228
-0.007790854471224195   -0.07564747651375074   -0.0027183116527077053
-0.01232078384511211   -0.07552524560055777   -0.0027501638590309834
-0.007619302714258593   -0.06539453375795422   -0.0027936086452889177
-0.012954888179322142   -0.06540939778722035   -0.002877546083976228
-0.012193911405107036   -0.07555949999350565   -0.002806139187139075
-0.007536135719706936   -0.06542928176715863   -0.0027587124980617207
-0.012851481518736945   -0.06550448274751008   -0.0029060745613197466
-0.012193911405107036   -0.07555949999350565   -0.002806139187139075
-0.007790854471224195   -0.07564747651375074   -0.0027183116527077053
-0.007536135719706936   -0.06542928176715863   -0.0027587124980617207
-0.007656495169001127   -0.07570137878780822   -0.0027056016919260843
-0.012851481518736945   -0.06550448274751008   -0.0029060745613197466
-0.00744666795315713   -0.06549121989932905   -0.0027361700175882945
-0.007656495169001127   -0.07570137878780822   -0.0027056016919260843
-0.007536135719706936   -0.06542928176715863   -0.0027587124980617207
-0.012851481518736945   -0.06550448274751008   -0.0029060745613197466
-0.007656495169001127   -0.07570137878780822   -0.0027056016919260843
-0.012034559679658148   -0.07564153149544026   -0.0028748107130176946
-0.012193911405107036   -0.07555949999350565   -0.002806139187139075
-0.012851481518736945   -0.06550448274751008   -0.0029060745613197466
-0.007656495169001127   -0.07570137878780822   -0.0027056016919260843
-0.012193911405107036   -0.07555949999350565   -0.002806139187139075
-0.007536135719706936   -0.06542928176715863   -0.0027587124980617207
-0.012851481518736945   -0.06550448274751008   -0.0029060745613197466
-0.012034559679658148   -0.07564153149544026   -0.0028748107130176946
-0.00744666795315713   -0.06549121989932905   -0.0027361700175882945
-0.012740518402601698   -0.065633643095593   -0.002947479004443854
-0.012034559679658148   -0.07564153149544026   -0.0028748107130176946
-0.007656495169001127   -0.07570137878780822   -0.0027056016919260843
-0.00744666795315713   -0.06549121989932905   -0.0027361700175882945
-0.007522358495218898   -0.0758004594883097   -0.0027050519253262553
-0.012740518402601698   -0.065633643095593   -0.002947479004443854
-0.007354705487832063   -0.06558113271775191   -0.002726584562974324
-0.007522358495218898   -0.0758004594883097   -0.0027050519253262553
-0.00744666795315713   -0.06549121989932905   -0.0027361700175882945
-0.012740518402601698   -0.065633643095593   -0.002947479004443854
-0.007522358495218898   -0.0758004594883097   -0.0027050519253262553
-0.011877323110473454   -0.075775998723408   -0.0029560593439329607
-0.012034559679658148   -0.07564153149544026   -0.0028748107130176946
-0.012740518402601698   -0.065633643095593   -0.002947479004443854
-0.007522358495218898   -0.0758004594883097   -0.0027050519253262553
-0.012034559679658148   -0.07564153149544026   -0.0028748107130176946
-0.00744666795315713   -0.06549121989932905   -0.0027361700175882945
-0.007619302714258593   -0.06539453375795422   -0.0027936086452889177
-0.0079210376874194   -0.07563623198458119   -0.0027433419914007387
-0.002371295942417896   -0.06535472280432791   -0.0027823085671498256
-0.007536135719706936   -0.06542928176715863   -0.0027587124980617207
-0.0079210376874194   -0.07563623198458119   -0.0027433419914007387
-0.003667405268319405   -0.07561622969698471   -0.002774845828409111
-0.002371295942417896   -0.06535472280432791   -0.0027823085671498256
-0.0035248077771119902   -0.07560163751483857   -0.002671653541471105
-0.007536135719706936   -0.06542928176715863   -0.0027587124980617207
-0.002279307021974146   -0.06535555894113249   -0.0026982401491172474
-0.0035248077771119902   -0.07560163751483857   -0.002671653541471105
-0.002371295942417896   -0.06535472280432791   -0.0027823085671498256
-0.007536135719706936   -0.06542928176715863   -0.0027587124980617207
-0.0035248077771119902   -0.07560163751483857   -0.002671653541471105
-0.007790854471224195   -0.07564747651375074   -0.0027183116527077053
-0.0079210376874194   -0.07563623198458119   -0.0027433419914007387
-0.007536135719706936   -0.06542928176715863   -0.0027587124980617207
-0.0035248077771119902   -0.07560163751483857   -0.002671653541471105
-0.0079210376874194   -0.07563623198458119   -0.0027433419914007387
-0.002371295942417896   -0.06535472280432791   -0.0027823085671498256
-0.007536135719706936   -0.06542928176715863   -0.0027587124980617207
-0.007790854471224195   -0.07564747651375074   -0.0027183116527077053
-0.002279307021974146   -0.06535555894113249   -0.0026982401491172474
-0.00744666795315713   -0.06549121989932905   -0.0027361700175882945
-0.007790854471224195   -0.07564747651375074   -0.0027183116527077053
-0.0035248077771119902   -0.07560163751483857   -0.002671653541471105
-0.002279307021974146   -0.06535555894113249   -0.0026982401491172474
-0.0033864234897711615   -0.07562561035239058   -0.002581593879262329
-0.00744666795315713   -0.06549121989932905   -0.0027361700175882945
-0.002189731376863961   -0.06538158977107657   -0.0026265554190601633
-0.0033864234897711615   -0.07562561035239058   -0.002581593879262329
-0.002279307021974146   -0.06535555894113249   -0.0026982401491172474
-0.00744666795315713   -0.06549121989932905   -0.0027361700175882945
-0.0033864234897711615   -0.07562561035239058   -0.002581593879262329
-0.007656495169001127   -0.07570137878780822   -0.0027056016919260843
-0.007790854471224195   -0.07564747651375074   -0.0027183116527077053
-0.00744666795315713   -0.06549121989932905   -0.0027361700175882945
-0.0033864234897711615   -0.07562561035239058   -0.002581593879262329
-0.007790854471224195   -0.07564747651375074   -0.0027183116527077053
-0.002279307021974146   -0.06535555894113249   -0.0026982401491172474
-0.00744666795315713   -0.06549121989932905   -0.0027361700175882945
-0.007656495169001127   -0.07570137878780822   -0.0027056016919260843
-0.002189731376863961   -0.06538158977107657   -0.0026265554190601633
-0.007354705487832063   -0.06558113271775191   -0.002726584562974324
-0.007656495169001127   -0.07570137878780822   -0.0027056016919260843
-0.0033864234897711615   -0.07562561035239058   -0.002581593879262329
-0.002189731376863961   -0.06538158977107657   -0.0026265554190601633
-0.0032614059082197   -0.07569375807740107   -0.0025035283892601546
-0.007354705487832063   -0.06558113271775191   -0.002726584562974324
-0.0021098163352133805   -0.0654349750923245   -0.0025676851327493195
-0.0032614059082197   -0.07569375807740107   -0.0025035283892601546
-0.002189731376863961   -0.06538158977107657   -0.0026265554190601633
-0.007354705487832063   -0.06558113271775191   -0.002726584562974324
-0.0032614059082197   -0.07569375807740107   -0.0025035283892601546
-0.007522358495218898   -0.0758004594883097   -0.0027050519253262553
-0.007656495169001127   -0.07570137878780822   -0.0027056016919260843
-0.007354705487832063   -0.06558113271775191   -0.002726584562974324
-0.0032614059082197   -0.07569375807740107   -0.0025035283892601546
-0.007656495169001127   -0.07570137878780822   -0.0027056016919260843
-0.002189731376863961   -0.06538158977107657   -0.0026265554190601633
-0.002371295942417896   -0.06535472280432791   -0.0027823085671498256
-0.003667405268319405   -0.07561622969698471   -0.002774845828409111
0.0030578036313158746   -0.06522587718576604   -0.0028320684791701065
-0.002279307021974146   -0.06535555894113249   -0.0026982401491172474
-0.003667405268319405   -0.07561622969698471   -0.002774845828409111
0.0007859262813685356   -0.0754605557239968   -0.0028516145226305228
0.0030578036313158746   -0.06522587718576604   -0.0028320684791701065
0.0009593813576807548   -0.07541314124956114   -0.0026705330318540126
-0.002279307021974146   -0.06535555894113249   -0.0026982401491172474
0.003170271265786826   -0.06519051638890577   -0.002699294286543566
0.0009593813576807548   -0.07541314124956114   -0.0026705330318540126
0.0030578036313158746   -0.06522587718576604   -0.0028320684791701065
-0.002279307021974146   -0.06535555894113249   -0.0026982401491172474
0.0009593813576807548   -0.07541314124956114   -0.0026705330318540126
-0.0035248077771119902   -0.07560163751483857   -0.002671653541471105
-0.003667405268319405   -0.07561622969698471   -0.002774845828409111
-0.002279307021974146   -0.06535555894113249   -0.0026982401491172474
0.0009593813576807548   -0.07541314124956114   -0.0026705330318540126
-0.003667405268319405   -0.07561622969698471   -0.002774845828409111
0.0030578036313158746   -0.06522587718576604   -0.0028320684791701065
-0.002279307021974146   -0.06535555894113249   -0.0026982401491172474
-0.0035248077771119902   -0.07560163751483857   -0.002671653541471105
0.003170271265786826   -0.06519051638890577   -0.002699294286543566
-0.002189731376863961   -0.06538158977107657   -0.0026265554190601633
-0.0035248077771119902   -0.07560163751483857   -0.002671653541471105
0.0009593813576807548   -0.07541314124956114   -0.0026705330318540126
0.003170271265786826   -0.06519051638890577   -0.002699294286543566
0.0011421503658275583   -0.07540884566155558   -0.002506100889544752
-0.002189731376863961   -0.06538158977107657   -0.0026265554190601633
0.0032855806676735473   -0.06518393794770615   -0.002579697836860985
0.0011421503658275583   -0.07540884566155558   -0.002506100889544752
0.003170271265786826   -0.06519051638890577   -0.002699294286543566
-0.002189731376863961   -0.06538158977107657   -0.0026265554190601633
0.0011421503658275583   -0.07540884566155558   -0.002506100889544752
-0.0033864234897711615   -0.07562561035239058   -0.002581593879262329
-0.0035248077771119902   -0.07560163751483857   -0.002671653541471105
-0.002189731376863961   -0.06538158977107657   -0.0026265554190601633
0.0011421503658275583   -0.07540884566155558   -0.002506100889544752
-0.0035248077771119902   -0.07560163751483857   -0.002671653541471105
0.003170271265786826   -0.06519051638890577   -0.002699294286543566
-0.002189731376863961   -0.06538158977107657   -0.0026265554190601633
-0.0033864234897711615   -0.07562561035239058   -0.002581593879262329
0.0032855806676735473   -0.06518393794770615   -0.002579697836860985
-0.0021098163352133805   -0.0654349750923245   -0.0025676851327493195
-0.0033864234897711615   -0.07562561035239058   -0.002581593879262329
0.0011421503658275583   -0.07540884566155558   -0.002506100889544752
0.0032855806676735473   -0.06518393794770615   -0.002579697836860985
0.0012758220335448902   -0.07544571065984493   -0.0023531337013741956
-0.0021098163352133805   -0.0654349750923245   -0.0025676851327493195
0.003362242294098512   -0.06520082832261911   -0.0024715416527909305
0.0012758220335448902   -0.07544571065984493   -0.0023531337013741956
0.0032855806676735473   -0.06518393794770615   -0.002579697836860985
-0.0021098163352133805   -0.0654349750923245   -0.0025676851327493195
0.0012758220335448902   -0.07544571065984493   -0.0023531337013741956
-0.0032614059082197   -0.07569375807740107   -0.0025035283892601546
-0.0033864234897711615   -0.07562561035239058   -0.002581593879262329
-0.0021098163352133805   -0.0654349750923245   -0.0025676851327493195
0.0012758220335448902   -0.07544571065984493   -0.0023531337013741956
-0.0033864234897711615   -0.07562561035239058   -0.002581593879262329
0.0032855806676735473   -0.06518393794770615   -0.002579697836860985
0.0030578036313158746   -0.06522587718576604   -0.0028320684791701065
0.0007859262813685356   -0.0754605557239968   -0.0028516145226305228
0.008833820165617779   -0.06500437462049724   -0.0029606299224168757
0.003170271265786826   -0.06519051638890577   -0.002699294286543566
0.0007859262813685356   -0.0754605557239968   -0.0028516145226305228
0.005534404440245338   -0.07515443809150622   -0.0030158773888321715
0.008833820165617779   -0.06500437462049724   -0.0029606299224168757
0.005973513838222382   -0.0750634152172451   -0.0027387495993863825
0.003170271265786826   -0.06519051638890577   -0.002699294286543566
0.00913302844631646   -0.06493144195437638   -0.0027674524764471488
0.005973513838222382   -0.0750634152172451   -0.0027387495993863825
0.008833820165617779   -0.06500437462049724   -0.0029606299224168757
0.003170271265786826   -0.06519051638890577   -0.002699294286543566
0.005973513838222382   -0.0750634152172451   -0.0027387495993863825
0.0009593813576807548   -0.07541314124956114   -0.0026705330318540126
0.0007859262813685356   -0.0754605557239968   -0.0028516145226305228
0.003170271265786826   -0.06519051638890577   -0.002699294286543566
0.005973513838222382   -0.0750634152172451   -0.0027387495993863825
0.0007859262813685356   -0.0754605557239968   -0.0028516145226305228
0.008833820165617779   -0.06500437462049724   -0.0029606299224168757
0.003170271265786826   -0.06519051638890577   -0.002699294286543566
0.0009593813576807548   -0.07541314124956114   -0.0026705330318540126
0.00913302844631646   -0.06493144195437638   -0.0027674524764471488
0.0032855806676735473   -0.06518393794770615   -0.002579697836860985
0.0009593813576807548   -0.07541314124956114   -0.0026705330318540126
0.005973513838222382   -0.0750634152172451   -0.0027387495993863825
0.00913302844631646   -0.06493144195437638   -0.0027674524764471488
0.006310173410272952   -0.07504765485528013   -0.0024822676758049452
0.0032855806676735473   -0.06518393794770615   -0.002579697836860985
0.009354561003815477   -0.06491140379302003   -0.0025917976861407903
0.006310173410272952   -0.07504765485528013   -0.0024822676758049452
0.00913302844631646   -0.06493144195437638   -0.0027674524764471488
0.0032855806676735473   -0.06518393794770615   -0.002579697836860985
0.006310173410272952   -0.07504765485528013   -0.0024822676758049452
0.0011421503658275583   -0.07540884566155558   -0.002506100889544752
0.0009593813576807548   -0.07541314124956114   -0.0026705330318540126
0.0032855806676735473   -0.06518393794770615   -0.002579697836860985
0.006310173410272952   -0.07504765485528013   -0.0024822676758049452
0.0009593813576807548   -0.07541314124956114   -0.0026705330318540126
0.00913302844631646   -0.06493144195437638   -0.0027674524764471488
0.0032855806676735473   -0.06518393794770615   -0.002579697836860985
0.0011421503658275583   -0.07540884566155558   -0.002506100889544752
0.009354561003815477   -0.06491140379302003   -0.0025917976861407903
0.003362242294098512   -0.06520082832261911   -0.0024715416527909305
0.0011421503658275583   -0.07540884566155558   -0.002506100889544752
0.006310173410272952   -0.07504765485528013   -0.0024822676758049452
0.009354561003815477   -0.06491140379302003   -0.0025917976861407903
0.006658870645477671   -0.0750746139210153   -0.002248528866185471
0.003362242294098512   -0.06520082832261911   -0.0024715416527909305
0.009579100326287442   -0.06491120057824458   -0.0024344625723422223
0.006658870645477671   -0.0750746139210153   -0.002248528866185471
0.009354561003815477   -0.06491140379302003   -0.0025917976861407903
0.003362242294098512   -0.06520082832261911   -0.0024715416527909305
0.006658870645477671   -0.0750746139210153   -0.002248528866185471
0.0012758220335448902   -0.07544571065984493   -0.0023531337013741956
0.0011421503658275583   -0.07540884566155558   -0.002506100889544752
0.003362242294098512   -0.06520082832261911   -0.0024715416527909305
0.006658870645477671   -0.0750746139210153   -0.002248528866185471
0.0011421503658275583   -0.07540884566155558   -0.002506100889544752
0.009354561003815477   -0.06491140379302003   -0.0025917976861407903
-0.017402593739095792   -0.07528846568716555   -0.002767299308521139
-0.014573193982720107   -0.0831988620668983   -0.0025106074390118483
-0.01232078384511211   -0.07552524560055777   -0.0027501638590309834
-0.01713841567410492   -0.07533930818721327   -0.002923967450281406
-0.014573193982720107   -0.0831988620668983   -0.0025106074390118483
-0.010956881787009178   -0.08354961482687889   -0.0026158406148631616
-0.01232078384511211   -0.07552524560055777   -0.0027501638590309834
-0.010774021063005231   -0.08353150341775654   -0.0027019921189055007
-0.01713841567410492   -0.07533930818721327   -0.002923967450281406
-0.012193911405107036   -0.07555949999350565   -0.002806139187139075
-0.010774021063005231   -0.08353150341775654   -0.0027019921189055007
-0.01232078384511211   -0.07552524560055777   -0.0027501638590309834
-0.01713841567410492   -0.07533930818721327   -0.002923967450281406
-0.010774021063005231   -0.08353150341775654   -0.0027019921189055007
-0.014179184422335874   -0.08318895983349388   -0.0027429011611400694
-0.014573193982720107   -0.0831988620668983   -0.0025106074390118483
-0.01713841567410492   -0.07533930818721327   -0.002923967450281406
-0.010774021063005231   -0.08353150341775654   -0.0027019921189055007
-0.014573193982720107   -0.0831988620668983   -0.0025106074390118483
-0.01232078384511211   -0.07552524560055777   -0.0027501638590309834
-0.01713841567410492   -0.07533930818721327   -0.002923967450281406
-0.014179184422335874   -0.08318895983349388   -0.0027429011611400694
-0.012193911405107036   -0.07555949999350565   -0.002806139187139075
-0.016874871000121847   -0.07543557635426393   -0.0031013092665380616
-0.014179184422335874   -0.08318895983349388   -0.0027429011611400694
-0.010774021063005231   -0.08353150341775654   -0.0027019921189055007
-0.012193911405107036   -0.07555949999350565   -0.002806139187139075
-0.010558977177781067   -0.08358190998759384   -0.0028011205132512586
-0.016874871000121847   -0.07543557635426393   -0.0031013092665380616
-0.012034559679658148   -0.07564153149544026   -0.0028748107130176946
-0.010558977177781067   -0.08358190998759384   -0.0028011205132512586
-0.012193911405107036   -0.07555949999350565   -0.002806139187139075
-0.016874871000121847   -0.07543557635426393   -0.0031013092665380616
-0.010558977177781067   -0.08358190998759384   -0.0028011205132512586
-0.013815961228647736   -0.08325125253212948   -0.002993468819235405
-0.014179184422335874   -0.08318895983349388   -0.0027429011611400694
-0.016874871000121847   -0.07543557635426393   -0.0031013092665380616
-0.010558977177781067   -0.08358190998759384   -0.0028011205132512586
-0.014179184422335874   -0.08318895983349388   -0.0027429011611400694
-0.012193911405107036   -0.07555949999350565   -0.002806139187139075
-0.016874871000121847   -0.07543557635426393   -0.0031013092665380616
-0.013815961228647736   -0.08325125253212948   -0.002993468819235405
-0.012034559679658148   -0.07564153149544026   -0.0028748107130176946
-0.016537276572625728   -0.07561508748031745   -0.003298940769734119
-0.013815961228647736   -0.08325125253212948   -0.002993468819235405
-0.010558977177781067   -0.08358190998759384   -0.0028011205132512586
-0.012034559679658148   -0.07564153149544026   -0.0028748107130176946
-0.010363888591495648   -0.08370197862727916   -0.0029123951893749106
-0.016537276572625728   -0.07561508748031745   -0.003298940769734119
-0.011877323110473454   -0.075775998723408   -0.0029560593439329607
-0.010363888591495648   -0.08370197862727916   -0.0029123951893749106
-0.012034559679658148   -0.07564153149544026   -0.0028748107130176946
-0.016537276572625728   -0.07561508748031745   -0.003298940769734119
-0.010363888591495648   -0.08370197862727916   -0.0029123951893749106
-0.013372971741317881   -0.08341770448654105   -0.0032612305465531425
-0.013815961228647736   -0.08325125253212948   -0.002993468819235405
-0.016537276572625728   -0.07561508748031745   -0.003298940769734119
-0.010363888591495648   -0.08370197862727916   -0.0029123951893749106
-0.013815961228647736   -0.08325125253212948   -0.002993468819235405
-0.012034559679658148   -0.07564153149544026   -0.0028748107130176946
-0.01232078384511211   -0.07552524560055777   -0.0027501638590309834
-0.010956881787009178   -0.08354961482687889   -0.0026158406148631616
-0.0079210376874194   -0.07563623198458119   -0.0027433419914007387
-0.012193911405107036   -0.07555949999350565   -0.002806139187139075
-0.010956881787009178   -0.08354961482687889   -0.0026158406148631616
-0.008002883152464616   -0.08377717783828977   -0.002698188403959203
-0.0079210376874194   -0.07563623198458119   -0.0027433419914007387
-0.007815212949321278   -0.08374820842829617   -0.002671829902966416
-0.012193911405107036   -0.07555949999350565   -0.002806139187139075
-0.007790854471224195   -0.07564747651375074   -0.0027183116527077053
-0.007815212949321278   -0.08374820842829617   -0.002671829902966416
-0.0079210376874194   -0.07563623198458119   -0.0027433419914007387
-0.012193911405107036   -0.07555949999350565   -0.002806139187139075
-0.007815212949321278   -0.08374820842829617   -0.002671829902966416
-0.010774021063005231   -0.08353150341775654   -0.0027019921189055007
-0.010956881787009178   -0.08354961482687889   -0.0026158406148631616
-0.012193911405107036   -0.07555949999350565   -0.002806139187139075
-0.007815212949321278   -0.08374820842829617   -0.002671829902966416
-0.010956881787009178   -0.08354961482687889   -0.0026158406148631616
-0.0079210376874194   -0.07563623198458119   -0.0027433419914007387
-0.012193911405107036   -0.07555949999350565   -0.002806139187139075
-0.010774021063005231   -0.08353150341775654   -0.0027019921189055007
-0.007790854471224195   -0.07564747651375074   -0.0027183116527077053
-0.012034559679658148   -0.07564153149544026   -0.0028748107130176946
-0.010774021063005231   -0.08353150341775654   -0.0027019921189055007
-0.007815212949321278   -0.08374820842829617   -0.002671829902966416
-0.007790854471224195   -0.07564747651375074   -0.0027183116527077053
-0.007630199528354339   -0.08377837307570156   -0.002658073458854539
-0.012034559679658148   -0.07564153149544026   -0.0028748107130176946
-0.007656495169001127   -0.07570137878780822   -0.0027056016919260843
-0.007630199528354339   -0.08377837307570156   -0.002658073458854539
-0.007790854471224195   -0.07564747651375074   -0.0027183116527077053
-0.012034559679658148   -0.07564153149544026   -0.0028748107130176946
-0.007630199528354339   -0.08377837307570156   -0.002658073458854539
-0.010558977177781067   -0.08358190998759384   -0.0028011205132512586
-0.010774021063005231   -0.08353150341775654   -0.0027019921189055007
-0.012034559679658148   -0.07564153149544026   -0.0028748107130176946
-0.007630199528354339   -0.08377837307570156   -0.002658073458854539
-0.010774021063005231   -0.08353150341775654   -0.0027019921189055007
-0.007790854471224195   -0.07564747651375074   -0.0027183116527077053
-0.012034559679658148   -0.07564153149544026   -0.0028748107130176946
-0.010558977177781067   -0.08358190998759384   -0.0028011205132512586
-0.007656495169001127   -0.07570137878780822   -0.0027056016919260843
-0.011877323110473454   -0.075775998723408   -0.0029560593439329607
-0.010558977177781067   -0.08358190998759384   -0.0028011205132512586
-0.007630199528354339   -0.08377837307570156   -0.002658073458854539
-0.007656495169001127   -0.07570137878780822   -0.0027056016919260843
-0.007459983398133884   -0.08386964411620064   -0.002659562056856752
-0.011877323110473454   -0.075775998723408   -0.0029560593439329607
-0.007522358495218898   -0.0758004594883097   -0.0027050519253262553
-0.007459983398133884   -0.08386964411620064   -0.002659562056856752
-0.007656495169001127   -0.07570137878780822   -0.0027056016919260843
-0.011877323110473454   -0.075775998723408   -0.0029560593439329607
-0.007459983398133884   -0.08386964411620064   -0.002659562056856752
-0.010363888591495648   -0.08370197862727916   -0.0029123951893749106
-0.010558977177781067   -0.08358190998759384   -0.0028011205132512586
-0.011877323110473454   -0.075775998723408   -0.0029560593439329607
-0.007459983398133884   -0.08386964411620064   -0.002659562056856752
-0.010558977177781067   -0.08358190998759384   -0.0028011205132512586
-0.007656495169001127   -0.07570137878780822   -0.0027056016919260843
-0.0079210376874194   -0.07563623198458119   -0.0027433419914007387
-0.008002883152464616   -0.08377717783828977   -0.002698188403959203
-0.003667405268319405   -0.07561622969698471   -0.002774845828409111
-0.007790854471224195   -0.07564747651375074   -0.0027183116527077053
-0.008002883152464616   -0.08377717783828977   -0.002698188403959203
-0.005173639137007161   -0.08389707892584601   -0.0027954237221922205
-0.003667405268319405   -0.07561622969698471   -0.002774845828409111
-0.00496207385449764   -0.08385532750001447   -0.002662974362776759
-0.007790854471224195   -0.07564747651375074   -0.0027183116527077053
-0.0035248077771119902   -0.07560163751483857   -0.002671653541471105
-0.00496207385449764   -0.08385532750001447   -0.002662974362776759
-0.003667405268319405   -0.07561622969698471   -0.002774845828409111
-0.007790854471224195   -0.07564747651375074   -0.0027183116527077053
-0.00496207385449764   -0.08385532750001447   -0.002662974362776759
-0.007815212949321278   -0.08374820842829617   -0.002671829902966416
-0.008002883152464616   -0.08377717783828977   -0.002698188403959203
-0.007790854471224195   -0.07564747651375074   -0.0027183116527077053
-0.00496207385449764   -0.08385532750001447   -0.002662974362776759
-0.008002883152464616   -0.08377717783828977   -0.002698188403959203
-0.003667405268319405   -0.07561622969698471   -0.002774845828409111
-0.007790854471224195   -0.07564747651375074   -0.0027183116527077053
-0.007815212949321278   -0.08374820842829617   -0.002671829902966416
-0.0035248077771119902   -0.07560163751483857   -0.002671653541471105
-0.007656495169001127   -0.07570137878780822   -0.0027056016919260843
-0.007815212949321278   -0.08374820842829617   -0.002671829902966416
-0.00496207385449764   -0.08385532750001447   -0.002662974362776759
-0.0035248077771119902   -0.07560163751483857   -0.002671653541471105
-0.00476041444046386   -0.08386555510894392   -0.002541656192405686
-0.007656495169001127   -0.07570137878780822   -0.0027056016919260843
-0.0033864234897711615   -0.07562561035239058   -0.002581593879262329
-0.00476041444046386   -0.08386555510894392   -0.002541656192405686
-0.0035248077771119902   -0.07560163751483857   -0.002671653541471105
-0.007656495169001127   -0.07570137878780822   -0.0027056016919260843
-0.00476041444046386   -0.08386555510894392   -0.002541656192405686
-0.007630199528354339   -0.08377837307570156   -0.002658073458854539
-0.007815212949321278   -0.08374820842829617   -0.002671829902966416
-0.007656495169001127   -0.07570137878780822   -0.0027056016919260843
-0.00476041444046386   -0.08386555510894392   -0.002541656192405686
-0.007815212949321278   -0.08374820842829617   -0.002671829902966416
-0.0035248077771119902   -0.07560163751483857   -0.002671653541471105
-0.007656495169001127   -0.07570137878780822   -0.0027056016919260843
-0.007630199528354339   -0.08377837307570156   -0.002658073458854539
-0.0033864234897711615   -0.07562561035239058   -0.002581593879262329
-0.007522358495218898   -0.0758004594883097   -0.0027050519253262553
-0.007630199528354339   -0.08377837307570156   -0.002658073458854539
-0.00476041444046386   -0.08386555510894392   -0.002541656192405686
-0.0033864234897711615   -0.07562561035239058   -0.002581593879262329
-0.004592727870773923   -0.08393792547088183   -0.002438443243410283
-0.007522358495218898   -0.0758004594883097   -0.0027050519253262553
-0.0032614059082197   -0.07569375807740107   -0.0025035283892601546
-0.004592727870773923   -0.08393792547088183   -0.002438443243410283
-0.0033864234897711615   -0.07562561035239058   -0.002581593879262329
-0.007522358495218898   -0.0758004594883097   -0.0027050519253262553
-0.004592727870773923   -0.08393792547088183   -0.002438443243410283
-0.007459983398133884   -0.08386964411620064   -0.002659562056856752
-0.007630199528354339   -0.08377837307570156   -0.002658073458854539
-0.007522358495218898   -0.0758004594883097   -0.0027050519253262553
-0.004592727870773923   -0.08393792547088183   -0.002438443243410283
-0.007630199528354339   -0.08377837307570156   -0.002658073458854539
-0.0033864234897711615   -0.07562561035239058   -0.002581593879262329
-0.003667405268319405   -0.07561622969698471   -0.002774845828409111
-0.005173639137007161   -0.08389707892584601   -0.0027954237221922205
0.0007859262813685356   -0.0754605557239968   -0.0028516145226305228
-0.0035248077771119902   -0.07560163751483857   -0.002671653541471105
-0.005173639137007161   -0.08389707892584601   -0.0027954237221922205
-0.002164466245351914   -0.08386752195026748   -0.002909896902494923
0.0007859262813685356   -0.0754605557239968   -0.0028516145226305228
-0.0018928349669957774   -0.08380208030804183   -0.0026759722397034307
-0.0035248077771119902   -0.07560163751483857   -0.002671653541471105
0.0009593813576807548   -0.07541314124956114   -0.0026705330318540126
-0.0018928349669957774   -0.08380208030804183   -0.0026759722397034307
0.0007859262813685356   -0.0754605557239968   -0.0028516145226305228
-0.0035248077771119902   -0.07560163751483857   -0.002671653541471105
-0.0018928349669957774   -0.08380208030804183   -0.0026759722397034307
-0.00496207385449764   -0.08385532750001447   -0.002662974362776759
-0.005173639137007161   -0.08389707892584601   -0.0027954237221922205
-0.0035248077771119902   -0.07560163751483857   -0.002671653541471105
-0.0018928349669957774   -0.08380208030804183   -0.0026759722397034307
-0.005173639137007161   -0.08389707892584601   -0.0027954237221922205
0.0007859262813685356   -0.0754605557239968   -0.0028516145226305228
-0.0035248077771119902   -0.07560163751483857   -0.002671653541471105
-0.00496207385449764   -0.08385532750001447   -0.002662974362776759
0.0009593813576807548   -0.07541314124956114   -0.0026705330318540126
-0.0033864234897711615   -0.07562561035239058   -0.002581593879262329
-0.00496207385449764   -0.08385532750001447   -0.002662974362776759
-0.0018928349669957774   -0.08380208030804183   -0.0026759722397034307
0.0009593813576807548   -0.07541314124956114   -0.0026705330318540126
-0.0016151900092608378   -0.08379049380138187   -0.0024539603374223325
-0.0033864234897711615   -0.07562561035239058   -0.002581593879262329
0.0011421503658275583   -0.07540884566155558   -0.002506100889544752
-0.0016151900092608378   -0.08379049380138187   -0.0024539603374223325
0.0009593813576807548   -0.07541314124956114   -0.0026705330318540126
-0.0033864234897711615   -0.07562561035239058   -0.002581593879262329
-0.0016151900092608378   -0.08379049380138187   -0.0024539603374223325
-0.00476041444046386   -0.08386555510894392   -0.002541656192405686
-0.00496207385449764   -0.08385532750001447   -0.002662974362776759
-0.0033864234897711615   -0.07562561035239058   -0.002581593879262329
-0.0016151900092608378   -0.08379049380138187   -0.0024539603374223325
-0.00496207385449764   -0.08385532750001447   -0.002662974362776759
0.0009593813576807548   -0.07541314124956114   -0.0026705330318540126
-0.0033864234897711615   -0.07562561035239058   -0.002581593879262329
-0.00476041444046386   -0.08386555510894392   -0.002541656192405686
0.0011421503658275583   -0.07540884566155558   -0.002506100889544752
-0.0032614059082197   -0.07569375807740107   -0.0025035283892601546
-0.00476041444046386   -0.08386555510894392   -0.002541656192405686
-0.0016151900092608378   -0.08379049380138187   -0.0024539603374223325
0.0011421503658275583   -0.07540884566155558   -0.002506100889544752
-0.0014095040823140393   -0.08384439934426874   -0.0022523602431885814
-0.0032614059082197   -0.07569375807740107   -0.0025035283892601546
0.0012758220335448902   -0.07544571065984493   -0.0023531337013741956
-0.0014095040823140393   -0.08384439934426874   -0.0022523602431885814
0.0011421503658275583   -0.07540884566155558   -0.002506100889544752
-0.0032614059082197   -0.07569375807740107   -0.0025035283892601546
-0.0014095040823140393   -0.08384439934426874   -0.0022523602431885814
-0.004592727870773923   -0.08393792547088183   -0.002438443243410283
-0.00476041444046386   -0.08386555510894392   -0.002541656192405686
-0.0032614059082197   -0.07569375807740107   -0.0025035283892601546
-0.0014095040823140393   -0.08384439934426874   -0.0022523602431885814
-0.00476041444046386   -0.08386555510894392   -0.002541656192405686
0.0011421503658275583   -0.07540884566155558   -0.002506100889544752
0.0007859262813685356   -0.0754605557239968   -0.0028516145226305228
-0.002164466245351914   -0.08386752195026748   -0.002909896902494923
0.005534404440245338   -0.07515443809150622   -0.0030158773888321715
0.0009593813576807548   -0.07541314124956114   -0.0026705330318540126
-0.002164466245351914   -0.08386752195026748   -0.002909896902494923
0.0010754345144815783   -0.08357869247740354   -0.0031447104378828214
0.005534404440245338   -0.07515443809150622   -0.0030158773888321715
0.001707979328225865   -0.08343621435470103   -0.0027620213003836775
0.0009593813576807548   -0.07541314124956114   -0.0026705330318540126
0.005973513838222382   -0.0750634152172451   -0.0027387495993863825
0.001707979328225865   -0.08343621435470103   -0.0027620213003836775
0.005534404440245338   -0.07515443809150622   -0.0030158773888321715
0.0009593813576807548   -0.07541314124956114   -0.0026705330318540126
0.001707979328225865   -0.08343621435470103   -0.0027620213003836775
-0.0018928349669957774   -0.08380208030804183   -0.0026759722397034307
-0.002164466245351914   -0.08386752195026748   -0.002909896902494923
0.0009593813576807548   -0.07541314124956114   -0.0026705330318540126
0.001707979328225865   -0.08343621435470103   -0.0027620213003836775
-0.002164466245351914   -0.08386752195026748   -0.002909896902494923
0.005534404440245338   -0.07515443809150622   -0.0030158773888321715
0.0009593813576807548   -0.07541314124956114   -0.0026705330318540126
-0.0018928349669957774   -0.08380208030804183   -0.0026759722397034307
0.005973513838222382   -0.0750634152172451   -0.0027387495993863825
0.0011421503658275583   -0.07540884566155558   -0.002506100889544752
-0.0018928349669957774   -0.08380208030804183   -0.0026759722397034307
0.001707979328225865   -0.08343621435470103   -0.0027620213003836775
0.005973513838222382   -0.0750634152172451   -0.0027387495993863825
0.0022051094413658833   -0.08340732504035503   -0.0024027444179471626
0.0011421503658275583   -0.07540884566155558   -0.002506100889544752
0.006310173410272952   -0.07504765485528013   -0.0024822676758049452
0.0022051094413658833   -0.08340732504035503   -0.0024027444179471626
0.005973513838222382   -0.0750634152172451   -0.0027387495993863825
0.0011421503658275583   -0.07540884566155558   -0.002506100889544752
0.0022051094413658833   -0.08340732504035503   -0.0024027444179471626
-0.0016151900092608378   -0.08379049380138187   -0.0024539603374223325
-0.0018928349669957774   -0.08380208030804183   -0.0026759722397034307
0.0011421503658275583   -0.07540884566155558   -0.002506100889544752
0.0022051094413658833   -0.08340732504035503   -0.0024027444179471626
-0.0018928349669957774   -0.08380208030804183   -0.0026759722397034307
0.005973513838222382   -0.0750634152172451   -0.0027387495993863825
0.0011421503658275583   -0.07540884566155558   -0.002506100889544752
-0.0016151900092608378   -0.08379049380138187   -0.0024539603374223325
0.006310173410272952   -0.07504765485528013   -0.0024822676758049452
0.0012758220335448902   -0.07544571065984493   -0.0023531337013741956
-0.0016151900092608378   -0.08379049380138187   -0.0024539603374223325
0.0022051094413658833   -0.08340732504035503   -0.0024027444179471626
0.006310173410272952   -0.07504765485528013   -0.0024822676758049452
0.0027215971596246296   -0.0834314457499725   -0.0020746787210085198
0.0012758220335448902   -0.07544571065984493   -0.0023531337013741956
0.006658870645477671   -0.0750746139210153   -0.002248528866185471
0.0027215971596246296   -0.0834314457499725   -0.0020746787210085198
0.006310173410272952   -0.07504765485528013   -0.0024822676758049452
0.0012758220335448902   -0.07544571065984493   -0.0023531337013741956
0.0027215971596246296   -0.0834314457499725   -0.0020746787210085198
-0.0014095040823140393   -0.08384439934426874   -0.0022523602431885814
-0.0016151900092608378   -0.08379049380138187   -0.0024539603374223325
0.0012758220335448902   -0.07544571065984493   -0.0023531337013741956
0.0027215971596246296   -0.0834314457499725   -0.0020746787210085198
-0.0016151900092608378   -0.08379049380138187   -0.0024539603374223325
0.006310173410272952   -0.07504765485528013   -0.0024822676758049452
-0.014573193982720107   -0.0831988620668983   -0.0025106074390118483
-0.01068229600599454   -0.08789998878510598   -0.0022091932394663694
-0.010956881787009178   -0.08354961482687889   -0.0026158406148631616
-0.014179184422335874   -0.08318895983349388   -0.0027429011611400694
-0.01068229600599454   -0.08789998878510598   -0.0022091932394663694
-0.00900067536163074   -0.08834369107648972   -0.002475971735792249
-0.010956881787009178   -0.08354961482687889   -0.0026158406148631616
-0.008769882742870907   -0.08825591252396371   -0.002567602656326125
-0.014179184422335874   -0.08318895983349388   -0.0027429011611400694
-0.010774021063005231   -0.08353150341775654   -0.0027019921189055007
-0.008769882742870907   -0.08825591252396371   -0.002567602656326125
-0.010956881787009178   -0.08354961482687889   -0.0026158406148631616
-0.014179184422335874   -0.08318895983349388   -0.0027429011611400694
-0.008769882742870907   -0.08825591252396371   -0.002567602656326125
-0.01019115354094761   -0.08780111137594966   -0.002487908292164843
-0.01068229600599454   -0.08789998878510598   -0.0022091932394663694
-0.014179184422335874   -0.08318895983349388   -0.0027429011611400694
-0.008769882742870907   -0.08825591252396371   -0.002567602656326125
-0.01068229600599454   -0.08789998878510598   -0.0022091932394663694
-0.010956881787009178   -0.08354961482687889   -0.0026158406148631616
-0.014179184422335874   -0.08318895983349388   -0.0027429011611400694
-0.01019115354094761   -0.08780111137594966   -0.002487908292164843
-0.010774021063005231   -0.08353150341775654   -0.0027019921189055007
-0.013815961228647736   -0.08325125253212948   -0.002993468819235405
-0.01019115354094761   -0.08780111137594966   -0.002487908292164843
-0.008769882742870907   -0.08825591252396371   -0.002567602656326125
-0.010774021063005231   -0.08353150341775654   -0.0027019921189055007
-0.008514321391920529   -0.08826011203987956   -0.0026601598338208566
-0.013815961228647736   -0.08325125253212948   -0.002993468819235405
-0.010558977177781067   -0.08358190998759384   -0.0028011205132512586
-0.008514321391920529   -0.08826011203987956   -0.0026601598338208566
-0.010774021063005231   -0.08353150341775654   -0.0027019921189055007
-0.013815961228647736   -0.08325125253212948   -0.002993468819235405
-0.008514321391920529   -0.08826011203987956   -0.0026601598338208566
-0.009767382298675607   -0.0878094152025701   -0.0027655377247224767
-0.01019115354094761   -0.08780111137594966   -0.002487908292164843
-0.013815961228647736   -0.08325125253212948   -0.002993468819235405
-0.008514321391920529   -0.08826011203987956   -0.0026601598338208566
-0.01019115354094761   -0.08780111137594966   -0.002487908292164843
-0.010774021063005231   -0.08353150341775654   -0.0027019921189055007
-0.013815961228647736   -0.08325125253212948   -0.002993468819235405
-0.009767382298675607   -0.0878094152025701   -0.0027655377247224767
-0.010558977177781067   -0.08358190998759384   -0.0028011205132512586
-0.013372971741317881   -0.08341770448654105   -0.0032612305465531425
-0.009767382298675607   -0.0878094152025701   -0.0027655377247224767
-0.008514321391920529   -0.08826011203987956   -0.0026601598338208566
-0.010558977177781067   -0.08358190998759384   -0.0028011205132512586
-0.008276881383987576   -0.08835671030758953   -0.0027540311277157495
-0.013372971741317881   -0.08341770448654105   -0.0032612305465531425
-0.010363888591495648   -0.08370197862727916   -0.0029123951893749106
-0.008276881383987576   -0.08835671030758953   -0.0027540311277157495
-0.010558977177781067   -0.08358190998759384   -0.0028011205132512586
-0.013372971741317881   -0.08341770448654105   -0.0032612305465531425
-0.008276881383987576   -0.08835671030758953   -0.0027540311277157495
-0.009264775452774744   -0.08793103986173412   -0.0030491510718832445
-0.009767382298675607   -0.0878094152025701   -0.0027655377247224767
-0.013372971741317881   -0.08341770448654105   -0.0032612305465531425
-0.008276881383987576   -0.08835671030758953   -0.0027540311277157495
-0.009767382298675607   -0.0878094152025701   -0.0027655377247224767
-0.010558977177781067   -0.08358190998759384   -0.0028011205132512586
-0.010956881787009178   -0.08354961482687889   -0.0026158406148631616
-0.00900067536163074   -0.08834369107648972   -0.002475971735792249
-0.008002883152464616   -0.08377717783828977   -0.002698188403959203
-0.010774021063005231   -0.08353150341775654   -0.0027019921189055007
-0.00900067536163074   -0.08834369107648972   -0.002475971735792249
-0.007769669289214571   -0.08878947457301949   -0.0027117846016170505
-0.008002883152464616   -0.08377717783828977   -0.002698188403959203
-0.007526121537997971   -0.08869943616504912   -0.0026474469411481806
-0.010774021063005231   -0.08353150341775654   -0.0027019921189055007
-0.007815212949321278   -0.08374820842829617   -0.002671829902966416
-0.007526121537997971   -0.08869943616504912   -0.0026474469411481806
-0.008002883152464616   -0.08377717783828977   -0.002698188403959203
-0.010774021063005231   -0.08353150341775654   -0.0027019921189055007
-0.007526121537997971   -0.08869943616504912   -0.0026474469411481806
-0.008769882742870907   -0.08825591252396371   -0.002567602656326125
-0.00900067536163074   -0.08834369107648972   -0.002475971735792249
-0.010774021063005231   -0.08353150341775654   -0.0027019921189055007
-0.007526121537997971   -0.08869943616504912   -0.0026474469411481806
-0.00900067536163074   -0.08834369107648972   -0.002475971735792249
-0.008002883152464616   -0.08377717783828977   -0.002698188403959203
-0.010774021063005231   -0.08353150341775654   -0.0027019921189055007
-0.008769882742870907   -0.08825591252396371   -0.002567602656326125
-0.007815212949321278   -0.08374820842829617   -0.002671829902966416
-0.010558977177781067   -0.08358190998759384   -0.0028011205132512586
-0.008769882742870907   -0.08825591252396371   -0.002567602656326125
-0.007526121537997971   -0.08869943616504912   -0.0026474469411481806
-0.007815212949321278   -0.08374820842829617   -0.002671829902966416
-0.007290667768502854   -0.08869771861932928   -0.0025823060095075336
-0.010558977177781067   -0.08358190998759384   -0.0028011205132512586
-0.007630199528354339   -0.08377837307570156   -0.002658073458854539
-0.007290667768502854   -0.08869771861932928   -0.0025823060095075336
-0.007815212949321278   -0.08374820842829617   -0.002671829902966416
-0.010558977177781067   -0.08358190998759384   -0.0028011205132512586
-0.007290667768502854   -0.08869771861932928   -0.0025823060095075336
-0.008514321391920529   -0.08826011203987956   -0.0026601598338208566
-0.008769882742870907   -0.08825591252396371   -0.002567602656326125
-0.010558977177781067   -0.08358190998759384   -0.0028011205132512586
-0.007290667768502854   -0.08869771861932928   -0.0025823060095075336
-0.008769882742870907   -0.08825591252396371   -0.002567602656326125
-0.007815212949321278   -0.08374820842829617   -0.002671829902966416
-0.010558977177781067   -0.08358190998759384   -0.0028011205132512586
-0.008514321391920529   -0.08826011203987956   -0.0026601598338208566
-0.007630199528354339   -0.08377837307570156   -0.002658073458854539
-0.010363888591495648   -0.08370197862727916   -0.0029123951893749106
-0.008514321391920529   -0.08826011203987956   -0.0026601598338208566
-0.007290667768502854   -0.08869771861932928   -0.0025823060095075336
-0.007630199528354339   -0.08377837307570156   -0.002658073458854539
-0.007045181771395804   -0.08878247192832357   -0.0025197298547976962
-0.010363888591495648   -0.08370197862727916   -0.0029123951893749106
-0.007459983398133884   -0.08386964411620064   -0.002659562056856752
-0.007045181771395804   -0.08878247192832357   -0.0025197298547976962
-0.007630199528354339   -0.08377837307570156   -0.002658073458854539
-0.010363888591495648   -0.08370197862727916   -0.0029123951893749106
-0.007045181771395804   -0.08878247192832357   -0.0025197298547976962
-0.008276881383987576   -0.08835671030758953   -0.0027540311277157495
-0.008514321391920529   -0.08826011203987956   -0.0026601598338208566
-0.010363888591495648   -0.08370197862727916   -0.0029123951893749106
-0.007045181771395804   -0.08878247192832357   -0.0025197298547976962
-0.008514321391920529   -0.08826011203987956   -0.0026601598338208566
-0.007630199528354339   -0.08377837307570156   -0.002658073458854539
-0.008002883152464616   -0.08377717783828977   -0.002698188403959203
-0.007769669289214571   -0.08878947457301949   -0.0027117846016170505
-0.005173639137007161   -0.08389707892584601   -0.0027954237221922205
-0.007815212949321278   -0.08374820842829617   -0.002671829902966416
-0.007769669289214571   -0.08878947457301949   -0.0027117846016170505
-0.0066456485714434955   -0.08932793908005006   -0.0029713984948700604
-0.005173639137007161   -0.08389707892584601   -0.0027954237221922205
-0.006347055320751334   -0.08924985305741898   -0.002742333178587176
-0.007815212949321278   -0.08374820842829617   -0.002671829902966416
-0.00496207385449764   -0.08385532750001447   -0.002662974362776759
-0.006347055320751334   -0.08924985305741898   -0.002742333178587176
-0.005173639137007161   -0.08389707892584601   -0.0027954237221922205
-0.007815212949321278   -0.08374820842829617   -0.002671829902966416
-0.006347055320751334   -0.08924985305741898   -0.002742333178587176
-0.007526121537997971   -0.08869943616504912   -0.0026474469411481806
-0.007769669289214571   -0.08878947457301949   -0.0027117846016170505
-0.007815212949321278   -0.08374820842829617   -0.002671829902966416
-0.006347055320751334   -0.08924985305741898   -0.002742333178587176
-0.007769669289214571   -0.08878947457301949   -0.0027117846016170505
-0.005173639137007161   -0.08389707892584601   -0.0027954237221922205
-0.007815212949321278   -0.08374820842829617   -0.002671829902966416
-0.007526121537997971   -0.08869943616504912   -0.0026474469411481806
-0.00496207385449764   -0.08385532750001447   -0.002662974362776759
-0.007630199528354339   -0.08377837307570156   -0.002658073458854539
-0.007526121537997971   -0.08869943616504912   -0.0026474469411481806
-0.006347055320751334   -0.08924985305741898   -0.002742333178587176
-0.00496207385449764   -0.08385532750001447   -0.002662974362776759
-0.006070415723119203   -0.08924561373860895   -0.002514061973271646
-0.007630199528354339   -0.08377837307570156   -0.002658073458854539
-0.00476041444046386   -0.08386555510894392   -0.002541656192405686
-0.006070415723119203   -0.08924561373860895   -0.002514061973271646
-0.00496207385449764   -0.08385532750001447   -0.002662974362776759
-0.007630199528354339   -0.08377837307570156   -0.002658073458854539
-0.006070415723119203   -0.08924561373860895   -0.002514061973271646
-0.007290667768502854   -0.08869771861932928   -0.0025823060095075336
-0.007526121537997971   -0.08869943616504912   -0.0026474469411481806
-0.007630199528354339   -0.08377837307570156   -0.002658073458854539
-0.006070415723119203   -0.08924561373860895   -0.002514061973271646
-0.007526121537997971   -0.08869943616504912   -0.0026474469411481806
-0.00496207385449764   -0.08385532750001447   -0.002662974362776759
-0.007630199528354339   -0.08377837307570156   -0.002658073458854539
-0.007290667768502854   -0.08869771861932928   -0.0025823060095075336
-0.00476041444046386   -0.08386555510894392   -0.002541656192405686
-0.007459983398133884   -0.08386964411620064   -0.002659562056856752
-0.007290667768502854   -0.08869771861932928   -0.0025823060095075336
-0.006070415723119203   -0.08924561373860895   -0.002514061973271646
-0.00476041444046386   -0.08386555510894392   -0.002541656192405686
-0.005773369439953413   -0.08931121723363472   -0.002285248078843877
-0.007459983398133884   -0.08386964411620064   -0.002659562056856752
-0.004592727870773923   -0.08393792547088183   -0.002438443243410283
-0.005773369439953413   -0.08931121723363472   -0.002285248078843877
-0.00476041444046386   -0.08386555510894392   -0.002541656192405686
-0.007459983398133884   -0.08386964411620064   -0.002659562056856752
-0.005773369439953413   -0.08931121723363472   -0.002285248078843877
-0.007045181771395804   -0.08878247192832357   -0.0025197298547976962
-0.007290667768502854   -0.08869771861932928   -0.0025823060095075336
-0.007459983398133884   -0.08386964411620064   -0.002659562056856752
-0.005773369439953413   -0.08931121723363472   -0.002285248078843877
-0.007290667768502854   -0.08869771861932928   -0.0025823060095075336
-0.00476041444046386   -0.08386555510894392   -0.002541656192405686
-0.005173639137007161   -0.08389707892584601   -0.0027954237221922205
-0.0066456485714434955   -0.08932793908005006   -0.0029713984948700604
-0.002164466245351914   -0.08386752195026748   -0.002909896902494923
-0.00496207385449764   -0.08385532750001447   -0.002662974362776759
-0.0066456485714434955   -0.08932793908005006   -0.0029713984948700604
-0.005539416043878118   -0.09   -0.0031705758895496845
-0.002164466245351914   -0.08386752195026748   -0.002909896902494923
-0.005163939394446316   -0.09   -0.0028228782762111946
-0.00496207385449764   -0.08385532750001447   -0.002662974362776759
-0.0018928349669957774   -0.08380208030804183   -0.0026759722397034307
-0.005163939394446316   -0.09   -0.0028228782762111946
-0.002164466245351914   -0.08386752195026748   -0.002909896902494923
-0.00496207385449764   -0.08385532750001447   -0.002662974362776759
-0.005163939394446316   -0.09   -0.0028228782762111946
-0.006347055320751334   -0.08924985305741898   -0.002742333178587176
-0.0066456485714434955   -0.08932793908005006   -0.0029713984948700604
-0.00496207385449764   -0.08385532750001447   -0.002662974362776759
-0.005163939394446316   -0.09   -0.0028228782762111946
-0.0066456485714434955   -0.08932793908005006   -0.0029713984948700604
-0.002164466245351914   -0.08386752195026748   -0.002909896902494923
-0.00496207385449764   -0.08385532750001447   -0.002662974362776759
-0.006347055320751334   -0.08924985305741898   -0.002742333178587176
-0.0018928349669957774   -0.08380208030804183   -0.0026759722397034307
-0.00476041444046386   -0.08386555510894392   -0.002541656192405686
-0.006347055320751334   -0.08924985305741898   -0.002742333178587176
-0.005163939394446316   -0.09   -0.0028228782762111946
-0.0018928349669957774   -0.08380208030804183   -0.0026759722397034307
-0.004786739362685584   -0.09   -0.0024710551699723394
-0.00476041444046386   -0.08386555510894392   -0.002541656192405686
-0.0016151900092608378   -0.08379049380138187   -0.0024539603374223325
-0.004786739362685584   -0.09   -0.0024710551699723394
-0.0018928349669957774   -0.08380208030804183   -0.0026759722397034307
-0.00476041444046386   -0.08386555510894392   -0.002541656192405686
-0.004786739362685584   -0.09   -0.0024710551699723394
-0.006070415723119203   -0.08924561373860895   -0.002514061973271646
-0.006347055320751334   -0.08924985305741898   -0.002742333178587176
-0.00476041444046386   -0.08386555510894392   -0.002541656192405686
-0.004786739362685584   -0.09   -0.0024710551699723394
-0.006347055320751334   -0.08924985305741898   -0.002742333178587176
-0.0018928349669957774   -0.08380208030804183   -0.0026759722397034307
-0.00476041444046386   -0.08386555510894392   -0.002541656192405686
-0.006070415723119203   -0.08924561373860895   -0.002514061973271646
-0.0016151900092608378   -0.08379049380138187   -0.0024539603374223325
-0.004592727870773923   -0.08393792547088183   -0.002438443243410283
-0.006070415723119203   -0.08924561373860895   -0.002514061973271646
-0.004786739362685584   -0.09   -0.0024710551699723394
-0.0016151900092608378   -0.08379049380138187   -0.0024539603374223325
-0.00441794052019235   -0.09   -0.0021238780332589195
-0.004592727870773923   -0.08393792547088183   -0.002438443243410283
-0.0014095040823140393   -0.08384439934426874   -0.0022523602431885814
-0.00441794052019235   -0.09   -0.0021238780332589195
-0.0016151900092608378   -0.08379049380138187   -0.0024539603374223325
-0.004592727870773923   -0.08393792547088183   -0.002438443243410283
-0.00441794052019235   -0.09   -0.0021238780332589195
-0.005773369439953413   -0.08931121723363472   -0.002285248078843877
-0.006070415723119203   -0.08924561373860895   -0.002514061973271646
-0.004592727870773923   -0.08393792547088183   -0.002438443243410283
-0.00441794052019235   -0.09   -0.0021238780332589195
-0.006070415723119203   -0.08924561373860895   -0.002514061973271646
-0.0016151900092608378   -0.08379049380138187   -0.0024539603374223325
-0.002164466245351914   -0.08386752195026748   -0.002909896902494923
-0.005539416043878118   -0.09   -0.0031705758895496845
0.0010754345144815783   -0.08357869247740354   -0.0031447104378828214
-0.0018928349669957774   -0.08380208030804183   -0.0026759722397034307
-0.005539416043878118   -0.09   -0.0031705758895496845
-0.0047376444813671875   -0.09   -0.0034118014340170245
0.0010754345144815783   -0.08357869247740354   -0.0031447104378828214
-0.003953079022958301   -0.09   -0.0029089011921181714
-0.0018928349669957774   -0.08380208030804183   -0.0026759722397034307
0.001707979328225865   -0.08343621435470103   -0.0027620213003836775
-0.003953079022958301   -0.09   -0.0029089011921181714
0.0010754345144815783   -0.08357869247740354   -0.0031447104378828214
-0.0018928349669957774   -0.08380208030804183   -0.0026759722397034307
-0.003953079022958301   -0.09   -0.0029089011921181714
-0.005163939394446316   -0.09   -0.0028228782762111946
-0.005539416043878118   -0.09   -0.0031705758895496845
-0.0018928349669957774   -0.08380208030804183   -0.0026759722397034307
-0.003953079022958301   -0.09   -0.0029089011921181714
-0.005539416043878118   -0.09   -0.0031705758895496845
0.0010754345144815783   -0.08357869247740354   -0.0031447104378828214
-0.0018928349669957774   -0.08380208030804183   -0.0026759722397034307
-0.005163939394446316   -0.09   -0.0028228782762111946
0.001707979328225865   -0.08343621435470103   -0.0027620213003836775
-0.0016151900092608378   -0.08379049380138187   -0.0024539603374223325
-0.005163939394446316   -0.09   -0.0028228782762111946
-0.003953079022958301   -0.09   -0.0029089011921181714
0.001707979328225865   -0.08343621435470103   -0.0027620213003836775
-0.0033273945587159875   -0.09   -0.002427807853370461
-0.0016151900092608378   -0.08379049380138187   -0.0024539603374223325
0.0022051094413658833   -0.08340732504035503   -0.0024027444179471626
-0.0033273945587159875   -0.09   -0.002427807853370461
0.001707979328225865   -0.08343621435470103   -0.0027620213003836775
-0.0016151900092608378   -0.08379049380138187   -0.0024539603374223325
-0.0033273945587159875   -0.09   -0.002427807853370461
-0.004786739362685584   -0.09   -0.0024710551699723394
-0.005163939394446316   -0.09   -0.0028228782762111946
-0.0016151900092608378   -0.08379049380138187   -0.0024539603374223325
-0.0033273945587159875   -0.09   -0.002427807853370461
-0.005163939394446316   -0.09   -0.0028228782762111946
0.001707979328225865   -0.08343621435470103   -0.0027620213003836775
-0.0016151900092608378   -0.08379049380138187   -0.0024539603374223325
-0.004786739362685584   -0.09   -0.0024710551699723394
0.0022051094413658833   -0.08340732504035503   -0.0024027444179471626
-0.0014095040823140393   -0.08384439934426874   -0.0022523602431885814
-0.004786739362685584   -0.09   -0.0024710551699723394
-0.0033273945587159875   -0.09   -0.002427807853370461
0.0022051094413658833   -0.08340732504035503   -0.0024027444179471626
-0.0025544632669182105   -0.09   -0.001928384571391259
-0.0014095040823140393   -0.08384439934426874   -0.0022523602431885814
0.0027215971596246296   -0.0834314457499725   -0.0020746787210085198
-0.0025544632669182105   -0.09   -0.001928384571391259
0.0022051094413658833   -0.08340732504035503   -0.0024027444179471626
-0.0014095040823140393   -0.08384439934426874   -0.0022523602431885814
-0.0025544632669182105   -0.09   -0.001928384571391259
-0.00441794052019235   -0.09   -0.0021238780332589195
-0.004786739362685584   -0.09   -0.0024710551699723394
-0.0014095040823140393   -0.08384439934426874   -0.0022523602431885814
-0.0025544632669182105   -0.09   -0.001928384571391259
-0.004786739362685584   -0.09   -0.0024710551699723394
0.0022051094413658833   -0.08340732504035503   -0.0024027444179471626
-0.01068229600599454   -0.08789998878510598   -0.0022091932394663694
-0.006377609582995949   -0.08813252776410806   -0.0018907768140181296
-0.00900067536163074   -0.08834369107648972   -0.002475971735792249
-0.01019115354094761   -0.08780111137594966   -0.002487908292164843
-0.006377609582995949   -0.08813252776410806   -0.0018907768140181296
-0.006766838342925883   -0.08847424429780745   -0.002234261640475708
-0.00900067536163074   -0.08834369107648972   -0.002475971735792249
-0.006592329051570395   -0.08835439564375004   -0.0023593541790088656
-0.01019115354094761   -0.08780111137594966   -0.002487908292164843
-0.008769882742870907   -0.08825591252396371   -0.002567602656326125
-0.006592329051570395   -0.08835439564375004   -0.0023593541790088656
-0.00900067536163074   -0.08834369107648972   -0.002475971735792249
-0.01019115354094761   -0.08780111137594966   -0.002487908292164843
-0.006592329051570395   -0.08835439564375004   -0.0023593541790088656
-0.0059326254942595955   -0.08797865513545583   -0.002183599266759229
-0.006377609582995949   -0.08813252776410806   -0.0018907768140181296
-0.01019115354094761   -0.08780111137594966   -0.002487908292164843
-0.006592329051570395   -0.08835439564375004   -0.0023593541790088656
-0.006377609582995949   -0.08813252776410806   -0.0018907768140181296
-0.00900067536163074   -0.08834369107648972   -0.002475971735792249
-0.01019115354094761   -0.08780111137594966   -0.002487908292164843
-0.0059326254942595955   -0.08797865513545583   -0.002183599266759229
-0.008769882742870907   -0.08825591252396371   -0.002567602656326125
-0.009767382298675607   -0.0878094152025701   -0.0027655377247224767
-0.0059326254942595955   -0.08797865513545583   -0.002183599266759229
-0.006592329051570395   -0.08835439564375004   -0.0023593541790088656
-0.008769882742870907   -0.08825591252396371   -0.002567602656326125
-0.006387675071561979   -0.08831001135212263   -0.002474740536278897
-0.009767382298675607   -0.0878094152025701   -0.0027655377247224767
-0.008514321391920529   -0.08826011203987956   -0.0026601598338208566
-0.006387675071561979   -0.08831001135212263   -0.002474740536278897
-0.008769882742870907   -0.08825591252396371   -0.002567602656326125
-0.009767382298675607   -0.0878094152025701   -0.0027655377247224767
-0.006387675071561979   -0.08831001135212263   -0.002474740536278897
-0.005562207437116395   -0.08793112633042682   -0.002464375613065578
-0.0059326254942595955   -0.08797865513545583   -0.002183599266759229
-0.009767382298675607   -0.0878094152025701   -0.0027655377247224767
-0.006387675071561979   -0.08831001135212263   -0.002474740536278897
-0.0059326254942595955   -0.08797865513545583   -0.002183599266759229
-0.008769882742870907   -0.08825591252396371   -0.002567602656326125
-0.009767382298675607   -0.0878094152025701   -0.0027655377247224767
-0.005562207437116395   -0.08793112633042682   -0.002464375613065578
-0.008514321391920529   -0.08826011203987956   -0.0026601598338208566
-0.009264775452774744   -0.08793103986173412   -0.0030491510718832445
-0.005562207437116395   -0.08793112633042682   -0.002464375613065578
-0.006387675071561979   -0.08831001135212263   -0.002474740536278897
-0.008514321391920529   -0.08826011203987956   -0.0026601598338208566
-0.006212339168116289   -0.08834172652951387   -0.0025798145684090626
-0.009264775452774744   -0.08793103986173412   -0.0030491510718832445
-0.008276881383987576   -0.08835671030758953   -0.0027540311277157495
-0.006212339168116289   -0.08834172652951387   -0.0025798145684090626
-0.008514321391920529   -0.08826011203987956   -0.0026601598338208566
-0.009264775452774744   -0.08793103986173412   -0.0030491510718832445
-0.006212339168116289   -0.08834172652951387   -0.0025798145684090626
-0.005143192828232669   -0.08797070054252921   -0.0027318528626691704
-0.005562207437116395   -0.08793112633042682   -0.002464375613065578
-0.009264775452774744   -0.08793103986173412   -0.0030491510718832445
-0.006212339168116289   -0.08834172652951387   -0.0025798145684090626
-0.005562207437116395   -0.08793112633042682   -0.002464375613065578
-0.008514321391920529   -0.08826011203987956   -0.0026601598338208566
-0.00900067536163074   -0.08834369107648972   -0.002475971735792249
-0.006766838342925883   -0.08847424429780745   -0.002234261640475708
-0.007769669289214571   -0.08878947457301949   -0.0027117846016170505
-0.008769882742870907   -0.08825591252396371   -0.002567602656326125
-0.006766838342925883   -0.08847424429780745   -0.002234261640475708
-0.007292673464543507   -0.08868575394855917   -0.002508932550536496
-0.007769669289214571   -0.08878947457301949   -0.0027117846016170505
-0.007138203618641528   -0.08857874651301241   -0.0025122434805348987
-0.008769882742870907   -0.08825591252396371   -0.002567602656326125
-0.007526121537997971   -0.08869943616504912   -0.0026474469411481806
-0.007138203618641528   -0.08857874651301241   -0.0025122434805348987
-0.007769669289214571   -0.08878947457301949   -0.0027117846016170505
-0.008769882742870907   -0.08825591252396371   -0.002567602656326125
-0.007138203618641528   -0.08857874651301241   -0.0025122434805348987
-0.006592329051570395   -0.08835439564375004   -0.0023593541790088656
-0.006766838342925883   -0.08847424429780745   -0.002234261640475708
-0.008769882742870907   -0.08825591252396371   -0.002567602656326125
-0.007138203618641528   -0.08857874651301241   -0.0025122434805348987
-0.006766838342925883   -0.08847424429780745   -0.002234261640475708
-0.007769669289214571   -0.08878947457301949   -0.0027117846016170505
-0.008769882742870907   -0.08825591252396371   -0.002567602656326125
-0.006592329051570395   -0.08835439564375004   -0.0023593541790088656
-0.007526121537997971   -0.08869943616504912   -0.0026474469411481806
-0.008514321391920529   -0.08826011203987956   -0.0026601598338208566
-0.006592329051570395   -0.08835439564375004   -0.0023593541790088656
-0.007138203618641528   -0.08857874651301241   -0.0025122434805348987
-0.007526121537997971   -0.08869943616504912   -0.0026474469411481806
-0.006966259442493702   -0.08854008997851906   -0.0025029702501152156
-0.008514321391920529   -0.08826011203987956   -0.0026601598338208566
-0.007290667768502854   -0.08869771861932928   -0.0025823060095075336
-0.006966259442493702   -0.08854008997851906   -0.0025029702501152156
-0.007526121537997971   -0.08869943616504912   -0.0026474469411481806
-0.008514321391920529   -0.08826011203987956   -0.0026601598338208566
-0.006966259442493702   -0.08854008997851906   -0.0025029702501152156
-0.006387675071561979   -0.08831001135212263   -0.002474740536278897
-0.006592329051570395   -0.08835439564375004   -0.0023593541790088656
-0.008514321391920529   -0.08826011203987956   -0.0026601598338208566
-0.006966259442493702   -0.08854008997851906   -0.0025029702501152156
-0.006592329051570395   -0.08835439564375004   -0.0023593541790088656
-0.007526121537997971   -0.08869943616504912   -0.0026474469411481806
-0.008514321391920529   -0.08826011203987956   -0.0026601598338208566
-0.006387675071561979   -0.08831001135212263   -0.002474740536278897
-0.007290667768502854   -0.08869771861932928   -0.0025823060095075336
-0.008276881383987576   -0.08835671030758953   -0.0027540311277157495
-0.006387675071561979   -0.08831001135212263   -0.002474740536278897
-0.006966259442493702   -0.08854008997851906   -0.0025029702501152156
-0.007290667768502854   -0.08869771861932928   -0.0025823060095075336
-0.00679142703758384   -0.08856664869404281   -0.0024838229302432333
-0.008276881383987576   -0.08835671030758953   -0.0027540311277157495
-0.007045181771395804   -0.08878247192832357   -0.0025197298547976962
-0.00679142703758384   -0.08856664869404281   -0.0024838229302432333
-0.007290667768502854   -0.08869771861932928   -0.0025823060095075336
-0.008276881383987576   -0.08835671030758953   -0.0027540311277157495
-0.00679142703758384   -0.08856664869404281   -0.0024838229302432333
-0.006212339168116289   -0.08834172652951387   -0.0025798145684090626
-0.006387675071561979   -0.08831001135212263   -0.002474740536278897
-0.008276881383987576   -0.08835671030758953   -0.0027540311277157495
-0.00679142703758384   -0.08856664869404281   -0.0024838229302432333
-0.006387675071561979   -0.08831001135212263   -0.002474740536278897
-0.007290667768502854   -0.08869771861932928   -0.0025823060095075336
-0.007769669289214571   -0.08878947457301949   -0.0027117846016170505
-0.007292673464543507   -0.08868575394855917   -0.002508932550536496
-0.0066456485714434955   -0.08932793908005006   -0.0029713984948700604
-0.007526121537997971   -0.08869943616504912   -0.0026474469411481806
-0.007292673464543507   -0.08868575394855917   -0.002508932550536496
-0.007856236077215528   -0.08877503157860116   -0.0027792324048771465
-0.0066456485714434955   -0.08932793908005006   -0.0029713984948700604
-0.007696223532674425   -0.08867302953675726   -0.0026654459346360303
-0.007526121537997971   -0.08869943616504912   -0.0026474469411481806
-0.006347055320751334   -0.08924985305741898   -0.002742333178587176
-0.007696223532674425   -0.08867302953675726   -0.0026654459346360303
-0.0066456485714434955   -0.08932793908005006   -0.0029713984948700604
-0.007526121537997971   -0.08869943616504912   -0.0026474469411481806
-0.007696223532674425   -0.08867302953675726   -0.0026654459346360303
-0.007138203618641528   -0.08857874651301241   -0.0025122434805348987
-0.007292673464543507   -0.08868575394855917   -0.002508932550536496
-0.007526121537997971   -0.08869943616504912   -0.0026474469411481806
-0.007696223532674425   -0.08867302953675726   -0.0026654459346360303
-0.007292673464543507   -0.08868575394855917   -0.002508932550536496
-0.0066456485714434955   -0.08932793908005006   -0.0029713984948700604
-0.007526121537997971   -0.08869943616504912   -0.0026474469411481806
-0.007138203618641528   -0.08857874651301241   -0.0025122434805348987
-0.006347055320751334   -0.08924985305741898   -0.002742333178587176
-0.007290667768502854   -0.08869771861932928   -0.0025823060095075336
-0.007138203618641528   -0.08857874651301241   -0.0025122434805348987
-0.007696223532674425   -0.08867302953675726   -0.0026654459346360303
-0.006347055320751334   -0.08924985305741898   -0.002742333178587176
-0.007504264329168843   -0.08864049890621147   -0.002536334119767002
-0.007290667768502854   -0.08869771861932928   -0.0025823060095075336
-0.006070415723119203   -0.08924561373860895   -0.002514061973271646
-0.007504264329168843   -0.08864049890621147   -0.002536334119767002
-0.006347055320751334   -0.08924985305741898   -0.002742333178587176
-0.007290667768502854   -0.08869771861932928   -0.0025823060095075336
-0.007504264329168843   -0.08864049890621147   -0.002536334119767002
-0.006966259442493702   -0.08854008997851906   -0.0025029702501152156
-0.007138203618641528   -0.08857874651301241   -0.0025122434805348987
-0.007290667768502854   -0.08869771861932928   -0.0025823060095075336
-0.007504264329168843   -0.08864049890621147   -0.002536334119767002
-0.007138203618641528   -0.08857874651301241   -0.0025122434805348987
-0.006347055320751334   -0.08924985305741898   -0.002742333178587176
-0.007290667768502854   -0.08869771861932928   -0.0025823060095075336
-0.006966259442493702   -0.08854008997851906   -0.0025029702501152156
-0.006070415723119203   -0.08924561373860895   -0.002514061973271646
-0.007045181771395804   -0.08878247192832357   -0.0025197298547976962
-0.006966259442493702   -0.08854008997851906   -0.0025029702501152156
-0.007504264329168843   -0.08864049890621147   -0.002536334119767002
-0.006070415723119203   -0.08924561373860895   -0.002514061973271646
-0.007306839014359543   -0.08866649099574477   -0.002398797053174545
-0.007045181771395804   -0.08878247192832357   -0.0025197298547976962
-0.005773369439953413   -0.08931121723363472   -0.002285248078843877
-0.007306839014359543   -0.08866649099574477   -0.002398797053174545
-0.006070415723119203   -0.08924561373860895   -0.002514061973271646
-0.007045181771395804   -0.08878247192832357   -0.0025197298547976962
-0.007306839014359543   -0.08866649099574477   -0.002398797053174545
-0.00679142703758384   -0.08856664869404281   -0.0024838229302432333
-0.006966259442493702   -0.08854008997851906   -0.0025029702501152156
-0.007045181771395804   -0.08878247192832357   -0.0025197298547976962
-0.007306839014359543   -0.08866649099574477   -0.002398797053174545
-0.006966259442493702   -0.08854008997851906   -0.0025029702501152156
-0.006070415723119203   -0.08924561373860895   -0.002514061973271646
-0.0066456485714434955   -0.08932793908005006   -0.0029713984948700604
-0.007856236077215528   -0.08877503157860116   -0.0027792324048771465
-0.005539416043878118   -0.09   -0.0031705758895496845
-0.006347055320751334   -0.08924985305741898   -0.002742333178587176
-0.007856236077215528   -0.08877503157860116   -0.0027792324048771465
-0.008672335338726923   -0.08867998881944632   -0.003035938747053753
-0.005539416043878118   -0.09   -0.0031705758895496845
-0.008463311495378576   -0.08858374890992855   -0.0028106901538455333
-0.006347055320751334   -0.08924985305741898   -0.002742333178587176
-0.005163939394446316   -0.09   -0.0028228782762111946
-0.008463311495378576   -0.08858374890992855   -0.0028106901538455333
-0.005539416043878118   -0.09   -0.0031705758895496845
-0.006347055320751334   -0.08924985305741898   -0.002742333178587176
-0.008463311495378576   -0.08858374890992855   -0.0028106901538455333
-0.007696223532674425   -0.08867302953675726   -0.0026654459346360303
-0.007856236077215528   -0.08877503157860116   -0.0027792324048771465
-0.006347055320751334   -0.08924985305741898   -0.002742333178587176
-0.008463311495378576   -0.08858374890992855   -0.0028106901538455333
-0.007856236077215528   -0.08877503157860116   -0.0027792324048771465
-0.005539416043878118   -0.09   -0.0031705758895496845
-0.006347055320751334   -0.08924985305741898   -0.002742333178587176
-0.007696223532674425   -0.08867302953675726   -0.0026654459346360303
-0.005163939394446316   -0.09   -0.0028228782762111946
-0.006070415723119203   -0.08924561373860895   -0.002514061973271646
-0.007696223532674425   -0.08867302953675726   -0.0026654459346360303
-0.008463311495378576   -0.08858374890992855   -0.0028106901538455333
-0.005163939394446316   -0.09   -0.0028228782762111946
-0.00818758171118479   -0.08856177910309636   -0.0025683865038693466
-0.006070415723119203   -0.08924561373860895   -0.002514061973271646
-0.004786739362685584   -0.09   -0.0024710551699723394
-0.00818758171118479   -0.08856177910309636   -0.0025683865038693466
-0.005163939394446316   -0.09   -0.0028228782762111946
-0.006070415723119203   -0.08924561373860895   -0.002514061973271646
-0.00818758171118479   -0.08856177910309636   -0.0025683865038693466
-0.007504264329168843   -0.08864049890621147   -0.002536334119767002
-0.007696223532674425   -0.08867302953675726   -0.0026654459346360303
-0.006070415723119203   -0.08924561373860895   -0.002514061973271646
-0.00818758171118479   -0.08856177910309636   -0.0025683865038693466
-0.007696223532674425   -0.08867302953675726   -0.0026654459346360303
-0.005163939394446316   -0.09   -0.0028228782762111946
-0.006070415723119203   -0.08924561373860895   -0.002514061973271646
-0.007504264329168843   -0.08864049890621147   -0.002536334119767002
-0.004786739362685584   -0.09   -0.0024710551699723394
-0.005773369439953413   -0.08931121723363472   -0.002285248078843877
-0.007504264329168843   -0.08864049890621147   -0.002536334119767002
-0.00818758171118479   -0.08856177910309636   -0.0025683865038693466
-0.004786739362685584   -0.09   -0.0024710551699723394
-0.007928094664050462   -0.088599720487435   -0.0023167034982210315
-0.005773369439953413   -0.08931121723363472   -0.002285248078843877
-0.00441794052019235   -0.09   -0.0021238780332589195
-0.007928094664050462   -0.088599720487435   -0.0023167034982210315
-0.004786739362685584   -0.09   -0.0024710551699723394
-0.005773369439953413   -0.08931121723363472   -0.002285248078843877
-0.007928094664050462   -0.088599720487435   -0.0023167034982210315
-0.007306839014359543   -0.08866649099574477   -0.002398797053174545
-0.007504264329168843   -0.08864049890621147   -0.002536334119767002
-0.005773369439953413   -0.08931121723363472   -0.002285248078843877
-0.007928094664050462   -0.088599720487435   -0.0023167034982210315
-0.007504264329168843   -0.08864049890621147   -0.002536334119767002
-0.004786739362685584   -0.09   -0.0024710551699723394
-0.005539416043878118   -0.09   -0.0031705758895496845
-0.008672335338726923   -0.08867998881944632   -0.003035938747053753
-0.0047376444813671875   -0.09   -0.0034118014340170245
-0.005163939394446316   -0.09   -0.0028228782762111946
-0.008672335338726923   -0.08867998881944632   -0.003035938747053753
-0.010257259425553644   -0.08824587779199297   -0.003307934631864745
-0.0047376444813671875   -0.09   -0.0034118014340170245
-0.009702396809559354   -0.08816486585537536   -0.0029383684040688862
-0.005163939394446316   -0.09   -0.0028228782762111946
-0.003953079022958301   -0.09   -0.0029089011921181714
-0.009702396809559354   -0.08816486585537536   -0.0029383684040688862
-0.0047376444813671875   -0.09   -0.0034118014340170245
-0.005163939394446316   -0.09   -0.0028228782762111946
-0.009702396809559354   -0.08816486585537536   -0.0029383684040688862
-0.008463311495378576   -0.08858374890992855   -0.0028106901538455333
-0.008672335338726923   -0.08867998881944632   -0.003035938747053753
-0.005163939394446316   -0.09   -0.0028228782762111946
-0.009702396809559354   -0.08816486585537536   -0.0029383684040688862
-0.008672335338726923   -0.08867998881944632   -0.003035938747053753
-0.0047376444813671875   -0.09   -0.0034118014340170245
-0.005163939394446316   -0.09   -0.0028228782762111946
-0.008463311495378576   -0.08858374890992855   -0.0028106901538455333
-0.003953079022958301   -0.09   -0.0029089011921181714
-0.004786739362685584   -0.09   -0.0024710551699723394
-0.008463311495378576   -0.08858374890992855   -0.0028106901538455333
-0.009702396809559354   -0.08816486585537536   -0.0029383684040688862
-0.003953079022958301   -0.09   -0.0029089011921181714
-0.00919241611257566   -0.0881536767113809   -0.002543820233662755
-0.004786739362685584   -0.09   -0.0024710551699723394
-0.0033273945587159875   -0.09   -0.002427807853370461
-0.00919241611257566   -0.0881536767113809   -0.002543820233662755
-0.003953079022958301   -0.09   -0.0029089011921181714
-0.004786739362685584   -0.09   -0.0024710551699723394
-0.00919241611257566   -0.0881536767113809   -0.002543820233662755
-0.00818758171118479   -0.08856177910309636   -0.0025683865038693466
-0.008463311495378576   -0.08858374890992855   -0.0028106901538455333
-0.004786739362685584   -0.09   -0.0024710551699723394
-0.00919241611257566   -0.0881536767113809   -0.002543820233662755
-0.008463311495378576   -0.08858374890992855   -0.0028106901538455333
-0.003953079022958301   -0.09   -0.0029089011921181714
-0.004786739362685584   -0.09   -0.0024710551699723394
-0.00818758171118479   -0.08856177910309636   -0.0025683865038693466
-0.0033273945587159875   -0.09   -0.002427807853370461
-0.00441794052019235   -0.09   -0.0021238780332589195
-0.00818758171118479   -0.08856177910309636   -0.0025683865038693466
-0.00919241611257566   -0.0881536767113809   -0.002543820233662755
-0.0033273945587159875   -0.09   -0.002427807853370461
-0.008548397340990636   -0.08826002456263052   -0.002131115689392183
-0.00441794052019235   -0.09   -0.0021238780332589195
-0.0025544632669182105   -0.09   -0.001928384571391259
-0.008548397340990636   -0.08826002456263052   -0.002131115689392183
-0.0033273945587159875   -0.09   -0.002427807853370461
-0.00441794052019235   -0.09   -0.0021238780332589195
-0.008548397340990636   -0.08826002456263052   -0.002131115689392183
-0.007928094664050462   -0.088599720487435   -0.0023167034982210315
-0.00818758171118479   -0.08856177910309636   -0.0025683865038693466
-0.00441794052019235   -0.09   -0.0021238780332589195
-0.008548397340990636   -0.08826002456263052   -0.002131115689392183
-0.00818758171118479   -0.08856177910309636   -0.0025683865038693466
-0.0033273945587159875   -0.09   -0.002427807853370461
-0.006377609582995949   -0.08813252776410806   -0.0018907768140181296
-0.002592799310814101   -0.08479553980085543   -0.0016340401428284182
-0.006766838342925883   -0.08847424429780745   -0.002234261640475708
-0.0059326254942595955   -0.08797865513545583   -0.002183599266759229
-0.002592799310814101   -0.08479553980085543   -0.0016340401428284182
-0.00485234659021754   -0.08505310633618157   -0.0019988254878135895
-0.006766838342925883   -0.08847424429780745   -0.002234261640475708
-0.004728441619541087   -0.08490809910616094   -0.002110307755924662
-0.0059326254942595955   -0.08797865513545583   -0.002183599266759229
-0.006592329051570395   -0.08835439564375004   -0.0023593541790088656
-0.004728441619541087   -0.08490809910616094   -0.002110307755924662
-0.006766838342925883   -0.08847424429780745   -0.002234261640475708
-0.0059326254942595955   -0.08797865513545583   -0.002183599266759229
-0.004728441619541087   -0.08490809910616094   -0.002110307755924662
-0.002238197737768413   -0.08461613519970303   -0.0018869845683303097
-0.002592799310814101   -0.08479553980085543   -0.0016340401428284182
-0.0059326254942595955   -0.08797865513545583   -0.002183599266759229
-0.004728441619541087   -0.08490809910616094   -0.002110307755924662
-0.002592799310814101   -0.08479553980085543   -0.0016340401428284182
-0.006766838342925883   -0.08847424429780745   -0.002234261640475708
-0.0059326254942595955   -0.08797865513545583   -0.002183599266759229
-0.002238197737768413   -0.08461613519970303   -0.0018869845683303097
-0.006592329051570395   -0.08835439564375004   -0.0023593541790088656
-0.005562207437116395   -0.08793112633042682   -0.002464375613065578
-0.002238197737768413   -0.08461613519970303   -0.0018869845683303097
-0.004728441619541087   -0.08490809910616094   -0.002110307755924662
-0.006592329051570395   -0.08835439564375004   -0.0023593541790088656
-0.004588995962266705   -0.0848275896062146   -0.002211713885143652
-0.005562207437116395   -0.08793112633042682   -0.002464375613065578
-0.006387675071561979   -0.08831001135212263   -0.002474740536278897
-0.004588995962266705   -0.0848275896062146   -0.002211713885143652
-0.006592329051570395   -0.08835439564375004   -0.0023593541790088656
-0.005562207437116395   -0.08793112633042682   -0.002464375613065578
-0.004588995962266705   -0.0848275896062146   -0.002211713885143652
-0.001959172934187255   -0.08453050244881255   -0.0021249919399074692
-0.002238197737768413   -0.08461613519970303   -0.0018869845683303097
-0.005562207437116395   -0.08793112633042682   -0.002464375613065578
-0.004588995962266705   -0.0848275896062146   -0.002211713885143652
-0.002238197737768413   -0.08461613519970303   -0.0018869845683303097
-0.006592329051570395   -0.08835439564375004   -0.0023593541790088656
-0.005562207437116395   -0.08793112633042682   -0.002464375613065578
-0.001959172934187255   -0.08453050244881255   -0.0021249919399074692
-0.006387675071561979   -0.08831001135212263   -0.002474740536278897
-0.005143192828232669   -0.08797070054252921   -0.0027318528626691704
-0.001959172934187255   -0.08453050244881255   -0.0021249919399074692
-0.004588995962266705   -0.0848275896062146   -0.002211713885143652
-0.006387675071561979   -0.08831001135212263   -0.002474740536278897
-0.004482069006981046   -0.08480933081372292   -0.002303364160985201
-0.005143192828232669   -0.08797070054252921   -0.0027318528626691704
-0.006212339168116289   -0.08834172652951387   -0.0025798145684090626
-0.004482069006981046   -0.08480933081372292   -0.002303364160985201
-0.006387675071561979   -0.08831001135212263   -0.002474740536278897
-0.005143192828232669   -0.08797070054252921   -0.0027318528626691704
-0.004482069006981046   -0.08480933081372292   -0.002303364160985201
-0.0016545580116686253   -0.08451407649402946   -0.002347428767936903
-0.001959172934187255   -0.08453050244881255   -0.0021249919399074692
-0.005143192828232669   -0.08797070054252921   -0.0027318528626691704
-0.004482069006981046   -0.08480933081372292   -0.002303364160985201
-0.001959172934187255   -0.08453050244881255   -0.0021249919399074692
-0.006387675071561979   -0.08831001135212263   -0.002474740536278897
-0.006766838342925883   -0.08847424429780745   -0.002234261640475708
-0.00485234659021754   -0.08505310633618157   -0.0019988254878135895
-0.007292673464543507   -0.08868575394855917   -0.002508932550536496
-0.006592329051570395   -0.08835439564375004   -0.0023593541790088656
-0.00485234659021754   -0.08505310633618157   -0.0019988254878135895
-0.007082074846275989   -0.0851440414456256   -0.0022964423130017093
-0.007292673464543507   -0.08868575394855917   -0.002508932550536496
-0.0069778663619005   -0.08501752814932023   -0.002302623817434888
-0.006592329051570395   -0.08835439564375004   -0.0023593541790088656
-0.007138203618641528   -0.08857874651301241   -0.0025122434805348987
-0.0069778663619005   -0.08501752814932023   -0.002302623817434888
-0.007292673464543507   -0.08868575394855917   -0.002508932550536496
-0.006592329051570395   -0.08835439564375004   -0.0023593541790088656
-0.0069778663619005   -0.08501752814932023   -0.002302623817434888
-0.004728441619541087   -0.08490809910616094   -0.002110307755924662
-0.00485234659021754   -0.08505310633618157   -0.0019988254878135895
-0.006592329051570395   -0.08835439564375004   -0.0023593541790088656
-0.0069778663619005   -0.08501752814932023   -0.002302623817434888
-0.00485234659021754   -0.08505310633618157   -0.0019988254878135895
-0.007292673464543507   -0.08868575394855917   -0.002508932550536496
-0.006592329051570395   -0.08835439564375004   -0.0023593541790088656
-0.004728441619541087   -0.08490809910616094   -0.002110307755924662
-0.007138203618641528   -0.08857874651301241   -0.0025122434805348987
-0.006387675071561979   -0.08831001135212263   -0.002474740536278897
-0.004728441619541087   -0.08490809910616094   -0.002110307755924662
-0.0069778663619005   -0.08501752814932023   -0.002302623817434888
-0.007138203618641528   -0.08857874651301241   -0.0025122434805348987
-0.006870091251259142   -0.08494915916609225   -0.0022994743511709397
-0.006387675071561979   -0.08831001135212263   -0.002474740536278897
-0.006966259442493702   -0.08854008997851906   -0.0025029702501152156
-0.006870091251259142   -0.08494915916609225   -0.0022994743511709397
-0.007138203618641528   -0.08857874651301241   -0.0025122434805348987
-0.006387675071561979   -0.08831001135212263   -0.002474740536278897
-0.006870091251259142   -0.08494915916609225   -0.0022994743511709397
-0.004588995962266705   -0.0848275896062146   -0.002211713885143652
-0.004728441619541087   -0.08490809910616094   -0.002110307755924662
-0.006387675071561979   -0.08831001135212263   -0.002474740536278897
-0.006870091251259142   -0.08494915916609225   -0.0022994743511709397
-0.004728441619541087   -0.08490809910616094   -0.002110307755924662
-0.007138203618641528   -0.08857874651301241   -0.0025122434805348987
-0.006387675071561979   -0.08831001135212263   -0.002474740536278897
-0.004588995962266705   -0.0848275896062146   -0.002211713885143652
-0.006966259442493702   -0.08854008997851906   -0.0025029702501152156
-0.006212339168116289   -0.08834172652951387   -0.0025798145684090626
-0.004588995962266705   -0.0848275896062146   -0.002211713885143652
-0.006870091251259142   -0.08494915916609225   -0.0022994743511709397
-0.006966259442493702   -0.08854008997851906   -0.0025029702501152156
-0.006766146577157786   -0.08493612086107562   -0.0022869031968559984
-0.006212339168116289   -0.08834172652951387   -0.0025798145684090626
-0.00679142703758384   -0.08856664869404281   -0.0024838229302432333
-0.006766146577157786   -0.08493612086107562   -0.0022869031968559984
-0.006966259442493702   -0.08854008997851906   -0.0025029702501152156
-0.006212339168116289   -0.08834172652951387   -0.0025798145684090626
-0.006766146577157786   -0.08493612086107562   -0.0022869031968559984
-0.004482069006981046   -0.08480933081372292   -0.002303364160985201
-0.004588995962266705   -0.0848275896062146   -0.002211713885143652
-0.006212339168116289   -0.08834172652951387   -0.0025798145684090626
-0.006766146577157786   -0.08493612086107562   -0.0022869031968559984
-0.004588995962266705   -0.0848275896062146   -0.002211713885143652
-0.006966259442493702   -0.08854008997851906   -0.0025029702501152156
-0.007292673464543507   -0.08868575394855917   -0.002508932550536496
-0.007082074846275989   -0.0851440414456256   -0.0022964423130017093
-0.007856236077215528   -0.08877503157860116   -0.0027792324048771465
-0.007138203618641528   -0.08857874651301241   -0.0025122434805348987
-0.007082074846275989   -0.0851440414456256   -0.0022964423130017093
-0.009296269651333355   -0.0850633399454602   -0.0025749633375479787
-0.007856236077215528   -0.08877503157860116   -0.0027792324048771465
-0.009192884138711874   -0.08495099726526642   -0.0024801829638287443
-0.007138203618641528   -0.08857874651301241   -0.0025122434805348987
-0.007696223532674425   -0.08867302953675726   -0.0026654459346360303
-0.009192884138711874   -0.08495099726526642   -0.0024801829638287443
-0.007856236077215528   -0.08877503157860116   -0.0027792324048771465
-0.007138203618641528   -0.08857874651301241   -0.0025122434805348987
-0.009192884138711874   -0.08495099726526642   -0.0024801829638287443
-0.0069778663619005   -0.08501752814932023   -0.002302623817434888
-0.007082074846275989   -0.0851440414456256   -0.0022964423130017093
-0.007138203618641528   -0.08857874651301241   -0.0025122434805348987
-0.009192884138711874   -0.08495099726526642   -0.0024801829638287443
-0.007082074846275989   -0.0851440414456256   -0.0022964423130017093
-0.007856236077215528   -0.08877503157860116   -0.0027792324048771465
-0.007138203618641528   -0.08857874651301241   -0.0025122434805348987
-0.0069778663619005   -0.08501752814932023   -0.002302623817434888
-0.007696223532674425   -0.08867302953675726   -0.0026654459346360303
-0.006966259442493702   -0.08854008997851906   -0.0025029702501152156
-0.0069778663619005   -0.08501752814932023   -0.002302623817434888
-0.009192884138711874   -0.08495099726526642   -0.0024801829638287443
-0.007696223532674425   -0.08867302953675726   -0.0026654459346360303
-0.009076861145479918   -0.0848958196312958   -0.0023762083208783502
-0.006966259442493702   -0.08854008997851906   -0.0025029702501152156
-0.007504264329168843   -0.08864049890621147   -0.002536334119767002
-0.009076861145479918   -0.0848958196312958   -0.0023762083208783502
-0.007696223532674425   -0.08867302953675726   -0.0026654459346360303
-0.006966259442493702   -0.08854008997851906   -0.0025029702501152156
-0.009076861145479918   -0.0848958196312958   -0.0023762083208783502
-0.006870091251259142   -0.08494915916609225   -0.0022994743511709397
-0.0069778663619005   -0.08501752814932023   -0.002302623817434888
-0.006966259442493702   -0.08854008997851906   -0.0025029702501152156
-0.009076861145479918   -0.0848958196312958   -0.0023762083208783502
-0.0069778663619005   -0.08501752814932023   -0.002302623817434888
-0.007696223532674425   -0.08867302953675726   -0.0026654459346360303
-0.006966259442493702   -0.08854008997851906   -0.0025029702501152156
-0.006870091251259142   -0.08494915916609225   -0.0022994743511709397
-0.007504264329168843   -0.08864049890621147   -0.002536334119767002
-0.00679142703758384   -0.08856664869404281   -0.0024838229302432333
-0.006870091251259142   -0.08494915916609225   -0.0022994743511709397
-0.009076861145479918   -0.0848958196312958   -0.0023762083208783502
-0.007504264329168843   -0.08864049890621147   -0.002536334119767002
-0.008960340870248678   -0.08489228686465705   -0.002261918948153817
-0.00679142703758384   -0.08856664869404281   -0.0024838229302432333
-0.007306839014359543   -0.08866649099574477   -0.002398797053174545
-0.008960340870248678   -0.08489228686465705   -0.002261918948153817
-0.007504264329168843   -0.08864049890621147   -0.002536334119767002
-0.00679142703758384   -0.08856664869404281   -0.0024838229302432333
-0.008960340870248678   -0.08489228686465705   -0.002261918948153817
-0.006766146577157786   -0.08493612086107562   -0.0022869031968559984
-0.006870091251259142   -0.08494915916609225   -0.0022994743511709397
-0.00679142703758384   -0.08856664869404281   -0.0024838229302432333
-0.008960340870248678   -0.08489228686465705   -0.002261918948153817
-0.006870091251259142   -0.08494915916609225   -0.0022994743511709397
-0.007504264329168843   -0.08864049890621147   -0.002536334119767002
-0.007856236077215528   -0.08877503157860116   -0.0027792324048771465
-0.009296269651333355   -0.0850633399454602   -0.0025749633375479787
-0.008672335338726923   -0.08867998881944632   -0.003035938747053753
-0.007696223532674425   -0.08867302953675726   -0.0026654459346360303
-0.009296269651333355   -0.0850633399454602   -0.0025749633375479787
-0.011729226592936761   -0.08480028885740955   -0.0028307288860090077
-0.008672335338726923   -0.08867998881944632   -0.003035938747053753
-0.011602715999660623   -0.08470216114971635   -0.0026372533988767485
-0.007696223532674425   -0.08867302953675726   -0.0026654459346360303
-0.008463311495378576   -0.08858374890992855   -0.0028106901538455333
-0.011602715999660623   -0.08470216114971635   -0.0026372533988767485
-0.008672335338726923   -0.08867998881944632   -0.003035938747053753
-0.007696223532674425   -0.08867302953675726   -0.0026654459346360303
-0.011602715999660623   -0.08470216114971635   -0.0026372533988767485
-0.009192884138711874   -0.08495099726526642   -0.0024801829638287443
-0.009296269651333355   -0.0850633399454602   -0.0025749633375479787
-0.007696223532674425   -0.08867302953675726   -0.0026654459346360303
-0.011602715999660623   -0.08470216114971635   -0.0026372533988767485
-0.009296269651333355   -0.0850633399454602   -0.0025749633375479787
-0.008672335338726923   -0.08867998881944632   -0.003035938747053753
-0.007696223532674425   -0.08867302953675726   -0.0026654459346360303
-0.009192884138711874   -0.08495099726526642   -0.0024801829638287443
-0.008463311495378576   -0.08858374890992855   -0.0028106901538455333
-0.007504264329168843   -0.08864049890621147   -0.002536334119767002
-0.009192884138711874   -0.08495099726526642   -0.0024801829638287443
-0.011602715999660623   -0.08470216114971635   -0.0026372533988767485
-0.008463311495378576   -0.08858374890992855   -0.0028106901538455333
-0.011428092924958751   -0.08466012218160161   -0.00243525372559579
-0.007504264329168843   -0.08864049890621147   -0.002536334119767002
-0.00818758171118479   -0.08856177910309636   -0.0025683865038693466
-0.011428092924958751   -0.08466012218160161   -0.00243525372559579
-0.008463311495378576   -0.08858374890992855   -0.0028106901538455333
-0.007504264329168843   -0.08864049890621147   -0.002536334119767002
-0.011428092924958751   -0.08466012218160161   -0.00243525372559579
-0.009076861145479918   -0.0848958196312958   -0.0023762083208783502
-0.009192884138711874   -0.08495099726526642   -0.0024801829638287443
-0.007504264329168843   -0.08864049890621147   -0.002536334119767002
-0.011428092924958751   -0.08466012218160161   -0.00243525372559579
-0.009192884138711874   -0.08495099726526642   -0.0024801829638287443
-0.008463311495378576   -0.08858374890992855   -0.0028106901538455333
-0.007504264329168843   -0.08864049890621147   -0.002536334119767002
-0.009076861145479918   -0.0848958196312958   -0.0023762083208783502
-0.00818758171118479   -0.08856177910309636   -0.0025683865038693466
-0.007306839014359543   -0.08866649099574477   -0.002398797053174545
-0.009076861145479918   -0.0848958196312958   -0.0023762083208783502
-0.011428092924958751   -0.08466012218160161   -0.00243525372559579
-0.00818758171118479   -0.08856177910309636   -0.0025683865038693466
-0.011275600585211447   -0.08467424266799856   -0.00221908884686828
-0.007306839014359543   -0.08866649099574477   -0.002398797053174545
-0.007928094664050462   -0.088599720487435   -0.0023167034982210315
-0.011275600585211447   -0.08467424266799856   -0.00221908884686828
-0.00818758171118479   -0.08856177910309636   -0.0025683865038693466
-0.007306839014359543   -0.08866649099574477   -0.002398797053174545
-0.011275600585211447   -0.08467424266799856   -0.00221908884686828
-0.008960340870248678   -0.08489228686465705   -0.002261918948153817
-0.009076861145479918   -0.0848958196312958   -0.0023762083208783502
-0.007306839014359543   -0.08866649099574477   -0.002398797053174545
-0.011275600585211447   -0.08467424266799856   -0.00221908884686828
-0.009076861145479918   -0.0848958196312958   -0.0023762083208783502
-0.00818758171118479   -0.08856177910309636   -0.0025683865038693466
-0.008672335338726923   -0.08867998881944632   -0.003035938747053753
-0.011729226592936761   -0.08480028885740955   -0.0028307288860090077
-0.010257259425553644   -0.08824587779199297   -0.003307934631864745
-0.008463311495378576   -0.08858374890992855   -0.0028106901538455333
-0.011729226592936761   -0.08480028885740955   -0.0028307288860090077
-0.014862357792203065   -0.08437248288891185   -0.003076000691412144
-0.010257259425553644   -0.08824587779199297   -0.003307934631864745
-0.01445559296270786   -0.08426618908444133   -0.00277055890031853
-0.008463311495378576   -0.08858374890992855   -0.0028106901538455333
-0.009702396809559354   -0.08816486585537536   -0.0029383684040688862
-0.01445559296270786   -0.08426618908444133   -0.00277055890031853
-0.010257259425553644   -0.08824587779199297   -0.003307934631864745
-0.008463311495378576   -0.08858374890992855   -0.0028106901538455333
-0.01445559296270786   -0.08426618908444133   -0.00277055890031853
-0.011602715999660623   -0.08470216114971635   -0.0026372533988767485
-0.011729226592936761   -0.08480028885740955   -0.0028307288860090077
-0.008463311495378576   -0.08858374890992855   -0.0028106901538455333
-0.01445559296270786   -0.08426618908444133   -0.00277055890031853
-0.011729226592936761   -0.08480028885740955   -0.0028307288860090077
-0.010257259425553644   -0.08824587779199297   -0.003307934631864745
-0.008463311495378576   -0.08858374890992855   -0.0028106901538455333
-0.011602715999660623   -0.08470216114971635   -0.0026372533988767485
-0.009702396809559354   -0.08816486585537536   -0.0029383684040688862
-0.00818758171118479   -0.08856177910309636   -0.0025683865038693466
-0.011602715999660623   -0.08470216114971635   -0.0026372533988767485
-0.01445559296270786   -0.08426618908444133   -0.00277055890031853
-0.009702396809559354   -0.08816486585537536   -0.0029383684040688862
-0.014090845978870776   -0.08422730430209885   -0.002447251790217831
-0.00818758171118479   -0.08856177910309636   -0.0025683865038693466
-0.00919241611257566   -0.0881536767113809   -0.002543820233662755
-0.014090845978870776   -0.08422730430209885   -0.002447251790217831
-0.009702396809559354   -0.08816486585537536   -0.0029383684040688862
-0.00818758171118479   -0.08856177910309636   -0.0025683865038693466
-0.014090845978870776   -0.08422730430209885   -0.002447251790217831
-0.011428092924958751   -0.08466012218160161   -0.00243525372559579
-0.011602715999660623   -0.08470216114971635   -0.0026372533988767485
-0.00818758171118479   -0.08856177910309636   -0.0025683865038693466
-0.014090845978870776   -0.08422730430209885   -0.002447251790217831
-0.011602715999660623   -0.08470216114971635   -0.0026372533988767485
-0.009702396809559354   -0.08816486585537536   -0.0029383684040688862
-0.00818758171118479   -0.08856177910309636   -0.0025683865038693466
-0.011428092924958751   -0.08466012218160161   -0.00243525372559579
-0.00919241611257566   -0.0881536767113809   -0.002543820233662755
-0.007928094664050462   -0.088599720487435   -0.0023167034982210315
-0.011428092924958751   -0.08466012218160161   -0.00243525372559579
-0.014090845978870776   -0.08422730430209885   -0.002447251790217831
-0.00919241611257566   -0.0881536767113809   -0.002543820233662755
-0.013618097613204509   -0.084275844876972   -0.0021091570020670843
-0.007928094664050462   -0.088599720487435   -0.0023167034982210315
-0.008548397340990636   -0.08826002456263052   -0.002131115689392183
-0.013618097613204509   -0.084275844876972   -0.0021091570020670843
-0.00919241611257566   -0.0881536767113809   -0.002543820233662755
-0.007928094664050462   -0.088599720487435   -0.0023167034982210315
-0.013618097613204509   -0.084275844876972   -0.0021091570020670843
-0.011275600585211447   -0.08467424266799856   -0.00221908884686828
-0.011428092924958751   -0.08466012218160161   -0.00243525372559579
-0.007928094664050462   -0.088599720487435   -0.0023167034982210315
-0.013618097613204509   -0.084275844876972   -0.0021091570020670843
-0.011428092924958751   -0.08466012218160161   -0.00243525372559579
-0.00919241611257566   -0.0881536767113809   -0.002543820233662755
-0.002592799310814101   -0.08479553980085543   -0.0016340401428284182
0.0004752268502832385   -0.0786609056925391   -0.0013519314817238958
-0.00485234659021754   -0.08505310633618157   -0.0019988254878135895
-0.002238197737768413   -0.08461613519970303   -0.0018869845683303097
0.0004752268502832385   -0.0786609056925391   -0.0013519314817238958
-0.0033331473394202006   -0.07884962310311137   -0.0017100093899483826
-0.00485234659021754   -0.08505310633618157   -0.0019988254878135895
-0.0032675298631258403   -0.07869766790097114   -0.0017983899886424295
-0.002238197737768413   -0.08461613519970303   -0.0018869845683303097
-0.004728441619541087   -0.08490809910616094   -0.002110307755924662
-0.0032675298631258403   -0.07869766790097114   -0.0017983899886424295
-0.00485234659021754   -0.08505310633618157   -0.0019988254878135895
-0.002238197737768413   -0.08461613519970303   -0.0018869845683303097
-0.0032675298631258403   -0.07869766790097114   -0.0017983899886424295
0.0007226196270883139   -0.0784786645063789   -0.001553193089602294
0.0004752268502832385   -0.0786609056925391   -0.0013519314817238958
-0.002238197737768413   -0.08461613519970303   -0.0018869845683303097
-0.0032675298631258403   -0.07869766790097114   -0.0017983899886424295
0.0004752268502832385   -0.0786609056925391   -0.0013519314817238958
-0.00485234659021754   -0.08505310633618157   -0.0019988254878135895
-0.002238197737768413   -0.08461613519970303   -0.0018869845683303097
0.0007226196270883139   -0.0784786645063789   -0.001553193089602294
-0.004728441619541087   -0.08490809910616094   -0.002110307755924662
-0.001959172934187255   -0.08453050244881255   -0.0021249919399074692
0.0007226196270883139   -0.0784786645063789   -0.001553193089602294
-0.0032675298631258403   -0.07869766790097114   -0.0017983899886424295
-0.004728441619541087   -0.08490809910616094   -0.002110307755924662
-0.0031928454540564866   -0.07859826881510201   -0.0018764487430192318
-0.001959172934187255   -0.08453050244881255   -0.0021249919399074692
-0.004588995962266705   -0.0848275896062146   -0.002211713885143652
-0.0031928454540564866   -0.07859826881510201   -0.0018764487430192318
-0.004728441619541087   -0.08490809910616094   -0.002110307755924662
-0.001959172934187255   -0.08453050244881255   -0.0021249919399074692
-0.0031928454540564866   -0.07859826881510201   -0.0018764487430192318
0.0009045786869322199   -0.0783731736589442   -0.0017400077345823511
0.0007226196270883139   -0.0784786645063789   -0.001553193089602294
-0.001959172934187255   -0.08453050244881255   -0.0021249919399074692
-0.0031928454540564866   -0.07859826881510201   -0.0018764487430192318
0.0007226196270883139   -0.0784786645063789   -0.001553193089602294
-0.004728441619541087   -0.08490809910616094   -0.002110307755924662
-0.001959172934187255   -0.08453050244881255   -0.0021249919399074692
0.0009045786869322199   -0.0783731736589442   -0.0017400077345823511
-0.004588995962266705   -0.0848275896062146   -0.002211713885143652
-0.0016545580116686253   -0.08451407649402946   -0.002347428767936903
0.0009045786869322199   -0.0783731736589442   -0.0017400077345823511
-0.0031928454540564866   -0.07859826881510201   -0.0018764487430192318
-0.004588995962266705   -0.0848275896062146   -0.002211713885143652
-0.0031481990755612187   -0.07854848988905458   -0.0019452045150080955
-0.0016545580116686253   -0.08451407649402946   -0.002347428767936903
-0.004482069006981046   -0.08480933081372292   -0.002303364160985201
-0.0031481990755612187   -0.07854848988905458   -0.0019452045150080955
-0.004588995962266705   -0.0848275896062146   -0.002211713885143652
-0.0016545580116686253   -0.08451407649402946   -0.002347428767936903
-0.0031481990755612187   -0.07854848988905458   -0.0019452045150080955
0.0010992729107181139   -0.07832089443124636   -0.0019123031430006963
0.0009045786869322199   -0.0783731736589442   -0.0017400077345823511
-0.0016545580116686253   -0.08451407649402946   -0.002347428767936903
-0.0031481990755612187   -0.07854848988905458   -0.0019452045150080955
0.0009045786869322199   -0.0783731736589442   -0.0017400077345823511
-0.004588995962266705   -0.0848275896062146   -0.002211713885143652
-0.00485234659021754   -0.08505310633618157   -0.0019988254878135895
-0.0033331473394202006   -0.07884962310311137   -0.0017100093899483826
-0.007082074846275989   -0.0851440414456256   -0.0022964423130017093
-0.004728441619541087   -0.08490809910616094   -0.002110307755924662
-0.0033331473394202006   -0.07884962310311137   -0.0017100093899483826
-0.007016671740023503   -0.07888570391622142   -0.0020051675024719937
-0.007082074846275989   -0.0851440414456256   -0.0022964423130017093
-0.0069684098661936785   -0.07875523367258937   -0.0020074723583895634
-0.004728441619541087   -0.08490809910616094   -0.002110307755924662
-0.0069778663619005   -0.08501752814932023   -0.002302623817434888
-0.0069684098661936785   -0.07875523367258937   -0.0020074723583895634
-0.007082074846275989   -0.0851440414456256   -0.0022964423130017093
-0.004728441619541087   -0.08490809910616094   -0.002110307755924662
-0.0069684098661936785   -0.07875523367258937   -0.0020074723583895634
-0.0032675298631258403   -0.07869766790097114   -0.0017983899886424295
-0.0033331473394202006   -0.07884962310311137   -0.0017100093899483826
-0.004728441619541087   -0.08490809910616094   -0.002110307755924662
-0.0069684098661936785   -0.07875523367258937   -0.0020074723583895634
-0.0033331473394202006   -0.07884962310311137   -0.0017100093899483826
-0.007082074846275989   -0.0851440414456256   -0.0022964423130017093
-0.004728441619541087   -0.08490809910616094   -0.002110307755924662
-0.0032675298631258403   -0.07869766790097114   -0.0017983899886424295
-0.0069778663619005   -0.08501752814932023   -0.002302623817434888
-0.004588995962266705   -0.0848275896062146   -0.002211713885143652
-0.0032675298631258403   -0.07869766790097114   -0.0017983899886424295
-0.0069684098661936785   -0.07875523367258937   -0.0020074723583895634
-0.0069778663619005   -0.08501752814932023   -0.002302623817434888
-0.006918787127284761   -0.07867180656381717   -0.001999889597634953
-0.004588995962266705   -0.0848275896062146   -0.002211713885143652
-0.006870091251259142   -0.08494915916609225   -0.0022994743511709397
-0.006918787127284761   -0.07867180656381717   -0.001999889597634953
-0.0069778663619005   -0.08501752814932023   -0.002302623817434888
-0.004588995962266705   -0.0848275896062146   -0.002211713885143652
-0.006918787127284761   -0.07867180656381717   -0.001999889597634953
-0.0031928454540564866   -0.07859826881510201   -0.0018764487430192318
-0.0032675298631258403   -0.07869766790097114   -0.0017983899886424295
-0.004588995962266705   -0.0848275896062146   -0.002211713885143652
-0.006918787127284761   -0.07867180656381717   -0.001999889597634953
-0.0032675298631258403   -0.07869766790097114   -0.0017983899886424295
-0.0069778663619005   -0.08501752814932023   -0.002302623817434888
-0.004588995962266705   -0.0848275896062146   -0.002211713885143652
-0.0031928454540564866   -0.07859826881510201   -0.0018764487430192318
-0.006870091251259142   -0.08494915916609225   -0.0022994743511709397
-0.004482069006981046   -0.08480933081372292   -0.002303364160985201
-0.0031928454540564866   -0.07859826881510201   -0.0018764487430192318
-0.006918787127284761   -0.07867180656381717   -0.001999889597634953
-0.006870091251259142   -0.08494915916609225   -0.0022994743511709397
-0.00687538292790093   -0.07863464149885838   -0.001983074910416892
-0.004482069006981046   -0.08480933081372292   -0.002303364160985201
-0.006766146577157786   -0.08493612086107562   -0.0022869031968559984
-0.00687538292790093   -0.07863464149885838   -0.001983074910416892
-0.006870091251259142   -0.08494915916609225   -0.0022994743511709397
-0.004482069006981046   -0.08480933081372292   -0.002303364160985201
-0.00687538292790093   -0.07863464149885838   -0.001983074910416892
-0.0031481990755612187   -0.07854848988905458   -0.0019452045150080955
-0.0031928454540564866   -0.07859826881510201   -0.0018764487430192318
-0.004482069006981046   -0.08480933081372292   -0.002303364160985201
-0.00687538292790093   -0.07863464149885838   -0.001983074910416892
-0.0031928454540564866   -0.07859826881510201   -0.0018764487430192318
-0.006870091251259142   -0.08494915916609225   -0.0022994743511709397
-0.007082074846275989   -0.0851440414456256   -0.0022964423130017093
-0.007016671740023503   -0.07888570391622142   -0.0020051675024719937
-0.009296269651333355   -0.0850633399454602   -0.0025749633375479787
-0.0069778663619005   -0.08501752814932023   -0.002302623817434888
-0.007016671740023503   -0.07888570391622142   -0.0020051675024719937
-0.010642146731615251   -0.07876846813469623   -0.002271609004818391
-0.009296269651333355   -0.0850633399454602   -0.0025749633375479787
-0.01059721226548649   -0.07865588974560431   -0.002189915845862498
-0.0069778663619005   -0.08501752814932023   -0.002302623817434888
-0.009192884138711874   -0.08495099726526642   -0.0024801829638287443
-0.01059721226548649   -0.07865588974560431   -0.002189915845862498
-0.009296269651333355   -0.0850633399454602   -0.0025749633375479787
-0.0069778663619005   -0.08501752814932023   -0.002302623817434888
-0.01059721226548649   -0.07865588974560431   -0.002189915845862498
-0.0069684098661936785   -0.07875523367258937   -0.0020074723583895634
-0.007016671740023503   -0.07888570391622142   -0.0020051675024719937
-0.0069778663619005   -0.08501752814932023   -0.002302623817434888
-0.01059721226548649   -0.07865588974560431   -0.002189915845862498
-0.007016671740023503   -0.07888570391622142   -0.0020051675024719937
-0.009296269651333355   -0.0850633399454602   -0.0025749633375479787
-0.0069778663619005   -0.08501752814932023   -0.002302623817434888
-0.0069684098661936785   -0.07875523367258937   -0.0020074723583895634
-0.009192884138711874   -0.08495099726526642   -0.0024801829638287443
-0.006870091251259142   -0.08494915916609225   -0.0022994743511709397
-0.0069684098661936785   -0.07875523367258937   -0.0020074723583895634
-0.01059721226548649   -0.07865588974560431   -0.002189915845862498
-0.009192884138711874   -0.08495099726526642   -0.0024801829638287443
-0.010542917979138599   -0.07858983623195137   -0.0020985481157931615
-0.006870091251259142   -0.08494915916609225   -0.0022994743511709397
-0.009076861145479918   -0.0848958196312958   -0.0023762083208783502
-0.010542917979138599   -0.07858983623195137   -0.0020985481157931615
-0.009192884138711874   -0.08495099726526642   -0.0024801829638287443
-0.006870091251259142   -0.08494915916609225   -0.0022994743511709397
-0.010542917979138599   -0.07858983623195137   -0.0020985481157931615
-0.006918787127284761   -0.07867180656381717   -0.001999889597634953
-0.0069684098661936785   -0.07875523367258937   -0.0020074723583895634
-0.006870091251259142   -0.08494915916609225   -0.0022994743511709397
-0.010542917979138599   -0.07858983623195137   -0.0020985481157931615
-0.0069684098661936785   -0.07875523367258937   -0.0020074723583895634
-0.009192884138711874   -0.08495099726526642   -0.0024801829638287443
-0.006870091251259142   -0.08494915916609225   -0.0022994743511709397
-0.006918787127284761   -0.07867180656381717   -0.001999889597634953
-0.009076861145479918   -0.0848958196312958   -0.0023762083208783502
-0.006766146577157786   -0.08493612086107562   -0.0022869031968559984
-0.006918787127284761   -0.07867180656381717   -0.001999889597634953
-0.010542917979138599   -0.07858983623195137   -0.0020985481157931615
-0.009076861145479918   -0.0848958196312958   -0.0023762083208783502
-0.010490099917882554   -0.07856813660171628   -0.0019978041023294402
-0.006766146577157786   -0.08493612086107562   -0.0022869031968559984
-0.008960340870248678   -0.08489228686465705   -0.002261918948153817
-0.010490099917882554   -0.07856813660171628   -0.0019978041023294402
-0.009076861145479918   -0.0848958196312958   -0.0023762083208783502
-0.006766146577157786   -0.08493612086107562   -0.0022869031968559984
-0.010490099917882554   -0.07856813660171628   -0.0019978041023294402
-0.00687538292790093   -0.07863464149885838   -0.001983074910416892
-0.006918787127284761   -0.07867180656381717   -0.001999889597634953
-0.006766146577157786   -0.08493612086107562   -0.0022869031968559984
-0.010490099917882554   -0.07856813660171628   -0.0019978041023294402
-0.006918787127284761   -0.07867180656381717   -0.001999889597634953
-0.009076861145479918   -0.0848958196312958   -0.0023762083208783502
-0.009296269651333355   -0.0850633399454602   -0.0025749633375479787
-0.010642146731615251   -0.07876846813469623   -0.002271609004818391
-0.011729226592936761   -0.08480028885740955   -0.0028307288860090077
-0.009192884138711874   -0.08495099726526642   -0.0024801829638287443
-0.010642146731615251   -0.07876846813469623   -0.002271609004818391
-0.01444170128950181   -0.0785020909473685   -0.002508284088164594
-0.011729226592936761   -0.08480028885740955   -0.0028307288860090077
-0.014383051398221929   -0.07840661041273235   -0.002342494886080044
-0.009192884138711874   -0.08495099726526642   -0.0024801829638287443
-0.011602715999660623   -0.08470216114971635   -0.0026372533988767485
-0.014383051398221929   -0.07840661041273235   -0.002342494886080044
-0.011729226592936761   -0.08480028885740955   -0.0028307288860090077
-0.009192884138711874   -0.08495099726526642   -0.0024801829638287443
-0.014383051398221929   -0.07840661041273235   -0.002342494886080044
-0.01059721226548649   -0.07865588974560431   -0.002189915845862498
-0.010642146731615251   -0.07876846813469623   -0.002271609004818391
-0.009192884138711874   -0.08495099726526642   -0.0024801829638287443
-0.014383051398221929   -0.07840661041273235   -0.002342494886080044
-0.010642146731615251   -0.07876846813469623   -0.002271609004818391
-0.011729226592936761   -0.08480028885740955   -0.0028307288860090077
-0.009192884138711874   -0.08495099726526642   -0.0024801829638287443
-0.01059721226548649   -0.07865588974560431   -0.002189915845862498
-0.011602715999660623   -0.08470216114971635   -0.0026372533988767485
-0.009076861145479918   -0.0848958196312958   -0.0023762083208783502
-0.01059721226548649   -0.07865588974560431   -0.002189915845862498
-0.014383051398221929   -0.07840661041273235   -0.002342494886080044
-0.011602715999660623   -0.08470216114971635   -0.0026372533988767485
-0.01428365058866264   -0.07835630845556024   -0.002168515497136458
-0.009076861145479918   -0.0848958196312958   -0.0023762083208783502
-0.011428092924958751   -0.08466012218160161   -0.00243525372559579
-0.01428365058866264   -0.07835630845556024   -0.002168515497136458
-0.011602715999660623   -0.08470216114971635   -0.0026372533988767485
-0.009076861145479918   -0.0848958196312958   -0.0023762083208783502
-0.01428365058866264   -0.07835630845556024   -0.002168515497136458
-0.010542917979138599   -0.07858983623195137   -0.0020985481157931615
-0.01059721226548649   -0.07865588974560431   -0.002189915845862498
-0.009076861145479918   -0.0848958196312958   -0.0023762083208783502
-0.01428365058866264   -0.07835630845556024   -0.002168515497136458
-0.01059721226548649   -0.07865588974560431   -0.002189915845862498
-0.011602715999660623   -0.08470216114971635   -0.0026372533988767485
-0.009076861145479918   -0.0848958196312958   -0.0023762083208783502
-0.010542917979138599   -0.07858983623195137   -0.0020985481157931615
-0.011428092924958751   -0.08466012218160161   -0.00243525372559579
-0.008960340870248678   -0.08489228686465705   -0.002261918948153817
-0.010542917979138599   -0.07858983623195137   -0.0020985481157931615
-0.01428365058866264   -0.07835630845556024   -0.002168515497136458
-0.011428092924958751   -0.08466012218160161   -0.00243525372559579
-0.014202855010802191   -0.07835383538879051   -0.001983796967845239
-0.008960340870248678   -0.08489228686465705   -0.002261918948153817
-0.011275600585211447   -0.08467424266799856   -0.00221908884686828
-0.014202855010802191   -0.07835383538879051   -0.001983796967845239
-0.011428092924958751   -0.08466012218160161   -0.00243525372559579
-0.008960340870248678   -0.08489228686465705   -0.002261918948153817
-0.014202855010802191   -0.07835383538879051   -0.001983796967845239
-0.010490099917882554   -0.07856813660171628   -0.0019978041023294402
-0.010542917979138599   -0.07858983623195137   -0.0020985481157931615
-0.008960340870248678   -0.08489228686465705   -0.002261918948153817
-0.014202855010802191   -0.07835383538879051   -0.001983796967845239
-0.010542917979138599   -0.07858983623195137   -0.0020985481157931615
-0.011428092924958751   -0.08466012218160161   -0.00243525372559579
-0.011729226592936761   -0.08480028885740955   -0.0028307288860090077
-0.01444170128950181   -0.0785020909473685   -0.002508284088164594
-0.014862357792203065   -0.08437248288891185   -0.003076000691412144
-0.011602715999660623   -0.08470216114971635   -0.0026372533988767485
-0.01444170128950181   -0.0785020909473685   -0.002508284088164594
-0.018872960211812416   -0.07811869844504149   -0.002728799053405371
-0.014862357792203065   -0.08437248288891185   -0.003076000691412144
-0.01857305566485228   -0.07801919283594626   -0.0024693337419363724
-0.011602715999660623   -0.08470216114971635   -0.0026372533988767485
-0.01445559296270786   -0.08426618908444133   -0.00277055890031853
-0.01857305566485228   -0.07801919283594626   -0.0024693337419363724
-0.014862357792203065   -0.08437248288891185   -0.003076000691412144
-0.011602715999660623   -0.08470216114971635   -0.0026372533988767485
-0.01857305566485228   -0.07801919283594626   -0.0024693337419363724
-0.014383051398221929   -0.07840661041273235   -0.002342494886080044
-0.01444170128950181   -0.0785020909473685   -0.002508284088164594
-0.011602715999660623   -0.08470216114971635   -0.0026372533988767485
-0.01857305566485228   -0.07801919283594626   -0.0024693337419363724
-0.01444170128950181   -0.0785020909473685   -0.002508284088164594
-0.014862357792203065   -0.08437248288891185   -0.003076000691412144
-0.011602715999660623   -0.08470216114971635   -0.0026372533988767485
-0.014383051398221929   -0.07840661041273235   -0.002342494886080044
-0.01445559296270786   -0.08426618908444133   -0.00277055890031853
-0.011428092924958751   -0.08466012218160161   -0.00243525372559579
-0.014383051398221929   -0.07840661041273235   -0.002342494886080044
-0.01857305566485228   -0.07801919283594626   -0.0024693337419363724
-0.01445559296270786   -0.08426618908444133   -0.00277055890031853
-0.018312668831294315   -0.0779731664884578   -0.0021963712701913744
-0.011428092924958751   -0.08466012218160161   -0.00243525372559579
-0.014090845978870776   -0.08422730430209885   -0.002447251790217831
-0.018312668831294315   -0.0779731664884578   -0.0021963712701913744
-0.01445559296270786   -0.08426618908444133   -0.00277055890031853
-0.011428092924958751   -0.08466012218160161   -0.00243525372559579
-0.018312668831294315   -0.0779731664884578   -0.0021963712701913744
-0.01428365058866264   -0.07835630845556024   -0.002168515497136458
-0.014383051398221929   -0.07840661041273235   -0.002342494886080044
-0.011428092924958751   -0.08466012218160161   -0.00243525372559579
-0.018312668831294315   -0.0779731664884578   -0.0021963712701913744
-0.014383051398221929   -0.07840661041273235   -0.002342494886080044
-0.01445559296270786   -0.08426618908444133   -0.00277055890031853
-0.011428092924958751   -0.08466012218160161   -0.00243525372559579
-0.01428365058866264   -0.07835630845556024   -0.002168515497136458
-0.014090845978870776   -0.08422730430209885   -0.002447251790217831
-0.011275600585211447   -0.08467424266799856   -0.00221908884686828
-0.01428365058866264   -0.07835630845556024   -0.002168515497136458
-0.018312668831294315   -0.0779731664884578   -0.0021963712701913744
-0.014090845978870776   -0.08422730430209885   -0.002447251790217831
-0.01796181724534463   -0.07800026623648644   -0.0019116523125292096
-0.011275600585211447   -0.08467424266799856   -0.00221908884686828
-0.013618097613204509   -0.084275844876972   -0.0021091570020670843
-0.01796181724534463   -0.07800026623648644   -0.0019116523125292096
-0.014090845978870776   -0.08422730430209885   -0.002447251790217831
-0.011275600585211447   -0.08467424266799856   -0.00221908884686828
-0.01796181724534463   -0.07800026623648644   -0.0019116523125292096
-0.014202855010802191   -0.07835383538879051   -0.001983796967845239
-0.01428365058866264   -0.07835630845556024   -0.002168515497136458
-0.011275600585211447   -0.08467424266799856   -0.00221908884686828
-0.01796181724534463   -0.07800026623648644   -0.0019116523125292096
-0.01428365058866264   -0.07835630845556024   -0.002168515497136458
-0.014090845978870776   -0.08422730430209885   -0.002447251790217831
0.0004752268502832385   -0.0786609056925391   -0.0013519314817238958
0.002802679776083868   -0.07033707818089677   -0.0010303193533789104
-0.0033331473394202006   -0.07884962310311137   -0.0017100093899483826
0.0007226196270883139   -0.0784786645063789   -0.001553193089602294
0.002802679776083868   -0.07033707818089677   -0.0010303193533789104
-0.002237293603951405   -0.07046167712905556   -0.0013720811067225386
-0.0033331473394202006   -0.07884962310311137   -0.0017100093899483826
-0.002223720560615396   -0.07031053816149806   -0.0014332875449538196
0.0007226196270883139   -0.0784786645063789   -0.001553193089602294
-0.0032675298631258403   -0.07869766790097114   -0.0017983899886424295
-0.002223720560615396   -0.07031053816149806   -0.0014332875449538196
-0.0033331473394202006   -0.07884962310311137   -0.0017100093899483826
0.0007226196270883139   -0.0784786645063789   -0.001553193089602294
-0.002223720560615396   -0.07031053816149806   -0.0014332875449538196
0.0029493895362658513   -0.07015926346431223   -0.0011790380495584724
0.002802679776083868   -0.07033707818089677   -0.0010303193533789104
0.0007226196270883139   -0.0784786645063789   -0.001553193089602294
-0.002223720560615396   -0.07031053816149806   -0.0014332875449538196
0.002802679776083868   -0.07033707818089677   -0.0010303193533789104
-0.0033331473394202006   -0.07884962310311137   -0.0017100093899483826
0.0007226196270883139   -0.0784786645063789   -0.001553193089602294
0.0029493895362658513   -0.07015926346431223   -0.0011790380495584724
-0.0032675298631258403   -0.07869766790097114   -0.0017983899886424295
0.0009045786869322199   -0.0783731736589442   -0.0017400077345823511
0.0029493895362658513   -0.07015926346431223   -0.0011790380495584724
-0.002223720560615396   -0.07031053816149806   -0.0014332875449538196
-0.0032675298631258403   -0.07869766790097114   -0.0017983899886424295
-0.0022064681243934093   -0.07020082615585774   -0.0014850682289243
0.0009045786869322199   -0.0783731736589442   -0.0017400077345823511
-0.0031928454540564866   -0.07859826881510201   -0.0018764487430192318
-0.0022064681243934093   -0.07020082615585774   -0.0014850682289243
-0.0032675298631258403   -0.07869766790097114   -0.0017983899886424295
0.0009045786869322199   -0.0783731736589442   -0.0017400077345823511
-0.0022064681243934093   -0.07020082615585774   -0.0014850682289243
0.003043126313682025   -0.0700424182325347   -0.0013144383135108805
0.0029493895362658513   -0.07015926346431223   -0.0011790380495584724
0.0009045786869322199   -0.0783731736589442   -0.0017400077345823511
-0.0022064681243934093   -0.07020082615585774   -0.0014850682289243
0.0029493895362658513   -0.07015926346431223   -0.0011790380495584724
-0.0032675298631258403   -0.07869766790097114   -0.0017983899886424295
0.0009045786869322199   -0.0783731736589442   -0.0017400077345823511
0.003043126313682025   -0.0700424182325347   -0.0013144383135108805
-0.0031928454540564866   -0.07859826881510201   -0.0018764487430192318
0.0010992729107181139   -0.07832089443124636   -0.0019123031430006963
0.003043126313682025   -0.0700424182325347   -0.0013144383135108805
-0.0022064681243934093   -0.07020082615585774   -0.0014850682289243
-0.0031928454540564866   -0.07859826881510201   -0.0018764487430192318
-0.002214845451402306   -0.07012903849288327   -0.0015281109785671352
0.0010992729107181139   -0.07832089443124636   -0.0019123031430006963
-0.0031481990755612187   -0.07854848988905458   -0.0019452045150080955
-0.002214845451402306   -0.07012903849288327   -0.0015281109785671352
-0.0031928454540564866   -0.07859826881510201   -0.0018764487430192318
0.0010992729107181139   -0.07832089443124636   -0.0019123031430006963
-0.002214845451402306   -0.07012903849288327   -0.0015281109785671352
0.0031392732057600775   -0.06996393248313268   -0.0014367979184990603
0.003043126313682025   -0.0700424182325347   -0.0013144383135108805
0.0010992729107181139   -0.07832089443124636   -0.0019123031430006963
-0.002214845451402306   -0.07012903849288327   -0.0015281109785671352
0.003043126313682025   -0.0700424182325347   -0.0013144383135108805
-0.0031928454540564866   -0.07859826881510201   -0.0018764487430192318
-0.0033331473394202006   -0.07884962310311137   -0.0017100093899483826
-0.002237293603951405   -0.07046167712905556   -0.0013720811067225386
-0.007016671740023503   -0.07888570391622142   -0.0020051675024719937
-0.0032675298631258403   -0.07869766790097114   -0.0017983899886424295
-0.002237293603951405   -0.07046167712905556   -0.0013720811067225386
-0.007086633039549863   -0.07046225183974282   -0.0016540926135157103
-0.007016671740023503   -0.07888570391622142   -0.0020051675024719937
-0.007087293252094174   -0.07033432828426786   -0.0016483197524479426
-0.0032675298631258403   -0.07869766790097114   -0.0017983899886424295
-0.0069684098661936785   -0.07875523367258937   -0.0020074723583895634
-0.007087293252094174   -0.07033432828426786   -0.0016483197524479426
-0.007016671740023503   -0.07888570391622142   -0.0020051675024719937
-0.0032675298631258403   -0.07869766790097114   -0.0017983899886424295
-0.007087293252094174   -0.07033432828426786   -0.0016483197524479426
-0.002223720560615396   -0.07031053816149806   -0.0014332875449538196
-0.002237293603951405   -0.07046167712905556   -0.0013720811067225386
-0.0032675298631258403   -0.07869766790097114   -0.0017983899886424295
-0.007087293252094174   -0.07033432828426786   -0.0016483197524479426
-0.002237293603951405   -0.07046167712905556   -0.0013720811067225386
-0.007016671740023503   -0.07888570391622142   -0.0020051675024719937
-0.0032675298631258403   -0.07869766790097114   -0.0017983899886424295
-0.002223720560615396   -0.07031053816149806   -0.0014332875449538196
-0.0069684098661936785   -0.07875523367258937   -0.0020074723583895634
-0.0031928454540564866   -0.07859826881510201   -0.0018764487430192318
-0.002223720560615396   -0.07031053816149806   -0.0014332875449538196
-0.007087293252094174   -0.07033432828426786   -0.0016483197524479426
-0.0069684098661936785   -0.07875523367258937   -0.0020074723583895634
-0.007087630630790606   -0.07024292792971808   -0.0016331597558953042
-0.0031928454540564866   -0.07859826881510201   -0.0018764487430192318
-0.006918787127284761   -0.07867180656381717   -0.001999889597634953
-0.007087630630790606   -0.07024292792971808   -0.0016331597558953042
-0.0069684098661936785   -0.07875523367258937   -0.0020074723583895634
-0.0031928454540564866   -0.07859826881510201   -0.0018764487430192318
-0.007087630630790606   -0.07024292792971808   -0.0016331597558953042
-0.0022064681243934093   -0.07020082615585774   -0.0014850682289243
-0.002223720560615396   -0.07031053816149806   -0.0014332875449538196
-0.0031928454540564866   -0.07859826881510201   -0.0018764487430192318
-0.007087630630790606   -0.07024292792971808   -0.0016331597558953042
-0.002223720560615396   -0.07031053816149806   -0.0014332875449538196
-0.0069684098661936785   -0.07875523367258937   -0.0020074723583895634
-0.0031928454540564866   -0.07859826881510201   -0.0018764487430192318
-0.0022064681243934093   -0.07020082615585774   -0.0014850682289243
-0.006918787127284761   -0.07867180656381717   -0.001999889597634953
-0.0031481990755612187   -0.07854848988905458   -0.0019452045150080955
-0.0022064681243934093   -0.07020082615585774   -0.0014850682289243
-0.007087630630790606   -0.07024292792971808   -0.0016331597558953042
-0.006918787127284761   -0.07867180656381717   -0.001999889597634953
-0.0070944558501916345   -0.07018811451701906   -0.0016090970976347068
-0.0031481990755612187   -0.07854848988905458   -0.0019452045150080955
-0.00687538292790093   -0.07863464149885838   -0.001983074910416892
-0.0070944558501916345   -0.07018811451701906   -0.0016090970976347068
-0.006918787127284761   -0.07867180656381717   -0.001999889597634953
-0.0031481990755612187   -0.07854848988905458   -0.0019452045150080955
-0.0070944558501916345   -0.07018811451701906   -0.0016090970976347068
-0.002214845451402306   -0.07012903849288327   -0.0015281109785671352
-0.0022064681243934093   -0.07020082615585774   -0.0014850682289243
-0.0031481990755612187   -0.07854848988905458   -0.0019452045150080955
-0.0070944558501916345   -0.07018811451701906   -0.0016090970976347068
-0.0022064681243934093   -0.07020082615585774   -0.0014850682289243
-0.006918787127284761   -0.07867180656381717   -0.001999889597634953
-0.007016671740023503   -0.07888570391622142   -0.0020051675024719937
-0.007086633039549863   -0.07046225183974282   -0.0016540926135157103
-0.010642146731615251   -0.07876846813469623   -0.002271609004818391
-0.0069684098661936785   -0.07875523367258937   -0.0020074723583895634
-0.007086633039549863   -0.07046225183974282   -0.0016540926135157103
-0.011853466637831827   -0.07034160823356185   -0.0019011741749930173
-0.010642146731615251   -0.07876846813469623   -0.002271609004818391
-0.011857710704040526   -0.07023409731915392   -0.0018292281601609286
-0.0069684098661936785   -0.07875523367258937   -0.0020074723583895634
-0.01059721226548649   -0.07865588974560431   -0.002189915845862498
-0.011857710704040526   -0.07023409731915392   -0.0018292281601609286
-0.010642146731615251   -0.07876846813469623   -0.002271609004818391
-0.0069684098661936785   -0.07875523367258937   -0.0020074723583895634
-0.011857710704040526   -0.07023409731915392   -0.0018292281601609286
-0.007087293252094174   -0.07033432828426786   -0.0016483197524479426
-0.007086633039549863   -0.07046225183974282   -0.0016540926135157103
-0.0069684098661936785   -0.07875523367258937   -0.0020074723583895634
-0.011857710704040526   -0.07023409731915392   -0.0018292281601609286
-0.007086633039549863   -0.07046225183974282   -0.0016540926135157103
-0.010642146731615251   -0.07876846813469623   -0.002271609004818391
-0.0069684098661936785   -0.07875523367258937   -0.0020074723583895634
-0.007087293252094174   -0.07033432828426786   -0.0016483197524479426
-0.01059721226548649   -0.07865588974560431   -0.002189915845862498
-0.006918787127284761   -0.07867180656381717   -0.001999889597634953
-0.007087293252094174   -0.07033432828426786   -0.0016483197524479426
-0.011857710704040526   -0.07023409731915392   -0.0018292281601609286
-0.01059721226548649   -0.07865588974560431   -0.002189915845862498
-0.011853826790542674   -0.07016278626982461   -0.0017480758776216548
-0.006918787127284761   -0.07867180656381717   -0.001999889597634953
-0.010542917979138599   -0.07858983623195137   -0.0020985481157931615
-0.011853826790542674   -0.07016278626982461   -0.0017480758776216548
-0.01059721226548649   -0.07865588974560431   -0.002189915845862498
-0.006918787127284761   -0.07867180656381717   -0.001999889597634953
-0.011853826790542674   -0.07016278626982461   -0.0017480758776216548
-0.007087630630790606   -0.07024292792971808   -0.0016331597558953042
-0.007087293252094174   -0.07033432828426786   -0.0016483197524479426
-0.006918787127284761   -0.07867180656381717   -0.001999889597634953
-0.011853826790542674   -0.07016278626982461   -0.0017480758776216548
-0.007087293252094174   -0.07033432828426786   -0.0016483197524479426
-0.01059721226548649   -0.07865588974560431   -0.002189915845862498
-0.006918787127284761   -0.07867180656381717   -0.001999889597634953
-0.007087630630790606   -0.07024292792971808   -0.0016331597558953042
-0.010542917979138599   -0.07858983623195137   -0.0020985481157931615
-0.00687538292790093   -0.07863464149885838   -0.001983074910416892
-0.007087630630790606   -0.07024292792971808   -0.0016331597558953042
-0.011853826790542674   -0.07016278626982461   -0.0017480758776216548
-0.010542917979138599   -0.07858983623195137   -0.0020985481157931615
-0.011851402476036105   -0.07012703698515244   -0.0016579864244188162
-0.00687538292790093   -0.07863464149885838   -0.001983074910416892
-0.010490099917882554   -0.07856813660171628   -0.0019978041023294402
-0.011851402476036105   -0.07012703698515244   -0.0016579864244188162
-0.010542917979138599   -0.07858983623195137   -0.0020985481157931615
-0.00687538292790093   -0.07863464149885838   -0.001983074910416892
-0.011851402476036105   -0.07012703698515244   -0.0016579864244188162
-0.0070944558501916345   -0.07018811451701906   -0.0016090970976347068
-0.007087630630790606   -0.07024292792971808   -0.0016331597558953042
-0.00687538292790093   -0.07863464149885838   -0.001983074910416892
-0.011851402476036105   -0.07012703698515244   -0.0016579864244188162
-0.007087630630790606   -0.07024292792971808   -0.0016331597558953042
-0.010542917979138599   -0.07858983623195137   -0.0020985481157931615
-0.010642146731615251   -0.07876846813469623   -0.002271609004818391
-0.011853466637831827   -0.07034160823356185   -0.0019011741749930173
-0.01444170128950181   -0.0785020909473685   -0.002508284088164594
-0.01059721226548649   -0.07865588974560431   -0.002189915845862498
-0.011853466637831827   -0.07034160823356185   -0.0019011741749930173
-0.01676897390202255   -0.07010433198937857   -0.0021137674451272405
-0.01444170128950181   -0.0785020909473685   -0.002508284088164594
-0.016763235256016827   -0.07001638231054713   -0.001974868492247363
-0.01059721226548649   -0.07865588974560431   -0.002189915845862498
-0.014383051398221929   -0.07840661041273235   -0.002342494886080044
-0.016763235256016827   -0.07001638231054713   -0.001974868492247363
-0.01444170128950181   -0.0785020909473685   -0.002508284088164594
-0.01059721226548649   -0.07865588974560431   -0.002189915845862498
-0.016763235256016827   -0.07001638231054713   -0.001974868492247363
-0.011857710704040526   -0.07023409731915392   -0.0018292281601609286
-0.011853466637831827   -0.07034160823356185   -0.0019011741749930173
-0.01059721226548649   -0.07865588974560431   -0.002189915845862498
-0.016763235256016827   -0.07001638231054713   -0.001974868492247363
-0.011853466637831827   -0.07034160823356185   -0.0019011741749930173
-0.01444170128950181   -0.0785020909473685   -0.002508284088164594
-0.01059721226548649   -0.07865588974560431   -0.002189915845862498
-0.011857710704040526   -0.07023409731915392   -0.0018292281601609286
-0.014383051398221929   -0.07840661041273235   -0.002342494886080044
-0.010542917979138599   -0.07858983623195137   -0.0020985481157931615
-0.011857710704040526   -0.07023409731915392   -0.0018292281601609286
-0.016763235256016827   -0.07001638231054713   -0.001974868492247363
-0.014383051398221929   -0.07840661041273235   -0.002342494886080044
-0.016722091270609262   -0.06996328601033171   -0.0018281501468090536
-0.010542917979138599   -0.07858983623195137   -0.0020985481157931615
-0.01428365058866264   -0.07835630845556024   -0.002168515497136458
-0.016722091270609262   -0.06996328601033171   -0.0018281501468090536
-0.014383051398221929   -0.07840661041273235   -0.002342494886080044
-0.010542917979138599   -0.07858983623195137   -0.0020985481157931615
-0.016722091270609262   -0.06996328601033171   -0.0018281501468090536
-0.011853826790542674   -0.07016278626982461   -0.0017480758776216548
-0.011857710704040526   -0.07023409731915392   -0.0018292281601609286
-0.010542917979138599   -0.07858983623195137   -0.0020985481157931615
-0.016722091270609262   -0.06996328601033171   -0.0018281501468090536
-0.011857710704040526   -0.07023409731915392   -0.0018292281601609286
-0.014383051398221929   -0.07840661041273235   -0.002342494886080044
-0.010542917979138599   -0.07858983623195137   -0.0020985481157931615
-0.011853826790542674   -0.07016278626982461   -0.0017480758776216548
-0.01428365058866264   -0.07835630845556024   -0.002168515497136458
-0.010490099917882554   -0.07856813660171628   -0.0019978041023294402
-0.011853826790542674   -0.07016278626982461   -0.0017480758776216548
-0.016722091270609262   -0.06996328601033171   -0.0018281501468090536
-0.01428365058866264   -0.07835630845556024   -0.002168515497136458
-0.016694574759983413   -0.0699487373951019   -0.0016717779020163472
-0.010490099917882554   -0.07856813660171628   -0.0019978041023294402
-0.014202855010802191   -0.07835383538879051   -0.001983796967845239
-0.016694574759983413   -0.0699487373951019   -0.0016717779020163472
-0.01428365058866264   -0.07835630845556024   -0.002168515497136458
-0.010490099917882554   -0.07856813660171628   -0.0019978041023294402
-0.016694574759983413   -0.0699487373951019   -0.0016717779020163472
-0.011851402476036105   -0.07012703698515244   -0.0016579864244188162
-0.011853826790542674   -0.07016278626982461   -0.0017480758776216548
-0.010490099917882554   -0.07856813660171628   -0.0019978041023294402
-0.016694574759983413   -0.0699487373951019   -0.0016717779020163472
-0.011853826790542674   -0.07016278626982461   -0.0017480758776216548
-0.01428365058866264   -0.07835630845556024   -0.002168515497136458
-0.01444170128950181   -0.0785020909473685   -0.002508284088164594
-0.01676897390202255   -0.07010433198937857   -0.0021137674451272405
-0.018872960211812416   -0.07811869844504149   -0.002728799053405371
-0.014383051398221929   -0.07840661041273235   -0.002342494886080044
-0.01676897390202255   -0.07010433198937857   -0.0021137674451272405
-0.022259483946282382   -0.06977748056695948   -0.0023053785997805805
-0.018872960211812416   -0.07811869844504149   -0.002728799053405371
-0.022054647142680663   -0.06969121073142281   -0.0020929463591140493
-0.014383051398221929   -0.07840661041273235   -0.002342494886080044
-0.01857305566485228   -0.07801919283594626   -0.0024693337419363724
-0.022054647142680663   -0.06969121073142281   -0.0020929463591140493
-0.018872960211812416   -0.07811869844504149   -0.002728799053405371
-0.014383051398221929   -0.07840661041273235   -0.002342494886080044
-0.022054647142680663   -0.06969121073142281   -0.0020929463591140493
-0.016763235256016827   -0.07001638231054713   -0.001974868492247363
-0.01676897390202255   -0.07010433198937857   -0.0021137674451272405
-0.014383051398221929   -0.07840661041273235   -0.002342494886080044
-0.022054647142680663   -0.06969121073142281   -0.0020929463591140493
-0.01676897390202255   -0.07010433198937857   -0.0021137674451272405
-0.018872960211812416   -0.07811869844504149   -0.002728799053405371
-0.014383051398221929   -0.07840661041273235   -0.002342494886080044
-0.016763235256016827   -0.07001638231054713   -0.001974868492247363
-0.01857305566485228   -0.07801919283594626   -0.0024693337419363724
-0.01428365058866264   -0.07835630845556024   -0.002168515497136458
-0.016763235256016827   -0.07001638231054713   -0.001974868492247363
-0.022054647142680663   -0.06969121073142281   -0.0020929463591140493
-0.01857305566485228   -0.07801919283594626   -0.0024693337419363724
-0.021879401257596482   -0.06964475595203712   -0.0018673773309632903
-0.01428365058866264   -0.07835630845556024   -0.002168515497136458
-0.018312668831294315   -0.0779731664884578   -0.0021963712701913744
-0.021879401257596482   -0.06964475595203712   -0.0018673773309632903
-0.01857305566485228   -0.07801919283594626   -0.0024693337419363724
-0.01428365058866264   -0.07835630845556024   -0.002168515497136458
-0.021879401257596482   -0.06964475595203712   -0.0018673773309632903
-0.016722091270609262   -0.06996328601033171   -0.0018281501468090536
-0.016763235256016827   -0.07001638231054713   -0.001974868492247363
-0.01428365058866264   -0.07835630845556024   -0.002168515497136458
-0.021879401257596482   -0.06964475595203712   -0.0018673773309632903
-0.016763235256016827   -0.07001638231054713   -0.001974868492247363
-0.01857305566485228   -0.07801919283594626   -0.0024693337419363724
-0.01428365058866264   -0.07835630845556024   -0.002168515497136458
-0.016722091270609262   -0.06996328601033171   -0.0018281501468090536
-0.018312668831294315   -0.0779731664884578   -0.0021963712701913744
-0.014202855010802191   -0.07835383538879051   -0.001983796967845239
-0.016722091270609262   -0.06996328601033171   -0.0018281501468090536
-0.021879401257596482   -0.06964475595203712   -0.0018673773309632903
-0.018312668831294315   -0.0779731664884578   -0.0021963712701913744
-0.021626401796332795   -0.0696594679010022   -0.00163046931836061
-0.014202855010802191   -0.07835383538879051   -0.001983796967845239
-0.01796181724534463   -0.07800026623648644   -0.0019116523125292096
-0.021626401796332795   -0.0696594679010022   -0.00163046931836061
-0.018312668831294315   -0.0779731664884578   -0.0021963712701913744
-0.014202855010802191   -0.07835383538879051   -0.001983796967845239
-0.021626401796332795   -0.0696594679010022   -0.00163046931836061
-0.016694574759983413   -0.0699487373951019   -0.0016717779020163472
-0.016722091270609262   -0.06996328601033171   -0.0018281501468090536
-0.014202855010802191   -0.07835383538879051   -0.001983796967845239
-0.021626401796332795   -0.0696594679010022   -0.00163046931836061
-0.016722091270609262   -0.06996328601033171   -0.0018281501468090536
-0.018312668831294315   -0.0779731664884578   -0.0021963712701913744
0.002802679776083868   -0.07033707818089677   -0.0010303193533789104
0.0044046707770389075   -0.06032913795124928   -0.0006862493890762908
-0.002237293603951405   -0.07046167712905556   -0.0013720811067225386
0.0029493895362658513   -0.07015926346431223   -0.0011790380495584724
0.0044046707770389075   -0.06032913795124928   -0.0006862493890762908
-0.0015726627407337446   -0.060390252895580476   -0.0010078024318949622
-0.002237293603951405   -0.07046167712905556   -0.0013720811067225386
-0.0016009278160546312   -0.0602427856687711   -0.0010407191530250857
0.0029493895362658513   -0.07015926346431223   -0.0011790380495584724
-0.002223720560615396   -0.07031053816149806   -0.0014332875449538196
-0.0016009278160546312   -0.0602427856687711   -0.0010407191530250857
-0.002237293603951405   -0.07046167712905556   -0.0013720811067225386
0.0029493895362658513   -0.07015926346431223   -0.0011790380495584724
-0.0016009278160546312   -0.0602427856687711   -0.0010407191530250857
0.004462350305132006   -0.06015782694486246   -0.000783545568827908
0.0044046707770389075   -0.06032913795124928   -0.0006862493890762908
0.0029493895362658513   -0.07015926346431223   -0.0011790380495584724
-0.0016009278160546312   -0.0602427856687711   -0.0010407191530250857
0.0044046707770389075   -0.06032913795124928   -0.0006862493890762908
-0.002237293603951405   -0.07046167712905556   -0.0013720811067225386
0.0029493895362658513   -0.07015926346431223   -0.0011790380495584724
0.004462350305132006   -0.06015782694486246   -0.000783545568827908
-0.002223720560615396   -0.07031053816149806   -0.0014332875449538196
0.003043126313682025   -0.0700424182325347   -0.0013144383135108805
0.004462350305132006   -0.06015782694486246   -0.000783545568827908
-0.0016009278160546312   -0.0602427856687711   -0.0010407191530250857
-0.002223720560615396   -0.07031053816149806   -0.0014332875449538196
-0.0016306514616380116   -0.06012598902756763   -0.0010652288084016376
0.003043126313682025   -0.0700424182325347   -0.0013144383135108805
-0.0022064681243934093   -0.07020082615585774   -0.0014850682289243
-0.0016306514616380116   -0.06012598902756763   -0.0010652288084016376
-0.002223720560615396   -0.07031053816149806   -0.0014332875449538196
0.003043126313682025   -0.0700424182325347   -0.0013144383135108805
-0.0016306514616380116   -0.06012598902756763   -0.0010652288084016376
0.004479675304127922   -0.0600328126868097   -0.0008684406262822796
0.004462350305132006   -0.06015782694486246   -0.000783545568827908
0.003043126313682025   -0.0700424182325347   -0.0013144383135108805
-0.0016306514616380116   -0.06012598902756763   -0.0010652288084016376
0.004462350305132006   -0.06015782694486246   -0.000783545568827908
-0.002223720560615396   -0.07031053816149806   -0.0014332875449538196
0.003043126313682025   -0.0700424182325347   -0.0013144383135108805
0.004479675304127922   -0.0600328126868097   -0.0008684406262822796
-0.0022064681243934093   -0.07020082615585774   -0.0014850682289243
0.0031392732057600775   -0.06996393248313268   -0.0014367979184990603
0.004479675304127922   -0.0600328126868097   -0.0008684406262822796
-0.0016306514616380116   -0.06012598902756763   -0.0010652288084016376
-0.0022064681243934093   -0.07020082615585774   -0.0014850682289243
-0.0016811319671382983   -0.060036205066428996   -0.0010816160792480889
0.0031392732057600775   -0.06996393248313268   -0.0014367979184990603
-0.002214845451402306   -0.07012903849288327   -0.0015281109785671352
-0.0016811319671382983   -0.060036205066428996   -0.0010816160792480889
-0.0022064681243934093   -0.07020082615585774   -0.0014850682289243
0.0031392732057600775   -0.06996393248313268   -0.0014367979184990603
-0.0016811319671382983   -0.060036205066428996   -0.0010816160792480889
0.004489179907871622   -0.059932135408489795   -0.0009415204930822402
0.004479675304127922   -0.0600328126868097   -0.0008684406262822796
0.0031392732057600775   -0.06996393248313268   -0.0014367979184990603
-0.0016811319671382983   -0.060036205066428996   -0.0010816160792480889
0.004479675304127922   -0.0600328126868097   -0.0008684406262822796
-0.0022064681243934093   -0.07020082615585774   -0.0014850682289243
-0.002237293603951405   -0.07046167712905556   -0.0013720811067225386
-0.0015726627407337446   -0.060390252895580476   -0.0010078024318949622
-0.007086633039549863   -0.07046225183974282   -0.0016540926135157103
-0.002223720560615396   -0.07031053816149806   -0.0014332875449538196
-0.0015726627407337446   -0.060390252895580476   -0.0010078024318949622
-0.007301741633905549   -0.06035862401052006   -0.001272771660768354
-0.007086633039549863   -0.07046225183974282   -0.0016540926135157103
-0.007340839030247245   -0.06023531196971323   -0.0012573191587503516
-0.002223720560615396   -0.07031053816149806   -0.0014332875449538196
-0.007087293252094174   -0.07033432828426786   -0.0016483197524479426
-0.007340839030247245   -0.06023531196971323   -0.0012573191587503516
-0.007086633039549863   -0.07046225183974282   -0.0016540926135157103
-0.002223720560615396   -0.07031053816149806   -0.0014332875449538196
-0.007340839030247245   -0.06023531196971323   -0.0012573191587503516
-0.0016009278160546312   -0.0602427856687711   -0.0010407191530250857
-0.0015726627407337446   -0.060390252895580476   -0.0010078024318949622
-0.002223720560615396   -0.07031053816149806   -0.0014332875449538196
-0.007340839030247245   -0.06023531196971323   -0.0012573191587503516
-0.0015726627407337446   -0.060390252895580476   -0.0010078024318949622
-0.007086633039549863   -0.07046225183974282   -0.0016540926135157103
-0.002223720560615396   -0.07031053816149806   -0.0014332875449538196
-0.0016009278160546312   -0.0602427856687711   -0.0010407191530250857
-0.007087293252094174   -0.07033432828426786   -0.0016483197524479426
-0.0022064681243934093   -0.07020082615585774   -0.0014850682289243
-0.0016009278160546312   -0.0602427856687711   -0.0010407191530250857
-0.007340839030247245   -0.06023531196971323   -0.0012573191587503516
-0.007087293252094174   -0.07033432828426786   -0.0016483197524479426
-0.007380472372079674   -0.060138292873377595   -0.0012332136522160348
-0.0022064681243934093   -0.07020082615585774   -0.0014850682289243
-0.007087630630790606   -0.07024292792971808   -0.0016331597558953042
-0.007380472372079674   -0.060138292873377595   -0.0012332136522160348
-0.007087293252094174   -0.07033432828426786   -0.0016483197524479426
-0.0022064681243934093   -0.07020082615585774   -0.0014850682289243
-0.007380472372079674   -0.060138292873377595   -0.0012332136522160348
-0.0016306514616380116   -0.06012598902756763   -0.0010652288084016376
-0.0016009278160546312   -0.0602427856687711   -0.0010407191530250857
-0.0022064681243934093   -0.07020082615585774   -0.0014850682289243
-0.007380472372079674   -0.060138292873377595   -0.0012332136522160348
-0.0016009278160546312   -0.0602427856687711   -0.0010407191530250857
-0.007087293252094174   -0.07033432828426786   -0.0016483197524479426
-0.0022064681243934093   -0.07020082615585774   -0.0014850682289243
-0.0016306514616380116   -0.06012598902756763   -0.0010652288084016376
-0.007087630630790606   -0.07024292792971808   -0.0016331597558953042
-0.002214845451402306   -0.07012903849288327   -0.0015281109785671352
-0.0016306514616380116   -0.06012598902756763   -0.0010652288084016376
-0.007380472372079674   -0.060138292873377595   -0.0012332136522160348
-0.007087630630790606   -0.07024292792971808   -0.0016331597558953042
-0.007426260922852955   -0.06006801419349672   -0.0012008699557917969
-0.002214845451402306   -0.07012903849288327   -0.0015281109785671352
-0.0070944558501916345   -0.07018811451701906   -0.0016090970976347068
-0.007426260922852955   -0.06006801419349672   -0.0012008699557917969
-0.007087630630790606   -0.07024292792971808   -0.0016331597558953042
-0.002214845451402306   -0.07012903849288327   -0.0015281109785671352
-0.007426260922852955   -0.06006801419349672   -0.0012008699557917969
-0.0016811319671382983   -0.060036205066428996   -0.0010816160792480889
-0.0016306514616380116   -0.06012598902756763   -0.0010652288084016376
-0.002214845451402306   -0.07012903849288327   -0.0015281109785671352
-0.007426260922852955   -0.06006801419349672   -0.0012008699557917969
-0.0016306514616380116   -0.06012598902756763   -0.0010652288084016376
-0.007087630630790606   -0.07024292792971808   -0.0016331597558953042
-0.007086633039549863   -0.07046225183974282   -0.0016540926135157103
-0.007301741633905549   -0.06035862401052006   -0.001272771660768354
-0.011853466637831827   -0.07034160823356185   -0.0019011741749930173
-0.007087293252094174   -0.07033432828426786   -0.0016483197524479426
-0.007301741633905549   -0.06035862401052006   -0.001272771660768354
-0.012933873323865816   -0.060239941694517955   -0.001499576974829644
-0.011853466637831827   -0.07034160823356185   -0.0019011741749930173
-0.012976031649290802   -0.0601385929022496   -0.001435984414586671
-0.007087293252094174   -0.07033432828426786   -0.0016483197524479426
-0.011857710704040526   -0.07023409731915392   -0.0018292281601609286
-0.012976031649290802   -0.0601385929022496   -0.001435984414586671
-0.011853466637831827   -0.07034160823356185   -0.0019011741749930173
-0.007087293252094174   -0.07033432828426786   -0.0016483197524479426
-0.012976031649290802   -0.0601385929022496   -0.001435984414586671
-0.007340839030247245   -0.06023531196971323   -0.0012573191587503516
-0.007301741633905549   -0.06035862401052006   -0.001272771660768354
-0.007087293252094174   -0.07033432828426786   -0.0016483197524479426
-0.012976031649290802   -0.0601385929022496   -0.001435984414586671
-0.007301741633905549   -0.06035862401052006   -0.001272771660768354
-0.011853466637831827   -0.07034160823356185   -0.0019011741749930173
-0.007087293252094174   -0.07033432828426786   -0.0016483197524479426
-0.007340839030247245   -0.06023531196971323   -0.0012573191587503516
-0.011857710704040526   -0.07023409731915392   -0.0018292281601609286
-0.007087630630790606   -0.07024292792971808   -0.0016331597558953042
-0.007340839030247245   -0.06023531196971323   -0.0012573191587503516
-0.012976031649290802   -0.0601385929022496   -0.001435984414586671
-0.011857710704040526   -0.07023409731915392   -0.0018292281601609286
-0.013010976874100898   -0.06006328554377299   -0.0013638907497439915
-0.007087630630790606   -0.07024292792971808   -0.0016331597558953042
-0.011853826790542674   -0.07016278626982461   -0.0017480758776216548
-0.013010976874100898   -0.06006328554377299   -0.0013638907497439915
-0.011857710704040526   -0.07023409731915392   -0.0018292281601609286
-0.007087630630790606   -0.07024292792971808   -0.0016331597558953042
-0.013010976874100898   -0.06006328554377299   -0.0013638907497439915
-0.007380472372079674   -0.060138292873377595   -0.0012332136522160348
-0.007340839030247245   -0.06023531196971323   -0.0012573191587503516
-0.007087630630790606   -0.07024292792971808   -0.0016331597558953042
-0.013010976874100898   -0.06006328554377299   -0.0013638907497439915
-0.007340839030247245   -0.06023531196971323   -0.0012573191587503516
-0.011857710704040526   -0.07023409731915392   -0.0018292281601609286
-0.007087630630790606   -0.07024292792971808   -0.0016331597558953042
-0.007380472372079674   -0.060138292873377595   -0.0012332136522160348
-0.011853826790542674   -0.07016278626982461   -0.0017480758776216548
-0.0070944558501916345   -0.07018811451701906   -0.0016090970976347068
-0.007380472372079674   -0.060138292873377595   -0.0012332136522160348
-0.013010976874100898   -0.06006328554377299   -0.0013638907497439915
-0.011853826790542674   -0.07016278626982461   -0.0017480758776216548
-0.013046932679854115   -0.06001391140163106   -0.001283547022064241
-0.0070944558501916345   -0.07018811451701906   -0.0016090970976347068
-0.011851402476036105   -0.07012703698515244   -0.0016579864244188162
-0.013046932679854115   -0.06001391140163106   -0.001283547022064241
-0.011853826790542674   -0.07016278626982461   -0.0017480758776216548
-0.0070944558501916345   -0.07018811451701906   -0.0016090970976347068
-0.013046932679854115   -0.06001391140163106   -0.001283547022064241
-0.007426260922852955   -0.06006801419349672   -0.0012008699557917969
-0.007380472372079674   -0.060138292873377595   -0.0012332136522160348
-0.0070944558501916345   -0.07018811451701906   -0.0016090970976347068
-0.013046932679854115   -0.06001391140163106   -0.001283547022064241
-0.007380472372079674   -0.060138292873377595   -0.0012332136522160348
-0.011853826790542674   -0.07016278626982461   -0.0017480758776216548
-0.011853466637831827   -0.07034160823356185   -0.0019011741749930173
-0.012933873323865816   -0.060239941694517955   -0.001499576974829644
-0.01676897390202255   -0.07010433198937857   -0.0021137674451272405
-0.011857710704040526   -0.07023409731915392   -0.0018292281601609286
-0.012933873323865816   -0.060239941694517955   -0.001499576974829644
-0.018699978473534763   -0.06003658109374632   -0.0016890625267352924
-0.01676897390202255   -0.07010433198937857   -0.0021137674451272405
-0.018734900694285506   -0.05995669796383384   -0.0015766768555896776
-0.011857710704040526   -0.07023409731915392   -0.0018292281601609286
-0.016763235256016827   -0.07001638231054713   -0.001974868492247363
-0.018734900694285506   -0.05995669796383384   -0.0015766768555896776
-0.01676897390202255   -0.07010433198937857   -0.0021137674451272405
-0.011857710704040526   -0.07023409731915392   -0.0018292281601609286
-0.018734900694285506   -0.05995669796383384   -0.0015766768555896776
-0.012976031649290802   -0.0601385929022496   -0.001435984414586671
-0.012933873323865816   -0.060239941694517955   -0.001499576974829644
-0.011857710704040526   -0.07023409731915392   -0.0018292281601609286
-0.018734900694285506   -0.05995669796383384   -0.0015766768555896776
-0.012933873323865816   -0.060239941694517955   -0.001499576974829644
-0.01676897390202255   -0.07010433198937857   -0.0021137674451272405
-0.011857710704040526   -0.07023409731915392   -0.0018292281601609286
-0.012976031649290802   -0.0601385929022496   -0.001435984414586671
-0.016763235256016827   -0.07001638231054713   -0.001974868492247363
-0.011853826790542674   -0.07016278626982461   -0.0017480758776216548
-0.012976031649290802   -0.0601385929022496   -0.001435984414586671
-0.018734900694285506   -0.05995669796383384   -0.0015766768555896776
-0.016763235256016827   -0.07001638231054713   -0.001974868492247363
-0.018739525932676   -0.05990124189904436   -0.0014569668145070728
-0.011853826790542674   -0.07016278626982461   -0.0017480758776216548
-0.016722091270609262   -0.06996328601033171   -0.0018281501468090536
-0.018739525932676   -0.05990124189904436   -0.0014569668145070728
-0.016763235256016827   -0.07001638231054713   -0.001974868492247363
-0.011853826790542674   -0.07016278626982461   -0.0017480758776216548
-0.018739525932676   -0.05990124189904436   -0.0014569668145070728
-0.013010976874100898   -0.06006328554377299   -0.0013638907497439915
-0.012976031649290802   -0.0601385929022496   -0.001435984414586671
-0.011853826790542674   -0.07016278626982461   -0.0017480758776216548
-0.018739525932676   -0.05990124189904436   -0.0014569668145070728
-0.012976031649290802   -0.0601385929022496   -0.001435984414586671
-0.016763235256016827   -0.07001638231054713   -0.001974868492247363
-0.011853826790542674   -0.07016278626982461   -0.0017480758776216548
-0.013010976874100898   -0.06006328554377299   -0.0013638907497439915
-0.016722091270609262   -0.06996328601033171   -0.0018281501468090536
-0.011851402476036105   -0.07012703698515244   -0.0016579864244188162
-0.013010976874100898   -0.06006328554377299   -0.0013638907497439915
-0.018739525932676   -0.05990124189904436   -0.0014569668145070728
-0.016722091270609262   -0.06996328601033171   -0.0018281501468090536
-0.018752715763496026   -0.059874048257324355   -0.0013283824248741041
-0.011851402476036105   -0.07012703698515244   -0.0016579864244188162
-0.016694574759983413   -0.0699487373951019   -0.0016717779020163472
-0.018752715763496026   -0.059874048257324355   -0.0013283824248741041
-0.016722091270609262   -0.06996328601033171   -0.0018281501468090536
-0.011851402476036105   -0.07012703698515244   -0.0016579864244188162
-0.018752715763496026   -0.059874048257324355   -0.0013283824248741041
-0.013046932679854115   -0.06001391140163106   -0.001283547022064241
-0.013010976874100898   -0.06006328554377299   -0.0013638907497439915
-0.011851402476036105   -0.07012703698515244   -0.0016579864244188162
-0.018752715763496026   -0.059874048257324355   -0.0013283824248741041
-0.013010976874100898   -0.06006328554377299   -0.0013638907497439915
-0.016722091270609262   -0.06996328601033171   -0.0018281501468090536
-0.01676897390202255   -0.07010433198937857   -0.0021137674451272405
-0.018699978473534763   -0.06003658109374632   -0.0016890625267352924
-0.022259483946282382   -0.06977748056695948   -0.0023053785997805805
-0.016763235256016827   -0.07001638231054713   -0.001974868492247363
-0.018699978473534763   -0.06003658109374632   -0.0016890625267352924
-0.024987562302449296   -0.05976999295646804   -0.0018509192354312892
-0.022259483946282382   -0.06977748056695948   -0.0023053785997805805
-0.02486770584349014   -0.05969702470130047   -0.0016869925869413063
-0.016763235256016827   -0.07001638231054713   -0.001974868492247363
-0.022054647142680663   -0.06969121073142281   -0.0020929463591140493
-0.02486770584349014   -0.05969702470130047   -0.0016869925869413063
-0.022259483946282382   -0.06977748056695948   -0.0023053785997805805
-0.016763235256016827   -0.07001638231054713   -0.001974868492247363
-0.02486770584349014   -0.05969702470130047   -0.0016869925869413063
-0.018734900694285506   -0.05995669796383384   -0.0015766768555896776
-0.018699978473534763   -0.06003658109374632   -0.0016890625267352924
-0.016763235256016827   -0.07001638231054713   -0.001974868492247363
-0.02486770584349014   -0.05969702470130047   -0.0016869925869413063
-0.018699978473534763   -0.06003658109374632   -0.0016890625267352924
-0.022259483946282382   -0.06977748056695948   -0.0023053785997805805
-0.016763235256016827   -0.07001638231054713   -0.001974868492247363
-0.018734900694285506   -0.05995669796383384   -0.0015766768555896776
-0.022054647142680663   -0.06969121073142281   -0.0020929463591140493
-0.016722091270609262   -0.06996328601033171   -0.0018281501468090536
-0.018734900694285506   -0.05995669796383384   -0.0015766768555896776
-0.02486770584349014   -0.05969702470130047   -0.0016869925869413063
-0.022054647142680663   -0.06969121073142281   -0.0020929463591140493
-0.024766627734186867   -0.05964998181617936   -0.0015102815835095766
-0.016722091270609262   -0.06996328601033171   -0.0018281501468090536
-0.021879401257596482   -0.06964475595203712   -0.0018673773309632903
-0.024766627734186867   -0.05964998181617936   -0.0015102815835095766
-0.022054647142680663   -0.06969121073142281   -0.0020929463591140493
-0.016722091270609262   -0.06996328601033171   -0.0018281501468090536
-0.024766627734186867   -0.05964998181617936   -0.0015102815835095766
-0.018739525932676   -0.05990124189904436   -0.0014569668145070728
-0.018734900694285506   -0.05995669796383384   -0.0015766768555896776
-0.016722091270609262   -0.06996328601033171   -0.0018281501468090536
-0.024766627734186867   -0.05964998181617936   -0.0015102815835095766
-0.018734900694285506   -0.05995669796383384   -0.0015766768555896776
-0.022054647142680663   -0.06969121073142281   -0.0020929463591140493
-0.016722091270609262   -0.06996328601033171   -0.0018281501468090536
-0.018739525932676   -0.05990124189904436   -0.0014569668145070728
-0.021879401257596482   -0.06964475595203712   -0.0018673773309632903
-0.016694574759983413   -0.0699487373951019   -0.0016717779020163472
-0.018739525932676   -0.05990124189904436   -0.0014569668145070728
-0.024766627734186867   -0.05964998181617936   -0.0015102815835095766
-0.021879401257596482   -0.06964475595203712   -0.0018673773309632903
-0.02459968360122003   -0.05965099027594612   -0.0013223788387339867
-0.016694574759983413   -0.0699487373951019   -0.0016717779020163472
-0.021626401796332795   -0.0696594679010022   -0.00163046931836061
-0.02459968360122003   -0.05965099027594612   -0.0013223788387339867
-0.021879401257596482   -0.06964475595203712   -0.0018673773309632903
-0.016694574759983413   -0.0699487373951019   -0.0016717779020163472
-0.02459968360122003   -0.05965099027594612   -0.0013223788387339867
-0.018752715763496026   -0.059874048257324355   -0.0013283824248741041
-0.018739525932676   -0.05990124189904436   -0.0014569668145070728
-0.016694574759983413   -0.0699487373951019   -0.0016717779020163472
-0.02459968360122003   -0.05965099027594612   -0.0013223788387339867
-0.018739525932676   -0.05990124189904436   -0.0014569668145070728
-0.021879401257596482   -0.06964475595203712   -0.0018673773309632903
0.0044046707770389075   -0.06032913795124928   -0.0006862493890762908
0.0052925154570451355   -0.04910275112825473   -0.00034925865324051406
-0.0015726627407337446   -0.060390252895580476   -0.0010078024318949622
0.004462350305132006   -0.06015782694486246   -0.000783545568827908
0.0052925154570451355   -0.04910275112825473   -0.00034925865324051406
-0.0013412126746341194   -0.049101085274146083   -0.0006474989909910108
-0.0015726627407337446   -0.060390252895580476   -0.0010078024318949622
-0.0014007426626626474   -0.048958420205701174   -0.0006517915956783028
0.004462350305132006   -0.06015782694486246   -0.000783545568827908
-0.0016009278160546312   -0.0602427856687711   -0.0010407191530250857
-0.0014007426626626474   -0.048958420205701174   -0.0006517915956783028
-0.0015726627407337446   -0.060390252895580476   -0.0010078024318949622
0.004462350305132006   -0.06015782694486246   -0.000783545568827908
-0.0014007426626626474   -0.048958420205701174   -0.0006517915956783028
0.005272935201337871   -0.04893873088229302   -0.00039575188629915425
0.0052925154570451355   -0.04910275112825473   -0.00034925865324051406
0.004462350305132006   -0.06015782694486246   -0.000783545568827908
-0.0014007426626626474   -0.048958420205701174   -0.0006517915956783028
0.0052925154570451355   -0.04910275112825473   -0.00034925865324051406
-0.0015726627407337446   -0.060390252895580476   -0.0010078024318949622
0.004462350305132006   -0.06015782694486246   -0.000783545568827908
0.005272935201337871   -0.04893873088229302   -0.00039575188629915425
-0.0016009278160546312   -0.0602427856687711   -0.0010407191530250857
0.004479675304127922   -0.0600328126868097   -0.0008684406262822796
0.005272935201337871   -0.04893873088229302   -0.00039575188629915425
-0.0014007426626626474   -0.048958420205701174   -0.0006517915956783028
-0.0016009278160546312   -0.0602427856687711   -0.0010407191530250857
-0.0014668875698393164   -0.04883549346087175   -0.0006486370080213669
0.004479675304127922   -0.0600328126868097   -0.0008684406262822796
-0.0016306514616380116   -0.06012598902756763   -0.0010652288084016376
-0.0014668875698393164   -0.04883549346087175   -0.0006486370080213669
-0.0016009278160546312   -0.0602427856687711   -0.0010407191530250857
0.004479675304127922   -0.0600328126868097   -0.0008684406262822796
-0.0014668875698393164   -0.04883549346087175   -0.0006486370080213669
0.005224863173438529   -0.04880658287814918   -0.0004303086399483315
0.005272935201337871   -0.04893873088229302   -0.00039575188629915425
0.004479675304127922   -0.0600328126868097   -0.0008684406262822796
-0.0014668875698393164   -0.04883549346087175   -0.0006486370080213669
0.005272935201337871   -0.04893873088229302   -0.00039575188629915425
-0.0016009278160546312   -0.0602427856687711   -0.0010407191530250857
0.004479675304127922   -0.0600328126868097   -0.0008684406262822796
0.005224863173438529   -0.04880658287814918   -0.0004303086399483315
-0.0016306514616380116   -0.06012598902756763   -0.0010652288084016376
0.004489179907871622   -0.059932135408489795   -0.0009415204930822402
0.005224863173438529   -0.04880658287814918   -0.0004303086399483315
-0.0014668875698393164   -0.04883549346087175   -0.0006486370080213669
-0.0016306514616380116   -0.06012598902756763   -0.0010652288084016376
-0.0015489159084230708   -0.04872913143372205   -0.0006377416365355279
0.004489179907871622   -0.059932135408489795   -0.0009415204930822402
-0.0016811319671382983   -0.060036205066428996   -0.0010816160792480889
-0.0015489159084230708   -0.04872913143372205   -0.0006377416365355279
-0.0016306514616380116   -0.06012598902756763   -0.0010652288084016376
0.004489179907871622   -0.059932135408489795   -0.0009415204930822402
-0.0015489159084230708   -0.04872913143372205   -0.0006377416365355279
0.005157813694436417   -0.04868483477077764   -0.00045376242539031924
0.005224863173438529   -0.04880658287814918   -0.0004303086399483315
0.004489179907871622   -0.059932135408489795   -0.0009415204930822402
-0.0015489159084230708   -0.04872913143372205   -0.0006377416365355279
0.005224863173438529   -0.04880658287814918   -0.0004303086399483315
-0.0016306514616380116   -0.06012598902756763   -0.0010652288084016376
-0.0015726627407337446   -0.060390252895580476   -0.0010078024318949622
-0.0013412126746341194   -0.049101085274146083   -0.0006474989909910108
-0.007301741633905549   -0.06035862401052006   -0.001272771660768354
-0.0016009278160546312   -0.0602427856687711   -0.0010407191530250857
-0.0013412126746341194   -0.049101085274146083   -0.0006474989909910108
-0.00766841493346531   -0.04904105747147235   -0.0008938483898681375
-0.007301741633905549   -0.06035862401052006   -0.001272771660768354
-0.007734969108915107   -0.048922542198028766   -0.0008679186931134907
-0.0016009278160546312   -0.0602427856687711   -0.0010407191530250857
-0.007340839030247245   -0.06023531196971323   -0.0012573191587503516
-0.007734969108915107   -0.048922542198028766   -0.0008679186931134907
-0.007301741633905549   -0.06035862401052006   -0.001272771660768354
-0.0016009278160546312   -0.0602427856687711   -0.0010407191530250857
-0.007734969108915107   -0.048922542198028766   -0.0008679186931134907
-0.0014007426626626474   -0.048958420205701174   -0.0006517915956783028
-0.0013412126746341194   -0.049101085274146083   -0.0006474989909910108
-0.0016009278160546312   -0.0602427856687711   -0.0010407191530250857
-0.007734969108915107   -0.048922542198028766   -0.0008679186931134907
-0.0013412126746341194   -0.049101085274146083   -0.0006474989909910108
-0.007301741633905549   -0.06035862401052006   -0.001272771660768354
-0.0016009278160546312   -0.0602427856687711   -0.0010407191530250857
-0.0014007426626626474   -0.048958420205701174   -0.0006517915956783028
-0.007340839030247245   -0.06023531196971323   -0.0012573191587503516
-0.0016306514616380116   -0.06012598902756763   -0.0010652288084016376
-0.0014007426626626474   -0.048958420205701174   -0.0006517915956783028
-0.007734969108915107   -0.048922542198028766   -0.0008679186931134907
-0.007340839030247245   -0.06023531196971323   -0.0012573191587503516
-0.00780285735002552   -0.0488200958139462   -0.0008342336040990695
-0.0016306514616380116   -0.06012598902756763   -0.0010652288084016376
-0.007380472372079674   -0.060138292873377595   -0.0012332136522160348
-0.00780285735002552   -0.0488200958139462   -0.0008342336040990695
-0.007340839030247245   -0.06023531196971323   -0.0012573191587503516
-0.0016306514616380116   -0.06012598902756763   -0.0010652288084016376
-0.00780285735002552   -0.0488200958139462   -0.0008342336040990695
-0.0014668875698393164   -0.04883549346087175   -0.0006486370080213669
-0.0014007426626626474   -0.048958420205701174   -0.0006517915956783028
-0.0016306514616380116   -0.06012598902756763   -0.0010652288084016376
-0.00780285735002552   -0.0488200958139462   -0.0008342336040990695
-0.0014007426626626474   -0.048958420205701174   -0.0006517915956783028
-0.007340839030247245   -0.06023531196971323   -0.0012573191587503516
-0.0016306514616380116   -0.06012598902756763   -0.0010652288084016376
-0.0014668875698393164   -0.04883549346087175   -0.0006486370080213669
-0.007380472372079674   -0.060138292873377595   -0.0012332136522160348
-0.0016811319671382983   -0.060036205066428996   -0.0010816160792480889
-0.0014668875698393164   -0.04883549346087175   -0.0006486370080213669
-0.00780285735002552   -0.0488200958139462   -0.0008342336040990695
-0.007380472372079674   -0.060138292873377595   -0.0012332136522160348
-0.007876475090277358   -0.04873467957795711   -0.0007931544381980848
-0.0016811319671382983   -0.060036205066428996   -0.0010816160792480889
-0.007426260922852955   -0.06006801419349672   -0.0012008699557917969
-0.007876475090277358   -0.04873467957795711   -0.0007931544381980848
-0.007380472372079674   -0.060138292873377595   -0.0012332136522160348
-0.0016811319671382983   -0.060036205066428996   -0.0010816160792480889
-0.007876475090277358   -0.04873467957795711   -0.0007931544381980848
-0.0015489159084230708   -0.04872913143372205   -0.0006377416365355279
-0.0014668875698393164   -0.04883549346087175   -0.0006486370080213669
-0.0016811319671382983   -0.060036205066428996   -0.0010816160792480889
-0.007876475090277358   -0.04873467957795711   -0.0007931544381980848
-0.0014668875698393164   -0.04883549346087175   -0.0006486370080213669
-0.007380472372079674   -0.060138292873377595   -0.0012332136522160348
-0.007301741633905549   -0.06035862401052006   -0.001272771660768354
-0.00766841493346531   -0.04904105747147235   -0.0008938483898681375
-0.012933873323865816   -0.060239941694517955   -0.001499576974829644
-0.007340839030247245   -0.06023531196971323   -0.0012573191587503516
-0.00766841493346531   -0.04904105747147235   -0.0008938483898681375
-0.0138886235898711   -0.04892922175383374   -0.0011017945288716885
-0.012933873323865816   -0.060239941694517955   -0.001499576974829644
-0.013957118561429702   -0.04883298463889806   -0.0010456901561092268
-0.007340839030247245   -0.06023531196971323   -0.0012573191587503516
-0.012976031649290802   -0.0601385929022496   -0.001435984414586671
-0.013957118561429702   -0.04883298463889806   -0.0010456901561092268
-0.012933873323865816   -0.060239941694517955   -0.001499576974829644
-0.007340839030247245   -0.06023531196971323   -0.0012573191587503516
-0.013957118561429702   -0.04883298463889806   -0.0010456901561092268
-0.007734969108915107   -0.048922542198028766   -0.0008679186931134907
-0.00766841493346531   -0.04904105747147235   -0.0008938483898681375
-0.007340839030247245   -0.06023531196971323   -0.0012573191587503516
-0.013957118561429702   -0.04883298463889806   -0.0010456901561092268
-0.00766841493346531   -0.04904105747147235   -0.0008938483898681375
-0.012933873323865816   -0.060239941694517955   -0.001499576974829644
-0.007340839030247245   -0.06023531196971323   -0.0012573191587503516
-0.007734969108915107   -0.048922542198028766   -0.0008679186931134907
-0.012976031649290802   -0.0601385929022496   -0.001435984414586671
-0.007380472372079674   -0.060138292873377595   -0.0012332136522160348
-0.007734969108915107   -0.048922542198028766   -0.0008679186931134907
-0.013957118561429702   -0.04883298463889806   -0.0010456901561092268
-0.012976031649290802   -0.0601385929022496   -0.001435984414586671
-0.014019266980367966   -0.048752702747434686   -0.0009820103930731747
-0.007380472372079674   -0.060138292873377595   -0.0012332136522160348
-0.013010976874100898   -0.06006328554377299   -0.0013638907497439915
-0.014019266980367966   -0.048752702747434686   -0.0009820103930731747
-0.012976031649290802   -0.0601385929022496   -0.001435984414586671
-0.007380472372079674   -0.060138292873377595   -0.0012332136522160348
-0.014019266980367966   -0.048752702747434686   -0.0009820103930731747
-0.00780285735002552   -0.0488200958139462   -0.0008342336040990695
-0.007734969108915107   -0.048922542198028766   -0.0008679186931134907
-0.007380472372079674   -0.060138292873377595   -0.0012332136522160348
-0.014019266980367966   -0.048752702747434686   -0.0009820103930731747
-0.007734969108915107   -0.048922542198028766   -0.0008679186931134907
-0.012976031649290802   -0.0601385929022496   -0.001435984414586671
-0.007380472372079674   -0.060138292873377595   -0.0012332136522160348
-0.00780285735002552   -0.0488200958139462   -0.0008342336040990695
-0.013010976874100898   -0.06006328554377299   -0.0013638907497439915
-0.007426260922852955   -0.06006801419349672   -0.0012008699557917969
-0.00780285735002552   -0.0488200958139462   -0.0008342336040990695
-0.014019266980367966   -0.048752702747434686   -0.0009820103930731747
-0.013010976874100898   -0.06006328554377299   -0.0013638907497439915
-0.014082003187245416   -0.048688513305115616   -0.0009110449798113211
-0.007426260922852955   -0.06006801419349672   -0.0012008699557917969
-0.013046932679854115   -0.06001391140163106   -0.001283547022064241
-0.014082003187245416   -0.048688513305115616   -0.0009110449798113211
-0.013010976874100898   -0.06006328554377299   -0.0013638907497439915
-0.007426260922852955   -0.06006801419349672   -0.0012008699557917969
-0.014082003187245416   -0.048688513305115616   -0.0009110449798113211
-0.007876475090277358   -0.04873467957795711   -0.0007931544381980848
-0.00780285735002552   -0.0488200958139462   -0.0008342336040990695
-0.007426260922852955   -0.06006801419349672   -0.0012008699557917969
-0.014082003187245416   -0.048688513305115616   -0.0009110449798113211
-0.00780285735002552   -0.0488200958139462   -0.0008342336040990695
-0.013010976874100898   -0.06006328554377299   -0.0013638907497439915
-0.012933873323865816   -0.060239941694517955   -0.001499576974829644
-0.0138886235898711   -0.04892922175383374   -0.0011017945288716885
-0.018699978473534763   -0.06003658109374632   -0.0016890625267352924
-0.012976031649290802   -0.0601385929022496   -0.001435984414586671
-0.0138886235898711   -0.04892922175383374   -0.0011017945288716885
-0.020231979419884673   -0.04876319566145511   -0.0012717907773586814
-0.018699978473534763   -0.06003658109374632   -0.0016890625267352924
-0.020295599119856074   -0.048689432380079764   -0.001185282292548436
-0.012976031649290802   -0.0601385929022496   -0.001435984414586671
-0.018734900694285506   -0.05995669796383384   -0.0015766768555896776
-0.020295599119856074   -0.048689432380079764   -0.001185282292548436
-0.018699978473534763   -0.06003658109374632   -0.0016890625267352924
-0.012976031649290802   -0.0601385929022496   -0.001435984414586671
-0.020295599119856074   -0.048689432380079764   -0.001185282292548436
-0.013957118561429702   -0.04883298463889806   -0.0010456901561092268
-0.0138886235898711   -0.04892922175383374   -0.0011017945288716885
-0.012976031649290802   -0.0601385929022496   -0.001435984414586671
-0.020295599119856074   -0.048689432380079764   -0.001185282292548436
-0.0138886235898711   -0.04892922175383374   -0.0011017945288716885
-0.018699978473534763   -0.06003658109374632   -0.0016890625267352924
-0.012976031649290802   -0.0601385929022496   -0.001435984414586671
-0.013957118561429702   -0.04883298463889806   -0.0010456901561092268
-0.018734900694285506   -0.05995669796383384   -0.0015766768555896776
-0.013010976874100898   -0.06006328554377299   -0.0013638907497439915
-0.013957118561429702   -0.04883298463889806   -0.0010456901561092268
-0.020295599119856074   -0.048689432380079764   -0.001185282292548436
-0.018734900694285506   -0.05995669796383384   -0.0015766768555896776
-0.020334221014395405   -0.04862957279772956   -0.0010922226306309096
-0.013010976874100898   -0.06006328554377299   -0.0013638907497439915
-0.018739525932676   -0.05990124189904436   -0.0014569668145070728
-0.020334221014395405   -0.04862957279772956   -0.0010922226306309096
-0.018734900694285506   -0.05995669796383384   -0.0015766768555896776
-0.013010976874100898   -0.06006328554377299   -0.0013638907497439915
-0.020334221014395405   -0.04862957279772956   -0.0010922226306309096
-0.014019266980367966   -0.048752702747434686   -0.0009820103930731747
-0.013957118561429702   -0.04883298463889806   -0.0010456901561092268
-0.013010976874100898   -0.06006328554377299   -0.0013638907497439915
-0.020334221014395405   -0.04862957279772956   -0.0010922226306309096
-0.013957118561429702   -0.04883298463889806   -0.0010456901561092268
-0.018734900694285506   -0.05995669796383384   -0.0015766768555896776
-0.013010976874100898   -0.06006328554377299   -0.0013638907497439915
-0.014019266980367966   -0.048752702747434686   -0.0009820103930731747
-0.018739525932676   -0.05990124189904436   -0.0014569668145070728
-0.013046932679854115   -0.06001391140163106   -0.001283547022064241
-0.014019266980367966   -0.048752702747434686   -0.0009820103930731747
-0.020334221014395405   -0.04862957279772956   -0.0010922226306309096
-0.018739525932676   -0.05990124189904436   -0.0014569668145070728
-0.020376597765327308   -0.04858719713287724   -0.0009912562925541053
-0.013046932679854115   -0.06001391140163106   -0.001283547022064241
-0.018752715763496026   -0.059874048257324355   -0.0013283824248741041
-0.020376597765327308   -0.04858719713287724   -0.0009912562925541053
-0.018739525932676   -0.05990124189904436   -0.0014569668145070728
-0.013046932679854115   -0.06001391140163106   -0.001283547022064241
-0.020376597765327308   -0.04858719713287724   -0.0009912562925541053
-0.014082003187245416   -0.048688513305115616   -0.0009110449798113211
-0.014019266980367966   -0.048752702747434686   -0.0009820103930731747
-0.013046932679854115   -0.06001391140163106   -0.001283547022064241
-0.020376597765327308   -0.04858719713287724   -0.0009912562925541053
-0.014019266980367966   -0.048752702747434686   -0.0009820103930731747
-0.018739525932676   -0.05990124189904436   -0.0014569668145070728
-0.018699978473534763   -0.06003658109374632   -0.0016890625267352924
-0.020231979419884673   -0.04876319566145511   -0.0012717907773586814
-0.024987562302449296   -0.05976999295646804   -0.0018509192354312892
-0.018734900694285506   -0.05995669796383384   -0.0015766768555896776
-0.020231979419884673   -0.04876319566145511   -0.0012717907773586814
-0.027039607831793395   -0.04855910033478097   -0.0014070252921386216
-0.024987562302449296   -0.05976999295646804   -0.0018509192354312892
-0.02699329593339196   -0.048496874946279765   -0.0012918708319595525
-0.018734900694285506   -0.05995669796383384   -0.0015766768555896776
-0.02486770584349014   -0.05969702470130047   -0.0016869925869413063
-0.02699329593339196   -0.048496874946279765   -0.0012918708319595525
-0.024987562302449296   -0.05976999295646804   -0.0018509192354312892
-0.018734900694285506   -0.05995669796383384   -0.0015766768555896776
-0.02699329593339196   -0.048496874946279765   -0.0012918708319595525
-0.020295599119856074   -0.048689432380079764   -0.001185282292548436
-0.020231979419884673   -0.04876319566145511   -0.0012717907773586814
-0.018734900694285506   -0.05995669796383384   -0.0015766768555896776
-0.02699329593339196   -0.048496874946279765   -0.0012918708319595525
-0.020231979419884673   -0.04876319566145511   -0.0012717907773586814
-0.024987562302449296   -0.05976999295646804   -0.0018509192354312892
-0.018734900694285506   -0.05995669796383384   -0.0015766768555896776
-0.020295599119856074   -0.048689432380079764   -0.001185282292548436
-0.02486770584349014   -0.05969702470130047   -0.0016869925869413063
-0.018739525932676   -0.05990124189904436   -0.0014569668145070728
-0.020295599119856074   -0.048689432380079764   -0.001185282292548436
-0.02699329593339196   -0.048496874946279765   -0.0012918708319595525
-0.02486770584349014   -0.05969702470130047   -0.0016869925869413063
-0.02695556256153213   -0.048446634310013836   -0.0011646956649407905
-0.018739525932676   -0.05990124189904436   -0.0014569668145070728
-0.024766627734186867   -0.05964998181617936   -0.0015102815835095766
-0.02695556256153213   -0.048446634310013836   -0.0011646956649407905
-0.02486770584349014   -0.05969702470130047   -0.0016869925869413063
-0.018739525932676   -0.05990124189904436   -0.0014569668145070728
-0.02695556256153213   -0.048446634310013836   -0.0011646956649407905
-0.020334221014395405   -0.04862957279772956   -0.0010922226306309096
-0.020295599119856074   -0.048689432380079764   -0.001185282292548436
-0.018739525932676   -0.05990124189904436   -0.0014569668145070728
-0.02695556256153213   -0.048446634310013836   -0.0011646956649407905
-0.020295599119856074   -0.048689432380079764   -0.001185282292548436
-0.02486770584349014   -0.05969702470130047   -0.0016869925869413063
-0.018739525932676   -0.05990124189904436   -0.0014569668145070728
-0.020334221014395405   -0.04862957279772956   -0.0010922226306309096
-0.024766627734186867   -0.05964998181617936   -0.0015102815835095766
-0.018752715763496026   -0.059874048257324355   -0.0013283824248741041
-0.020334221014395405   -0.04862957279772956   -0.0010922226306309096
-0.02695556256153213   -0.048446634310013836   -0.0011646956649407905
-0.024766627734186867   -0.05964998181617936   -0.0015102815835095766
-0.02686445848230801   -0.048430386644338436   -0.0010268714886895063
-0.018752715763496026   -0.059874048257324355   -0.0013283824248741041
-0.02459968360122003   -0.05965099027594612   -0.0013223788387339867
-0.02686445848230801   -0.048430386644338436   -0.0010268714886895063
-0.024766627734186867   -0.05964998181617936   -0.0015102815835095766
-0.018752715763496026   -0.059874048257324355   -0.0013283824248741041
-0.02686445848230801   -0.048430386644338436   -0.0010268714886895063
-0.020376597765327308   -0.04858719713287724   -0.0009912562925541053
-0.020334221014395405   -0.04862957279772956   -0.0010922226306309096
-0.018752715763496026   -0.059874048257324355   -0.0013283824248741041
-0.02686445848230801   -0.048430386644338436   -0.0010268714886895063
-0.020334221014395405   -0.04862957279772956   -0.0010922226306309096
-0.024766627734186867   -0.05964998181617936   -0.0015102815835095766
0.0052925154570451355   -0.04910275112825473   -0.00034925865324051406
0.005467124622426832   -0.03710427353624253   -5.4064719107307686e-05
-0.0013412126746341194   -0.049101085274146083   -0.0006474989909910108
0.005272935201337871   -0.04893873088229302   -0.00039575188629915425
0.005467124622426832   -0.03710427353624253   -5.4064719107307686e-05
-0.0015412154898811615   -0.03704238173310159   -0.0003223214874396123
-0.0013412126746341194   -0.049101085274146083   -0.0006474989909910108
-0.0016228374395474653   -0.03690580428388996   -0.0002980246212123456
0.005272935201337871   -0.04893873088229302   -0.00039575188629915425
-0.0014007426626626474   -0.048958420205701174   -0.0006517915956783028
-0.0016228374395474653   -0.03690580428388996   -0.0002980246212123456
-0.0013412126746341194   -0.049101085274146083   -0.0006474989909910108
0.005272935201337871   -0.04893873088229302   -0.00039575188629915425
-0.0016228374395474653   -0.03690580428388996   -0.0002980246212123456
0.005380268128451592   -0.036947776494257185   -4.8910898524185866e-05
0.005467124622426832   -0.03710427353624253   -5.4064719107307686e-05
0.005272935201337871   -0.04893873088229302   -0.00039575188629915425
-0.0016228374395474653   -0.03690580428388996   -0.0002980246212123456
0.005467124622426832   -0.03710427353624253   -5.4064719107307686e-05
-0.0013412126746341194   -0.049101085274146083   -0.0006474989909910108
0.005272935201337871   -0.04893873088229302   -0.00039575188629915425
0.005380268128451592   -0.036947776494257185   -4.8910898524185866e-05
-0.0014007426626626474   -0.048958420205701174   -0.0006517915956783028
0.005224863173438529   -0.04880658287814918   -0.0004303086399483315
0.005380268128451592   -0.036947776494257185   -4.8910898524185866e-05
-0.0016228374395474653   -0.03690580428388996   -0.0002980246212123456
-0.0014007426626626474   -0.048958420205701174   -0.0006517915956783028
-0.0017162644550832338   -0.03677680293709741   -0.00026698194053814304
0.005224863173438529   -0.04880658287814918   -0.0004303086399483315
-0.0014668875698393164   -0.04883549346087175   -0.0006486370080213669
-0.0017162644550832338   -0.03677680293709741   -0.00026698194053814304
-0.0014007426626626474   -0.048958420205701174   -0.0006517915956783028
0.005224863173438529   -0.04880658287814918   -0.0004303086399483315
-0.0017162644550832338   -0.03677680293709741   -0.00026698194053814304
0.005273839792180039   -0.03680779025282721   -2.9968774464845822e-05
0.005380268128451592   -0.036947776494257185   -4.8910898524185866e-05
0.005224863173438529   -0.04880658287814918   -0.0004303086399483315
-0.0017162644550832338   -0.03677680293709741   -0.00026698194053814304
0.005380268128451592   -0.036947776494257185   -4.8910898524185866e-05
-0.0014007426626626474   -0.048958420205701174   -0.0006517915956783028
0.005224863173438529   -0.04880658287814918   -0.0004303086399483315
0.005273839792180039   -0.03680779025282721   -2.9968774464845822e-05
-0.0014668875698393164   -0.04883549346087175   -0.0006486370080213669
0.005157813694436417   -0.04868483477077764   -0.00045376242539031924
0.005273839792180039   -0.03680779025282721   -2.9968774464845822e-05
-0.0017162644550832338   -0.03677680293709741   -0.00026698194053814304
-0.0014668875698393164   -0.04883549346087175   -0.0006486370080213669
-0.001821079668081161   -0.03665361712763876   -0.00022750151187675988
0.005157813694436417   -0.04868483477077764   -0.00045376242539031924
-0.0015489159084230708   -0.04872913143372205   -0.0006377416365355279
-0.001821079668081161   -0.03665361712763876   -0.00022750151187675988
-0.0014668875698393164   -0.04883549346087175   -0.0006486370080213669
0.005157813694436417   -0.04868483477077764   -0.00045376242539031924
-0.001821079668081161   -0.03665361712763876   -0.00022750151187675988
0.005133596078396975   -0.036661286689008955   2.1362427152265318e-06
0.005273839792180039   -0.03680779025282721   -2.9968774464845822e-05
0.005157813694436417   -0.04868483477077764   -0.00045376242539031924
-0.001821079668081161   -0.03665361712763876   -0.00022750151187675988
0.005273839792180039   -0.03680779025282721   -2.9968774464845822e-05
-0.0014668875698393164   -0.04883549346087175   -0.0006486370080213669
-0.0013412126746341194   -0.049101085274146083   -0.0006474989909910108
-0.0015412154898811615   -0.03704238173310159   -0.0003223214874396123
-0.00766841493346531   -0.04904105747147235   -0.0008938483898681375
-0.0014007426626626474   -0.048958420205701174   -0.0006517915956783028
-0.0015412154898811615   -0.03704238173310159   -0.0003223214874396123
-0.008182038346939795   -0.036970509391899865   -0.0005495536411220998
-0.00766841493346531   -0.04904105747147235   -0.0008938483898681375
-0.008265235346143368   -0.03685618775258139   -0.0005124963297070814
-0.0014007426626626474   -0.048958420205701174   -0.0006517915956783028
-0.007734969108915107   -0.048922542198028766   -0.0008679186931134907
-0.008265235346143368   -0.03685618775258139   -0.0005124963297070814
-0.00766841493346531   -0.04904105747147235   -0.0008938483898681375
-0.0014007426626626474   -0.048958420205701174   -0.0006517915956783028
-0.008265235346143368   -0.03685618775258139   -0.0005124963297070814
-0.0016228374395474653   -0.03690580428388996   -0.0002980246212123456
-0.0015412154898811615   -0.03704238173310159   -0.0003223214874396123
-0.0014007426626626474   -0.048958420205701174   -0.0006517915956783028
-0.008265235346143368   -0.03685618775258139   -0.0005124963297070814
-0.0015412154898811615   -0.03704238173310159   -0.0003223214874396123
-0.00766841493346531   -0.04904105747147235   -0.0008938483898681375
-0.0014007426626626474   -0.048958420205701174   -0.0006517915956783028
-0.0016228374395474653   -0.03690580428388996   -0.0002980246212123456
-0.007734969108915107   -0.048922542198028766   -0.0008679186931134907
-0.0014668875698393164   -0.04883549346087175   -0.0006486370080213669
-0.0016228374395474653   -0.03690580428388996   -0.0002980246212123456
-0.008265235346143368   -0.03685618775258139   -0.0005124963297070814
-0.007734969108915107   -0.048922542198028766   -0.0008679186931134907
-0.00835028714432206   -0.036747748971758046   -0.0004690144319369652
-0.0014668875698393164   -0.04883549346087175   -0.0006486370080213669
-0.00780285735002552   -0.0488200958139462   -0.0008342336040990695
-0.00835028714432206   -0.036747748971758046   -0.0004690144319369652
-0.007734969108915107   -0.048922542198028766   -0.0008679186931134907
-0.0014668875698393164   -0.04883549346087175   -0.0006486370080213669
-0.00835028714432206   -0.036747748971758046   -0.0004690144319369652
-0.0017162644550832338   -0.03677680293709741   -0.00026698194053814304
-0.0016228374395474653   -0.03690580428388996   -0.0002980246212123456
-0.0014668875698393164   -0.04883549346087175   -0.0006486370080213669
-0.00835028714432206   -0.036747748971758046   -0.0004690144319369652
-0.0016228374395474653   -0.03690580428388996   -0.0002980246212123456
-0.007734969108915107   -0.048922542198028766   -0.0008679186931134907
-0.0014668875698393164   -0.04883549346087175   -0.0006486370080213669
-0.0017162644550832338   -0.03677680293709741   -0.00026698194053814304
-0.00780285735002552   -0.0488200958139462   -0.0008342336040990695
-0.0015489159084230708   -0.04872913143372205   -0.0006377416365355279
-0.0017162644550832338   -0.03677680293709741   -0.00026698194053814304
-0.00835028714432206   -0.036747748971758046   -0.0004690144319369652
-0.00780285735002552   -0.0488200958139462   -0.0008342336040990695
-0.00844073460089569   -0.0366468598258403   -0.0004190353872273639
-0.0015489159084230708   -0.04872913143372205   -0.0006377416365355279
-0.007876475090277358   -0.04873467957795711   -0.0007931544381980848
-0.00844073460089569   -0.0366468598258403   -0.0004190353872273639
-0.00780285735002552   -0.0488200958139462   -0.0008342336040990695
-0.0015489159084230708   -0.04872913143372205   -0.0006377416365355279
-0.00844073460089569   -0.0366468598258403   -0.0004190353872273639
-0.001821079668081161   -0.03665361712763876   -0.00022750151187675988
-0.0017162644550832338   -0.03677680293709741   -0.00026698194053814304
-0.0015489159084230708   -0.04872913143372205   -0.0006377416365355279
-0.00844073460089569   -0.0366468598258403   -0.0004190353872273639
-0.0017162644550832338   -0.03677680293709741   -0.00026698194053814304
-0.00780285735002552   -0.0488200958139462   -0.0008342336040990695
-0.00766841493346531   -0.04904105747147235   -0.0008938483898681375
-0.008182038346939795   -0.036970509391899865   -0.0005495536411220998
-0.0138886235898711   -0.04892922175383374   -0.0011017945288716885
-0.007734969108915107   -0.048922542198028766   -0.0008679186931134907
-0.008182038346939795   -0.036970509391899865   -0.0005495536411220998
-0.014714964001655421   -0.03688444176339895   -0.0007426530532169811
-0.0138886235898711   -0.04892922175383374   -0.0011017945288716885
-0.014797532720964646   -0.036790759104455555   -0.0006928339271571025
-0.007734969108915107   -0.048922542198028766   -0.0008679186931134907
-0.013957118561429702   -0.04883298463889806   -0.0010456901561092268
-0.014797532720964646   -0.036790759104455555   -0.0006928339271571025
-0.0138886235898711   -0.04892922175383374   -0.0011017945288716885
-0.007734969108915107   -0.048922542198028766   -0.0008679186931134907
-0.014797532720964646   -0.036790759104455555   -0.0006928339271571025
-0.008265235346143368   -0.03685618775258139   -0.0005124963297070814
-0.008182038346939795   -0.036970509391899865   -0.0005495536411220998
-0.007734969108915107   -0.048922542198028766   -0.0008679186931134907
-0.014797532720964646   -0.036790759104455555   -0.0006928339271571025
-0.008182038346939795   -0.036970509391899865   -0.0005495536411220998
-0.0138886235898711   -0.04892922175383374   -0.0011017945288716885
-0.007734969108915107   -0.048922542198028766   -0.0008679186931134907
-0.008265235346143368   -0.03685618775258139   -0.0005124963297070814
-0.013957118561429702   -0.04883298463889806   -0.0010456901561092268
-0.00780285735002552   -0.0488200958139462   -0.0008342336040990695
-0.008265235346143368   -0.03685618775258139   -0.0005124963297070814
-0.014797532720964646   -0.036790759104455555   -0.0006928339271571025
-0.013957118561429702   -0.04883298463889806   -0.0010456901561092268
-0.014874766694343632   -0.03670329821937639   -0.0006368100710499979
-0.00780285735002552   -0.0488200958139462   -0.0008342336040990695
-0.014019266980367966   -0.048752702747434686   -0.0009820103930731747
-0.014874766694343632   -0.03670329821937639   -0.0006368100710499979
-0.013957118561429702   -0.04883298463889806   -0.0010456901561092268
-0.00780285735002552   -0.0488200958139462   -0.0008342336040990695
-0.014874766694343632   -0.03670329821937639   -0.0006368100710499979
-0.00835028714432206   -0.036747748971758046   -0.0004690144319369652
-0.008265235346143368   -0.03685618775258139   -0.0005124963297070814
-0.00780285735002552   -0.0488200958139462   -0.0008342336040990695
-0.014874766694343632   -0.03670329821937639   -0.0006368100710499979
-0.008265235346143368   -0.03685618775258139   -0.0005124963297070814
-0.013957118561429702   -0.04883298463889806   -0.0010456901561092268
-0.00780285735002552   -0.0488200958139462   -0.0008342336040990695
-0.00835028714432206   -0.036747748971758046   -0.0004690144319369652
-0.014019266980367966   -0.048752702747434686   -0.0009820103930731747
-0.007876475090277358   -0.04873467957795711   -0.0007931544381980848
-0.00835028714432206   -0.036747748971758046   -0.0004690144319369652
-0.014874766694343632   -0.03670329821937639   -0.0006368100710499979
-0.014019266980367966   -0.048752702747434686   -0.0009820103930731747
-0.01495227668640858   -0.036622303380997846   -0.0005748897443485315
-0.007876475090277358   -0.04873467957795711   -0.0007931544381980848
-0.014082003187245416   -0.048688513305115616   -0.0009110449798113211
-0.01495227668640858   -0.036622303380997846   -0.0005748897443485315
-0.014019266980367966   -0.048752702747434686   -0.0009820103930731747
-0.007876475090277358   -0.04873467957795711   -0.0007931544381980848
-0.01495227668640858   -0.036622303380997846   -0.0005748897443485315
-0.00844073460089569   -0.0366468598258403   -0.0004190353872273639
-0.00835028714432206   -0.036747748971758046   -0.0004690144319369652
-0.007876475090277358   -0.04873467957795711   -0.0007931544381980848
-0.01495227668640858   -0.036622303380997846   -0.0005748897443485315
-0.00835028714432206   -0.036747748971758046   -0.0004690144319369652
-0.014019266980367966   -0.048752702747434686   -0.0009820103930731747
-0.0138886235898711   -0.04892922175383374   -0.0011017945288716885
-0.014714964001655421   -0.03688444176339895   -0.0007426530532169811
-0.020231979419884673   -0.04876319566145511   -0.0012717907773586814
-0.013957118561429702   -0.04883298463889806   -0.0010456901561092268
-0.014714964001655421   -0.03688444176339895   -0.0007426530532169811
-0.02136580782168424   -0.036768165486901094   -0.0008999714105396442
-0.020231979419884673   -0.04876319566145511   -0.0012717907773586814
-0.021444887389659113   -0.03669619855024769   -0.0008375416260286184
-0.013957118561429702   -0.04883298463889806   -0.0010456901561092268
-0.020295599119856074   -0.048689432380079764   -0.001185282292548436
-0.021444887389659113   -0.03669619855024769   -0.0008375416260286184
-0.020231979419884673   -0.04876319566145511   -0.0012717907773586814
-0.013957118561429702   -0.04883298463889806   -0.0010456901561092268
-0.021444887389659113   -0.03669619855024769   -0.0008375416260286184
-0.014797532720964646   -0.036790759104455555   -0.0006928339271571025
-0.014714964001655421   -0.03688444176339895   -0.0007426530532169811
-0.013957118561429702   -0.04883298463889806   -0.0010456901561092268
-0.021444887389659113   -0.03669619855024769   -0.0008375416260286184
-0.014714964001655421   -0.03688444176339895   -0.0007426530532169811
-0.020231979419884673   -0.04876319566145511   -0.0012717907773586814
-0.013957118561429702   -0.04883298463889806   -0.0010456901561092268
-0.014797532720964646   -0.036790759104455555   -0.0006928339271571025
-0.020295599119856074   -0.048689432380079764   -0.001185282292548436
-0.014019266980367966   -0.048752702747434686   -0.0009820103930731747
-0.014797532720964646   -0.036790759104455555   -0.0006928339271571025
-0.021444887389659113   -0.03669619855024769   -0.0008375416260286184
-0.020295599119856074   -0.048689432380079764   -0.001185282292548436
-0.021504897853581954   -0.0366280488546871   -0.0007699354740507085
-0.014019266980367966   -0.048752702747434686   -0.0009820103930731747
-0.020334221014395405   -0.04862957279772956   -0.0010922226306309096
-0.021504897853581954   -0.0366280488546871   -0.0007699354740507085
-0.020295599119856074   -0.048689432380079764   -0.001185282292548436
-0.014019266980367966   -0.048752702747434686   -0.0009820103930731747
-0.021504897853581954   -0.0366280488546871   -0.0007699354740507085
-0.014874766694343632   -0.03670329821937639   -0.0006368100710499979
-0.014797532720964646   -0.036790759104455555   -0.0006928339271571025
-0.014019266980367966   -0.048752702747434686   -0.0009820103930731747
-0.021504897853581954   -0.0366280488546871   -0.0007699354740507085
-0.014797532720964646   -0.036790759104455555   -0.0006928339271571025
-0.020295599119856074   -0.048689432380079764   -0.001185282292548436
-0.014019266980367966   -0.048752702747434686   -0.0009820103930731747
-0.014874766694343632   -0.03670329821937639   -0.0006368100710499979
-0.020334221014395405   -0.04862957279772956   -0.0010922226306309096
-0.014082003187245416   -0.048688513305115616   -0.0009110449798113211
-0.014874766694343632   -0.03670329821937639   -0.0006368100710499979
-0.021504897853581954   -0.0366280488546871   -0.0007699354740507085
-0.020334221014395405   -0.04862957279772956   -0.0010922226306309096
-0.021564426743882086   -0.03656671803199723   -0.000695798591017703
-0.014082003187245416   -0.048688513305115616   -0.0009110449798113211
-0.020376597765327308   -0.04858719713287724   -0.0009912562925541053
-0.021564426743882086   -0.03656671803199723   -0.000695798591017703
-0.020334221014395405   -0.04862957279772956   -0.0010922226306309096
-0.014082003187245416   -0.048688513305115616   -0.0009110449798113211
-0.021564426743882086   -0.03656671803199723   -0.000695798591017703
-0.01495227668640858   -0.036622303380997846   -0.0005748897443485315
-0.014874766694343632   -0.03670329821937639   -0.0006368100710499979
-0.014082003187245416   -0.048688513305115616   -0.0009110449798113211
-0.021564426743882086   -0.03656671803199723   -0.000695798591017703
-0.014874766694343632   -0.03670329821937639   -0.0006368100710499979
-0.020334221014395405   -0.04862957279772956   -0.0010922226306309096
-0.020231979419884673   -0.04876319566145511   -0.0012717907773586814
-0.02136580782168424   -0.036768165486901094   -0.0008999714105396442
-0.027039607831793395   -0.04855910033478097   -0.0014070252921386216
-0.020295599119856074   -0.048689432380079764   -0.001185282292548436
-0.02136580782168424   -0.036768165486901094   -0.0008999714105396442
-0.028414197127467615   -0.0366309252459187   -0.0010168588645011523
-0.027039607831793395   -0.04855910033478097   -0.0014070252921386216
-0.028426629800549795   -0.03657341063032437   -0.0009479961407454646
-0.020295599119856074   -0.048689432380079764   -0.001185282292548436
-0.02699329593339196   -0.048496874946279765   -0.0012918708319595525
-0.028426629800549795   -0.03657341063032437   -0.0009479961407454646
-0.027039607831793395   -0.04855910033478097   -0.0014070252921386216
-0.020295599119856074   -0.048689432380079764   -0.001185282292548436
-0.028426629800549795   -0.03657341063032437   -0.0009479961407454646
-0.021444887389659113   -0.03669619855024769   -0.0008375416260286184
-0.02136580782168424   -0.036768165486901094   -0.0008999714105396442
-0.020295599119856074   -0.048689432380079764   -0.001185282292548436
-0.028426629800549795   -0.03657341063032437   -0.0009479961407454646
-0.02136580782168424   -0.036768165486901094   -0.0008999714105396442
-0.027039607831793395   -0.04855910033478097   -0.0014070252921386216
-0.020295599119856074   -0.048689432380079764   -0.001185282292548436
-0.021444887389659113   -0.03669619855024769   -0.0008375416260286184
-0.02699329593339196   -0.048496874946279765   -0.0012918708319595525
-0.020334221014395405   -0.04862957279772956   -0.0010922226306309096
-0.021444887389659113   -0.03669619855024769   -0.0008375416260286184
-0.028426629800549795   -0.03657341063032437   -0.0009479961407454646
-0.02699329593339196   -0.048496874946279765   -0.0012918708319595525
-0.028439349120643612   -0.036515178054498075   -0.0008687061243528709
-0.020334221014395405   -0.04862957279772956   -0.0010922226306309096
-0.02695556256153213   -0.048446634310013836   -0.0011646956649407905
-0.028439349120643612   -0.036515178054498075   -0.0008687061243528709
-0.02699329593339196   -0.048496874946279765   -0.0012918708319595525
-0.020334221014395405   -0.04862957279772956   -0.0010922226306309096
-0.028439349120643612   -0.036515178054498075   -0.0008687061243528709
-0.021504897853581954   -0.0366280488546871   -0.0007699354740507085
-0.021444887389659113   -0.03669619855024769   -0.0008375416260286184
-0.020334221014395405   -0.04862957279772956   -0.0010922226306309096
-0.028439349120643612   -0.036515178054498075   -0.0008687061243528709
-0.021444887389659113   -0.03669619855024769   -0.0008375416260286184
-0.02699329593339196   -0.048496874946279765   -0.0012918708319595525
-0.020334221014395405   -0.04862957279772956   -0.0010922226306309096
-0.021504897853581954   -0.0366280488546871   -0.0007699354740507085
-0.02695556256153213   -0.048446634310013836   -0.0011646956649407905
-0.020376597765327308   -0.04858719713287724   -0.0009912562925541053
-0.021504897853581954   -0.0366280488546871   -0.0007699354740507085
-0.028439349120643612   -0.036515178054498075   -0.0008687061243528709
-0.02695556256153213   -0.048446634310013836   -0.0011646956649407905
-0.028412527957955267   -0.036476578731239856   -0.0007802287512373046
-0.020376597765327308   -0.04858719713287724   -0.0009912562925541053
-0.02686445848230801   -0.048430386644338436   -0.0010268714886895063
-0.028412527957955267   -0.036476578731239856   -0.0007802287512373046
-0.02695556256153213   -0.048446634310013836   -0.0011646956649407905
-0.020376597765327308   -0.04858719713287724   -0.0009912562925541053
-0.028412527957955267   -0.036476578731239856   -0.0007802287512373046
-0.021564426743882086   -0.03656671803199723   -0.000695798591017703
-0.021504897853581954   -0.0366280488546871   -0.0007699354740507085
-0.020376597765327308   -0.04858719713287724   -0.0009912562925541053
-0.028412527957955267   -0.036476578731239856   -0.0007802287512373046
-0.021504897853581954   -0.0366280488546871   -0.0007699354740507085
-0.02695556256153213   -0.048446634310013836   -0.0011646956649407905
0.005467124622426832   -0.03710427353624253   -5.4064719107307686e-05
0.004898160975422722   -0.02475255801429271   0.00014964533836829948
-0.0015412154898811615   -0.03704238173310159   -0.0003223214874396123
0.005380268128451592   -0.036947776494257185   -4.8910898524185866e-05
0.004898160975422722   -0.02475255801429271   0.00014964533836829948
-0.0021607062892646522   -0.02463595540884949   -6.375213353754331e-05
-0.0015412154898811615   -0.03704238173310159   -0.0003223214874396123
-0.002258123530576931   -0.02451225483878957   -1.3174129064304848e-05
0.005380268128451592   -0.036947776494257185   -4.8910898524185866e-05
-0.0016228374395474653   -0.03690580428388996   -0.0002980246212123456
-0.002258123530576931   -0.02451225483878957   -1.3174129064304848e-05
-0.0015412154898811615   -0.03704238173310159   -0.0003223214874396123
0.005380268128451592   -0.036947776494257185   -4.8910898524185866e-05
-0.002258123530576931   -0.02451225483878957   -1.3174129064304848e-05
0.004744562140394034   -0.0246034119202566   0.0002127347961244609
0.004898160975422722   -0.02475255801429271   0.00014964533836829948
0.005380268128451592   -0.036947776494257185   -4.8910898524185866e-05
-0.002258123530576931   -0.02451225483878957   -1.3174129064304848e-05
0.004898160975422722   -0.02475255801429271   0.00014964533836829948
-0.0015412154898811615   -0.03704238173310159   -0.0003223214874396123
0.005380268128451592   -0.036947776494257185   -4.8910898524185866e-05
0.004744562140394034   -0.0246034119202566   0.0002127347961244609
-0.0016228374395474653   -0.03690580428388996   -0.0002980246212123456
0.005273839792180039   -0.03680779025282721   -2.9968774464845822e-05
0.004744562140394034   -0.0246034119202566   0.0002127347961244609
-0.002258123530576931   -0.02451225483878957   -1.3174129064304848e-05
-0.0016228374395474653   -0.03690580428388996   -0.0002980246212123456
-0.002372056526464903   -0.02438166436841166   4.63800957831015e-05
0.005273839792180039   -0.03680779025282721   -2.9968774464845822e-05
-0.0017162644550832338   -0.03677680293709741   -0.00026698194053814304
-0.002372056526464903   -0.02438166436841166   4.63800957831015e-05
-0.0016228374395474653   -0.03690580428388996   -0.0002980246212123456
0.005273839792180039   -0.03680779025282721   -2.9968774464845822e-05
-0.002372056526464903   -0.02438166436841166   4.63800957831015e-05
0.004573252295021073   -0.024455207668145965   0.00030322748557450746
0.004744562140394034   -0.0246034119202566   0.0002127347961244609
0.005273839792180039   -0.03680779025282721   -2.9968774464845822e-05
-0.002372056526464903   -0.02438166436841166   4.63800957831015e-05
0.004744562140394034   -0.0246034119202566   0.0002127347961244609
-0.0016228374395474653   -0.03690580428388996   -0.0002980246212123456
0.005273839792180039   -0.03680779025282721   -2.9968774464845822e-05
0.004573252295021073   -0.024455207668145965   0.00030322748557450746
-0.0017162644550832338   -0.03677680293709741   -0.00026698194053814304
0.005133596078396975   -0.036661286689008955   2.1362427152265318e-06
0.004573252295021073   -0.024455207668145965   0.00030322748557450746
-0.002372056526464903   -0.02438166436841166   4.63800957831015e-05
-0.0017162644550832338   -0.03677680293709741   -0.00026698194053814304
-0.002489873417301203   -0.024242973273223757   0.00011478622662126493
0.005133596078396975   -0.036661286689008955   2.1362427152265318e-06
-0.001821079668081161   -0.03665361712763876   -0.00022750151187675988
-0.002489873417301203   -0.024242973273223757   0.00011478622662126493
-0.0017162644550832338   -0.03677680293709741   -0.00026698194053814304
0.005133596078396975   -0.036661286689008955   2.1362427152265318e-06
-0.002489873417301203   -0.024242973273223757   0.00011478622662126493
0.004363947605444664   -0.024273180955532086   0.0004027810687626739
0.004573252295021073   -0.024455207668145965   0.00030322748557450746
0.005133596078396975   -0.036661286689008955   2.1362427152265318e-06
-0.002489873417301203   -0.024242973273223757   0.00011478622662126493
0.004573252295021073   -0.024455207668145965   0.00030322748557450746
-0.0017162644550832338   -0.03677680293709741   -0.00026698194053814304
-0.0015412154898811615   -0.03704238173310159   -0.0003223214874396123
-0.0021607062892646522   -0.02463595540884949   -6.375213353754331e-05
-0.008182038346939795   -0.036970509391899865   -0.0005495536411220998
-0.0016228374395474653   -0.03690580428388996   -0.0002980246212123456
-0.0021607062892646522   -0.02463595540884949   -6.375213353754331e-05
-0.008808312022103132   -0.02460578911482729   -0.00026953632057628477
-0.008182038346939795   -0.036970509391899865   -0.0005495536411220998
-0.008896318029862498   -0.024497752519668414   -0.00022254436759860293
-0.0016228374395474653   -0.03690580428388996   -0.0002980246212123456
-0.008265235346143368   -0.03685618775258139   -0.0005124963297070814
-0.008896318029862498   -0.024497752519668414   -0.00022254436759860293
-0.008182038346939795   -0.036970509391899865   -0.0005495536411220998
-0.0016228374395474653   -0.03690580428388996   -0.0002980246212123456
-0.008896318029862498   -0.024497752519668414   -0.00022254436759860293
-0.002258123530576931   -0.02451225483878957   -1.3174129064304848e-05
-0.0021607062892646522   -0.02463595540884949   -6.375213353754331e-05
-0.0016228374395474653   -0.03690580428388996   -0.0002980246212123456
-0.008896318029862498   -0.024497752519668414   -0.00022254436759860293
-0.0021607062892646522   -0.02463595540884949   -6.375213353754331e-05
-0.008182038346939795   -0.036970509391899865   -0.0005495536411220998
-0.0016228374395474653   -0.03690580428388996   -0.0002980246212123456
-0.002258123530576931   -0.02451225483878957   -1.3174129064304848e-05
-0.008265235346143368   -0.03685618775258139   -0.0005124963297070814
-0.0017162644550832338   -0.03677680293709741   -0.00026698194053814304
-0.002258123530576931   -0.02451225483878957   -1.3174129064304848e-05
-0.008896318029862498   -0.024497752519668414   -0.00022254436759860293
-0.008265235346143368   -0.03685618775258139   -0.0005124963297070814
-0.008987342737901948   -0.02438536040777911   -0.00017090334670258686
-0.0017162644550832338   -0.03677680293709741   -0.00026698194053814304
-0.00835028714432206   -0.036747748971758046   -0.0004690144319369652
-0.008987342737901948   -0.02438536040777911   -0.00017090334670258686
-0.008265235346143368   -0.03685618775258139   -0.0005124963297070814
-0.0017162644550832338   -0.03677680293709741   -0.00026698194053814304
-0.008987342737901948   -0.02438536040777911   -0.00017090334670258686
-0.002372056526464903   -0.02438166436841166   4.63800957831015e-05
-0.002258123530576931   -0.02451225483878957   -1.3174129064304848e-05
-0.0017162644550832338   -0.03677680293709741   -0.00026698194053814304
-0.008987342737901948   -0.02438536040777911   -0.00017090334670258686
-0.002258123530576931   -0.02451225483878957   -1.3174129064304848e-05
-0.008265235346143368   -0.03685618775258139   -0.0005124963297070814
-0.0017162644550832338   -0.03677680293709741   -0.00026698194053814304
-0.002372056526464903   -0.02438166436841166   4.63800957831015e-05
-0.00835028714432206   -0.036747748971758046   -0.0004690144319369652
-0.001821079668081161   -0.03665361712763876   -0.00022750151187675988
-0.002372056526464903   -0.02438166436841166   4.63800957831015e-05
-0.008987342737901948   -0.02438536040777911   -0.00017090334670258686
-0.00835028714432206   -0.036747748971758046   -0.0004690144319369652
-0.009082093563898564   -0.024270604935873956   -0.0001136811417509455
-0.001821079668081161   -0.03665361712763876   -0.00022750151187675988
-0.00844073460089569   -0.0366468598258403   -0.0004190353872273639
-0.009082093563898564   -0.024270604935873956   -0.0001136811417509455
-0.00835028714432206   -0.036747748971758046   -0.0004690144319369652
-0.001821079668081161   -0.03665361712763876   -0.00022750151187675988
-0.009082093563898564   -0.024270604935873956   -0.0001136811417509455
-0.002489873417301203   -0.024242973273223757   0.00011478622662126493
-0.002372056526464903   -0.02438166436841166   4.63800957831015e-05
-0.001821079668081161   -0.03665361712763876   -0.00022750151187675988
-0.009082093563898564   -0.024270604935873956   -0.0001136811417509455
-0.002372056526464903   -0.02438166436841166   4.63800957831015e-05
-0.00835028714432206   -0.036747748971758046   -0.0004690144319369652
-0.008182038346939795   -0.036970509391899865   -0.0005495536411220998
-0.008808312022103132   -0.02460578911482729   -0.00026953632057628477
-0.014714964001655421   -0.03688444176339895   -0.0007426530532169811
-0.008265235346143368   -0.03685618775258139   -0.0005124963297070814
-0.008808312022103132   -0.02460578911482729   -0.00026953632057628477
-0.015388065298764889   -0.024597417669926052   -0.00045560203348764445
-0.014714964001655421   -0.03688444176339895   -0.0007426530532169811
-0.015472173416745215   -0.024502634114311424   -0.0004108301059267228
-0.008265235346143368   -0.03685618775258139   -0.0005124963297070814
-0.014797532720964646   -0.036790759104455555   -0.0006928339271571025
-0.015472173416745215   -0.024502634114311424   -0.0004108301059267228
-0.014714964001655421   -0.03688444176339895   -0.0007426530532169811
-0.008265235346143368   -0.03685618775258139   -0.0005124963297070814
-0.015472173416745215   -0.024502634114311424   -0.0004108301059267228
-0.008896318029862498   -0.024497752519668414   -0.00022254436759860293
-0.008808312022103132   -0.02460578911482729   -0.00026953632057628477
-0.008265235346143368   -0.03685618775258139   -0.0005124963297070814
-0.015472173416745215   -0.024502634114311424   -0.0004108301059267228
-0.008808312022103132   -0.02460578911482729   -0.00026953632057628477
-0.014714964001655421   -0.03688444176339895   -0.0007426530532169811
-0.008265235346143368   -0.03685618775258139   -0.0005124963297070814
-0.008896318029862498   -0.024497752519668414   -0.00022254436759860293
-0.014797532720964646   -0.036790759104455555   -0.0006928339271571025
-0.00835028714432206   -0.036747748971758046   -0.0004690144319369652
-0.008896318029862498   -0.024497752519668414   -0.00022254436759860293
-0.015472173416745215   -0.024502634114311424   -0.0004108301059267228
-0.014797532720964646   -0.036790759104455555   -0.0006928339271571025
-0.015552293813861964   -0.024406113734169902   -0.0003619951537289813
-0.00835028714432206   -0.036747748971758046   -0.0004690144319369652
-0.014874766694343632   -0.03670329821937639   -0.0006368100710499979
-0.015552293813861964   -0.024406113734169902   -0.0003619951537289813
-0.014797532720964646   -0.036790759104455555   -0.0006928339271571025
-0.00835028714432206   -0.036747748971758046   -0.0004690144319369652
-0.015552293813861964   -0.024406113734169902   -0.0003619951537289813
-0.008987342737901948   -0.02438536040777911   -0.00017090334670258686
-0.008896318029862498   -0.024497752519668414   -0.00022254436759860293
-0.00835028714432206   -0.036747748971758046   -0.0004690144319369652
-0.015552293813861964   -0.024406113734169902   -0.0003619951537289813
-0.008896318029862498   -0.024497752519668414   -0.00022254436759860293
-0.014797532720964646   -0.036790759104455555   -0.0006928339271571025
-0.00835028714432206   -0.036747748971758046   -0.0004690144319369652
-0.008987342737901948   -0.02438536040777911   -0.00017090334670258686
-0.014874766694343632   -0.03670329821937639   -0.0006368100710499979
-0.00844073460089569   -0.0366468598258403   -0.0004190353872273639
-0.008987342737901948   -0.02438536040777911   -0.00017090334670258686
-0.015552293813861964   -0.024406113734169902   -0.0003619951537289813
-0.014874766694343632   -0.03670329821937639   -0.0006368100710499979
-0.01563160677660967   -0.024307309487139186   -0.0003093296133111737
-0.00844073460089569   -0.0366468598258403   -0.0004190353872273639
-0.01495227668640858   -0.036622303380997846   -0.0005748897443485315
-0.01563160677660967   -0.024307309487139186   -0.0003093296133111737
-0.014874766694343632   -0.03670329821937639   -0.0006368100710499979
-0.00844073460089569   -0.0366468598258403   -0.0004190353872273639
-0.01563160677660967   -0.024307309487139186   -0.0003093296133111737
-0.009082093563898564   -0.024270604935873956   -0.0001136811417509455
-0.008987342737901948   -0.02438536040777911   -0.00017090334670258686
-0.00844073460089569   -0.0366468598258403   -0.0004190353872273639
-0.01563160677660967   -0.024307309487139186   -0.0003093296133111737
-0.008987342737901948   -0.02438536040777911   -0.00017090334670258686
-0.014874766694343632   -0.03670329821937639   -0.0006368100710499979
-0.014714964001655421   -0.03688444176339895   -0.0007426530532169811
-0.015388065298764889   -0.024597417669926052   -0.00045560203348764445
-0.02136580782168424   -0.036768165486901094   -0.0008999714105396442
-0.014797532720964646   -0.036790759104455555   -0.0006928339271571025
-0.015388065298764889   -0.024597417669926052   -0.00045560203348764445
-0.02210715715314722   -0.024559272023883458   -0.0006120070447179796
-0.02136580782168424   -0.036768165486901094   -0.0008999714105396442
-0.022187340165870248   -0.024481941646440734   -0.0005696738061757689
-0.014797532720964646   -0.036790759104455555   -0.0006928339271571025
-0.021444887389659113   -0.03669619855024769   -0.0008375416260286184
-0.022187340165870248   -0.024481941646440734   -0.0005696738061757689
-0.02136580782168424   -0.036768165486901094   -0.0008999714105396442
-0.014797532720964646   -0.036790759104455555   -0.0006928339271571025
-0.022187340165870248   -0.024481941646440734   -0.0005696738061757689
-0.015472173416745215   -0.024502634114311424   -0.0004108301059267228
-0.015388065298764889   -0.024597417669926052   -0.00045560203348764445
-0.014797532720964646   -0.036790759104455555   -0.0006928339271571025
-0.022187340165870248   -0.024481941646440734   -0.0005696738061757689
-0.015388065298764889   -0.024597417669926052   -0.00045560203348764445
-0.02136580782168424   -0.036768165486901094   -0.0008999714105396442
-0.014797532720964646   -0.036790759104455555   -0.0006928339271571025
-0.015472173416745215   -0.024502634114311424   -0.0004108301059267228
-0.021444887389659113   -0.03669619855024769   -0.0008375416260286184
-0.014874766694343632   -0.03670329821937639   -0.0006368100710499979
-0.015472173416745215   -0.024502634114311424   -0.0004108301059267228
-0.022187340165870248   -0.024481941646440734   -0.0005696738061757689
-0.021444887389659113   -0.03669619855024769   -0.0008375416260286184
-0.022255308785562287   -0.024400361740938223   -0.0005244619752984912
-0.014874766694343632   -0.03670329821937639   -0.0006368100710499979
-0.021504897853581954   -0.0366280488546871   -0.0007699354740507085
-0.022255308785562287   -0.024400361740938223   -0.0005244619752984912
-0.021444887389659113   -0.03669619855024769   -0.0008375416260286184
-0.014874766694343632   -0.03670329821937639   -0.0006368100710499979
-0.022255308785562287   -0.024400361740938223   -0.0005244619752984912
-0.015552293813861964   -0.024406113734169902   -0.0003619951537289813
-0.015472173416745215   -0.024502634114311424   -0.0004108301059267228
-0.014874766694343632   -0.03670329821937639   -0.0006368100710499979
-0.022255308785562287   -0.024400361740938223   -0.0005244619752984912
-0.015472173416745215   -0.024502634114311424   -0.0004108301059267228
-0.021444887389659113   -0.03669619855024769   -0.0008375416260286184
-0.014874766694343632   -0.03670329821937639   -0.0006368100710499979
-0.015552293813861964   -0.024406113734169902   -0.0003619951537289813
-0.021504897853581954   -0.0366280488546871   -0.0007699354740507085
-0.01495227668640858   -0.036622303380997846   -0.0005748897443485315
-0.015552293813861964   -0.024406113734169902   -0.0003619951537289813
-0.022255308785562287   -0.024400361740938223   -0.0005244619752984912
-0.021504897853581954   -0.0366280488546871   -0.0007699354740507085
-0.02231955080026494   -0.02431661559971394   -0.0004751114286918283
-0.01495227668640858   -0.036622303380997846   -0.0005748897443485315
-0.021564426743882086   -0.03656671803199723   -0.000695798591017703
-0.02231955080026494   -0.02431661559971394   -0.0004751114286918283
-0.021504897853581954   -0.0366280488546871   -0.0007699354740507085
-0.01495227668640858   -0.036622303380997846   -0.0005748897443485315
-0.02231955080026494   -0.02431661559971394   -0.0004751114286918283
-0.01563160677660967   -0.024307309487139186   -0.0003093296133111737
-0.015552293813861964   -0.024406113734169902   -0.0003619951537289813
-0.01495227668640858   -0.036622303380997846   -0.0005748897443485315
-0.02231955080026494   -0.02431661559971394   -0.0004751114286918283
-0.015552293813861964   -0.024406113734169902   -0.0003619951537289813
-0.021504897853581954   -0.0366280488546871   -0.0007699354740507085
-0.02136580782168424   -0.036768165486901094   -0.0008999714105396442
-0.02210715715314722   -0.024559272023883458   -0.0006120070447179796
-0.028414197127467615   -0.0366309252459187   -0.0010168588645011523
-0.021444887389659113   -0.03669619855024769   -0.0008375416260286184
-0.02210715715314722   -0.024559272023883458   -0.0006120070447179796
-0.029144777453775115   -0.02449651348985011   -0.0007279089768766113
-0.028414197127467615   -0.0366309252459187   -0.0010168588645011523
-0.029194770219134452   -0.02443152045872327   -0.0006962514018778683
-0.021444887389659113   -0.03669619855024769   -0.0008375416260286184
-0.028426629800549795   -0.03657341063032437   -0.0009479961407454646
-0.029194770219134452   -0.02443152045872327   -0.0006962514018778683
-0.028414197127467615   -0.0366309252459187   -0.0010168588645011523
-0.021444887389659113   -0.03669619855024769   -0.0008375416260286184
-0.029194770219134452   -0.02443152045872327   -0.0006962514018778683
-0.022187340165870248   -0.024481941646440734   -0.0005696738061757689
-0.02210715715314722   -0.024559272023883458   -0.0006120070447179796
-0.021444887389659113   -0.03669619855024769   -0.0008375416260286184
-0.029194770219134452   -0.02443152045872327   -0.0006962514018778683
-0.02210715715314722   -0.024559272023883458   -0.0006120070447179796
-0.028414197127467615   -0.0366309252459187   -0.0010168588645011523
-0.021444887389659113   -0.03669619855024769   -0.0008375416260286184
-0.022187340165870248   -0.024481941646440734   -0.0005696738061757689
-0.028426629800549795   -0.03657341063032437   -0.0009479961407454646
-0.021504897853581954   -0.0366280488546871   -0.0007699354740507085
-0.022187340165870248   -0.024481941646440734   -0.0005696738061757689
-0.029194770219134452   -0.02443152045872327   -0.0006962514018778683
-0.028426629800549795   -0.03657341063032437   -0.0009479961407454646
-0.02924048273780505   -0.02435801122926684   -0.0006575185311119825
-0.021504897853581954   -0.0366280488546871   -0.0007699354740507085
-0.028439349120643612   -0.036515178054498075   -0.0008687061243528709
-0.02924048273780505   -0.02435801122926684   -0.0006575185311119825
-0.028426629800549795   -0.03657341063032437   -0.0009479961407454646
-0.021504897853581954   -0.0366280488546871   -0.0007699354740507085
-0.02924048273780505   -0.02435801122926684   -0.0006575185311119825
-0.022255308785562287   -0.024400361740938223   -0.0005244619752984912
-0.022187340165870248   -0.024481941646440734   -0.0005696738061757689
-0.021504897853581954   -0.0366280488546871   -0.0007699354740507085
-0.02924048273780505   -0.02435801122926684   -0.0006575185311119825
-0.022187340165870248   -0.024481941646440734   -0.0005696738061757689
-0.028426629800549795   -0.03657341063032437   -0.0009479961407454646
-0.021504897853581954   -0.0366280488546871   -0.0007699354740507085
-0.022255308785562287   -0.024400361740938223   -0.0005244619752984912
-0.028439349120643612   -0.036515178054498075   -0.0008687061243528709
-0.021564426743882086   -0.03656671803199723   -0.000695798591017703
-0.022255308785562287   -0.024400361740938223   -0.0005244619752984912
-0.02924048273780505   -0.02435801122926684   -0.0006575185311119825
-0.028439349120643612   -0.036515178054498075   -0.0008687061243528709
-0.029262814944487965   -0.024290455956462554   -0.0006134866706553337
-0.021564426743882086   -0.03656671803199723   -0.000695798591017703
-0.028412527957955267   -0.036476578731239856   -0.0007802287512373046
-0.029262814944487965   -0.024290455956462554   -0.0006134866706553337
-0.028439349120643612   -0.036515178054498075   -0.0008687061243528709
-0.021564426743882086   -0.03656671803199723   -0.000695798591017703
-0.029262814944487965   -0.024290455956462554   -0.0006134866706553337
-0.02231955080026494   -0.02431661559971394   -0.0004751114286918283
-0.022255308785562287   -0.024400361740938223   -0.0005244619752984912
-0.021564426743882086   -0.03656671803199723   -0.000695798591017703
-0.029262814944487965   -0.024290455956462554   -0.0006134866706553337
-0.022255308785562287   -0.024400361740938223   -0.0005244619752984912
-0.028439349120643612   -0.036515178054498075   -0.0008687061243528709
0.004898160975422722   -0.02475255801429271   0.00014964533836829948
0.0034302749842127387   -0.012427412867317193   0.00016059465567609115
-0.0021607062892646522   -0.02463595540884949   -6.375213353754331e-05
0.004744562140394034   -0.0246034119202566   0.0002127347961244609
0.0034302749842127387   -0.012427412867317193   0.00016059465567609115
-0.003150250876706203   -0.012265848463610845   8.097230997584853e-05
-0.0021607062892646522   -0.02463595540884949   -6.375213353754331e-05
-0.003247092594416589   -0.012203178605845853   0.0001511489290407095
0.004744562140394034   -0.0246034119202566   0.0002127347961244609
-0.002258123530576931   -0.02451225483878957   -1.3174129064304848e-05
-0.003247092594416589   -0.012203178605845853   0.0001511489290407095
-0.0021607062892646522   -0.02463595540884949   -6.375213353754331e-05
0.004744562140394034   -0.0246034119202566   0.0002127347961244609
-0.003247092594416589   -0.012203178605845853   0.0001511489290407095
0.003128501855665772   -0.012269080966073743   0.000334406382139266
0.0034302749842127387   -0.012427412867317193   0.00016059465567609115
0.004744562140394034   -0.0246034119202566   0.0002127347961244609
-0.003247092594416589   -0.012203178605845853   0.0001511489290407095
0.0034302749842127387   -0.012427412867317193   0.00016059465567609115
-0.0021607062892646522   -0.02463595540884949   -6.375213353754331e-05
0.004744562140394034   -0.0246034119202566   0.0002127347961244609
0.003128501855665772   -0.012269080966073743   0.000334406382139266
-0.002258123530576931   -0.02451225483878957   -1.3174129064304848e-05
0.004573252295021073   -0.024455207668145965   0.00030322748557450746
0.003128501855665772   -0.012269080966073743   0.000334406382139266
-0.003247092594416589   -0.012203178605845853   0.0001511489290407095
-0.002258123530576931   -0.02451225483878957   -1.3174129064304848e-05
-0.0033742560335505087   -0.012091943873937   0.00023633140995680616
0.004573252295021073   -0.024455207668145965   0.00030322748557450746
-0.002372056526464903   -0.02438166436841166   4.63800957831015e-05
-0.0033742560335505087   -0.012091943873937   0.00023633140995680616
-0.002258123530576931   -0.02451225483878957   -1.3174129064304848e-05
0.004573252295021073   -0.024455207668145965   0.00030322748557450746
-0.0033742560335505087   -0.012091943873937   0.00023633140995680616
0.0029517404339061927   -0.012139394354914056   0.00046417766595786814
0.003128501855665772   -0.012269080966073743   0.000334406382139266
0.004573252295021073   -0.024455207668145965   0.00030322748557450746
-0.0033742560335505087   -0.012091943873937   0.00023633140995680616
0.003128501855665772   -0.012269080966073743   0.000334406382139266
-0.002258123530576931   -0.02451225483878957   -1.3174129064304848e-05
0.004573252295021073   -0.024455207668145965   0.00030322748557450746
0.0029517404339061927   -0.012139394354914056   0.00046417766595786814
-0.002372056526464903   -0.02438166436841166   4.63800957831015e-05
0.004363947605444664   -0.024273180955532086   0.0004027810687626739
0.0029517404339061927   -0.012139394354914056   0.00046417766595786814
-0.0033742560335505087   -0.012091943873937   0.00023633140995680616
-0.002372056526464903   -0.02438166436841166   4.63800957831015e-05
-0.003481118165983733   -0.01197227429648755   0.0003113232622309929
0.004363947605444664   -0.024273180955532086   0.0004027810687626739
-0.002489873417301203   -0.024242973273223757   0.00011478622662126493
-0.003481118165983733   -0.01197227429648755   0.0003113232622309929
-0.002372056526464903   -0.02438166436841166   4.63800957831015e-05
0.004363947605444664   -0.024273180955532086   0.0004027810687626739
-0.003481118165983733   -0.01197227429648755   0.0003113232622309929
0.0027252938819555795   -0.011941350591789114   0.0006127417586118406
0.0029517404339061927   -0.012139394354914056   0.00046417766595786814
0.004363947605444664   -0.024273180955532086   0.0004027810687626739
-0.003481118165983733   -0.01197227429648755   0.0003113232622309929
0.0029517404339061927   -0.012139394354914056   0.00046417766595786814
-0.002372056526464903   -0.02438166436841166   4.63800957831015e-05
-0.0021607062892646522   -0.02463595540884949   -6.375213353754331e-05
-0.003150250876706203   -0.012265848463610845   8.097230997584853e-05
-0.008808312022103132   -0.02460578911482729   -0.00026953632057628477
-0.002258123530576931   -0.02451225483878957   -1.3174129064304848e-05
-0.003150250876706203   -0.012265848463610845   8.097230997584853e-05
-0.009414791243096025   -0.012446837711086423   -8.30030116153222e-05
-0.008808312022103132   -0.02460578911482729   -0.00026953632057628477
-0.009503862912318617   -0.012351267197598034   -3.3334041999448756e-05
-0.002258123530576931   -0.02451225483878957   -1.3174129064304848e-05
-0.008896318029862498   -0.024497752519668414   -0.00022254436759860293
-0.009503862912318617   -0.012351267197598034   -3.3334041999448756e-05
-0.008808312022103132   -0.02460578911482729   -0.00026953632057628477
-0.002258123530576931   -0.02451225483878957   -1.3174129064304848e-05
-0.009503862912318617   -0.012351267197598034   -3.3334041999448756e-05
-0.003247092594416589   -0.012203178605845853   0.0001511489290407095
-0.003150250876706203   -0.012265848463610845   8.097230997584853e-05
-0.002258123530576931   -0.02451225483878957   -1.3174129064304848e-05
-0.009503862912318617   -0.012351267197598034   -3.3334041999448756e-05
-0.003150250876706203   -0.012265848463610845   8.097230997584853e-05
-0.008808312022103132   -0.02460578911482729   -0.00026953632057628477
-0.002258123530576931   -0.02451225483878957   -1.3174129064304848e-05
-0.003247092594416589   -0.012203178605845853   0.0001511489290407095
-0.008896318029862498   -0.024497752519668414   -0.00022254436759860293
-0.002372056526464903   -0.02438166436841166   4.63800957831015e-05
-0.003247092594416589   -0.012203178605845853   0.0001511489290407095
-0.009503862912318617   -0.012351267197598034   -3.3334041999448756e-05
-0.008896318029862498   -0.024497752519668414   -0.00022254436759860293
-0.009597043089351196   -0.012243427625227263   1.9204476076877937e-05
-0.002372056526464903   -0.02438166436841166   4.63800957831015e-05
-0.008987342737901948   -0.02438536040777911   -0.00017090334670258686
-0.009597043089351196   -0.012243427625227263   1.9204476076877937e-05
-0.008896318029862498   -0.024497752519668414   -0.00022254436759860293
-0.002372056526464903   -0.02438166436841166   4.63800957831015e-05
-0.009597043089351196   -0.012243427625227263   1.9204476076877937e-05
-0.0033742560335505087   -0.012091943873937   0.00023633140995680616
-0.003247092594416589   -0.012203178605845853   0.0001511489290407095
-0.002372056526464903   -0.02438166436841166   4.63800957831015e-05
-0.009597043089351196   -0.012243427625227263   1.9204476076877937e-05
-0.003247092594416589   -0.012203178605845853   0.0001511489290407095
-0.008896318029862498   -0.024497752519668414   -0.00022254436759860293
-0.002372056526464903   -0.02438166436841166   4.63800957831015e-05
-0.0033742560335505087   -0.012091943873937   0.00023633140995680616
-0.008987342737901948   -0.02438536040777911   -0.00017090334670258686
-0.002489873417301203   -0.024242973273223757   0.00011478622662126493
-0.0033742560335505087   -0.012091943873937   0.00023633140995680616
-0.009597043089351196   -0.012243427625227263   1.9204476076877937e-05
-0.008987342737901948   -0.02438536040777911   -0.00017090334670258686
-0.009685565417563687   -0.0121252363206072   7.713022610510288e-05
-0.002489873417301203   -0.024242973273223757   0.00011478622662126493
-0.009082093563898564   -0.024270604935873956   -0.0001136811417509455
-0.009685565417563687   -0.0121252363206072   7.713022610510288e-05
-0.008987342737901948   -0.02438536040777911   -0.00017090334670258686
-0.002489873417301203   -0.024242973273223757   0.00011478622662126493
-0.009685565417563687   -0.0121252363206072   7.713022610510288e-05
-0.003481118165983733   -0.01197227429648755   0.0003113232622309929
-0.0033742560335505087   -0.012091943873937   0.00023633140995680616
-0.002489873417301203   -0.024242973273223757   0.00011478622662126493
-0.009685565417563687   -0.0121252363206072   7.713022610510288e-05
-0.0033742560335505087   -0.012091943873937   0.00023633140995680616
-0.008987342737901948   -0.02438536040777911   -0.00017090334670258686
-0.008808312022103132   -0.02460578911482729   -0.00026953632057628477
-0.009414791243096025   -0.012446837711086423   -8.30030116153222e-05
-0.015388065298764889   -0.024597417669926052   -0.00045560203348764445
-0.008896318029862498   -0.024497752519668414   -0.00022254436759860293
-0.009414791243096025   -0.012446837711086423   -8.30030116153222e-05
-0.015833582854435237   -0.012588213600112438   -0.0002645677884552281
-0.015388065298764889   -0.024597417669926052   -0.00045560203348764445
-0.015913538641663474   -0.01249011431047604   -0.00022611442740572883
-0.008896318029862498   -0.024497752519668414   -0.00022254436759860293
-0.015472173416745215   -0.024502634114311424   -0.0004108301059267228
-0.015913538641663474   -0.01249011431047604   -0.00022611442740572883
-0.015388065298764889   -0.024597417669926052   -0.00045560203348764445
-0.008896318029862498   -0.024497752519668414   -0.00022254436759860293
-0.015913538641663474   -0.01249011431047604   -0.00022611442740572883
-0.009503862912318617   -0.012351267197598034   -3.3334041999448756e-05
-0.009414791243096025   -0.012446837711086423   -8.30030116153222e-05
-0.008896318029862498   -0.024497752519668414   -0.00022254436759860293
-0.015913538641663474   -0.01249011431047604   -0.00022611442740572883
-0.009414791243096025   -0.012446837711086423   -8.30030116153222e-05
-0.015388065298764889   -0.024597417669926052   -0.00045560203348764445
-0.008896318029862498   -0.024497752519668414   -0.00022254436759860293
-0.009503862912318617   -0.012351267197598034   -3.3334041999448756e-05
-0.015472173416745215   -0.024502634114311424   -0.0004108301059267228
-0.008987342737901948   -0.02438536040777911   -0.00017090334670258686
-0.009503862912318617   -0.012351267197598034   -3.3334041999448756e-05
-0.015913538641663474   -0.01249011431047604   -0.00022611442740572883
-0.015472173416745215   -0.024502634114311424   -0.0004108301059267228
-0.015990039381429448   -0.012386535493092694   -0.00018780607387166768
-0.008987342737901948   -0.02438536040777911   -0.00017090334670258686
-0.015552293813861964   -0.024406113734169902   -0.0003619951537289813
-0.015990039381429448   -0.012386535493092694   -0.00018780607387166768
-0.015472173416745215   -0.024502634114311424   -0.0004108301059267228
-0.008987342737901948   -0.02438536040777911   -0.00017090334670258686
-0.015990039381429448   -0.012386535493092694   -0.00018780607387166768
-0.009597043089351196   -0.012243427625227263   1.9204476076877937e-05
-0.009503862912318617   -0.012351267197598034   -3.3334041999448756e-05
-0.008987342737901948   -0.02438536040777911   -0.00017090334670258686
-0.015990039381429448   -0.012386535493092694   -0.00018780607387166768
-0.009503862912318617   -0.012351267197598034   -3.3334041999448756e-05
-0.015472173416745215   -0.024502634114311424   -0.0004108301059267228
-0.008987342737901948   -0.02438536040777911   -0.00017090334670258686
-0.009597043089351196   -0.012243427625227263   1.9204476076877937e-05
-0.015552293813861964   -0.024406113734169902   -0.0003619951537289813
-0.009082093563898564   -0.024270604935873956   -0.0001136811417509455
-0.009597043089351196   -0.012243427625227263   1.9204476076877937e-05
-0.015990039381429448   -0.012386535493092694   -0.00018780607387166768
-0.015552293813861964   -0.024406113734169902   -0.0003619951537289813
-0.01606052811370182   -0.012274414753731271   -0.00014612103793569322
-0.009082093563898564   -0.024270604935873956   -0.0001136811417509455
-0.01563160677660967   -0.024307309487139186   -0.0003093296133111737
-0.01606052811370182   -0.012274414753731271   -0.00014612103793569322
-0.015552293813861964   -0.024406113734169902   -0.0003619951537289813
-0.009082093563898564   -0.024270604935873956   -0.0001136811417509455
-0.01606052811370182   -0.012274414753731271   -0.00014612103793569322
-0.009685565417563687   -0.0121252363206072   7.713022610510288e-05
-0.009597043089351196   -0.012243427625227263   1.9204476076877937e-05
-0.009082093563898564   -0.024270604935873956   -0.0001136811417509455
-0.01606052811370182   -0.012274414753731271   -0.00014612103793569322
-0.009597043089351196   -0.012243427625227263   1.9204476076877937e-05
-0.015552293813861964   -0.024406113734169902   -0.0003619951537289813
-0.015388065298764889   -0.024597417669926052   -0.00045560203348764445
-0.015833582854435237   -0.012588213600112438   -0.0002645677884552281
-0.02210715715314722   -0.024559272023883458   -0.0006120070447179796
-0.015472173416745215   -0.024502634114311424   -0.0004108301059267228
-0.015833582854435237   -0.012588213600112438   -0.0002645677884552281
-0.02247782141133423   -0.012646184562121687   -0.00043222790238092143
-0.02210715715314722   -0.024559272023883458   -0.0006120070447179796
-0.0225498452722708   -0.012558012615115447   -0.00040422760116911905
-0.015472173416745215   -0.024502634114311424   -0.0004108301059267228
-0.022187340165870248   -0.024481941646440734   -0.0005696738061757689
-0.0225498452722708   -0.012558012615115447   -0.00040422760116911905
-0.02210715715314722   -0.024559272023883458   -0.0006120070447179796
-0.015472173416745215   -0.024502634114311424   -0.0004108301059267228
-0.0225498452722708   -0.012558012615115447   -0.00040422760116911905
-0.015913538641663474   -0.01249011431047604   -0.00022611442740572883
-0.015833582854435237   -0.012588213600112438   -0.0002645677884552281
-0.015472173416745215   -0.024502634114311424   -0.0004108301059267228
-0.0225498452722708   -0.012558012615115447   -0.00040422760116911905
-0.015833582854435237   -0.012588213600112438   -0.0002645677884552281
-0.02210715715314722   -0.024559272023883458   -0.0006120070447179796
-0.015472173416745215   -0.024502634114311424   -0.0004108301059267228
-0.015913538641663474   -0.01249011431047604   -0.00022611442740572883
-0.022187340165870248   -0.024481941646440734   -0.0005696738061757689
-0.015552293813861964   -0.024406113734169902   -0.0003619951537289813
-0.015913538641663474   -0.01249011431047604   -0.00022611442740572883
-0.0225498452722708   -0.012558012615115447   -0.00040422760116911905
-0.022187340165870248   -0.024481941646440734   -0.0005696738061757689
-0.0226140243317861   -0.012462023262038166   -0.00037704453017652913
-0.015552293813861964   -0.024406113734169902   -0.0003619951537289813
-0.022255308785562287   -0.024400361740938223   -0.0005244619752984912
-0.0226140243317861   -0.012462023262038166   -0.00037704453017652913
-0.022187340165870248   -0.024481941646440734   -0.0005696738061757689
-0.015552293813861964   -0.024406113734169902   -0.0003619951537289813
-0.0226140243317861   -0.012462023262038166   -0.00037704453017652913
-0.015990039381429448   -0.012386535493092694   -0.00018780607387166768
-0.015913538641663474   -0.01249011431047604   -0.00022611442740572883
-0.015552293813861964   -0.024406113734169902   -0.0003619951537289813
-0.0226140243317861   -0.012462023262038166   -0.00037704453017652913
-0.015913538641663474   -0.01249011431047604   -0.00022611442740572883
-0.022187340165870248   -0.024481941646440734   -0.0005696738061757689
-0.015552293813861964   -0.024406113734169902   -0.0003619951537289813
-0.015990039381429448   -0.012386535493092694   -0.00018780607387166768
-0.022255308785562287   -0.024400361740938223   -0.0005244619752984912
-0.01563160677660967   -0.024307309487139186   -0.0003093296133111737
-0.015990039381429448   -0.012386535493092694   -0.00018780607387166768
-0.0226140243317861   -0.012462023262038166   -0.00037704453017652913
-0.022255308785562287   -0.024400361740938223   -0.0005244619752984912
-0.02267213215633512   -0.01235986569076892   -0.0003490765171029796
-0.01563160677660967   -0.024307309487139186   -0.0003093296133111737
-0.02231955080026494   -0.02431661559971394   -0.0004751114286918283
-0.02267213215633512   -0.01235986569076892   -0.0003490765171029796
-0.022255308785562287   -0.024400361740938223   -0.0005244619752984912
-0.01563160677660967   -0.024307309487139186   -0.0003093296133111737
-0.02267213215633512   -0.01235986569076892   -0.0003490765171029796
-0.01606052811370182   -0.012274414753731271   -0.00014612103793569322
-0.015990039381429448   -0.012386535493092694   -0.00018780607387166768
-0.01563160677660967   -0.024307309487139186   -0.0003093296133111737
-0.02267213215633512   -0.01235986569076892   -0.0003490765171029796
-0.015990039381429448   -0.012386535493092694   -0.00018780607387166768
-0.022255308785562287   -0.024400361740938223   -0.0005244619752984912
-0.02210715715314722   -0.024559272023883458   -0.0006120070447179796
-0.02247782141133423   -0.012646184562121687   -0.00043222790238092143
-0.029144777453775115   -0.02449651348985011   -0.0007279089768766113
-0.022187340165870248   -0.024481941646440734   -0.0005696738061757689
-0.02247782141133423   -0.012646184562121687   -0.00043222790238092143
-0.02935793377555472   -0.012652738094648269   -0.0005715657514222809
-0.029144777453775115   -0.02449651348985011   -0.0007279089768766113
-0.029419878428550376   -0.012567122030072033   -0.0005596063296932054
-0.022187340165870248   -0.024481941646440734   -0.0005696738061757689
-0.029194770219134452   -0.02443152045872327   -0.0006962514018778683
-0.029419878428550376   -0.012567122030072033   -0.0005596063296932054
-0.029144777453775115   -0.02449651348985011   -0.0007279089768766113
-0.022187340165870248   -0.024481941646440734   -0.0005696738061757689
-0.029419878428550376   -0.012567122030072033   -0.0005596063296932054
-0.0225498452722708   -0.012558012615115447   -0.00040422760116911905
-0.02247782141133423   -0.012646184562121687   -0.00043222790238092143
-0.022187340165870248   -0.024481941646440734   -0.0005696738061757689
-0.029419878428550376   -0.012567122030072033   -0.0005596063296932054
-0.02247782141133423   -0.012646184562121687   -0.00043222790238092143
-0.029144777453775115   -0.02449651348985011   -0.0007279089768766113
-0.022187340165870248   -0.024481941646440734   -0.0005696738061757689
-0.0225498452722708   -0.012558012615115447   -0.00040422760116911905
-0.029194770219134452   -0.02443152045872327   -0.0006962514018778683
-0.022255308785562287   -0.024400361740938223   -0.0005244619752984912
-0.0225498452722708   -0.012558012615115447   -0.00040422760116911905
-0.029419878428550376   -0.012567122030072033   -0.0005596063296932054
-0.029194770219134452   -0.02443152045872327   -0.0006962514018778683
-0.029475375334973603   -0.012474601916494495   -0.0005456305762575809
-0.022255308785562287   -0.024400361740938223   -0.0005244619752984912
-0.02924048273780505   -0.02435801122926684   -0.0006575185311119825
-0.029475375334973603   -0.012474601916494495   -0.0005456305762575809
-0.029194770219134452   -0.02443152045872327   -0.0006962514018778683
-0.022255308785562287   -0.024400361740938223   -0.0005244619752984912
-0.029475375334973603   -0.012474601916494495   -0.0005456305762575809
-0.0226140243317861   -0.012462023262038166   -0.00037704453017652913
-0.0225498452722708   -0.012558012615115447   -0.00040422760116911905
-0.022255308785562287   -0.024400361740938223   -0.0005244619752984912
-0.029475375334973603   -0.012474601916494495   -0.0005456305762575809
-0.0225498452722708   -0.012558012615115447   -0.00040422760116911905
-0.029194770219134452   -0.02443152045872327   -0.0006962514018778683
-0.022255308785562287   -0.024400361740938223   -0.0005244619752984912
-0.0226140243317861   -0.012462023262038166   -0.00037704453017652913
-0.02924048273780505   -0.02435801122926684   -0.0006575185311119825
-0.02231955080026494   -0.02431661559971394   -0.0004751114286918283
-0.0226140243317861   -0.012462023262038166   -0.00037704453017652913
-0.029475375334973603   -0.012474601916494495   -0.0005456305762575809
-0.02924048273780505   -0.02435801122926684   -0.0006575185311119825
-0.029522123394274243   -0.012376622851721315   -0.0005326718279544202
-0.02231955080026494   -0.02431661559971394   -0.0004751114286918283
-0.029262814944487965   -0.024290455956462554   -0.0006134866706553337
-0.029522123394274243   -0.012376622851721315   -0.0005326718279544202
-0.02924048273780505   -0.02435801122926684   -0.0006575185311119825
-0.02231955080026494   -0.02431661559971394   -0.0004751114286918283
-0.029522123394274243   -0.012376622851721315   -0.0005326718279544202
-0.02267213215633512   -0.01235986569076892   -0.0003490765171029796
-0.0226140243317861   -0.012462023262038166   -0.00037704453017652913
-0.02231955080026494   -0.02431661559971394   -0.0004751114286918283
-0.029522123394274243   -0.012376622851721315   -0.0005326718279544202
-0.0226140243317861   -0.012462023262038166   -0.00037704453017652913
-0.02924048273780505   -0.02435801122926684   -0.0006575185311119825
0.0034302749842127387   -0.012427412867317193   0.00016059465567609115
0.0   0.0   0.0
-0.003150250876706203   -0.012265848463610845   8.097230997584853e-05
0.003128501855665772   -0.012269080966073743   0.000334406382139266
0.0   0.0   0.0
-0.00395783508417148   -0.0009982967393541925   -3.4579981596698986e-05
-0.003150250876706203   -0.012265848463610845   8.097230997584853e-05
-0.00419419440513828   -0.0007748029567303953   0.00010122761592232272
0.003128501855665772   -0.012269080966073743   0.000334406382139266
-0.003247092594416589   -0.012203178605845853   0.0001511489290407095
-0.00419419440513828   -0.0007748029567303953   0.00010122761592232272
-0.003150250876706203   -0.012265848463610845   8.097230997584853e-05
0.003128501855665772   -0.012269080966073743   0.000334406382139266
-0.00419419440513828   -0.0007748029567303953   0.00010122761592232272
0.0   0.0   0.0
0.0   0.0   0.0
0.003128501855665772   -0.012269080966073743   0.000334406382139266
-0.00419419440513828   -0.0007748029567303953   0.00010122761592232272
0.0   0.0   0.0
-0.003150250876706203   -0.012265848463610845   8.097230997584853e-05
0.003128501855665772   -0.012269080966073743   0.000334406382139266
0.0   0.0   0.0
-0.003247092594416589   -0.012203178605845853   0.0001511489290407095
0.0029517404339061927   -0.012139394354914056   0.00046417766595786814
0.0   0.0   0.0
-0.00419419440513828   -0.0007748029567303953   0.00010122761592232272
-0.003247092594416589   -0.012203178605845853   0.0001511489290407095
-0.004342375893808588   -0.0006669615450605234   0.00017944975794060645
0.0029517404339061927   -0.012139394354914056   0.00046417766595786814
-0.0033742560335505087   -0.012091943873937   0.00023633140995680616
-0.004342375893808588   -0.0006669615450605234   0.00017944975794060645
-0.003247092594416589   -0.012203178605845853   0.0001511489290407095
0.0029517404339061927   -0.012139394354914056   0.00046417766595786814
-0.004342375893808588   -0.0006669615450605234   0.00017944975794060645
0.0   0.0   0.0
0.0   0.0   0.0
0.0029517404339061927   -0.012139394354914056   0.00046417766595786814
-0.004342375893808588   -0.0006669615450605234   0.00017944975794060645
0.0   0.0   0.0
-0.003247092594416589   -0.012203178605845853   0.0001511489290407095
0.0029517404339061927   -0.012139394354914056   0.00046417766595786814
0.0   0.0   0.0
-0.0033742560335505087   -0.012091943873937   0.00023633140995680616
0.0027252938819555795   -0.011941350591789114   0.0006127417586118406
0.0   0.0   0.0
-0.004342375893808588   -0.0006669615450605234   0.00017944975794060645
-0.0033742560335505087   -0.012091943873937   0.00023633140995680616
-0.004540774045847247   -0.0005238448931222387   0.00026920253066886065
0.0027252938819555795   -0.011941350591789114   0.0006127417586118406
-0.003481118165983733   -0.01197227429648755   0.0003113232622309929
-0.004540774045847247   -0.0005238448931222387   0.00026920253066886065
-0.0033742560335505087   -0.012091943873937   0.00023633140995680616
0.0027252938819555795   -0.011941350591789114   0.0006127417586118406
-0.004540774045847247   -0.0005238448931222387   0.00026920253066886065
0.0   0.0   0.0
0.0   0.0   0.0
0.0027252938819555795   -0.011941350591789114   0.0006127417586118406
-0.004540774045847247   -0.0005238448931222387   0.00026920253066886065
0.0   0.0   0.0
-0.0033742560335505087   -0.012091943873937   0.00023633140995680616
-0.003150250876706203   -0.012265848463610845   8.097230997584853e-05
-0.00395783508417148   -0.0009982967393541925   -3.4579981596698986e-05
-0.009414791243096025   -0.012446837711086423   -8.30030116153222e-05
-0.003247092594416589   -0.012203178605845853   0.0001511489290407095
-0.00395783508417148   -0.0009982967393541925   -3.4579981596698986e-05
-0.009696446471823349   -0.0013057138072209485   -3.443906737814827e-05
-0.009414791243096025   -0.012446837711086423   -8.30030116153222e-05
-0.009818032838431443   -0.0011832430521340543   1.1821907618402726e-07
-0.003247092594416589   -0.012203178605845853   0.0001511489290407095
-0.009503862912318617   -0.012351267197598034   -3.3334041999448756e-05
-0.009818032838431443   -0.0011832430521340543   1.1821907618402726e-07
-0.009414791243096025   -0.012446837711086423   -8.30030116153222e-05
-0.003247092594416589   -0.012203178605845853   0.0001511489290407095
-0.009818032838431443   -0.0011832430521340543   1.1821907618402726e-07
-0.00419419440513828   -0.0007748029567303953   0.00010122761592232272
-0.00395783508417148   -0.0009982967393541925   -3.4579981596698986e-05
-0.003247092594416589   -0.012203178605845853   0.0001511489290407095
-0.009818032838431443   -0.0011832430521340543   1.1821907618402726e-07
-0.00395783508417148   -0.0009982967393541925   -3.4579981596698986e-05
-0.009414791243096025   -0.012446837711086423   -8.30030116153222e-05
-0.003247092594416589   -0.012203178605845853   0.0001511489290407095
-0.00419419440513828   -0.0007748029567303953   0.00010122761592232272
-0.009503862912318617   -0.012351267197598034   -3.3334041999448756e-05
-0.0033742560335505087   -0.012091943873937   0.00023633140995680616
-0.00419419440513828   -0.0007748029567303953   0.00010122761592232272
-0.009818032838431443   -0.0011832430521340543   1.1821907618402726e-07
-0.009503862912318617   -0.012351267197598034   -3.3334041999448756e-05
-0.009939034086906218   -0.0010400340795155272   6.221357359340569e-05
-0.0033742560335505087   -0.012091943873937   0.00023633140995680616
-0.009597043089351196   -0.012243427625227263   1.9204476076877937e-05
-0.009939034086906218   -0.0010400340795155272   6.221357359340569e-05
-0.009503862912318617   -0.012351267197598034   -3.3334041999448756e-05
-0.0033742560335505087   -0.012091943873937   0.00023633140995680616
-0.009939034086906218   -0.0010400340795155272   6.221357359340569e-05
-0.004342375893808588   -0.0006669615450605234   0.00017944975794060645
-0.00419419440513828   -0.0007748029567303953   0.00010122761592232272
-0.0033742560335505087   -0.012091943873937   0.00023633140995680616
-0.009939034086906218   -0.0010400340795155272   6.221357359340569e-05
-0.00419419440513828   -0.0007748029567303953   0.00010122761592232272
-0.009503862912318617   -0.012351267197598034   -3.3334041999448756e-05
-0.0033742560335505087   -0.012091943873937   0.00023633140995680616
-0.004342375893808588   -0.0006669615450605234   0.00017944975794060645
-0.009597043089351196   -0.012243427625227263   1.9204476076877937e-05
-0.003481118165983733   -0.01197227429648755   0.0003113232622309929
-0.004342375893808588   -0.0006669615450605234   0.00017944975794060645
-0.009939034086906218   -0.0010400340795155272   6.221357359340569e-05
-0.009597043089351196   -0.012243427625227263   1.9204476076877937e-05
-0.010072733883733365   -0.0008746604234969755   0.00012154829073893322
-0.003481118165983733   -0.01197227429648755   0.0003113232622309929
-0.009685565417563687   -0.0121252363206072   7.713022610510288e-05
-0.010072733883733365   -0.0008746604234969755   0.00012154829073893322
-0.009597043089351196   -0.012243427625227263   1.9204476076877937e-05
-0.003481118165983733   -0.01197227429648755   0.0003113232622309929
-0.010072733883733365   -0.0008746604234969755   0.00012154829073893322
-0.004540774045847247   -0.0005238448931222387   0.00026920253066886065
-0.004342375893808588   -0.0006669615450605234   0.00017944975794060645
-0.003481118165983733   -0.01197227429648755   0.0003113232622309929
-0.010072733883733365   -0.0008746604234969755   0.00012154829073893322
-0.004342375893808588   -0.0006669615450605234   0.00017944975794060645
-0.009597043089351196   -0.012243427625227263   1.9204476076877937e-05
-0.009414791243096025   -0.012446837711086423   -8.30030116153222e-05
-0.009696446471823349   -0.0013057138072209485   -3.443906737814827e-05
-0.015833582854435237   -0.012588213600112438   -0.0002645677884552281
-0.009503862912318617   -0.012351267197598034   -3.3334041999448756e-05
-0.009696446471823349   -0.0013057138072209485   -3.443906737814827e-05
-0.015990514845756296   -0.0013904396247627778   -0.00015006726978285416
-0.015833582854435237   -0.012588213600112438   -0.0002645677884552281
-0.01606414097891696   -0.0012945269109895926   -0.00014064896057358001
-0.009503862912318617   -0.012351267197598034   -3.3334041999448756e-05
-0.015913538641663474   -0.01249011431047604   -0.00022611442740572883
-0.01606414097891696   -0.0012945269109895926   -0.00014064896057358001
-0.015833582854435237   -0.012588213600112438   -0.0002645677884552281
-0.009503862912318617   -0.012351267197598034   -3.3334041999448756e-05
-0.01606414097891696   -0.0012945269109895926   -0.00014064896057358001
-0.009818032838431443   -0.0011832430521340543   1.1821907618402726e-07
-0.009696446471823349   -0.0013057138072209485   -3.443906737814827e-05
-0.009503862912318617   -0.012351267197598034   -3.3334041999448756e-05
-0.01606414097891696   -0.0012945269109895926   -0.00014064896057358001
-0.009696446471823349   -0.0013057138072209485   -3.443906737814827e-05
-0.015833582854435237   -0.012588213600112438   -0.0002645677884552281
-0.009503862912318617   -0.012351267197598034   -3.3334041999448756e-05
-0.009818032838431443   -0.0011832430521340543   1.1821907618402726e-07
-0.015913538641663474   -0.01249011431047604   -0.00022611442740572883
-0.009597043089351196   -0.012243427625227263   1.9204476076877937e-05
-0.009818032838431443   -0.0011832430521340543   1.1821907618402726e-07
-0.01606414097891696   -0.0012945269109895926   -0.00014064896057358001
-0.015913538641663474   -0.01249011431047604   -0.00022611442740572883
-0.016140672005290083   -0.0011834108938205698   -0.00012403186991247631
-0.009597043089351196   -0.012243427625227263   1.9204476076877937e-05
-0.015990039381429448   -0.012386535493092694   -0.00018780607387166768
-0.016140672005290083   -0.0011834108938205698   -0.00012403186991247631
-0.015913538641663474   -0.01249011431047604   -0.00022611442740572883
-0.009597043089351196   -0.012243427625227263   1.9204476076877937e-05
-0.016140672005290083   -0.0011834108938205698   -0.00012403186991247631
-0.009939034086906218   -0.0010400340795155272   6.221357359340569e-05
-0.009818032838431443   -0.0011832430521340543   1.1821907618402726e-07
-0.009597043089351196   -0.012243427625227263   1.9204476076877937e-05
-0.016140672005290083   -0.0011834108938205698   -0.00012403186991247631
-0.009818032838431443   -0.0011832430521340543   1.1821907618402726e-07
-0.015913538641663474   -0.01249011431047604   -0.00022611442740572883
-0.009597043089351196   -0.012243427625227263   1.9204476076877937e-05
-0.009939034086906218   -0.0010400340795155272   6.221357359340569e-05
-0.015990039381429448   -0.012386535493092694   -0.00018780607387166768
-0.009685565417563687   -0.0121252363206072   7.713022610510288e-05
-0.009939034086906218   -0.0010400340795155272   6.221357359340569e-05
-0.016140672005290083   -0.0011834108938205698   -0.00012403186991247631
-0.015990039381429448   -0.012386535493092694   -0.00018780607387166768
-0.016213047135455527   -0.0010485576053725044   -0.00010204630215033266
-0.009685565417563687   -0.0121252363206072   7.713022610510288e-05
-0.01606052811370182   -0.012274414753731271   -0.00014612103793569322
-0.016213047135455527   -0.0010485576053725044   -0.00010204630215033266
-0.015990039381429448   -0.012386535493092694   -0.00018780607387166768
-0.009685565417563687   -0.0121252363206072   7.713022610510288e-05
-0.016213047135455527   -0.0010485576053725044   -0.00010204630215033266
-0.010072733883733365   -0.0008746604234969755   0.00012154829073893322
-0.009939034086906218   -0.0010400340795155272   6.221357359340569e-05
-0.009685565417563687   -0.0121252363206072   7.713022610510288e-05
-0.016213047135455527   -0.0010485576053725044   -0.00010204630215033266
-0.009939034086906218   -0.0010400340795155272   6.221357359340569e-05
-0.015990039381429448   -0.012386535493092694   -0.00018780607387166768
-0.015833582854435237   -0.012588213600112438   -0.0002645677884552281
-0.015990514845756296   -0.0013904396247627778   -0.00015006726978285416
-0.02247782141133423   -0.012646184562121687   -0.00043222790238092143
-0.015913538641663474   -0.01249011431047604   -0.00022611442740572883
-0.015990514845756296   -0.0013904396247627778   -0.00015006726978285416
-0.022593929138401542   -0.0013745348122044937   -0.00031531682267546524
-0.02247782141133423   -0.012646184562121687   -0.00043222790238092143
-0.022643619816938826   -0.001288039382655974   -0.00031130778662358027
-0.015913538641663474   -0.01249011431047604   -0.00022611442740572883
-0.0225498452722708   -0.012558012615115447   -0.00040422760116911905
-0.022643619816938826   -0.001288039382655974   -0.00031130778662358027
-0.02247782141133423   -0.012646184562121687   -0.00043222790238092143
-0.015913538641663474   -0.01249011431047604   -0.00022611442740572883
-0.022643619816938826   -0.001288039382655974   -0.00031130778662358027
-0.01606414097891696   -0.0012945269109895926   -0.00014064896057358001
-0.015990514845756296   -0.0013904396247627778   -0.00015006726978285416
-0.015913538641663474   -0.01249011431047604   -0.00022611442740572883
-0.022643619816938826   -0.001288039382655974   -0.00031130778662358027
-0.015990514845756296   -0.0013904396247627778   -0.00015006726978285416
-0.02247782141133423   -0.012646184562121687   -0.00043222790238092143
-0.015913538641663474   -0.01249011431047604   -0.00022611442740572883
-0.01606414097891696   -0.0012945269109895926   -0.00014064896057358001
-0.0225498452722708   -0.012558012615115447   -0.00040422760116911905
-0.015990039381429448   -0.012386535493092694   -0.00018780607387166768
-0.01606414097891696   -0.0012945269109895926   -0.00014064896057358001
-0.022643619816938826   -0.001288039382655974   -0.00031130778662358027
-0.0225498452722708   -0.012558012615115447   -0.00040422760116911905
-0.022695470561892514   -0.0011919630434508212   -0.0003086488944169213
-0.015990039381429448   -0.012386535493092694   -0.00018780607387166768
-0.0226140243317861   -0.012462023262038166   -0.00037704453017652913
-0.022695470561892514   -0.0011919630434508212   -0.0003086488944169213
-0.0225498452722708   -0.012558012615115447   -0.00040422760116911905
-0.015990039381429448   -0.012386535493092694   -0.00018780607387166768
-0.022695470561892514   -0.0011919630434508212   -0.0003086488944169213
-0.016140672005290083   -0.0011834108938205698   -0.00012403186991247631
-0.01606414097891696   -0.0012945269109895926   -0.00014064896057358001
-0.015990039381429448   -0.012386535493092694   -0.00018780607387166768
-0.022695470561892514   -0.0011919630434508212   -0.0003086488944169213
-0.01606414097891696   -0.0012945269109895926   -0.00014064896057358001
-0.0225498452722708   -0.012558012615115447   -0.00040422760116911905
-0.015990039381429448   -0.012386535493092694   -0.00018780607387166768
-0.016140672005290083   -0.0011834108938205698   -0.00012403186991247631
-0.0226140243317861   -0.012462023262038166   -0.00037704453017652913
-0.01606052811370182   -0.012274414753731271   -0.00014612103793569322
-0.016140672005290083   -0.0011834108938205698   -0.00012403186991247631
-0.022695470561892514   -0.0011919630434508212   -0.0003086488944169213
-0.0226140243317861   -0.012462023262038166   -0.00037704453017652913
-0.022734657620179014   -0.0010881381623985078   -0.0003075731434873173
-0.01606052811370182   -0.012274414753731271   -0.00014612103793569322
-0.02267213215633512   -0.01235986569076892   -0.0003490765171029796
-0.022734657620179014   -0.0010881381623985078   -0.0003075731434873173
-0.0226140243317861   -0.012462023262038166   -0.00037704453017652913
-0.01606052811370182   -0.012274414753731271   -0.00014612103793569322
-0.022734657620179014   -0.0010881381623985078   -0.0003075731434873173
-0.016213047135455527   -0.0010485576053725044   -0.00010204630215033266
-0.016140672005290083   -0.0011834108938205698   -0.00012403186991247631
-0.01606052811370182   -0.012274414753731271   -0.00014612103793569322
-0.022734657620179014   -0.0010881381623985078   -0.0003075731434873173
-0.016140672005290083   -0.0011834108938205698   -0.00012403186991247631
-0.0226140243317861   -0.012462023262038166   -0.00037704453017652913
-0.02247782141133423   -0.012646184562121687   -0.00043222790238092143
-0.022593929138401542   -0.0013745348122044937   -0.00031531682267546524
-0.02935793377555472   -0.012652738094648269   -0.0005715657514222809
-0.0225498452722708   -0.012558012615115447   -0.00040422760116911905
-0.022593929138401542   -0.0013745348122044937   -0.00031531682267546524
-0.02937907674268962   -0.0013644500775763407   -0.0004778990916279708
-0.02935793377555472   -0.012652738094648269   -0.0005715657514222809
-0.02941907401823671   -0.0012705491355674038   -0.00047788941322727147
-0.0225498452722708   -0.012558012615115447   -0.00040422760116911905
-0.029419878428550376   -0.012567122030072033   -0.0005596063296932054
-0.02941907401823671   -0.0012705491355674038   -0.00047788941322727147
-0.02935793377555472   -0.012652738094648269   -0.0005715657514222809
-0.0225498452722708   -0.012558012615115447   -0.00040422760116911905
-0.02941907401823671   -0.0012705491355674038   -0.00047788941322727147
-0.022643619816938826   -0.001288039382655974   -0.00031130778662358027
-0.022593929138401542   -0.0013745348122044937   -0.00031531682267546524
-0.0225498452722708   -0.012558012615115447   -0.00040422760116911905
-0.02941907401823671   -0.0012705491355674038   -0.00047788941322727147
-0.022593929138401542   -0.0013745348122044937   -0.00031531682267546524
-0.02935793377555472   -0.012652738094648269   -0.0005715657514222809
-0.0225498452722708   -0.012558012615115447   -0.00040422760116911905
-0.022643619816938826   -0.001288039382655974   -0.00031130778662358027
-0.029419878428550376   -0.012567122030072033   -0.0005596063296932054
-0.0226140243317861   -0.012462023262038166   -0.00037704453017652913
-0.022643619816938826   -0.001288039382655974   -0.00031130778662358027
-0.02941907401823671   -0.0012705491355674038   -0.00047788941322727147
-0.029419878428550376   -0.012567122030072033   -0.0005596063296932054
-0.02946299775196512   -0.001176874351410004   -0.0004851997242064497
-0.0226140243317861   -0.012462023262038166   -0.00037704453017652913
-0.029475375334973603   -0.012474601916494495   -0.0005456305762575809
-0.02946299775196512   -0.001176874351410004   -0.0004851997242064497
-0.029419878428550376   -0.012567122030072033   -0.0005596063296932054
-0.0226140243317861   -0.012462023262038166   -0.00037704453017652913
-0.02946299775196512   -0.001176874351410004   -0.0004851997242064497
-0.022695470561892514   -0.0011919630434508212   -0.0003086488944169213
-0.022643619816938826   -0.001288039382655974   -0.00031130778662358027
-0.0226140243317861   -0.012462023262038166   -0.00037704453017652913
-0.02946299775196512   -0.001176874351410004   -0.0004851997242064497
-0.022643619816938826   -0.001288039382655974   -0.00031130778662358027
-0.029419878428550376   -0.012567122030072033   -0.0005596063296932054
-0.0226140243317861   -0.012462023262038166   -0.00037704453017652913
-0.022695470561892514   -0.0011919630434508212   -0.0003086488944169213
-0.029475375334973603   -0.012474601916494495   -0.0005456305762575809
-0.02267213215633512   -0.01235986569076892   -0.0003490765171029796
-0.022695470561892514   -0.0011919630434508212   -0.0003086488944169213
-0.02946299775196512   -0.001176874351410004   -0.0004851997242064497
-0.029475375334973603   -0.012474601916494495   -0.0005456305762575809
-0.0294952939006342   -0.0010749822871285164   -0.000493003776649073
-0.02267213215633512   -0.01235986569076892   -0.0003490765171029796
-0.029522123394274243   -0.012376622851721315   -0.0005326718279544202
-0.0294952939006342   -0.0010749822871285164   -0.000493003776649073
-0.029475375334973603   -0.012474601916494495   -0.0005456305762575809
-0.02267213215633512   -0.01235986569076892   -0.0003490765171029796
-0.0294952939006342   -0.0010749822871285164   -0.000493003776649073
-0.022734657620179014   -0.0010881381623985078   -0.0003075731434873173
-0.022695470561892514   -0.0011919630434508212   -0.0003086488944169213
-0.02267213215633512   -0.01235986569076892   -0.0003490765171029796
-0.0294952939006342   -0.0010749822871285164   -0.000493003776649073
-0.022695470561892514   -0.0011919630434508212   -0.0003086488944169213
-0.029475375334973603   -0.012474601916494495   -0.0005456305762575809
              </DataArray>   
          </PointData>  
       </Piece>  
   </UnstructuredGrid> 
</VTKFile> 
