<?xml version="1.0"?> 
<VTKFile type="UnstructuredGrid"> 
   <UnstructuredGrid> 
      <Piece NumberOfPoints="6000"  NumberOfCells="1500">  
          <Points>  
             <DataArray type="Float64" NumberOfComponents="3" format="ascii">   
-500.0   0.0   0.0
-450.0   0.0   0.0
-500.0   30.0   0.0
-500.0   0.0   16.666666666666668
-450.0   0.0   0.0
-450.0   30.0   0.0
-500.0   30.0   0.0
-450.0   30.0   16.666666666666668
-500.0   0.0   16.666666666666668
-500.0   30.0   16.666666666666668
-450.0   30.0   16.666666666666668
-500.0   30.0   0.0
-500.0   0.0   16.666666666666668
-450.0   30.0   16.666666666666668
-450.0   0.0   16.666666666666668
-450.0   0.0   0.0
-500.0   0.0   16.666666666666668
-450.0   30.0   16.666666666666668
-450.0   0.0   0.0
-500.0   30.0   0.0
-500.0   0.0   16.666666666666668
-450.0   0.0   16.666666666666668
-500.0   30.0   16.666666666666668
-500.0   0.0   33.333333333333336
-450.0   0.0   16.666666666666668
-450.0   30.0   16.666666666666668
-500.0   30.0   16.666666666666668
-450.0   30.0   33.333333333333336
-500.0   0.0   33.333333333333336
-500.0   30.0   33.333333333333336
-450.0   30.0   33.333333333333336
-500.0   30.0   16.666666666666668
-500.0   0.0   33.333333333333336
-450.0   30.0   33.333333333333336
-450.0   0.0   33.333333333333336
-450.0   0.0   16.666666666666668
-500.0   0.0   33.333333333333336
-450.0   30.0   33.333333333333336
-450.0   0.0   16.666666666666668
-500.0   30.0   16.666666666666668
-500.0   0.0   33.333333333333336
-450.0   0.0   33.333333333333336
-500.0   30.0   33.333333333333336
-500.0   0.0   50.0
-450.0   0.0   33.333333333333336
-450.0   30.0   33.333333333333336
-500.0   30.0   33.333333333333336
-450.0   30.0   50.0
-500.0   0.0   50.0
-500.0   30.0   50.0
-450.0   30.0   50.0
-500.0   30.0   33.333333333333336
-500.0   0.0   50.0
-450.0   30.0   50.0
-450.0   0.0   50.0
-450.0   0.0   33.333333333333336
-500.0   0.0   50.0
-450.0   30.0   50.0
-450.0   0.0   33.333333333333336
-500.0   30.0   33.333333333333336
-500.0   30.0   0.0
-450.0   30.0   0.0
-500.0   60.0   0.0
-500.0   30.0   16.666666666666668
-450.0   30.0   0.0
-450.0   60.0   0.0
-500.0   60.0   0.0
-450.0   60.0   16.666666666666668
-500.0   30.0   16.666666666666668
-500.0   60.0   16.666666666666668
-450.0   60.0   16.666666666666668
-500.0   60.0   0.0
-500.0   30.0   16.666666666666668
-450.0   60.0   16.666666666666668
-450.0   30.0   16.666666666666668
-450.0   30.0   0.0
-500.0   30.0   16.666666666666668
-450.0   60.0   16.666666666666668
-450.0   30.0   0.0
-500.0   60.0   0.0
-500.0   30.0   16.666666666666668
-450.0   30.0   16.666666666666668
-500.0   60.0   16.666666666666668
-500.0   30.0   33.333333333333336
-450.0   30.0   16.666666666666668
-450.0   60.0   16.666666666666668
-500.0   60.0   16.666666666666668
-450.0   60.0   33.333333333333336
-500.0   30.0   33.333333333333336
-500.0   60.0   33.333333333333336
-450.0   60.0   33.333333333333336
-500.0   60.0   16.666666666666668
-500.0   30.0   33.333333333333336
-450.0   60.0   33.333333333333336
-450.0   30.0   33.333333333333336
-450.0   30.0   16.666666666666668
-500.0   30.0   33.333333333333336
-450.0   60.0   33.333333333333336
-450.0   30.0   16.666666666666668
-500.0   60.0   16.666666666666668
-500.0   30.0   33.333333333333336
-450.0   30.0   33.333333333333336
-500.0   60.0   33.333333333333336
-500.0   30.0   50.0
-450.0   30.0   33.333333333333336
-450.0   60.0   33.333333333333336
-500.0   60.0   33.333333333333336
-450.0   60.0   50.0
-500.0   30.0   50.0
-500.0   60.0   50.0
-450.0   60.0   50.0
-500.0   60.0   33.333333333333336
-500.0   30.0   50.0
-450.0   60.0   50.0
-450.0   30.0   50.0
-450.0   30.0   33.333333333333336
-500.0   30.0   50.0
-450.0   60.0   50.0
-450.0   30.0   33.333333333333336
-500.0   60.0   33.333333333333336
-500.0   60.0   0.0
-450.0   60.0   0.0
-500.0   90.0   0.0
-500.0   60.0   16.666666666666668
-450.0   60.0   0.0
-450.0   90.0   0.0
-500.0   90.0   0.0
-450.0   90.0   16.666666666666668
-500.0   60.0   16.666666666666668
-500.0   90.0   16.666666666666668
-450.0   90.0   16.666666666666668
-500.0   90.0   0.0
-500.0   60.0   16.666666666666668
-450.0   90.0   16.666666666666668
-450.0   60.0   16.666666666666668
-450.0   60.0   0.0
-500.0   60.0   16.666666666666668
-450.0   90.0   16.666666666666668
-450.0   60.0   0.0
-500.0   90.0   0.0
-500.0   60.0   16.666666666666668
-450.0   60.0   16.666666666666668
-500.0   90.0   16.666666666666668
-500.0   60.0   33.333333333333336
-450.0   60.0   16.666666666666668
-450.0   90.0   16.666666666666668
-500.0   90.0   16.666666666666668
-450.0   90.0   33.333333333333336
-500.0   60.0   33.333333333333336
-500.0   90.0   33.333333333333336
-450.0   90.0   33.333333333333336
-500.0   90.0   16.666666666666668
-500.0   60.0   33.333333333333336
-450.0   90.0   33.333333333333336
-450.0   60.0   33.333333333333336
-450.0   60.0   16.666666666666668
-500.0   60.0   33.333333333333336
-450.0   90.0   33.333333333333336
-450.0   60.0   16.666666666666668
-500.0   90.0   16.666666666666668
-500.0   60.0   33.333333333333336
-450.0   60.0   33.333333333333336
-500.0   90.0   33.333333333333336
-500.0   60.0   50.0
-450.0   60.0   33.333333333333336
-450.0   90.0   33.333333333333336
-500.0   90.0   33.333333333333336
-450.0   90.0   50.0
-500.0   60.0   50.0
-500.0   90.0   50.0
-450.0   90.0   50.0
-500.0   90.0   33.333333333333336
-500.0   60.0   50.0
-450.0   90.0   50.0
-450.0   60.0   50.0
-450.0   60.0   33.333333333333336
-500.0   60.0   50.0
-450.0   90.0   50.0
-450.0   60.0   33.333333333333336
-500.0   90.0   33.333333333333336
-500.0   90.0   0.0
-450.0   90.0   0.0
-500.0   120.0   0.0
-500.0   90.0   16.666666666666668
-450.0   90.0   0.0
-450.0   120.0   0.0
-500.0   120.0   0.0
-450.0   120.0   16.666666666666668
-500.0   90.0   16.666666666666668
-500.0   120.0   16.666666666666668
-450.0   120.0   16.666666666666668
-500.0   120.0   0.0
-500.0   90.0   16.666666666666668
-450.0   120.0   16.666666666666668
-450.0   90.0   16.666666666666668
-450.0   90.0   0.0
-500.0   90.0   16.666666666666668
-450.0   120.0   16.666666666666668
-450.0   90.0   0.0
-500.0   120.0   0.0
-500.0   90.0   16.666666666666668
-450.0   90.0   16.666666666666668
-500.0   120.0   16.666666666666668
-500.0   90.0   33.333333333333336
-450.0   90.0   16.666666666666668
-450.0   120.0   16.666666666666668
-500.0   120.0   16.666666666666668
-450.0   120.0   33.333333333333336
-500.0   90.0   33.333333333333336
-500.0   120.0   33.333333333333336
-450.0   120.0   33.333333333333336
-500.0   120.0   16.666666666666668
-500.0   90.0   33.333333333333336
-450.0   120.0   33.333333333333336
-450.0   90.0   33.333333333333336
-450.0   90.0   16.666666666666668
-500.0   90.0   33.333333333333336
-450.0   120.0   33.333333333333336
-450.0   90.0   16.666666666666668
-500.0   120.0   16.666666666666668
-500.0   90.0   33.333333333333336
-450.0   90.0   33.333333333333336
-500.0   120.0   33.333333333333336
-500.0   90.0   50.0
-450.0   90.0   33.333333333333336
-450.0   120.0   33.333333333333336
-500.0   120.0   33.333333333333336
-450.0   120.0   50.0
-500.0   90.0   50.0
-500.0   120.0   50.0
-450.0   120.0   50.0
-500.0   120.0   33.333333333333336
-500.0   90.0   50.0
-450.0   120.0   50.0
-450.0   90.0   50.0
-450.0   90.0   33.333333333333336
-500.0   90.0   50.0
-450.0   120.0   50.0
-450.0   90.0   33.333333333333336
-500.0   120.0   33.333333333333336
-500.0   120.0   0.0
-450.0   120.0   0.0
-500.0   150.0   0.0
-500.0   120.0   16.666666666666668
-450.0   120.0   0.0
-450.0   150.0   0.0
-500.0   150.0   0.0
-450.0   150.0   16.666666666666668
-500.0   120.0   16.666666666666668
-500.0   150.0   16.666666666666668
-450.0   150.0   16.666666666666668
-500.0   150.0   0.0
-500.0   120.0   16.666666666666668
-450.0   150.0   16.666666666666668
-450.0   120.0   16.666666666666668
-450.0   120.0   0.0
-500.0   120.0   16.666666666666668
-450.0   150.0   16.666666666666668
-450.0   120.0   0.0
-500.0   150.0   0.0
-500.0   120.0   16.666666666666668
-450.0   120.0   16.666666666666668
-500.0   150.0   16.666666666666668
-500.0   120.0   33.333333333333336
-450.0   120.0   16.666666666666668
-450.0   150.0   16.666666666666668
-500.0   150.0   16.666666666666668
-450.0   150.0   33.333333333333336
-500.0   120.0   33.333333333333336
-500.0   150.0   33.333333333333336
-450.0   150.0   33.333333333333336
-500.0   150.0   16.666666666666668
-500.0   120.0   33.333333333333336
-450.0   150.0   33.333333333333336
-450.0   120.0   33.333333333333336
-450.0   120.0   16.666666666666668
-500.0   120.0   33.333333333333336
-450.0   150.0   33.333333333333336
-450.0   120.0   16.666666666666668
-500.0   150.0   16.666666666666668
-500.0   120.0   33.333333333333336
-450.0   120.0   33.333333333333336
-500.0   150.0   33.333333333333336
-500.0   120.0   50.0
-450.0   120.0   33.333333333333336
-450.0   150.0   33.333333333333336
-500.0   150.0   33.333333333333336
-450.0   150.0   50.0
-500.0   120.0   50.0
-500.0   150.0   50.0
-450.0   150.0   50.0
-500.0   150.0   33.333333333333336
-500.0   120.0   50.0
-450.0   150.0   50.0
-450.0   120.0   50.0
-450.0   120.0   33.333333333333336
-500.0   120.0   50.0
-450.0   150.0   50.0
-450.0   120.0   33.333333333333336
-500.0   150.0   33.333333333333336
-450.0   0.0   0.0
-400.0   0.0   0.0
-450.0   30.0   0.0
-450.0   0.0   16.666666666666668
-400.0   0.0   0.0
-400.0   30.0   0.0
-450.0   30.0   0.0
-400.0   30.0   16.666666666666668
-450.0   0.0   16.666666666666668
-450.0   30.0   16.666666666666668
-400.0   30.0   16.666666666666668
-450.0   30.0   0.0
-450.0   0.0   16.666666666666668
-400.0   30.0   16.666666666666668
-400.0   0.0   16.666666666666668
-400.0   0.0   0.0
-450.0   0.0   16.666666666666668
-400.0   30.0   16.666666666666668
-400.0   0.0   0.0
-450.0   30.0   0.0
-450.0   0.0   16.666666666666668
-400.0   0.0   16.666666666666668
-450.0   30.0   16.666666666666668
-450.0   0.0   33.333333333333336
-400.0   0.0   16.666666666666668
-400.0   30.0   16.666666666666668
-450.0   30.0   16.666666666666668
-400.0   30.0   33.333333333333336
-450.0   0.0   33.333333333333336
-450.0   30.0   33.333333333333336
-400.0   30.0   33.333333333333336
-450.0   30.0   16.666666666666668
-450.0   0.0   33.333333333333336
-400.0   30.0   33.333333333333336
-400.0   0.0   33.333333333333336
-400.0   0.0   16.666666666666668
-450.0   0.0   33.333333333333336
-400.0   30.0   33.333333333333336
-400.0   0.0   16.666666666666668
-450.0   30.0   16.666666666666668
-450.0   0.0   33.333333333333336
-400.0   0.0   33.333333333333336
-450.0   30.0   33.333333333333336
-450.0   0.0   50.0
-400.0   0.0   33.333333333333336
-400.0   30.0   33.333333333333336
-450.0   30.0   33.333333333333336
-400.0   30.0   50.0
-450.0   0.0   50.0
-450.0   30.0   50.0
-400.0   30.0   50.0
-450.0   30.0   33.333333333333336
-450.0   0.0   50.0
-400.0   30.0   50.0
-400.0   0.0   50.0
-400.0   0.0   33.333333333333336
-450.0   0.0   50.0
-400.0   30.0   50.0
-400.0   0.0   33.333333333333336
-450.0   30.0   33.333333333333336
-450.0   30.0   0.0
-400.0   30.0   0.0
-450.0   60.0   0.0
-450.0   30.0   16.666666666666668
-400.0   30.0   0.0
-400.0   60.0   0.0
-450.0   60.0   0.0
-400.0   60.0   16.666666666666668
-450.0   30.0   16.666666666666668
-450.0   60.0   16.666666666666668
-400.0   60.0   16.666666666666668
-450.0   60.0   0.0
-450.0   30.0   16.666666666666668
-400.0   60.0   16.666666666666668
-400.0   30.0   16.666666666666668
-400.0   30.0   0.0
-450.0   30.0   16.666666666666668
-400.0   60.0   16.666666666666668
-400.0   30.0   0.0
-450.0   60.0   0.0
-450.0   30.0   16.666666666666668
-400.0   30.0   16.666666666666668
-450.0   60.0   16.666666666666668
-450.0   30.0   33.333333333333336
-400.0   30.0   16.666666666666668
-400.0   60.0   16.666666666666668
-450.0   60.0   16.666666666666668
-400.0   60.0   33.333333333333336
-450.0   30.0   33.333333333333336
-450.0   60.0   33.333333333333336
-400.0   60.0   33.333333333333336
-450.0   60.0   16.666666666666668
-450.0   30.0   33.333333333333336
-400.0   60.0   33.333333333333336
-400.0   30.0   33.333333333333336
-400.0   30.0   16.666666666666668
-450.0   30.0   33.333333333333336
-400.0   60.0   33.333333333333336
-400.0   30.0   16.666666666666668
-450.0   60.0   16.666666666666668
-450.0   30.0   33.333333333333336
-400.0   30.0   33.333333333333336
-450.0   60.0   33.333333333333336
-450.0   30.0   50.0
-400.0   30.0   33.333333333333336
-400.0   60.0   33.333333333333336
-450.0   60.0   33.333333333333336
-400.0   60.0   50.0
-450.0   30.0   50.0
-450.0   60.0   50.0
-400.0   60.0   50.0
-450.0   60.0   33.333333333333336
-450.0   30.0   50.0
-400.0   60.0   50.0
-400.0   30.0   50.0
-400.0   30.0   33.333333333333336
-450.0   30.0   50.0
-400.0   60.0   50.0
-400.0   30.0   33.333333333333336
-450.0   60.0   33.333333333333336
-450.0   60.0   0.0
-400.0   60.0   0.0
-450.0   90.0   0.0
-450.0   60.0   16.666666666666668
-400.0   60.0   0.0
-400.0   90.0   0.0
-450.0   90.0   0.0
-400.0   90.0   16.666666666666668
-450.0   60.0   16.666666666666668
-450.0   90.0   16.666666666666668
-400.0   90.0   16.666666666666668
-450.0   90.0   0.0
-450.0   60.0   16.666666666666668
-400.0   90.0   16.666666666666668
-400.0   60.0   16.666666666666668
-400.0   60.0   0.0
-450.0   60.0   16.666666666666668
-400.0   90.0   16.666666666666668
-400.0   60.0   0.0
-450.0   90.0   0.0
-450.0   60.0   16.666666666666668
-400.0   60.0   16.666666666666668
-450.0   90.0   16.666666666666668
-450.0   60.0   33.333333333333336
-400.0   60.0   16.666666666666668
-400.0   90.0   16.666666666666668
-450.0   90.0   16.666666666666668
-400.0   90.0   33.333333333333336
-450.0   60.0   33.333333333333336
-450.0   90.0   33.333333333333336
-400.0   90.0   33.333333333333336
-450.0   90.0   16.666666666666668
-450.0   60.0   33.333333333333336
-400.0   90.0   33.333333333333336
-400.0   60.0   33.333333333333336
-400.0   60.0   16.666666666666668
-450.0   60.0   33.333333333333336
-400.0   90.0   33.333333333333336
-400.0   60.0   16.666666666666668
-450.0   90.0   16.666666666666668
-450.0   60.0   33.333333333333336
-400.0   60.0   33.333333333333336
-450.0   90.0   33.333333333333336
-450.0   60.0   50.0
-400.0   60.0   33.333333333333336
-400.0   90.0   33.333333333333336
-450.0   90.0   33.333333333333336
-400.0   90.0   50.0
-450.0   60.0   50.0
-450.0   90.0   50.0
-400.0   90.0   50.0
-450.0   90.0   33.333333333333336
-450.0   60.0   50.0
-400.0   90.0   50.0
-400.0   60.0   50.0
-400.0   60.0   33.333333333333336
-450.0   60.0   50.0
-400.0   90.0   50.0
-400.0   60.0   33.333333333333336
-450.0   90.0   33.333333333333336
-450.0   90.0   0.0
-400.0   90.0   0.0
-450.0   120.0   0.0
-450.0   90.0   16.666666666666668
-400.0   90.0   0.0
-400.0   120.0   0.0
-450.0   120.0   0.0
-400.0   120.0   16.666666666666668
-450.0   90.0   16.666666666666668
-450.0   120.0   16.666666666666668
-400.0   120.0   16.666666666666668
-450.0   120.0   0.0
-450.0   90.0   16.666666666666668
-400.0   120.0   16.666666666666668
-400.0   90.0   16.666666666666668
-400.0   90.0   0.0
-450.0   90.0   16.666666666666668
-400.0   120.0   16.666666666666668
-400.0   90.0   0.0
-450.0   120.0   0.0
-450.0   90.0   16.666666666666668
-400.0   90.0   16.666666666666668
-450.0   120.0   16.666666666666668
-450.0   90.0   33.333333333333336
-400.0   90.0   16.666666666666668
-400.0   120.0   16.666666666666668
-450.0   120.0   16.666666666666668
-400.0   120.0   33.333333333333336
-450.0   90.0   33.333333333333336
-450.0   120.0   33.333333333333336
-400.0   120.0   33.333333333333336
-450.0   120.0   16.666666666666668
-450.0   90.0   33.333333333333336
-400.0   120.0   33.333333333333336
-400.0   90.0   33.333333333333336
-400.0   90.0   16.666666666666668
-450.0   90.0   33.333333333333336
-400.0   120.0   33.333333333333336
-400.0   90.0   16.666666666666668
-450.0   120.0   16.666666666666668
-450.0   90.0   33.333333333333336
-400.0   90.0   33.333333333333336
-450.0   120.0   33.333333333333336
-450.0   90.0   50.0
-400.0   90.0   33.333333333333336
-400.0   120.0   33.333333333333336
-450.0   120.0   33.333333333333336
-400.0   120.0   50.0
-450.0   90.0   50.0
-450.0   120.0   50.0
-400.0   120.0   50.0
-450.0   120.0   33.333333333333336
-450.0   90.0   50.0
-400.0   120.0   50.0
-400.0   90.0   50.0
-400.0   90.0   33.333333333333336
-450.0   90.0   50.0
-400.0   120.0   50.0
-400.0   90.0   33.333333333333336
-450.0   120.0   33.333333333333336
-450.0   120.0   0.0
-400.0   120.0   0.0
-450.0   150.0   0.0
-450.0   120.0   16.666666666666668
-400.0   120.0   0.0
-400.0   150.0   0.0
-450.0   150.0   0.0
-400.0   150.0   16.666666666666668
-450.0   120.0   16.666666666666668
-450.0   150.0   16.666666666666668
-400.0   150.0   16.666666666666668
-450.0   150.0   0.0
-450.0   120.0   16.666666666666668
-400.0   150.0   16.666666666666668
-400.0   120.0   16.666666666666668
-400.0   120.0   0.0
-450.0   120.0   16.666666666666668
-400.0   150.0   16.666666666666668
-400.0   120.0   0.0
-450.0   150.0   0.0
-450.0   120.0   16.666666666666668
-400.0   120.0   16.666666666666668
-450.0   150.0   16.666666666666668
-450.0   120.0   33.333333333333336
-400.0   120.0   16.666666666666668
-400.0   150.0   16.666666666666668
-450.0   150.0   16.666666666666668
-400.0   150.0   33.333333333333336
-450.0   120.0   33.333333333333336
-450.0   150.0   33.333333333333336
-400.0   150.0   33.333333333333336
-450.0   150.0   16.666666666666668
-450.0   120.0   33.333333333333336
-400.0   150.0   33.333333333333336
-400.0   120.0   33.333333333333336
-400.0   120.0   16.666666666666668
-450.0   120.0   33.333333333333336
-400.0   150.0   33.333333333333336
-400.0   120.0   16.666666666666668
-450.0   150.0   16.666666666666668
-450.0   120.0   33.333333333333336
-400.0   120.0   33.333333333333336
-450.0   150.0   33.333333333333336
-450.0   120.0   50.0
-400.0   120.0   33.333333333333336
-400.0   150.0   33.333333333333336
-450.0   150.0   33.333333333333336
-400.0   150.0   50.0
-450.0   120.0   50.0
-450.0   150.0   50.0
-400.0   150.0   50.0
-450.0   150.0   33.333333333333336
-450.0   120.0   50.0
-400.0   150.0   50.0
-400.0   120.0   50.0
-400.0   120.0   33.333333333333336
-450.0   120.0   50.0
-400.0   150.0   50.0
-400.0   120.0   33.333333333333336
-450.0   150.0   33.333333333333336
-400.0   0.0   0.0
-350.0   0.0   0.0
-400.0   30.0   0.0
-400.0   0.0   16.666666666666668
-350.0   0.0   0.0
-350.0   30.0   0.0
-400.0   30.0   0.0
-350.0   30.0   16.666666666666668
-400.0   0.0   16.666666666666668
-400.0   30.0   16.666666666666668
-350.0   30.0   16.666666666666668
-400.0   30.0   0.0
-400.0   0.0   16.666666666666668
-350.0   30.0   16.666666666666668
-350.0   0.0   16.666666666666668
-350.0   0.0   0.0
-400.0   0.0   16.666666666666668
-350.0   30.0   16.666666666666668
-350.0   0.0   0.0
-400.0   30.0   0.0
-400.0   0.0   16.666666666666668
-350.0   0.0   16.666666666666668
-400.0   30.0   16.666666666666668
-400.0   0.0   33.333333333333336
-350.0   0.0   16.666666666666668
-350.0   30.0   16.666666666666668
-400.0   30.0   16.666666666666668
-350.0   30.0   33.333333333333336
-400.0   0.0   33.333333333333336
-400.0   30.0   33.333333333333336
-350.0   30.0   33.333333333333336
-400.0   30.0   16.666666666666668
-400.0   0.0   33.333333333333336
-350.0   30.0   33.333333333333336
-350.0   0.0   33.333333333333336
-350.0   0.0   16.666666666666668
-400.0   0.0   33.333333333333336
-350.0   30.0   33.333333333333336
-350.0   0.0   16.666666666666668
-400.0   30.0   16.666666666666668
-400.0   0.0   33.333333333333336
-350.0   0.0   33.333333333333336
-400.0   30.0   33.333333333333336
-400.0   0.0   50.0
-350.0   0.0   33.333333333333336
-350.0   30.0   33.333333333333336
-400.0   30.0   33.333333333333336
-350.0   30.0   50.0
-400.0   0.0   50.0
-400.0   30.0   50.0
-350.0   30.0   50.0
-400.0   30.0   33.333333333333336
-400.0   0.0   50.0
-350.0   30.0   50.0
-350.0   0.0   50.0
-350.0   0.0   33.333333333333336
-400.0   0.0   50.0
-350.0   30.0   50.0
-350.0   0.0   33.333333333333336
-400.0   30.0   33.333333333333336
-400.0   30.0   0.0
-350.0   30.0   0.0
-400.0   60.0   0.0
-400.0   30.0   16.666666666666668
-350.0   30.0   0.0
-350.0   60.0   0.0
-400.0   60.0   0.0
-350.0   60.0   16.666666666666668
-400.0   30.0   16.666666666666668
-400.0   60.0   16.666666666666668
-350.0   60.0   16.666666666666668
-400.0   60.0   0.0
-400.0   30.0   16.666666666666668
-350.0   60.0   16.666666666666668
-350.0   30.0   16.666666666666668
-350.0   30.0   0.0
-400.0   30.0   16.666666666666668
-350.0   60.0   16.666666666666668
-350.0   30.0   0.0
-400.0   60.0   0.0
-400.0   30.0   16.666666666666668
-350.0   30.0   16.666666666666668
-400.0   60.0   16.666666666666668
-400.0   30.0   33.333333333333336
-350.0   30.0   16.666666666666668
-350.0   60.0   16.666666666666668
-400.0   60.0   16.666666666666668
-350.0   60.0   33.333333333333336
-400.0   30.0   33.333333333333336
-400.0   60.0   33.333333333333336
-350.0   60.0   33.333333333333336
-400.0   60.0   16.666666666666668
-400.0   30.0   33.333333333333336
-350.0   60.0   33.333333333333336
-350.0   30.0   33.333333333333336
-350.0   30.0   16.666666666666668
-400.0   30.0   33.333333333333336
-350.0   60.0   33.333333333333336
-350.0   30.0   16.666666666666668
-400.0   60.0   16.666666666666668
-400.0   30.0   33.333333333333336
-350.0   30.0   33.333333333333336
-400.0   60.0   33.333333333333336
-400.0   30.0   50.0
-350.0   30.0   33.333333333333336
-350.0   60.0   33.333333333333336
-400.0   60.0   33.333333333333336
-350.0   60.0   50.0
-400.0   30.0   50.0
-400.0   60.0   50.0
-350.0   60.0   50.0
-400.0   60.0   33.333333333333336
-400.0   30.0   50.0
-350.0   60.0   50.0
-350.0   30.0   50.0
-350.0   30.0   33.333333333333336
-400.0   30.0   50.0
-350.0   60.0   50.0
-350.0   30.0   33.333333333333336
-400.0   60.0   33.333333333333336
-400.0   60.0   0.0
-350.0   60.0   0.0
-400.0   90.0   0.0
-400.0   60.0   16.666666666666668
-350.0   60.0   0.0
-350.0   90.0   0.0
-400.0   90.0   0.0
-350.0   90.0   16.666666666666668
-400.0   60.0   16.666666666666668
-400.0   90.0   16.666666666666668
-350.0   90.0   16.666666666666668
-400.0   90.0   0.0
-400.0   60.0   16.666666666666668
-350.0   90.0   16.666666666666668
-350.0   60.0   16.666666666666668
-350.0   60.0   0.0
-400.0   60.0   16.666666666666668
-350.0   90.0   16.666666666666668
-350.0   60.0   0.0
-400.0   90.0   0.0
-400.0   60.0   16.666666666666668
-350.0   60.0   16.666666666666668
-400.0   90.0   16.666666666666668
-400.0   60.0   33.333333333333336
-350.0   60.0   16.666666666666668
-350.0   90.0   16.666666666666668
-400.0   90.0   16.666666666666668
-350.0   90.0   33.333333333333336
-400.0   60.0   33.333333333333336
-400.0   90.0   33.333333333333336
-350.0   90.0   33.333333333333336
-400.0   90.0   16.666666666666668
-400.0   60.0   33.333333333333336
-350.0   90.0   33.333333333333336
-350.0   60.0   33.333333333333336
-350.0   60.0   16.666666666666668
-400.0   60.0   33.333333333333336
-350.0   90.0   33.333333333333336
-350.0   60.0   16.666666666666668
-400.0   90.0   16.666666666666668
-400.0   60.0   33.333333333333336
-350.0   60.0   33.333333333333336
-400.0   90.0   33.333333333333336
-400.0   60.0   50.0
-350.0   60.0   33.333333333333336
-350.0   90.0   33.333333333333336
-400.0   90.0   33.333333333333336
-350.0   90.0   50.0
-400.0   60.0   50.0
-400.0   90.0   50.0
-350.0   90.0   50.0
-400.0   90.0   33.333333333333336
-400.0   60.0   50.0
-350.0   90.0   50.0
-350.0   60.0   50.0
-350.0   60.0   33.333333333333336
-400.0   60.0   50.0
-350.0   90.0   50.0
-350.0   60.0   33.333333333333336
-400.0   90.0   33.333333333333336
-400.0   90.0   0.0
-350.0   90.0   0.0
-400.0   120.0   0.0
-400.0   90.0   16.666666666666668
-350.0   90.0   0.0
-350.0   120.0   0.0
-400.0   120.0   0.0
-350.0   120.0   16.666666666666668
-400.0   90.0   16.666666666666668
-400.0   120.0   16.666666666666668
-350.0   120.0   16.666666666666668
-400.0   120.0   0.0
-400.0   90.0   16.666666666666668
-350.0   120.0   16.666666666666668
-350.0   90.0   16.666666666666668
-350.0   90.0   0.0
-400.0   90.0   16.666666666666668
-350.0   120.0   16.666666666666668
-350.0   90.0   0.0
-400.0   120.0   0.0
-400.0   90.0   16.666666666666668
-350.0   90.0   16.666666666666668
-400.0   120.0   16.666666666666668
-400.0   90.0   33.333333333333336
-350.0   90.0   16.666666666666668
-350.0   120.0   16.666666666666668
-400.0   120.0   16.666666666666668
-350.0   120.0   33.333333333333336
-400.0   90.0   33.333333333333336
-400.0   120.0   33.333333333333336
-350.0   120.0   33.333333333333336
-400.0   120.0   16.666666666666668
-400.0   90.0   33.333333333333336
-350.0   120.0   33.333333333333336
-350.0   90.0   33.333333333333336
-350.0   90.0   16.666666666666668
-400.0   90.0   33.333333333333336
-350.0   120.0   33.333333333333336
-350.0   90.0   16.666666666666668
-400.0   120.0   16.666666666666668
-400.0   90.0   33.333333333333336
-350.0   90.0   33.333333333333336
-400.0   120.0   33.333333333333336
-400.0   90.0   50.0
-350.0   90.0   33.333333333333336
-350.0   120.0   33.333333333333336
-400.0   120.0   33.333333333333336
-350.0   120.0   50.0
-400.0   90.0   50.0
-400.0   120.0   50.0
-350.0   120.0   50.0
-400.0   120.0   33.333333333333336
-400.0   90.0   50.0
-350.0   120.0   50.0
-350.0   90.0   50.0
-350.0   90.0   33.333333333333336
-400.0   90.0   50.0
-350.0   120.0   50.0
-350.0   90.0   33.333333333333336
-400.0   120.0   33.333333333333336
-400.0   120.0   0.0
-350.0   120.0   0.0
-400.0   150.0   0.0
-400.0   120.0   16.666666666666668
-350.0   120.0   0.0
-350.0   150.0   0.0
-400.0   150.0   0.0
-350.0   150.0   16.666666666666668
-400.0   120.0   16.666666666666668
-400.0   150.0   16.666666666666668
-350.0   150.0   16.666666666666668
-400.0   150.0   0.0
-400.0   120.0   16.666666666666668
-350.0   150.0   16.666666666666668
-350.0   120.0   16.666666666666668
-350.0   120.0   0.0
-400.0   120.0   16.666666666666668
-350.0   150.0   16.666666666666668
-350.0   120.0   0.0
-400.0   150.0   0.0
-400.0   120.0   16.666666666666668
-350.0   120.0   16.666666666666668
-400.0   150.0   16.666666666666668
-400.0   120.0   33.333333333333336
-350.0   120.0   16.666666666666668
-350.0   150.0   16.666666666666668
-400.0   150.0   16.666666666666668
-350.0   150.0   33.333333333333336
-400.0   120.0   33.333333333333336
-400.0   150.0   33.333333333333336
-350.0   150.0   33.333333333333336
-400.0   150.0   16.666666666666668
-400.0   120.0   33.333333333333336
-350.0   150.0   33.333333333333336
-350.0   120.0   33.333333333333336
-350.0   120.0   16.666666666666668
-400.0   120.0   33.333333333333336
-350.0   150.0   33.333333333333336
-350.0   120.0   16.666666666666668
-400.0   150.0   16.666666666666668
-400.0   120.0   33.333333333333336
-350.0   120.0   33.333333333333336
-400.0   150.0   33.333333333333336
-400.0   120.0   50.0
-350.0   120.0   33.333333333333336
-350.0   150.0   33.333333333333336
-400.0   150.0   33.333333333333336
-350.0   150.0   50.0
-400.0   120.0   50.0
-400.0   150.0   50.0
-350.0   150.0   50.0
-400.0   150.0   33.333333333333336
-400.0   120.0   50.0
-350.0   150.0   50.0
-350.0   120.0   50.0
-350.0   120.0   33.333333333333336
-400.0   120.0   50.0
-350.0   150.0   50.0
-350.0   120.0   33.333333333333336
-400.0   150.0   33.333333333333336
-350.0   0.0   0.0
-300.0   0.0   0.0
-350.0   30.0   0.0
-350.0   0.0   16.666666666666668
-300.0   0.0   0.0
-300.0   30.0   0.0
-350.0   30.0   0.0
-300.0   30.0   16.666666666666668
-350.0   0.0   16.666666666666668
-350.0   30.0   16.666666666666668
-300.0   30.0   16.666666666666668
-350.0   30.0   0.0
-350.0   0.0   16.666666666666668
-300.0   30.0   16.666666666666668
-300.0   0.0   16.666666666666668
-300.0   0.0   0.0
-350.0   0.0   16.666666666666668
-300.0   30.0   16.666666666666668
-300.0   0.0   0.0
-350.0   30.0   0.0
-350.0   0.0   16.666666666666668
-300.0   0.0   16.666666666666668
-350.0   30.0   16.666666666666668
-350.0   0.0   33.333333333333336
-300.0   0.0   16.666666666666668
-300.0   30.0   16.666666666666668
-350.0   30.0   16.666666666666668
-300.0   30.0   33.333333333333336
-350.0   0.0   33.333333333333336
-350.0   30.0   33.333333333333336
-300.0   30.0   33.333333333333336
-350.0   30.0   16.666666666666668
-350.0   0.0   33.333333333333336
-300.0   30.0   33.333333333333336
-300.0   0.0   33.333333333333336
-300.0   0.0   16.666666666666668
-350.0   0.0   33.333333333333336
-300.0   30.0   33.333333333333336
-300.0   0.0   16.666666666666668
-350.0   30.0   16.666666666666668
-350.0   0.0   33.333333333333336
-300.0   0.0   33.333333333333336
-350.0   30.0   33.333333333333336
-350.0   0.0   50.0
-300.0   0.0   33.333333333333336
-300.0   30.0   33.333333333333336
-350.0   30.0   33.333333333333336
-300.0   30.0   50.0
-350.0   0.0   50.0
-350.0   30.0   50.0
-300.0   30.0   50.0
-350.0   30.0   33.333333333333336
-350.0   0.0   50.0
-300.0   30.0   50.0
-300.0   0.0   50.0
-300.0   0.0   33.333333333333336
-350.0   0.0   50.0
-300.0   30.0   50.0
-300.0   0.0   33.333333333333336
-350.0   30.0   33.333333333333336
-350.0   30.0   0.0
-300.0   30.0   0.0
-350.0   60.0   0.0
-350.0   30.0   16.666666666666668
-300.0   30.0   0.0
-300.0   60.0   0.0
-350.0   60.0   0.0
-300.0   60.0   16.666666666666668
-350.0   30.0   16.666666666666668
-350.0   60.0   16.666666666666668
-300.0   60.0   16.666666666666668
-350.0   60.0   0.0
-350.0   30.0   16.666666666666668
-300.0   60.0   16.666666666666668
-300.0   30.0   16.666666666666668
-300.0   30.0   0.0
-350.0   30.0   16.666666666666668
-300.0   60.0   16.666666666666668
-300.0   30.0   0.0
-350.0   60.0   0.0
-350.0   30.0   16.666666666666668
-300.0   30.0   16.666666666666668
-350.0   60.0   16.666666666666668
-350.0   30.0   33.333333333333336
-300.0   30.0   16.666666666666668
-300.0   60.0   16.666666666666668
-350.0   60.0   16.666666666666668
-300.0   60.0   33.333333333333336
-350.0   30.0   33.333333333333336
-350.0   60.0   33.333333333333336
-300.0   60.0   33.333333333333336
-350.0   60.0   16.666666666666668
-350.0   30.0   33.333333333333336
-300.0   60.0   33.333333333333336
-300.0   30.0   33.333333333333336
-300.0   30.0   16.666666666666668
-350.0   30.0   33.333333333333336
-300.0   60.0   33.333333333333336
-300.0   30.0   16.666666666666668
-350.0   60.0   16.666666666666668
-350.0   30.0   33.333333333333336
-300.0   30.0   33.333333333333336
-350.0   60.0   33.333333333333336
-350.0   30.0   50.0
-300.0   30.0   33.333333333333336
-300.0   60.0   33.333333333333336
-350.0   60.0   33.333333333333336
-300.0   60.0   50.0
-350.0   30.0   50.0
-350.0   60.0   50.0
-300.0   60.0   50.0
-350.0   60.0   33.333333333333336
-350.0   30.0   50.0
-300.0   60.0   50.0
-300.0   30.0   50.0
-300.0   30.0   33.333333333333336
-350.0   30.0   50.0
-300.0   60.0   50.0
-300.0   30.0   33.333333333333336
-350.0   60.0   33.333333333333336
-350.0   60.0   0.0
-300.0   60.0   0.0
-350.0   90.0   0.0
-350.0   60.0   16.666666666666668
-300.0   60.0   0.0
-300.0   90.0   0.0
-350.0   90.0   0.0
-300.0   90.0   16.666666666666668
-350.0   60.0   16.666666666666668
-350.0   90.0   16.666666666666668
-300.0   90.0   16.666666666666668
-350.0   90.0   0.0
-350.0   60.0   16.666666666666668
-300.0   90.0   16.666666666666668
-300.0   60.0   16.666666666666668
-300.0   60.0   0.0
-350.0   60.0   16.666666666666668
-300.0   90.0   16.666666666666668
-300.0   60.0   0.0
-350.0   90.0   0.0
-350.0   60.0   16.666666666666668
-300.0   60.0   16.666666666666668
-350.0   90.0   16.666666666666668
-350.0   60.0   33.333333333333336
-300.0   60.0   16.666666666666668
-300.0   90.0   16.666666666666668
-350.0   90.0   16.666666666666668
-300.0   90.0   33.333333333333336
-350.0   60.0   33.333333333333336
-350.0   90.0   33.333333333333336
-300.0   90.0   33.333333333333336
-350.0   90.0   16.666666666666668
-350.0   60.0   33.333333333333336
-300.0   90.0   33.333333333333336
-300.0   60.0   33.333333333333336
-300.0   60.0   16.666666666666668
-350.0   60.0   33.333333333333336
-300.0   90.0   33.333333333333336
-300.0   60.0   16.666666666666668
-350.0   90.0   16.666666666666668
-350.0   60.0   33.333333333333336
-300.0   60.0   33.333333333333336
-350.0   90.0   33.333333333333336
-350.0   60.0   50.0
-300.0   60.0   33.333333333333336
-300.0   90.0   33.333333333333336
-350.0   90.0   33.333333333333336
-300.0   90.0   50.0
-350.0   60.0   50.0
-350.0   90.0   50.0
-300.0   90.0   50.0
-350.0   90.0   33.333333333333336
-350.0   60.0   50.0
-300.0   90.0   50.0
-300.0   60.0   50.0
-300.0   60.0   33.333333333333336
-350.0   60.0   50.0
-300.0   90.0   50.0
-300.0   60.0   33.333333333333336
-350.0   90.0   33.333333333333336
-350.0   90.0   0.0
-300.0   90.0   0.0
-350.0   120.0   0.0
-350.0   90.0   16.666666666666668
-300.0   90.0   0.0
-300.0   120.0   0.0
-350.0   120.0   0.0
-300.0   120.0   16.666666666666668
-350.0   90.0   16.666666666666668
-350.0   120.0   16.666666666666668
-300.0   120.0   16.666666666666668
-350.0   120.0   0.0
-350.0   90.0   16.666666666666668
-300.0   120.0   16.666666666666668
-300.0   90.0   16.666666666666668
-300.0   90.0   0.0
-350.0   90.0   16.666666666666668
-300.0   120.0   16.666666666666668
-300.0   90.0   0.0
-350.0   120.0   0.0
-350.0   90.0   16.666666666666668
-300.0   90.0   16.666666666666668
-350.0   120.0   16.666666666666668
-350.0   90.0   33.333333333333336
-300.0   90.0   16.666666666666668
-300.0   120.0   16.666666666666668
-350.0   120.0   16.666666666666668
-300.0   120.0   33.333333333333336
-350.0   90.0   33.333333333333336
-350.0   120.0   33.333333333333336
-300.0   120.0   33.333333333333336
-350.0   120.0   16.666666666666668
-350.0   90.0   33.333333333333336
-300.0   120.0   33.333333333333336
-300.0   90.0   33.333333333333336
-300.0   90.0   16.666666666666668
-350.0   90.0   33.333333333333336
-300.0   120.0   33.333333333333336
-300.0   90.0   16.666666666666668
-350.0   120.0   16.666666666666668
-350.0   90.0   33.333333333333336
-300.0   90.0   33.333333333333336
-350.0   120.0   33.333333333333336
-350.0   90.0   50.0
-300.0   90.0   33.333333333333336
-300.0   120.0   33.333333333333336
-350.0   120.0   33.333333333333336
-300.0   120.0   50.0
-350.0   90.0   50.0
-350.0   120.0   50.0
-300.0   120.0   50.0
-350.0   120.0   33.333333333333336
-350.0   90.0   50.0
-300.0   120.0   50.0
-300.0   90.0   50.0
-300.0   90.0   33.333333333333336
-350.0   90.0   50.0
-300.0   120.0   50.0
-300.0   90.0   33.333333333333336
-350.0   120.0   33.333333333333336
-350.0   120.0   0.0
-300.0   120.0   0.0
-350.0   150.0   0.0
-350.0   120.0   16.666666666666668
-300.0   120.0   0.0
-300.0   150.0   0.0
-350.0   150.0   0.0
-300.0   150.0   16.666666666666668
-350.0   120.0   16.666666666666668
-350.0   150.0   16.666666666666668
-300.0   150.0   16.666666666666668
-350.0   150.0   0.0
-350.0   120.0   16.666666666666668
-300.0   150.0   16.666666666666668
-300.0   120.0   16.666666666666668
-300.0   120.0   0.0
-350.0   120.0   16.666666666666668
-300.0   150.0   16.666666666666668
-300.0   120.0   0.0
-350.0   150.0   0.0
-350.0   120.0   16.666666666666668
-300.0   120.0   16.666666666666668
-350.0   150.0   16.666666666666668
-350.0   120.0   33.333333333333336
-300.0   120.0   16.666666666666668
-300.0   150.0   16.666666666666668
-350.0   150.0   16.666666666666668
-300.0   150.0   33.333333333333336
-350.0   120.0   33.333333333333336
-350.0   150.0   33.333333333333336
-300.0   150.0   33.333333333333336
-350.0   150.0   16.666666666666668
-350.0   120.0   33.333333333333336
-300.0   150.0   33.333333333333336
-300.0   120.0   33.333333333333336
-300.0   120.0   16.666666666666668
-350.0   120.0   33.333333333333336
-300.0   150.0   33.333333333333336
-300.0   120.0   16.666666666666668
-350.0   150.0   16.666666666666668
-350.0   120.0   33.333333333333336
-300.0   120.0   33.333333333333336
-350.0   150.0   33.333333333333336
-350.0   120.0   50.0
-300.0   120.0   33.333333333333336
-300.0   150.0   33.333333333333336
-350.0   150.0   33.333333333333336
-300.0   150.0   50.0
-350.0   120.0   50.0
-350.0   150.0   50.0
-300.0   150.0   50.0
-350.0   150.0   33.333333333333336
-350.0   120.0   50.0
-300.0   150.0   50.0
-300.0   120.0   50.0
-300.0   120.0   33.333333333333336
-350.0   120.0   50.0
-300.0   150.0   50.0
-300.0   120.0   33.333333333333336
-350.0   150.0   33.333333333333336
-300.0   0.0   0.0
-250.0   0.0   0.0
-300.0   30.0   0.0
-300.0   0.0   16.666666666666668
-250.0   0.0   0.0
-250.0   30.0   0.0
-300.0   30.0   0.0
-250.0   30.0   16.666666666666668
-300.0   0.0   16.666666666666668
-300.0   30.0   16.666666666666668
-250.0   30.0   16.666666666666668
-300.0   30.0   0.0
-300.0   0.0   16.666666666666668
-250.0   30.0   16.666666666666668
-250.0   0.0   16.666666666666668
-250.0   0.0   0.0
-300.0   0.0   16.666666666666668
-250.0   30.0   16.666666666666668
-250.0   0.0   0.0
-300.0   30.0   0.0
-300.0   0.0   16.666666666666668
-250.0   0.0   16.666666666666668
-300.0   30.0   16.666666666666668
-300.0   0.0   33.333333333333336
-250.0   0.0   16.666666666666668
-250.0   30.0   16.666666666666668
-300.0   30.0   16.666666666666668
-250.0   30.0   33.333333333333336
-300.0   0.0   33.333333333333336
-300.0   30.0   33.333333333333336
-250.0   30.0   33.333333333333336
-300.0   30.0   16.666666666666668
-300.0   0.0   33.333333333333336
-250.0   30.0   33.333333333333336
-250.0   0.0   33.333333333333336
-250.0   0.0   16.666666666666668
-300.0   0.0   33.333333333333336
-250.0   30.0   33.333333333333336
-250.0   0.0   16.666666666666668
-300.0   30.0   16.666666666666668
-300.0   0.0   33.333333333333336
-250.0   0.0   33.333333333333336
-300.0   30.0   33.333333333333336
-300.0   0.0   50.0
-250.0   0.0   33.333333333333336
-250.0   30.0   33.333333333333336
-300.0   30.0   33.333333333333336
-250.0   30.0   50.0
-300.0   0.0   50.0
-300.0   30.0   50.0
-250.0   30.0   50.0
-300.0   30.0   33.333333333333336
-300.0   0.0   50.0
-250.0   30.0   50.0
-250.0   0.0   50.0
-250.0   0.0   33.333333333333336
-300.0   0.0   50.0
-250.0   30.0   50.0
-250.0   0.0   33.333333333333336
-300.0   30.0   33.333333333333336
-300.0   30.0   0.0
-250.0   30.0   0.0
-300.0   60.0   0.0
-300.0   30.0   16.666666666666668
-250.0   30.0   0.0
-250.0   60.0   0.0
-300.0   60.0   0.0
-250.0   60.0   16.666666666666668
-300.0   30.0   16.666666666666668
-300.0   60.0   16.666666666666668
-250.0   60.0   16.666666666666668
-300.0   60.0   0.0
-300.0   30.0   16.666666666666668
-250.0   60.0   16.666666666666668
-250.0   30.0   16.666666666666668
-250.0   30.0   0.0
-300.0   30.0   16.666666666666668
-250.0   60.0   16.666666666666668
-250.0   30.0   0.0
-300.0   60.0   0.0
-300.0   30.0   16.666666666666668
-250.0   30.0   16.666666666666668
-300.0   60.0   16.666666666666668
-300.0   30.0   33.333333333333336
-250.0   30.0   16.666666666666668
-250.0   60.0   16.666666666666668
-300.0   60.0   16.666666666666668
-250.0   60.0   33.333333333333336
-300.0   30.0   33.333333333333336
-300.0   60.0   33.333333333333336
-250.0   60.0   33.333333333333336
-300.0   60.0   16.666666666666668
-300.0   30.0   33.333333333333336
-250.0   60.0   33.333333333333336
-250.0   30.0   33.333333333333336
-250.0   30.0   16.666666666666668
-300.0   30.0   33.333333333333336
-250.0   60.0   33.333333333333336
-250.0   30.0   16.666666666666668
-300.0   60.0   16.666666666666668
-300.0   30.0   33.333333333333336
-250.0   30.0   33.333333333333336
-300.0   60.0   33.333333333333336
-300.0   30.0   50.0
-250.0   30.0   33.333333333333336
-250.0   60.0   33.333333333333336
-300.0   60.0   33.333333333333336
-250.0   60.0   50.0
-300.0   30.0   50.0
-300.0   60.0   50.0
-250.0   60.0   50.0
-300.0   60.0   33.333333333333336
-300.0   30.0   50.0
-250.0   60.0   50.0
-250.0   30.0   50.0
-250.0   30.0   33.333333333333336
-300.0   30.0   50.0
-250.0   60.0   50.0
-250.0   30.0   33.333333333333336
-300.0   60.0   33.333333333333336
-300.0   60.0   0.0
-250.0   60.0   0.0
-300.0   90.0   0.0
-300.0   60.0   16.666666666666668
-250.0   60.0   0.0
-250.0   90.0   0.0
-300.0   90.0   0.0
-250.0   90.0   16.666666666666668
-300.0   60.0   16.666666666666668
-300.0   90.0   16.666666666666668
-250.0   90.0   16.666666666666668
-300.0   90.0   0.0
-300.0   60.0   16.666666666666668
-250.0   90.0   16.666666666666668
-250.0   60.0   16.666666666666668
-250.0   60.0   0.0
-300.0   60.0   16.666666666666668
-250.0   90.0   16.666666666666668
-250.0   60.0   0.0
-300.0   90.0   0.0
-300.0   60.0   16.666666666666668
-250.0   60.0   16.666666666666668
-300.0   90.0   16.666666666666668
-300.0   60.0   33.333333333333336
-250.0   60.0   16.666666666666668
-250.0   90.0   16.666666666666668
-300.0   90.0   16.666666666666668
-250.0   90.0   33.333333333333336
-300.0   60.0   33.333333333333336
-300.0   90.0   33.333333333333336
-250.0   90.0   33.333333333333336
-300.0   90.0   16.666666666666668
-300.0   60.0   33.333333333333336
-250.0   90.0   33.333333333333336
-250.0   60.0   33.333333333333336
-250.0   60.0   16.666666666666668
-300.0   60.0   33.333333333333336
-250.0   90.0   33.333333333333336
-250.0   60.0   16.666666666666668
-300.0   90.0   16.666666666666668
-300.0   60.0   33.333333333333336
-250.0   60.0   33.333333333333336
-300.0   90.0   33.333333333333336
-300.0   60.0   50.0
-250.0   60.0   33.333333333333336
-250.0   90.0   33.333333333333336
-300.0   90.0   33.333333333333336
-250.0   90.0   50.0
-300.0   60.0   50.0
-300.0   90.0   50.0
-250.0   90.0   50.0
-300.0   90.0   33.333333333333336
-300.0   60.0   50.0
-250.0   90.0   50.0
-250.0   60.0   50.0
-250.0   60.0   33.333333333333336
-300.0   60.0   50.0
-250.0   90.0   50.0
-250.0   60.0   33.333333333333336
-300.0   90.0   33.333333333333336
-300.0   90.0   0.0
-250.0   90.0   0.0
-300.0   120.0   0.0
-300.0   90.0   16.666666666666668
-250.0   90.0   0.0
-250.0   120.0   0.0
-300.0   120.0   0.0
-250.0   120.0   16.666666666666668
-300.0   90.0   16.666666666666668
-300.0   120.0   16.666666666666668
-250.0   120.0   16.666666666666668
-300.0   120.0   0.0
-300.0   90.0   16.666666666666668
-250.0   120.0   16.666666666666668
-250.0   90.0   16.666666666666668
-250.0   90.0   0.0
-300.0   90.0   16.666666666666668
-250.0   120.0   16.666666666666668
-250.0   90.0   0.0
-300.0   120.0   0.0
-300.0   90.0   16.666666666666668
-250.0   90.0   16.666666666666668
-300.0   120.0   16.666666666666668
-300.0   90.0   33.333333333333336
-250.0   90.0   16.666666666666668
-250.0   120.0   16.666666666666668
-300.0   120.0   16.666666666666668
-250.0   120.0   33.333333333333336
-300.0   90.0   33.333333333333336
-300.0   120.0   33.333333333333336
-250.0   120.0   33.333333333333336
-300.0   120.0   16.666666666666668
-300.0   90.0   33.333333333333336
-250.0   120.0   33.333333333333336
-250.0   90.0   33.333333333333336
-250.0   90.0   16.666666666666668
-300.0   90.0   33.333333333333336
-250.0   120.0   33.333333333333336
-250.0   90.0   16.666666666666668
-300.0   120.0   16.666666666666668
-300.0   90.0   33.333333333333336
-250.0   90.0   33.333333333333336
-300.0   120.0   33.333333333333336
-300.0   90.0   50.0
-250.0   90.0   33.333333333333336
-250.0   120.0   33.333333333333336
-300.0   120.0   33.333333333333336
-250.0   120.0   50.0
-300.0   90.0   50.0
-300.0   120.0   50.0
-250.0   120.0   50.0
-300.0   120.0   33.333333333333336
-300.0   90.0   50.0
-250.0   120.0   50.0
-250.0   90.0   50.0
-250.0   90.0   33.333333333333336
-300.0   90.0   50.0
-250.0   120.0   50.0
-250.0   90.0   33.333333333333336
-300.0   120.0   33.333333333333336
-300.0   120.0   0.0
-250.0   120.0   0.0
-300.0   150.0   0.0
-300.0   120.0   16.666666666666668
-250.0   120.0   0.0
-250.0   150.0   0.0
-300.0   150.0   0.0
-250.0   150.0   16.666666666666668
-300.0   120.0   16.666666666666668
-300.0   150.0   16.666666666666668
-250.0   150.0   16.666666666666668
-300.0   150.0   0.0
-300.0   120.0   16.666666666666668
-250.0   150.0   16.666666666666668
-250.0   120.0   16.666666666666668
-250.0   120.0   0.0
-300.0   120.0   16.666666666666668
-250.0   150.0   16.666666666666668
-250.0   120.0   0.0
-300.0   150.0   0.0
-300.0   120.0   16.666666666666668
-250.0   120.0   16.666666666666668
-300.0   150.0   16.666666666666668
-300.0   120.0   33.333333333333336
-250.0   120.0   16.666666666666668
-250.0   150.0   16.666666666666668
-300.0   150.0   16.666666666666668
-250.0   150.0   33.333333333333336
-300.0   120.0   33.333333333333336
-300.0   150.0   33.333333333333336
-250.0   150.0   33.333333333333336
-300.0   150.0   16.666666666666668
-300.0   120.0   33.333333333333336
-250.0   150.0   33.333333333333336
-250.0   120.0   33.333333333333336
-250.0   120.0   16.666666666666668
-300.0   120.0   33.333333333333336
-250.0   150.0   33.333333333333336
-250.0   120.0   16.666666666666668
-300.0   150.0   16.666666666666668
-300.0   120.0   33.333333333333336
-250.0   120.0   33.333333333333336
-300.0   150.0   33.333333333333336
-300.0   120.0   50.0
-250.0   120.0   33.333333333333336
-250.0   150.0   33.333333333333336
-300.0   150.0   33.333333333333336
-250.0   150.0   50.0
-300.0   120.0   50.0
-300.0   150.0   50.0
-250.0   150.0   50.0
-300.0   150.0   33.333333333333336
-300.0   120.0   50.0
-250.0   150.0   50.0
-250.0   120.0   50.0
-250.0   120.0   33.333333333333336
-300.0   120.0   50.0
-250.0   150.0   50.0
-250.0   120.0   33.333333333333336
-300.0   150.0   33.333333333333336
-250.0   0.0   0.0
-200.0   0.0   0.0
-250.0   30.0   0.0
-250.0   0.0   16.666666666666668
-200.0   0.0   0.0
-200.0   30.0   0.0
-250.0   30.0   0.0
-200.0   30.0   16.666666666666668
-250.0   0.0   16.666666666666668
-250.0   30.0   16.666666666666668
-200.0   30.0   16.666666666666668
-250.0   30.0   0.0
-250.0   0.0   16.666666666666668
-200.0   30.0   16.666666666666668
-200.0   0.0   16.666666666666668
-200.0   0.0   0.0
-250.0   0.0   16.666666666666668
-200.0   30.0   16.666666666666668
-200.0   0.0   0.0
-250.0   30.0   0.0
-250.0   0.0   16.666666666666668
-200.0   0.0   16.666666666666668
-250.0   30.0   16.666666666666668
-250.0   0.0   33.333333333333336
-200.0   0.0   16.666666666666668
-200.0   30.0   16.666666666666668
-250.0   30.0   16.666666666666668
-200.0   30.0   33.333333333333336
-250.0   0.0   33.333333333333336
-250.0   30.0   33.333333333333336
-200.0   30.0   33.333333333333336
-250.0   30.0   16.666666666666668
-250.0   0.0   33.333333333333336
-200.0   30.0   33.333333333333336
-200.0   0.0   33.333333333333336
-200.0   0.0   16.666666666666668
-250.0   0.0   33.333333333333336
-200.0   30.0   33.333333333333336
-200.0   0.0   16.666666666666668
-250.0   30.0   16.666666666666668
-250.0   0.0   33.333333333333336
-200.0   0.0   33.333333333333336
-250.0   30.0   33.333333333333336
-250.0   0.0   50.0
-200.0   0.0   33.333333333333336
-200.0   30.0   33.333333333333336
-250.0   30.0   33.333333333333336
-200.0   30.0   50.0
-250.0   0.0   50.0
-250.0   30.0   50.0
-200.0   30.0   50.0
-250.0   30.0   33.333333333333336
-250.0   0.0   50.0
-200.0   30.0   50.0
-200.0   0.0   50.0
-200.0   0.0   33.333333333333336
-250.0   0.0   50.0
-200.0   30.0   50.0
-200.0   0.0   33.333333333333336
-250.0   30.0   33.333333333333336
-250.0   30.0   0.0
-200.0   30.0   0.0
-250.0   60.0   0.0
-250.0   30.0   16.666666666666668
-200.0   30.0   0.0
-200.0   60.0   0.0
-250.0   60.0   0.0
-200.0   60.0   16.666666666666668
-250.0   30.0   16.666666666666668
-250.0   60.0   16.666666666666668
-200.0   60.0   16.666666666666668
-250.0   60.0   0.0
-250.0   30.0   16.666666666666668
-200.0   60.0   16.666666666666668
-200.0   30.0   16.666666666666668
-200.0   30.0   0.0
-250.0   30.0   16.666666666666668
-200.0   60.0   16.666666666666668
-200.0   30.0   0.0
-250.0   60.0   0.0
-250.0   30.0   16.666666666666668
-200.0   30.0   16.666666666666668
-250.0   60.0   16.666666666666668
-250.0   30.0   33.333333333333336
-200.0   30.0   16.666666666666668
-200.0   60.0   16.666666666666668
-250.0   60.0   16.666666666666668
-200.0   60.0   33.333333333333336
-250.0   30.0   33.333333333333336
-250.0   60.0   33.333333333333336
-200.0   60.0   33.333333333333336
-250.0   60.0   16.666666666666668
-250.0   30.0   33.333333333333336
-200.0   60.0   33.333333333333336
-200.0   30.0   33.333333333333336
-200.0   30.0   16.666666666666668
-250.0   30.0   33.333333333333336
-200.0   60.0   33.333333333333336
-200.0   30.0   16.666666666666668
-250.0   60.0   16.666666666666668
-250.0   30.0   33.333333333333336
-200.0   30.0   33.333333333333336
-250.0   60.0   33.333333333333336
-250.0   30.0   50.0
-200.0   30.0   33.333333333333336
-200.0   60.0   33.333333333333336
-250.0   60.0   33.333333333333336
-200.0   60.0   50.0
-250.0   30.0   50.0
-250.0   60.0   50.0
-200.0   60.0   50.0
-250.0   60.0   33.333333333333336
-250.0   30.0   50.0
-200.0   60.0   50.0
-200.0   30.0   50.0
-200.0   30.0   33.333333333333336
-250.0   30.0   50.0
-200.0   60.0   50.0
-200.0   30.0   33.333333333333336
-250.0   60.0   33.333333333333336
-250.0   60.0   0.0
-200.0   60.0   0.0
-250.0   90.0   0.0
-250.0   60.0   16.666666666666668
-200.0   60.0   0.0
-200.0   90.0   0.0
-250.0   90.0   0.0
-200.0   90.0   16.666666666666668
-250.0   60.0   16.666666666666668
-250.0   90.0   16.666666666666668
-200.0   90.0   16.666666666666668
-250.0   90.0   0.0
-250.0   60.0   16.666666666666668
-200.0   90.0   16.666666666666668
-200.0   60.0   16.666666666666668
-200.0   60.0   0.0
-250.0   60.0   16.666666666666668
-200.0   90.0   16.666666666666668
-200.0   60.0   0.0
-250.0   90.0   0.0
-250.0   60.0   16.666666666666668
-200.0   60.0   16.666666666666668
-250.0   90.0   16.666666666666668
-250.0   60.0   33.333333333333336
-200.0   60.0   16.666666666666668
-200.0   90.0   16.666666666666668
-250.0   90.0   16.666666666666668
-200.0   90.0   33.333333333333336
-250.0   60.0   33.333333333333336
-250.0   90.0   33.333333333333336
-200.0   90.0   33.333333333333336
-250.0   90.0   16.666666666666668
-250.0   60.0   33.333333333333336
-200.0   90.0   33.333333333333336
-200.0   60.0   33.333333333333336
-200.0   60.0   16.666666666666668
-250.0   60.0   33.333333333333336
-200.0   90.0   33.333333333333336
-200.0   60.0   16.666666666666668
-250.0   90.0   16.666666666666668
-250.0   60.0   33.333333333333336
-200.0   60.0   33.333333333333336
-250.0   90.0   33.333333333333336
-250.0   60.0   50.0
-200.0   60.0   33.333333333333336
-200.0   90.0   33.333333333333336
-250.0   90.0   33.333333333333336
-200.0   90.0   50.0
-250.0   60.0   50.0
-250.0   90.0   50.0
-200.0   90.0   50.0
-250.0   90.0   33.333333333333336
-250.0   60.0   50.0
-200.0   90.0   50.0
-200.0   60.0   50.0
-200.0   60.0   33.333333333333336
-250.0   60.0   50.0
-200.0   90.0   50.0
-200.0   60.0   33.333333333333336
-250.0   90.0   33.333333333333336
-250.0   90.0   0.0
-200.0   90.0   0.0
-250.0   120.0   0.0
-250.0   90.0   16.666666666666668
-200.0   90.0   0.0
-200.0   120.0   0.0
-250.0   120.0   0.0
-200.0   120.0   16.666666666666668
-250.0   90.0   16.666666666666668
-250.0   120.0   16.666666666666668
-200.0   120.0   16.666666666666668
-250.0   120.0   0.0
-250.0   90.0   16.666666666666668
-200.0   120.0   16.666666666666668
-200.0   90.0   16.666666666666668
-200.0   90.0   0.0
-250.0   90.0   16.666666666666668
-200.0   120.0   16.666666666666668
-200.0   90.0   0.0
-250.0   120.0   0.0
-250.0   90.0   16.666666666666668
-200.0   90.0   16.666666666666668
-250.0   120.0   16.666666666666668
-250.0   90.0   33.333333333333336
-200.0   90.0   16.666666666666668
-200.0   120.0   16.666666666666668
-250.0   120.0   16.666666666666668
-200.0   120.0   33.333333333333336
-250.0   90.0   33.333333333333336
-250.0   120.0   33.333333333333336
-200.0   120.0   33.333333333333336
-250.0   120.0   16.666666666666668
-250.0   90.0   33.333333333333336
-200.0   120.0   33.333333333333336
-200.0   90.0   33.333333333333336
-200.0   90.0   16.666666666666668
-250.0   90.0   33.333333333333336
-200.0   120.0   33.333333333333336
-200.0   90.0   16.666666666666668
-250.0   120.0   16.666666666666668
-250.0   90.0   33.333333333333336
-200.0   90.0   33.333333333333336
-250.0   120.0   33.333333333333336
-250.0   90.0   50.0
-200.0   90.0   33.333333333333336
-200.0   120.0   33.333333333333336
-250.0   120.0   33.333333333333336
-200.0   120.0   50.0
-250.0   90.0   50.0
-250.0   120.0   50.0
-200.0   120.0   50.0
-250.0   120.0   33.333333333333336
-250.0   90.0   50.0
-200.0   120.0   50.0
-200.0   90.0   50.0
-200.0   90.0   33.333333333333336
-250.0   90.0   50.0
-200.0   120.0   50.0
-200.0   90.0   33.333333333333336
-250.0   120.0   33.333333333333336
-250.0   120.0   0.0
-200.0   120.0   0.0
-250.0   150.0   0.0
-250.0   120.0   16.666666666666668
-200.0   120.0   0.0
-200.0   150.0   0.0
-250.0   150.0   0.0
-200.0   150.0   16.666666666666668
-250.0   120.0   16.666666666666668
-250.0   150.0   16.666666666666668
-200.0   150.0   16.666666666666668
-250.0   150.0   0.0
-250.0   120.0   16.666666666666668
-200.0   150.0   16.666666666666668
-200.0   120.0   16.666666666666668
-200.0   120.0   0.0
-250.0   120.0   16.666666666666668
-200.0   150.0   16.666666666666668
-200.0   120.0   0.0
-250.0   150.0   0.0
-250.0   120.0   16.666666666666668
-200.0   120.0   16.666666666666668
-250.0   150.0   16.666666666666668
-250.0   120.0   33.333333333333336
-200.0   120.0   16.666666666666668
-200.0   150.0   16.666666666666668
-250.0   150.0   16.666666666666668
-200.0   150.0   33.333333333333336
-250.0   120.0   33.333333333333336
-250.0   150.0   33.333333333333336
-200.0   150.0   33.333333333333336
-250.0   150.0   16.666666666666668
-250.0   120.0   33.333333333333336
-200.0   150.0   33.333333333333336
-200.0   120.0   33.333333333333336
-200.0   120.0   16.666666666666668
-250.0   120.0   33.333333333333336
-200.0   150.0   33.333333333333336
-200.0   120.0   16.666666666666668
-250.0   150.0   16.666666666666668
-250.0   120.0   33.333333333333336
-200.0   120.0   33.333333333333336
-250.0   150.0   33.333333333333336
-250.0   120.0   50.0
-200.0   120.0   33.333333333333336
-200.0   150.0   33.333333333333336
-250.0   150.0   33.333333333333336
-200.0   150.0   50.0
-250.0   120.0   50.0
-250.0   150.0   50.0
-200.0   150.0   50.0
-250.0   150.0   33.333333333333336
-250.0   120.0   50.0
-200.0   150.0   50.0
-200.0   120.0   50.0
-200.0   120.0   33.333333333333336
-250.0   120.0   50.0
-200.0   150.0   50.0
-200.0   120.0   33.333333333333336
-250.0   150.0   33.333333333333336
-200.0   0.0   0.0
-150.0   0.0   0.0
-200.0   30.0   0.0
-200.0   0.0   16.666666666666668
-150.0   0.0   0.0
-150.0   30.0   0.0
-200.0   30.0   0.0
-150.0   30.0   16.666666666666668
-200.0   0.0   16.666666666666668
-200.0   30.0   16.666666666666668
-150.0   30.0   16.666666666666668
-200.0   30.0   0.0
-200.0   0.0   16.666666666666668
-150.0   30.0   16.666666666666668
-150.0   0.0   16.666666666666668
-150.0   0.0   0.0
-200.0   0.0   16.666666666666668
-150.0   30.0   16.666666666666668
-150.0   0.0   0.0
-200.0   30.0   0.0
-200.0   0.0   16.666666666666668
-150.0   0.0   16.666666666666668
-200.0   30.0   16.666666666666668
-200.0   0.0   33.333333333333336
-150.0   0.0   16.666666666666668
-150.0   30.0   16.666666666666668
-200.0   30.0   16.666666666666668
-150.0   30.0   33.333333333333336
-200.0   0.0   33.333333333333336
-200.0   30.0   33.333333333333336
-150.0   30.0   33.333333333333336
-200.0   30.0   16.666666666666668
-200.0   0.0   33.333333333333336
-150.0   30.0   33.333333333333336
-150.0   0.0   33.333333333333336
-150.0   0.0   16.666666666666668
-200.0   0.0   33.333333333333336
-150.0   30.0   33.333333333333336
-150.0   0.0   16.666666666666668
-200.0   30.0   16.666666666666668
-200.0   0.0   33.333333333333336
-150.0   0.0   33.333333333333336
-200.0   30.0   33.333333333333336
-200.0   0.0   50.0
-150.0   0.0   33.333333333333336
-150.0   30.0   33.333333333333336
-200.0   30.0   33.333333333333336
-150.0   30.0   50.0
-200.0   0.0   50.0
-200.0   30.0   50.0
-150.0   30.0   50.0
-200.0   30.0   33.333333333333336
-200.0   0.0   50.0
-150.0   30.0   50.0
-150.0   0.0   50.0
-150.0   0.0   33.333333333333336
-200.0   0.0   50.0
-150.0   30.0   50.0
-150.0   0.0   33.333333333333336
-200.0   30.0   33.333333333333336
-200.0   30.0   0.0
-150.0   30.0   0.0
-200.0   60.0   0.0
-200.0   30.0   16.666666666666668
-150.0   30.0   0.0
-150.0   60.0   0.0
-200.0   60.0   0.0
-150.0   60.0   16.666666666666668
-200.0   30.0   16.666666666666668
-200.0   60.0   16.666666666666668
-150.0   60.0   16.666666666666668
-200.0   60.0   0.0
-200.0   30.0   16.666666666666668
-150.0   60.0   16.666666666666668
-150.0   30.0   16.666666666666668
-150.0   30.0   0.0
-200.0   30.0   16.666666666666668
-150.0   60.0   16.666666666666668
-150.0   30.0   0.0
-200.0   60.0   0.0
-200.0   30.0   16.666666666666668
-150.0   30.0   16.666666666666668
-200.0   60.0   16.666666666666668
-200.0   30.0   33.333333333333336
-150.0   30.0   16.666666666666668
-150.0   60.0   16.666666666666668
-200.0   60.0   16.666666666666668
-150.0   60.0   33.333333333333336
-200.0   30.0   33.333333333333336
-200.0   60.0   33.333333333333336
-150.0   60.0   33.333333333333336
-200.0   60.0   16.666666666666668
-200.0   30.0   33.333333333333336
-150.0   60.0   33.333333333333336
-150.0   30.0   33.333333333333336
-150.0   30.0   16.666666666666668
-200.0   30.0   33.333333333333336
-150.0   60.0   33.333333333333336
-150.0   30.0   16.666666666666668
-200.0   60.0   16.666666666666668
-200.0   30.0   33.333333333333336
-150.0   30.0   33.333333333333336
-200.0   60.0   33.333333333333336
-200.0   30.0   50.0
-150.0   30.0   33.333333333333336
-150.0   60.0   33.333333333333336
-200.0   60.0   33.333333333333336
-150.0   60.0   50.0
-200.0   30.0   50.0
-200.0   60.0   50.0
-150.0   60.0   50.0
-200.0   60.0   33.333333333333336
-200.0   30.0   50.0
-150.0   60.0   50.0
-150.0   30.0   50.0
-150.0   30.0   33.333333333333336
-200.0   30.0   50.0
-150.0   60.0   50.0
-150.0   30.0   33.333333333333336
-200.0   60.0   33.333333333333336
-200.0   60.0   0.0
-150.0   60.0   0.0
-200.0   90.0   0.0
-200.0   60.0   16.666666666666668
-150.0   60.0   0.0
-150.0   90.0   0.0
-200.0   90.0   0.0
-150.0   90.0   16.666666666666668
-200.0   60.0   16.666666666666668
-200.0   90.0   16.666666666666668
-150.0   90.0   16.666666666666668
-200.0   90.0   0.0
-200.0   60.0   16.666666666666668
-150.0   90.0   16.666666666666668
-150.0   60.0   16.666666666666668
-150.0   60.0   0.0
-200.0   60.0   16.666666666666668
-150.0   90.0   16.666666666666668
-150.0   60.0   0.0
-200.0   90.0   0.0
-200.0   60.0   16.666666666666668
-150.0   60.0   16.666666666666668
-200.0   90.0   16.666666666666668
-200.0   60.0   33.333333333333336
-150.0   60.0   16.666666666666668
-150.0   90.0   16.666666666666668
-200.0   90.0   16.666666666666668
-150.0   90.0   33.333333333333336
-200.0   60.0   33.333333333333336
-200.0   90.0   33.333333333333336
-150.0   90.0   33.333333333333336
-200.0   90.0   16.666666666666668
-200.0   60.0   33.333333333333336
-150.0   90.0   33.333333333333336
-150.0   60.0   33.333333333333336
-150.0   60.0   16.666666666666668
-200.0   60.0   33.333333333333336
-150.0   90.0   33.333333333333336
-150.0   60.0   16.666666666666668
-200.0   90.0   16.666666666666668
-200.0   60.0   33.333333333333336
-150.0   60.0   33.333333333333336
-200.0   90.0   33.333333333333336
-200.0   60.0   50.0
-150.0   60.0   33.333333333333336
-150.0   90.0   33.333333333333336
-200.0   90.0   33.333333333333336
-150.0   90.0   50.0
-200.0   60.0   50.0
-200.0   90.0   50.0
-150.0   90.0   50.0
-200.0   90.0   33.333333333333336
-200.0   60.0   50.0
-150.0   90.0   50.0
-150.0   60.0   50.0
-150.0   60.0   33.333333333333336
-200.0   60.0   50.0
-150.0   90.0   50.0
-150.0   60.0   33.333333333333336
-200.0   90.0   33.333333333333336
-200.0   90.0   0.0
-150.0   90.0   0.0
-200.0   120.0   0.0
-200.0   90.0   16.666666666666668
-150.0   90.0   0.0
-150.0   120.0   0.0
-200.0   120.0   0.0
-150.0   120.0   16.666666666666668
-200.0   90.0   16.666666666666668
-200.0   120.0   16.666666666666668
-150.0   120.0   16.666666666666668
-200.0   120.0   0.0
-200.0   90.0   16.666666666666668
-150.0   120.0   16.666666666666668
-150.0   90.0   16.666666666666668
-150.0   90.0   0.0
-200.0   90.0   16.666666666666668
-150.0   120.0   16.666666666666668
-150.0   90.0   0.0
-200.0   120.0   0.0
-200.0   90.0   16.666666666666668
-150.0   90.0   16.666666666666668
-200.0   120.0   16.666666666666668
-200.0   90.0   33.333333333333336
-150.0   90.0   16.666666666666668
-150.0   120.0   16.666666666666668
-200.0   120.0   16.666666666666668
-150.0   120.0   33.333333333333336
-200.0   90.0   33.333333333333336
-200.0   120.0   33.333333333333336
-150.0   120.0   33.333333333333336
-200.0   120.0   16.666666666666668
-200.0   90.0   33.333333333333336
-150.0   120.0   33.333333333333336
-150.0   90.0   33.333333333333336
-150.0   90.0   16.666666666666668
-200.0   90.0   33.333333333333336
-150.0   120.0   33.333333333333336
-150.0   90.0   16.666666666666668
-200.0   120.0   16.666666666666668
-200.0   90.0   33.333333333333336
-150.0   90.0   33.333333333333336
-200.0   120.0   33.333333333333336
-200.0   90.0   50.0
-150.0   90.0   33.333333333333336
-150.0   120.0   33.333333333333336
-200.0   120.0   33.333333333333336
-150.0   120.0   50.0
-200.0   90.0   50.0
-200.0   120.0   50.0
-150.0   120.0   50.0
-200.0   120.0   33.333333333333336
-200.0   90.0   50.0
-150.0   120.0   50.0
-150.0   90.0   50.0
-150.0   90.0   33.333333333333336
-200.0   90.0   50.0
-150.0   120.0   50.0
-150.0   90.0   33.333333333333336
-200.0   120.0   33.333333333333336
-200.0   120.0   0.0
-150.0   120.0   0.0
-200.0   150.0   0.0
-200.0   120.0   16.666666666666668
-150.0   120.0   0.0
-150.0   150.0   0.0
-200.0   150.0   0.0
-150.0   150.0   16.666666666666668
-200.0   120.0   16.666666666666668
-200.0   150.0   16.666666666666668
-150.0   150.0   16.666666666666668
-200.0   150.0   0.0
-200.0   120.0   16.666666666666668
-150.0   150.0   16.666666666666668
-150.0   120.0   16.666666666666668
-150.0   120.0   0.0
-200.0   120.0   16.666666666666668
-150.0   150.0   16.666666666666668
-150.0   120.0   0.0
-200.0   150.0   0.0
-200.0   120.0   16.666666666666668
-150.0   120.0   16.666666666666668
-200.0   150.0   16.666666666666668
-200.0   120.0   33.333333333333336
-150.0   120.0   16.666666666666668
-150.0   150.0   16.666666666666668
-200.0   150.0   16.666666666666668
-150.0   150.0   33.333333333333336
-200.0   120.0   33.333333333333336
-200.0   150.0   33.333333333333336
-150.0   150.0   33.333333333333336
-200.0   150.0   16.666666666666668
-200.0   120.0   33.333333333333336
-150.0   150.0   33.333333333333336
-150.0   120.0   33.333333333333336
-150.0   120.0   16.666666666666668
-200.0   120.0   33.333333333333336
-150.0   150.0   33.333333333333336
-150.0   120.0   16.666666666666668
-200.0   150.0   16.666666666666668
-200.0   120.0   33.333333333333336
-150.0   120.0   33.333333333333336
-200.0   150.0   33.333333333333336
-200.0   120.0   50.0
-150.0   120.0   33.333333333333336
-150.0   150.0   33.333333333333336
-200.0   150.0   33.333333333333336
-150.0   150.0   50.0
-200.0   120.0   50.0
-200.0   150.0   50.0
-150.0   150.0   50.0
-200.0   150.0   33.333333333333336
-200.0   120.0   50.0
-150.0   150.0   50.0
-150.0   120.0   50.0
-150.0   120.0   33.333333333333336
-200.0   120.0   50.0
-150.0   150.0   50.0
-150.0   120.0   33.333333333333336
-200.0   150.0   33.333333333333336
-150.0   0.0   0.0
-100.0   0.0   0.0
-150.0   30.0   0.0
-150.0   0.0   16.666666666666668
-100.0   0.0   0.0
-100.0   30.0   0.0
-150.0   30.0   0.0
-100.0   30.0   16.666666666666668
-150.0   0.0   16.666666666666668
-150.0   30.0   16.666666666666668
-100.0   30.0   16.666666666666668
-150.0   30.0   0.0
-150.0   0.0   16.666666666666668
-100.0   30.0   16.666666666666668
-100.0   0.0   16.666666666666668
-100.0   0.0   0.0
-150.0   0.0   16.666666666666668
-100.0   30.0   16.666666666666668
-100.0   0.0   0.0
-150.0   30.0   0.0
-150.0   0.0   16.666666666666668
-100.0   0.0   16.666666666666668
-150.0   30.0   16.666666666666668
-150.0   0.0   33.333333333333336
-100.0   0.0   16.666666666666668
-100.0   30.0   16.666666666666668
-150.0   30.0   16.666666666666668
-100.0   30.0   33.333333333333336
-150.0   0.0   33.333333333333336
-150.0   30.0   33.333333333333336
-100.0   30.0   33.333333333333336
-150.0   30.0   16.666666666666668
-150.0   0.0   33.333333333333336
-100.0   30.0   33.333333333333336
-100.0   0.0   33.333333333333336
-100.0   0.0   16.666666666666668
-150.0   0.0   33.333333333333336
-100.0   30.0   33.333333333333336
-100.0   0.0   16.666666666666668
-150.0   30.0   16.666666666666668
-150.0   0.0   33.333333333333336
-100.0   0.0   33.333333333333336
-150.0   30.0   33.333333333333336
-150.0   0.0   50.0
-100.0   0.0   33.333333333333336
-100.0   30.0   33.333333333333336
-150.0   30.0   33.333333333333336
-100.0   30.0   50.0
-150.0   0.0   50.0
-150.0   30.0   50.0
-100.0   30.0   50.0
-150.0   30.0   33.333333333333336
-150.0   0.0   50.0
-100.0   30.0   50.0
-100.0   0.0   50.0
-100.0   0.0   33.333333333333336
-150.0   0.0   50.0
-100.0   30.0   50.0
-100.0   0.0   33.333333333333336
-150.0   30.0   33.333333333333336
-150.0   30.0   0.0
-100.0   30.0   0.0
-150.0   60.0   0.0
-150.0   30.0   16.666666666666668
-100.0   30.0   0.0
-100.0   60.0   0.0
-150.0   60.0   0.0
-100.0   60.0   16.666666666666668
-150.0   30.0   16.666666666666668
-150.0   60.0   16.666666666666668
-100.0   60.0   16.666666666666668
-150.0   60.0   0.0
-150.0   30.0   16.666666666666668
-100.0   60.0   16.666666666666668
-100.0   30.0   16.666666666666668
-100.0   30.0   0.0
-150.0   30.0   16.666666666666668
-100.0   60.0   16.666666666666668
-100.0   30.0   0.0
-150.0   60.0   0.0
-150.0   30.0   16.666666666666668
-100.0   30.0   16.666666666666668
-150.0   60.0   16.666666666666668
-150.0   30.0   33.333333333333336
-100.0   30.0   16.666666666666668
-100.0   60.0   16.666666666666668
-150.0   60.0   16.666666666666668
-100.0   60.0   33.333333333333336
-150.0   30.0   33.333333333333336
-150.0   60.0   33.333333333333336
-100.0   60.0   33.333333333333336
-150.0   60.0   16.666666666666668
-150.0   30.0   33.333333333333336
-100.0   60.0   33.333333333333336
-100.0   30.0   33.333333333333336
-100.0   30.0   16.666666666666668
-150.0   30.0   33.333333333333336
-100.0   60.0   33.333333333333336
-100.0   30.0   16.666666666666668
-150.0   60.0   16.666666666666668
-150.0   30.0   33.333333333333336
-100.0   30.0   33.333333333333336
-150.0   60.0   33.333333333333336
-150.0   30.0   50.0
-100.0   30.0   33.333333333333336
-100.0   60.0   33.333333333333336
-150.0   60.0   33.333333333333336
-100.0   60.0   50.0
-150.0   30.0   50.0
-150.0   60.0   50.0
-100.0   60.0   50.0
-150.0   60.0   33.333333333333336
-150.0   30.0   50.0
-100.0   60.0   50.0
-100.0   30.0   50.0
-100.0   30.0   33.333333333333336
-150.0   30.0   50.0
-100.0   60.0   50.0
-100.0   30.0   33.333333333333336
-150.0   60.0   33.333333333333336
-150.0   60.0   0.0
-100.0   60.0   0.0
-150.0   90.0   0.0
-150.0   60.0   16.666666666666668
-100.0   60.0   0.0
-100.0   90.0   0.0
-150.0   90.0   0.0
-100.0   90.0   16.666666666666668
-150.0   60.0   16.666666666666668
-150.0   90.0   16.666666666666668
-100.0   90.0   16.666666666666668
-150.0   90.0   0.0
-150.0   60.0   16.666666666666668
-100.0   90.0   16.666666666666668
-100.0   60.0   16.666666666666668
-100.0   60.0   0.0
-150.0   60.0   16.666666666666668
-100.0   90.0   16.666666666666668
-100.0   60.0   0.0
-150.0   90.0   0.0
-150.0   60.0   16.666666666666668
-100.0   60.0   16.666666666666668
-150.0   90.0   16.666666666666668
-150.0   60.0   33.333333333333336
-100.0   60.0   16.666666666666668
-100.0   90.0   16.666666666666668
-150.0   90.0   16.666666666666668
-100.0   90.0   33.333333333333336
-150.0   60.0   33.333333333333336
-150.0   90.0   33.333333333333336
-100.0   90.0   33.333333333333336
-150.0   90.0   16.666666666666668
-150.0   60.0   33.333333333333336
-100.0   90.0   33.333333333333336
-100.0   60.0   33.333333333333336
-100.0   60.0   16.666666666666668
-150.0   60.0   33.333333333333336
-100.0   90.0   33.333333333333336
-100.0   60.0   16.666666666666668
-150.0   90.0   16.666666666666668
-150.0   60.0   33.333333333333336
-100.0   60.0   33.333333333333336
-150.0   90.0   33.333333333333336
-150.0   60.0   50.0
-100.0   60.0   33.333333333333336
-100.0   90.0   33.333333333333336
-150.0   90.0   33.333333333333336
-100.0   90.0   50.0
-150.0   60.0   50.0
-150.0   90.0   50.0
-100.0   90.0   50.0
-150.0   90.0   33.333333333333336
-150.0   60.0   50.0
-100.0   90.0   50.0
-100.0   60.0   50.0
-100.0   60.0   33.333333333333336
-150.0   60.0   50.0
-100.0   90.0   50.0
-100.0   60.0   33.333333333333336
-150.0   90.0   33.333333333333336
-150.0   90.0   0.0
-100.0   90.0   0.0
-150.0   120.0   0.0
-150.0   90.0   16.666666666666668
-100.0   90.0   0.0
-100.0   120.0   0.0
-150.0   120.0   0.0
-100.0   120.0   16.666666666666668
-150.0   90.0   16.666666666666668
-150.0   120.0   16.666666666666668
-100.0   120.0   16.666666666666668
-150.0   120.0   0.0
-150.0   90.0   16.666666666666668
-100.0   120.0   16.666666666666668
-100.0   90.0   16.666666666666668
-100.0   90.0   0.0
-150.0   90.0   16.666666666666668
-100.0   120.0   16.666666666666668
-100.0   90.0   0.0
-150.0   120.0   0.0
-150.0   90.0   16.666666666666668
-100.0   90.0   16.666666666666668
-150.0   120.0   16.666666666666668
-150.0   90.0   33.333333333333336
-100.0   90.0   16.666666666666668
-100.0   120.0   16.666666666666668
-150.0   120.0   16.666666666666668
-100.0   120.0   33.333333333333336
-150.0   90.0   33.333333333333336
-150.0   120.0   33.333333333333336
-100.0   120.0   33.333333333333336
-150.0   120.0   16.666666666666668
-150.0   90.0   33.333333333333336
-100.0   120.0   33.333333333333336
-100.0   90.0   33.333333333333336
-100.0   90.0   16.666666666666668
-150.0   90.0   33.333333333333336
-100.0   120.0   33.333333333333336
-100.0   90.0   16.666666666666668
-150.0   120.0   16.666666666666668
-150.0   90.0   33.333333333333336
-100.0   90.0   33.333333333333336
-150.0   120.0   33.333333333333336
-150.0   90.0   50.0
-100.0   90.0   33.333333333333336
-100.0   120.0   33.333333333333336
-150.0   120.0   33.333333333333336
-100.0   120.0   50.0
-150.0   90.0   50.0
-150.0   120.0   50.0
-100.0   120.0   50.0
-150.0   120.0   33.333333333333336
-150.0   90.0   50.0
-100.0   120.0   50.0
-100.0   90.0   50.0
-100.0   90.0   33.333333333333336
-150.0   90.0   50.0
-100.0   120.0   50.0
-100.0   90.0   33.333333333333336
-150.0   120.0   33.333333333333336
-150.0   120.0   0.0
-100.0   120.0   0.0
-150.0   150.0   0.0
-150.0   120.0   16.666666666666668
-100.0   120.0   0.0
-100.0   150.0   0.0
-150.0   150.0   0.0
-100.0   150.0   16.666666666666668
-150.0   120.0   16.666666666666668
-150.0   150.0   16.666666666666668
-100.0   150.0   16.666666666666668
-150.0   150.0   0.0
-150.0   120.0   16.666666666666668
-100.0   150.0   16.666666666666668
-100.0   120.0   16.666666666666668
-100.0   120.0   0.0
-150.0   120.0   16.666666666666668
-100.0   150.0   16.666666666666668
-100.0   120.0   0.0
-150.0   150.0   0.0
-150.0   120.0   16.666666666666668
-100.0   120.0   16.666666666666668
-150.0   150.0   16.666666666666668
-150.0   120.0   33.333333333333336
-100.0   120.0   16.666666666666668
-100.0   150.0   16.666666666666668
-150.0   150.0   16.666666666666668
-100.0   150.0   33.333333333333336
-150.0   120.0   33.333333333333336
-150.0   150.0   33.333333333333336
-100.0   150.0   33.333333333333336
-150.0   150.0   16.666666666666668
-150.0   120.0   33.333333333333336
-100.0   150.0   33.333333333333336
-100.0   120.0   33.333333333333336
-100.0   120.0   16.666666666666668
-150.0   120.0   33.333333333333336
-100.0   150.0   33.333333333333336
-100.0   120.0   16.666666666666668
-150.0   150.0   16.666666666666668
-150.0   120.0   33.333333333333336
-100.0   120.0   33.333333333333336
-150.0   150.0   33.333333333333336
-150.0   120.0   50.0
-100.0   120.0   33.333333333333336
-100.0   150.0   33.333333333333336
-150.0   150.0   33.333333333333336
-100.0   150.0   50.0
-150.0   120.0   50.0
-150.0   150.0   50.0
-100.0   150.0   50.0
-150.0   150.0   33.333333333333336
-150.0   120.0   50.0
-100.0   150.0   50.0
-100.0   120.0   50.0
-100.0   120.0   33.333333333333336
-150.0   120.0   50.0
-100.0   150.0   50.0
-100.0   120.0   33.333333333333336
-150.0   150.0   33.333333333333336
-100.0   0.0   0.0
-50.0   0.0   0.0
-100.0   30.0   0.0
-100.0   0.0   16.666666666666668
-50.0   0.0   0.0
-50.0   30.0   0.0
-100.0   30.0   0.0
-50.0   30.0   16.666666666666668
-100.0   0.0   16.666666666666668
-100.0   30.0   16.666666666666668
-50.0   30.0   16.666666666666668
-100.0   30.0   0.0
-100.0   0.0   16.666666666666668
-50.0   30.0   16.666666666666668
-50.0   0.0   16.666666666666668
-50.0   0.0   0.0
-100.0   0.0   16.666666666666668
-50.0   30.0   16.666666666666668
-50.0   0.0   0.0
-100.0   30.0   0.0
-100.0   0.0   16.666666666666668
-50.0   0.0   16.666666666666668
-100.0   30.0   16.666666666666668
-100.0   0.0   33.333333333333336
-50.0   0.0   16.666666666666668
-50.0   30.0   16.666666666666668
-100.0   30.0   16.666666666666668
-50.0   30.0   33.333333333333336
-100.0   0.0   33.333333333333336
-100.0   30.0   33.333333333333336
-50.0   30.0   33.333333333333336
-100.0   30.0   16.666666666666668
-100.0   0.0   33.333333333333336
-50.0   30.0   33.333333333333336
-50.0   0.0   33.333333333333336
-50.0   0.0   16.666666666666668
-100.0   0.0   33.333333333333336
-50.0   30.0   33.333333333333336
-50.0   0.0   16.666666666666668
-100.0   30.0   16.666666666666668
-100.0   0.0   33.333333333333336
-50.0   0.0   33.333333333333336
-100.0   30.0   33.333333333333336
-100.0   0.0   50.0
-50.0   0.0   33.333333333333336
-50.0   30.0   33.333333333333336
-100.0   30.0   33.333333333333336
-50.0   30.0   50.0
-100.0   0.0   50.0
-100.0   30.0   50.0
-50.0   30.0   50.0
-100.0   30.0   33.333333333333336
-100.0   0.0   50.0
-50.0   30.0   50.0
-50.0   0.0   50.0
-50.0   0.0   33.333333333333336
-100.0   0.0   50.0
-50.0   30.0   50.0
-50.0   0.0   33.333333333333336
-100.0   30.0   33.333333333333336
-100.0   30.0   0.0
-50.0   30.0   0.0
-100.0   60.0   0.0
-100.0   30.0   16.666666666666668
-50.0   30.0   0.0
-50.0   60.0   0.0
-100.0   60.0   0.0
-50.0   60.0   16.666666666666668
-100.0   30.0   16.666666666666668
-100.0   60.0   16.666666666666668
-50.0   60.0   16.666666666666668
-100.0   60.0   0.0
-100.0   30.0   16.666666666666668
-50.0   60.0   16.666666666666668
-50.0   30.0   16.666666666666668
-50.0   30.0   0.0
-100.0   30.0   16.666666666666668
-50.0   60.0   16.666666666666668
-50.0   30.0   0.0
-100.0   60.0   0.0
-100.0   30.0   16.666666666666668
-50.0   30.0   16.666666666666668
-100.0   60.0   16.666666666666668
-100.0   30.0   33.333333333333336
-50.0   30.0   16.666666666666668
-50.0   60.0   16.666666666666668
-100.0   60.0   16.666666666666668
-50.0   60.0   33.333333333333336
-100.0   30.0   33.333333333333336
-100.0   60.0   33.333333333333336
-50.0   60.0   33.333333333333336
-100.0   60.0   16.666666666666668
-100.0   30.0   33.333333333333336
-50.0   60.0   33.333333333333336
-50.0   30.0   33.333333333333336
-50.0   30.0   16.666666666666668
-100.0   30.0   33.333333333333336
-50.0   60.0   33.333333333333336
-50.0   30.0   16.666666666666668
-100.0   60.0   16.666666666666668
-100.0   30.0   33.333333333333336
-50.0   30.0   33.333333333333336
-100.0   60.0   33.333333333333336
-100.0   30.0   50.0
-50.0   30.0   33.333333333333336
-50.0   60.0   33.333333333333336
-100.0   60.0   33.333333333333336
-50.0   60.0   50.0
-100.0   30.0   50.0
-100.0   60.0   50.0
-50.0   60.0   50.0
-100.0   60.0   33.333333333333336
-100.0   30.0   50.0
-50.0   60.0   50.0
-50.0   30.0   50.0
-50.0   30.0   33.333333333333336
-100.0   30.0   50.0
-50.0   60.0   50.0
-50.0   30.0   33.333333333333336
-100.0   60.0   33.333333333333336
-100.0   60.0   0.0
-50.0   60.0   0.0
-100.0   90.0   0.0
-100.0   60.0   16.666666666666668
-50.0   60.0   0.0
-50.0   90.0   0.0
-100.0   90.0   0.0
-50.0   90.0   16.666666666666668
-100.0   60.0   16.666666666666668
-100.0   90.0   16.666666666666668
-50.0   90.0   16.666666666666668
-100.0   90.0   0.0
-100.0   60.0   16.666666666666668
-50.0   90.0   16.666666666666668
-50.0   60.0   16.666666666666668
-50.0   60.0   0.0
-100.0   60.0   16.666666666666668
-50.0   90.0   16.666666666666668
-50.0   60.0   0.0
-100.0   90.0   0.0
-100.0   60.0   16.666666666666668
-50.0   60.0   16.666666666666668
-100.0   90.0   16.666666666666668
-100.0   60.0   33.333333333333336
-50.0   60.0   16.666666666666668
-50.0   90.0   16.666666666666668
-100.0   90.0   16.666666666666668
-50.0   90.0   33.333333333333336
-100.0   60.0   33.333333333333336
-100.0   90.0   33.333333333333336
-50.0   90.0   33.333333333333336
-100.0   90.0   16.666666666666668
-100.0   60.0   33.333333333333336
-50.0   90.0   33.333333333333336
-50.0   60.0   33.333333333333336
-50.0   60.0   16.666666666666668
-100.0   60.0   33.333333333333336
-50.0   90.0   33.333333333333336
-50.0   60.0   16.666666666666668
-100.0   90.0   16.666666666666668
-100.0   60.0   33.333333333333336
-50.0   60.0   33.333333333333336
-100.0   90.0   33.333333333333336
-100.0   60.0   50.0
-50.0   60.0   33.333333333333336
-50.0   90.0   33.333333333333336
-100.0   90.0   33.333333333333336
-50.0   90.0   50.0
-100.0   60.0   50.0
-100.0   90.0   50.0
-50.0   90.0   50.0
-100.0   90.0   33.333333333333336
-100.0   60.0   50.0
-50.0   90.0   50.0
-50.0   60.0   50.0
-50.0   60.0   33.333333333333336
-100.0   60.0   50.0
-50.0   90.0   50.0
-50.0   60.0   33.333333333333336
-100.0   90.0   33.333333333333336
-100.0   90.0   0.0
-50.0   90.0   0.0
-100.0   120.0   0.0
-100.0   90.0   16.666666666666668
-50.0   90.0   0.0
-50.0   120.0   0.0
-100.0   120.0   0.0
-50.0   120.0   16.666666666666668
-100.0   90.0   16.666666666666668
-100.0   120.0   16.666666666666668
-50.0   120.0   16.666666666666668
-100.0   120.0   0.0
-100.0   90.0   16.666666666666668
-50.0   120.0   16.666666666666668
-50.0   90.0   16.666666666666668
-50.0   90.0   0.0
-100.0   90.0   16.666666666666668
-50.0   120.0   16.666666666666668
-50.0   90.0   0.0
-100.0   120.0   0.0
-100.0   90.0   16.666666666666668
-50.0   90.0   16.666666666666668
-100.0   120.0   16.666666666666668
-100.0   90.0   33.333333333333336
-50.0   90.0   16.666666666666668
-50.0   120.0   16.666666666666668
-100.0   120.0   16.666666666666668
-50.0   120.0   33.333333333333336
-100.0   90.0   33.333333333333336
-100.0   120.0   33.333333333333336
-50.0   120.0   33.333333333333336
-100.0   120.0   16.666666666666668
-100.0   90.0   33.333333333333336
-50.0   120.0   33.333333333333336
-50.0   90.0   33.333333333333336
-50.0   90.0   16.666666666666668
-100.0   90.0   33.333333333333336
-50.0   120.0   33.333333333333336
-50.0   90.0   16.666666666666668
-100.0   120.0   16.666666666666668
-100.0   90.0   33.333333333333336
-50.0   90.0   33.333333333333336
-100.0   120.0   33.333333333333336
-100.0   90.0   50.0
-50.0   90.0   33.333333333333336
-50.0   120.0   33.333333333333336
-100.0   120.0   33.333333333333336
-50.0   120.0   50.0
-100.0   90.0   50.0
-100.0   120.0   50.0
-50.0   120.0   50.0
-100.0   120.0   33.333333333333336
-100.0   90.0   50.0
-50.0   120.0   50.0
-50.0   90.0   50.0
-50.0   90.0   33.333333333333336
-100.0   90.0   50.0
-50.0   120.0   50.0
-50.0   90.0   33.333333333333336
-100.0   120.0   33.333333333333336
-100.0   120.0   0.0
-50.0   120.0   0.0
-100.0   150.0   0.0
-100.0   120.0   16.666666666666668
-50.0   120.0   0.0
-50.0   150.0   0.0
-100.0   150.0   0.0
-50.0   150.0   16.666666666666668
-100.0   120.0   16.666666666666668
-100.0   150.0   16.666666666666668
-50.0   150.0   16.666666666666668
-100.0   150.0   0.0
-100.0   120.0   16.666666666666668
-50.0   150.0   16.666666666666668
-50.0   120.0   16.666666666666668
-50.0   120.0   0.0
-100.0   120.0   16.666666666666668
-50.0   150.0   16.666666666666668
-50.0   120.0   0.0
-100.0   150.0   0.0
-100.0   120.0   16.666666666666668
-50.0   120.0   16.666666666666668
-100.0   150.0   16.666666666666668
-100.0   120.0   33.333333333333336
-50.0   120.0   16.666666666666668
-50.0   150.0   16.666666666666668
-100.0   150.0   16.666666666666668
-50.0   150.0   33.333333333333336
-100.0   120.0   33.333333333333336
-100.0   150.0   33.333333333333336
-50.0   150.0   33.333333333333336
-100.0   150.0   16.666666666666668
-100.0   120.0   33.333333333333336
-50.0   150.0   33.333333333333336
-50.0   120.0   33.333333333333336
-50.0   120.0   16.666666666666668
-100.0   120.0   33.333333333333336
-50.0   150.0   33.333333333333336
-50.0   120.0   16.666666666666668
-100.0   150.0   16.666666666666668
-100.0   120.0   33.333333333333336
-50.0   120.0   33.333333333333336
-100.0   150.0   33.333333333333336
-100.0   120.0   50.0
-50.0   120.0   33.333333333333336
-50.0   150.0   33.333333333333336
-100.0   150.0   33.333333333333336
-50.0   150.0   50.0
-100.0   120.0   50.0
-100.0   150.0   50.0
-50.0   150.0   50.0
-100.0   150.0   33.333333333333336
-100.0   120.0   50.0
-50.0   150.0   50.0
-50.0   120.0   50.0
-50.0   120.0   33.333333333333336
-100.0   120.0   50.0
-50.0   150.0   50.0
-50.0   120.0   33.333333333333336
-100.0   150.0   33.333333333333336
-50.0   0.0   0.0
0.0   0.0   0.0
-50.0   30.0   0.0
-50.0   0.0   16.666666666666668
0.0   0.0   0.0
0.0   30.0   0.0
-50.0   30.0   0.0
0.0   30.0   16.666666666666668
-50.0   0.0   16.666666666666668
-50.0   30.0   16.666666666666668
0.0   30.0   16.666666666666668
-50.0   30.0   0.0
-50.0   0.0   16.666666666666668
0.0   30.0   16.666666666666668
0.0   0.0   16.666666666666668
0.0   0.0   0.0
-50.0   0.0   16.666666666666668
0.0   30.0   16.666666666666668
0.0   0.0   0.0
-50.0   30.0   0.0
-50.0   0.0   16.666666666666668
0.0   0.0   16.666666666666668
-50.0   30.0   16.666666666666668
-50.0   0.0   33.333333333333336
0.0   0.0   16.666666666666668
0.0   30.0   16.666666666666668
-50.0   30.0   16.666666666666668
0.0   30.0   33.333333333333336
-50.0   0.0   33.333333333333336
-50.0   30.0   33.333333333333336
0.0   30.0   33.333333333333336
-50.0   30.0   16.666666666666668
-50.0   0.0   33.333333333333336
0.0   30.0   33.333333333333336
0.0   0.0   33.333333333333336
0.0   0.0   16.666666666666668
-50.0   0.0   33.333333333333336
0.0   30.0   33.333333333333336
0.0   0.0   16.666666666666668
-50.0   30.0   16.666666666666668
-50.0   0.0   33.333333333333336
0.0   0.0   33.333333333333336
-50.0   30.0   33.333333333333336
-50.0   0.0   50.0
0.0   0.0   33.333333333333336
0.0   30.0   33.333333333333336
-50.0   30.0   33.333333333333336
0.0   30.0   50.0
-50.0   0.0   50.0
-50.0   30.0   50.0
0.0   30.0   50.0
-50.0   30.0   33.333333333333336
-50.0   0.0   50.0
0.0   30.0   50.0
0.0   0.0   50.0
0.0   0.0   33.333333333333336
-50.0   0.0   50.0
0.0   30.0   50.0
0.0   0.0   33.333333333333336
-50.0   30.0   33.333333333333336
-50.0   30.0   0.0
0.0   30.0   0.0
-50.0   60.0   0.0
-50.0   30.0   16.666666666666668
0.0   30.0   0.0
0.0   60.0   0.0
-50.0   60.0   0.0
0.0   60.0   16.666666666666668
-50.0   30.0   16.666666666666668
-50.0   60.0   16.666666666666668
0.0   60.0   16.666666666666668
-50.0   60.0   0.0
-50.0   30.0   16.666666666666668
0.0   60.0   16.666666666666668
0.0   30.0   16.666666666666668
0.0   30.0   0.0
-50.0   30.0   16.666666666666668
0.0   60.0   16.666666666666668
0.0   30.0   0.0
-50.0   60.0   0.0
-50.0   30.0   16.666666666666668
0.0   30.0   16.666666666666668
-50.0   60.0   16.666666666666668
-50.0   30.0   33.333333333333336
0.0   30.0   16.666666666666668
0.0   60.0   16.666666666666668
-50.0   60.0   16.666666666666668
0.0   60.0   33.333333333333336
-50.0   30.0   33.333333333333336
-50.0   60.0   33.333333333333336
0.0   60.0   33.333333333333336
-50.0   60.0   16.666666666666668
-50.0   30.0   33.333333333333336
0.0   60.0   33.333333333333336
0.0   30.0   33.333333333333336
0.0   30.0   16.666666666666668
-50.0   30.0   33.333333333333336
0.0   60.0   33.333333333333336
0.0   30.0   16.666666666666668
-50.0   60.0   16.666666666666668
-50.0   30.0   33.333333333333336
0.0   30.0   33.333333333333336
-50.0   60.0   33.333333333333336
-50.0   30.0   50.0
0.0   30.0   33.333333333333336
0.0   60.0   33.333333333333336
-50.0   60.0   33.333333333333336
0.0   60.0   50.0
-50.0   30.0   50.0
-50.0   60.0   50.0
0.0   60.0   50.0
-50.0   60.0   33.333333333333336
-50.0   30.0   50.0
0.0   60.0   50.0
0.0   30.0   50.0
0.0   30.0   33.333333333333336
-50.0   30.0   50.0
0.0   60.0   50.0
0.0   30.0   33.333333333333336
-50.0   60.0   33.333333333333336
-50.0   60.0   0.0
0.0   60.0   0.0
-50.0   90.0   0.0
-50.0   60.0   16.666666666666668
0.0   60.0   0.0
0.0   90.0   0.0
-50.0   90.0   0.0
0.0   90.0   16.666666666666668
-50.0   60.0   16.666666666666668
-50.0   90.0   16.666666666666668
0.0   90.0   16.666666666666668
-50.0   90.0   0.0
-50.0   60.0   16.666666666666668
0.0   90.0   16.666666666666668
0.0   60.0   16.666666666666668
0.0   60.0   0.0
-50.0   60.0   16.666666666666668
0.0   90.0   16.666666666666668
0.0   60.0   0.0
-50.0   90.0   0.0
-50.0   60.0   16.666666666666668
0.0   60.0   16.666666666666668
-50.0   90.0   16.666666666666668
-50.0   60.0   33.333333333333336
0.0   60.0   16.666666666666668
0.0   90.0   16.666666666666668
-50.0   90.0   16.666666666666668
0.0   90.0   33.333333333333336
-50.0   60.0   33.333333333333336
-50.0   90.0   33.333333333333336
0.0   90.0   33.333333333333336
-50.0   90.0   16.666666666666668
-50.0   60.0   33.333333333333336
0.0   90.0   33.333333333333336
0.0   60.0   33.333333333333336
0.0   60.0   16.666666666666668
-50.0   60.0   33.333333333333336
0.0   90.0   33.333333333333336
0.0   60.0   16.666666666666668
-50.0   90.0   16.666666666666668
-50.0   60.0   33.333333333333336
0.0   60.0   33.333333333333336
-50.0   90.0   33.333333333333336
-50.0   60.0   50.0
0.0   60.0   33.333333333333336
0.0   90.0   33.333333333333336
-50.0   90.0   33.333333333333336
0.0   90.0   50.0
-50.0   60.0   50.0
-50.0   90.0   50.0
0.0   90.0   50.0
-50.0   90.0   33.333333333333336
-50.0   60.0   50.0
0.0   90.0   50.0
0.0   60.0   50.0
0.0   60.0   33.333333333333336
-50.0   60.0   50.0
0.0   90.0   50.0
0.0   60.0   33.333333333333336
-50.0   90.0   33.333333333333336
-50.0   90.0   0.0
0.0   90.0   0.0
-50.0   120.0   0.0
-50.0   90.0   16.666666666666668
0.0   90.0   0.0
0.0   120.0   0.0
-50.0   120.0   0.0
0.0   120.0   16.666666666666668
-50.0   90.0   16.666666666666668
-50.0   120.0   16.666666666666668
0.0   120.0   16.666666666666668
-50.0   120.0   0.0
-50.0   90.0   16.666666666666668
0.0   120.0   16.666666666666668
0.0   90.0   16.666666666666668
0.0   90.0   0.0
-50.0   90.0   16.666666666666668
0.0   120.0   16.666666666666668
0.0   90.0   0.0
-50.0   120.0   0.0
-50.0   90.0   16.666666666666668
0.0   90.0   16.666666666666668
-50.0   120.0   16.666666666666668
-50.0   90.0   33.333333333333336
0.0   90.0   16.666666666666668
0.0   120.0   16.666666666666668
-50.0   120.0   16.666666666666668
0.0   120.0   33.333333333333336
-50.0   90.0   33.333333333333336
-50.0   120.0   33.333333333333336
0.0   120.0   33.333333333333336
-50.0   120.0   16.666666666666668
-50.0   90.0   33.333333333333336
0.0   120.0   33.333333333333336
0.0   90.0   33.333333333333336
0.0   90.0   16.666666666666668
-50.0   90.0   33.333333333333336
0.0   120.0   33.333333333333336
0.0   90.0   16.666666666666668
-50.0   120.0   16.666666666666668
-50.0   90.0   33.333333333333336
0.0   90.0   33.333333333333336
-50.0   120.0   33.333333333333336
-50.0   90.0   50.0
0.0   90.0   33.333333333333336
0.0   120.0   33.333333333333336
-50.0   120.0   33.333333333333336
0.0   120.0   50.0
-50.0   90.0   50.0
-50.0   120.0   50.0
0.0   120.0   50.0
-50.0   120.0   33.333333333333336
-50.0   90.0   50.0
0.0   120.0   50.0
0.0   90.0   50.0
0.0   90.0   33.333333333333336
-50.0   90.0   50.0
0.0   120.0   50.0
0.0   90.0   33.333333333333336
-50.0   120.0   33.333333333333336
-50.0   120.0   0.0
0.0   120.0   0.0
-50.0   150.0   0.0
-50.0   120.0   16.666666666666668
0.0   120.0   0.0
0.0   150.0   0.0
-50.0   150.0   0.0
0.0   150.0   16.666666666666668
-50.0   120.0   16.666666666666668
-50.0   150.0   16.666666666666668
0.0   150.0   16.666666666666668
-50.0   150.0   0.0
-50.0   120.0   16.666666666666668
0.0   150.0   16.666666666666668
0.0   120.0   16.666666666666668
0.0   120.0   0.0
-50.0   120.0   16.666666666666668
0.0   150.0   16.666666666666668
0.0   120.0   0.0
-50.0   150.0   0.0
-50.0   120.0   16.666666666666668
0.0   120.0   16.666666666666668
-50.0   150.0   16.666666666666668
-50.0   120.0   33.333333333333336
0.0   120.0   16.666666666666668
0.0   150.0   16.666666666666668
-50.0   150.0   16.666666666666668
0.0   150.0   33.333333333333336
-50.0   120.0   33.333333333333336
-50.0   150.0   33.333333333333336
0.0   150.0   33.333333333333336
-50.0   150.0   16.666666666666668
-50.0   120.0   33.333333333333336
0.0   150.0   33.333333333333336
0.0   120.0   33.333333333333336
0.0   120.0   16.666666666666668
-50.0   120.0   33.333333333333336
0.0   150.0   33.333333333333336
0.0   120.0   16.666666666666668
-50.0   150.0   16.666666666666668
-50.0   120.0   33.333333333333336
0.0   120.0   33.333333333333336
-50.0   150.0   33.333333333333336
-50.0   120.0   50.0
0.0   120.0   33.333333333333336
0.0   150.0   33.333333333333336
-50.0   150.0   33.333333333333336
0.0   150.0   50.0
-50.0   120.0   50.0
-50.0   150.0   50.0
0.0   150.0   50.0
-50.0   150.0   33.333333333333336
-50.0   120.0   50.0
0.0   150.0   50.0
0.0   120.0   50.0
0.0   120.0   33.333333333333336
-50.0   120.0   50.0
0.0   150.0   50.0
0.0   120.0   33.333333333333336
-50.0   150.0   33.333333333333336
0.0   0.0   0.0
50.0   0.0   0.0
0.0   30.0   0.0
0.0   0.0   16.666666666666668
50.0   0.0   0.0
50.0   30.0   0.0
0.0   30.0   0.0
50.0   30.0   16.666666666666668
0.0   0.0   16.666666666666668
0.0   30.0   16.666666666666668
50.0   30.0   16.666666666666668
0.0   30.0   0.0
0.0   0.0   16.666666666666668
50.0   30.0   16.666666666666668
50.0   0.0   16.666666666666668
50.0   0.0   0.0
0.0   0.0   16.666666666666668
50.0   30.0   16.666666666666668
50.0   0.0   0.0
0.0   30.0   0.0
0.0   0.0   16.666666666666668
50.0   0.0   16.666666666666668
0.0   30.0   16.666666666666668
0.0   0.0   33.333333333333336
50.0   0.0   16.666666666666668
50.0   30.0   16.666666666666668
0.0   30.0   16.666666666666668
50.0   30.0   33.333333333333336
0.0   0.0   33.333333333333336
0.0   30.0   33.333333333333336
50.0   30.0   33.333333333333336
0.0   30.0   16.666666666666668
0.0   0.0   33.333333333333336
50.0   30.0   33.333333333333336
50.0   0.0   33.333333333333336
50.0   0.0   16.666666666666668
0.0   0.0   33.333333333333336
50.0   30.0   33.333333333333336
50.0   0.0   16.666666666666668
0.0   30.0   16.666666666666668
0.0   0.0   33.333333333333336
50.0   0.0   33.333333333333336
0.0   30.0   33.333333333333336
0.0   0.0   50.0
50.0   0.0   33.333333333333336
50.0   30.0   33.333333333333336
0.0   30.0   33.333333333333336
50.0   30.0   50.0
0.0   0.0   50.0
0.0   30.0   50.0
50.0   30.0   50.0
0.0   30.0   33.333333333333336
0.0   0.0   50.0
50.0   30.0   50.0
50.0   0.0   50.0
50.0   0.0   33.333333333333336
0.0   0.0   50.0
50.0   30.0   50.0
50.0   0.0   33.333333333333336
0.0   30.0   33.333333333333336
0.0   30.0   0.0
50.0   30.0   0.0
0.0   60.0   0.0
0.0   30.0   16.666666666666668
50.0   30.0   0.0
50.0   60.0   0.0
0.0   60.0   0.0
50.0   60.0   16.666666666666668
0.0   30.0   16.666666666666668
0.0   60.0   16.666666666666668
50.0   60.0   16.666666666666668
0.0   60.0   0.0
0.0   30.0   16.666666666666668
50.0   60.0   16.666666666666668
50.0   30.0   16.666666666666668
50.0   30.0   0.0
0.0   30.0   16.666666666666668
50.0   60.0   16.666666666666668
50.0   30.0   0.0
0.0   60.0   0.0
0.0   30.0   16.666666666666668
50.0   30.0   16.666666666666668
0.0   60.0   16.666666666666668
0.0   30.0   33.333333333333336
50.0   30.0   16.666666666666668
50.0   60.0   16.666666666666668
0.0   60.0   16.666666666666668
50.0   60.0   33.333333333333336
0.0   30.0   33.333333333333336
0.0   60.0   33.333333333333336
50.0   60.0   33.333333333333336
0.0   60.0   16.666666666666668
0.0   30.0   33.333333333333336
50.0   60.0   33.333333333333336
50.0   30.0   33.333333333333336
50.0   30.0   16.666666666666668
0.0   30.0   33.333333333333336
50.0   60.0   33.333333333333336
50.0   30.0   16.666666666666668
0.0   60.0   16.666666666666668
0.0   30.0   33.333333333333336
50.0   30.0   33.333333333333336
0.0   60.0   33.333333333333336
0.0   30.0   50.0
50.0   30.0   33.333333333333336
50.0   60.0   33.333333333333336
0.0   60.0   33.333333333333336
50.0   60.0   50.0
0.0   30.0   50.0
0.0   60.0   50.0
50.0   60.0   50.0
0.0   60.0   33.333333333333336
0.0   30.0   50.0
50.0   60.0   50.0
50.0   30.0   50.0
50.0   30.0   33.333333333333336
0.0   30.0   50.0
50.0   60.0   50.0
50.0   30.0   33.333333333333336
0.0   60.0   33.333333333333336
0.0   60.0   0.0
50.0   60.0   0.0
0.0   90.0   0.0
0.0   60.0   16.666666666666668
50.0   60.0   0.0
50.0   90.0   0.0
0.0   90.0   0.0
50.0   90.0   16.666666666666668
0.0   60.0   16.666666666666668
0.0   90.0   16.666666666666668
50.0   90.0   16.666666666666668
0.0   90.0   0.0
0.0   60.0   16.666666666666668
50.0   90.0   16.666666666666668
50.0   60.0   16.666666666666668
50.0   60.0   0.0
0.0   60.0   16.666666666666668
50.0   90.0   16.666666666666668
50.0   60.0   0.0
0.0   90.0   0.0
0.0   60.0   16.666666666666668
50.0   60.0   16.666666666666668
0.0   90.0   16.666666666666668
0.0   60.0   33.333333333333336
50.0   60.0   16.666666666666668
50.0   90.0   16.666666666666668
0.0   90.0   16.666666666666668
50.0   90.0   33.333333333333336
0.0   60.0   33.333333333333336
0.0   90.0   33.333333333333336
50.0   90.0   33.333333333333336
0.0   90.0   16.666666666666668
0.0   60.0   33.333333333333336
50.0   90.0   33.333333333333336
50.0   60.0   33.333333333333336
50.0   60.0   16.666666666666668
0.0   60.0   33.333333333333336
50.0   90.0   33.333333333333336
50.0   60.0   16.666666666666668
0.0   90.0   16.666666666666668
0.0   60.0   33.333333333333336
50.0   60.0   33.333333333333336
0.0   90.0   33.333333333333336
0.0   60.0   50.0
50.0   60.0   33.333333333333336
50.0   90.0   33.333333333333336
0.0   90.0   33.333333333333336
50.0   90.0   50.0
0.0   60.0   50.0
0.0   90.0   50.0
50.0   90.0   50.0
0.0   90.0   33.333333333333336
0.0   60.0   50.0
50.0   90.0   50.0
50.0   60.0   50.0
50.0   60.0   33.333333333333336
0.0   60.0   50.0
50.0   90.0   50.0
50.0   60.0   33.333333333333336
0.0   90.0   33.333333333333336
0.0   90.0   0.0
50.0   90.0   0.0
0.0   120.0   0.0
0.0   90.0   16.666666666666668
50.0   90.0   0.0
50.0   120.0   0.0
0.0   120.0   0.0
50.0   120.0   16.666666666666668
0.0   90.0   16.666666666666668
0.0   120.0   16.666666666666668
50.0   120.0   16.666666666666668
0.0   120.0   0.0
0.0   90.0   16.666666666666668
50.0   120.0   16.666666666666668
50.0   90.0   16.666666666666668
50.0   90.0   0.0
0.0   90.0   16.666666666666668
50.0   120.0   16.666666666666668
50.0   90.0   0.0
0.0   120.0   0.0
0.0   90.0   16.666666666666668
50.0   90.0   16.666666666666668
0.0   120.0   16.666666666666668
0.0   90.0   33.333333333333336
50.0   90.0   16.666666666666668
50.0   120.0   16.666666666666668
0.0   120.0   16.666666666666668
50.0   120.0   33.333333333333336
0.0   90.0   33.333333333333336
0.0   120.0   33.333333333333336
50.0   120.0   33.333333333333336
0.0   120.0   16.666666666666668
0.0   90.0   33.333333333333336
50.0   120.0   33.333333333333336
50.0   90.0   33.333333333333336
50.0   90.0   16.666666666666668
0.0   90.0   33.333333333333336
50.0   120.0   33.333333333333336
50.0   90.0   16.666666666666668
0.0   120.0   16.666666666666668
0.0   90.0   33.333333333333336
50.0   90.0   33.333333333333336
0.0   120.0   33.333333333333336
0.0   90.0   50.0
50.0   90.0   33.333333333333336
50.0   120.0   33.333333333333336
0.0   120.0   33.333333333333336
50.0   120.0   50.0
0.0   90.0   50.0
0.0   120.0   50.0
50.0   120.0   50.0
0.0   120.0   33.333333333333336
0.0   90.0   50.0
50.0   120.0   50.0
50.0   90.0   50.0
50.0   90.0   33.333333333333336
0.0   90.0   50.0
50.0   120.0   50.0
50.0   90.0   33.333333333333336
0.0   120.0   33.333333333333336
0.0   120.0   0.0
50.0   120.0   0.0
0.0   150.0   0.0
0.0   120.0   16.666666666666668
50.0   120.0   0.0
50.0   150.0   0.0
0.0   150.0   0.0
50.0   150.0   16.666666666666668
0.0   120.0   16.666666666666668
0.0   150.0   16.666666666666668
50.0   150.0   16.666666666666668
0.0   150.0   0.0
0.0   120.0   16.666666666666668
50.0   150.0   16.666666666666668
50.0   120.0   16.666666666666668
50.0   120.0   0.0
0.0   120.0   16.666666666666668
50.0   150.0   16.666666666666668
50.0   120.0   0.0
0.0   150.0   0.0
0.0   120.0   16.666666666666668
50.0   120.0   16.666666666666668
0.0   150.0   16.666666666666668
0.0   120.0   33.333333333333336
50.0   120.0   16.666666666666668
50.0   150.0   16.666666666666668
0.0   150.0   16.666666666666668
50.0   150.0   33.333333333333336
0.0   120.0   33.333333333333336
0.0   150.0   33.333333333333336
50.0   150.0   33.333333333333336
0.0   150.0   16.666666666666668
0.0   120.0   33.333333333333336
50.0   150.0   33.333333333333336
50.0   120.0   33.333333333333336
50.0   120.0   16.666666666666668
0.0   120.0   33.333333333333336
50.0   150.0   33.333333333333336
50.0   120.0   16.666666666666668
0.0   150.0   16.666666666666668
0.0   120.0   33.333333333333336
50.0   120.0   33.333333333333336
0.0   150.0   33.333333333333336
0.0   120.0   50.0
50.0   120.0   33.333333333333336
50.0   150.0   33.333333333333336
0.0   150.0   33.333333333333336
50.0   150.0   50.0
0.0   120.0   50.0
0.0   150.0   50.0
50.0   150.0   50.0
0.0   150.0   33.333333333333336
0.0   120.0   50.0
50.0   150.0   50.0
50.0   120.0   50.0
50.0   120.0   33.333333333333336
0.0   120.0   50.0
50.0   150.0   50.0
50.0   120.0   33.333333333333336
0.0   150.0   33.333333333333336
50.0   0.0   0.0
100.0   0.0   0.0
50.0   30.0   0.0
50.0   0.0   16.666666666666668
100.0   0.0   0.0
100.0   30.0   0.0
50.0   30.0   0.0
100.0   30.0   16.666666666666668
50.0   0.0   16.666666666666668
50.0   30.0   16.666666666666668
100.0   30.0   16.666666666666668
50.0   30.0   0.0
50.0   0.0   16.666666666666668
100.0   30.0   16.666666666666668
100.0   0.0   16.666666666666668
100.0   0.0   0.0
50.0   0.0   16.666666666666668
100.0   30.0   16.666666666666668
100.0   0.0   0.0
50.0   30.0   0.0
50.0   0.0   16.666666666666668
100.0   0.0   16.666666666666668
50.0   30.0   16.666666666666668
50.0   0.0   33.333333333333336
100.0   0.0   16.666666666666668
100.0   30.0   16.666666666666668
50.0   30.0   16.666666666666668
100.0   30.0   33.333333333333336
50.0   0.0   33.333333333333336
50.0   30.0   33.333333333333336
100.0   30.0   33.333333333333336
50.0   30.0   16.666666666666668
50.0   0.0   33.333333333333336
100.0   30.0   33.333333333333336
100.0   0.0   33.333333333333336
100.0   0.0   16.666666666666668
50.0   0.0   33.333333333333336
100.0   30.0   33.333333333333336
100.0   0.0   16.666666666666668
50.0   30.0   16.666666666666668
50.0   0.0   33.333333333333336
100.0   0.0   33.333333333333336
50.0   30.0   33.333333333333336
50.0   0.0   50.0
100.0   0.0   33.333333333333336
100.0   30.0   33.333333333333336
50.0   30.0   33.333333333333336
100.0   30.0   50.0
50.0   0.0   50.0
50.0   30.0   50.0
100.0   30.0   50.0
50.0   30.0   33.333333333333336
50.0   0.0   50.0
100.0   30.0   50.0
100.0   0.0   50.0
100.0   0.0   33.333333333333336
50.0   0.0   50.0
100.0   30.0   50.0
100.0   0.0   33.333333333333336
50.0   30.0   33.333333333333336
50.0   30.0   0.0
100.0   30.0   0.0
50.0   60.0   0.0
50.0   30.0   16.666666666666668
100.0   30.0   0.0
100.0   60.0   0.0
50.0   60.0   0.0
100.0   60.0   16.666666666666668
50.0   30.0   16.666666666666668
50.0   60.0   16.666666666666668
100.0   60.0   16.666666666666668
50.0   60.0   0.0
50.0   30.0   16.666666666666668
100.0   60.0   16.666666666666668
100.0   30.0   16.666666666666668
100.0   30.0   0.0
50.0   30.0   16.666666666666668
100.0   60.0   16.666666666666668
100.0   30.0   0.0
50.0   60.0   0.0
50.0   30.0   16.666666666666668
100.0   30.0   16.666666666666668
50.0   60.0   16.666666666666668
50.0   30.0   33.333333333333336
100.0   30.0   16.666666666666668
100.0   60.0   16.666666666666668
50.0   60.0   16.666666666666668
100.0   60.0   33.333333333333336
50.0   30.0   33.333333333333336
50.0   60.0   33.333333333333336
100.0   60.0   33.333333333333336
50.0   60.0   16.666666666666668
50.0   30.0   33.333333333333336
100.0   60.0   33.333333333333336
100.0   30.0   33.333333333333336
100.0   30.0   16.666666666666668
50.0   30.0   33.333333333333336
100.0   60.0   33.333333333333336
100.0   30.0   16.666666666666668
50.0   60.0   16.666666666666668
50.0   30.0   33.333333333333336
100.0   30.0   33.333333333333336
50.0   60.0   33.333333333333336
50.0   30.0   50.0
100.0   30.0   33.333333333333336
100.0   60.0   33.333333333333336
50.0   60.0   33.333333333333336
100.0   60.0   50.0
50.0   30.0   50.0
50.0   60.0   50.0
100.0   60.0   50.0
50.0   60.0   33.333333333333336
50.0   30.0   50.0
100.0   60.0   50.0
100.0   30.0   50.0
100.0   30.0   33.333333333333336
50.0   30.0   50.0
100.0   60.0   50.0
100.0   30.0   33.333333333333336
50.0   60.0   33.333333333333336
50.0   60.0   0.0
100.0   60.0   0.0
50.0   90.0   0.0
50.0   60.0   16.666666666666668
100.0   60.0   0.0
100.0   90.0   0.0
50.0   90.0   0.0
100.0   90.0   16.666666666666668
50.0   60.0   16.666666666666668
50.0   90.0   16.666666666666668
100.0   90.0   16.666666666666668
50.0   90.0   0.0
50.0   60.0   16.666666666666668
100.0   90.0   16.666666666666668
100.0   60.0   16.666666666666668
100.0   60.0   0.0
50.0   60.0   16.666666666666668
100.0   90.0   16.666666666666668
100.0   60.0   0.0
50.0   90.0   0.0
50.0   60.0   16.666666666666668
100.0   60.0   16.666666666666668
50.0   90.0   16.666666666666668
50.0   60.0   33.333333333333336
100.0   60.0   16.666666666666668
100.0   90.0   16.666666666666668
50.0   90.0   16.666666666666668
100.0   90.0   33.333333333333336
50.0   60.0   33.333333333333336
50.0   90.0   33.333333333333336
100.0   90.0   33.333333333333336
50.0   90.0   16.666666666666668
50.0   60.0   33.333333333333336
100.0   90.0   33.333333333333336
100.0   60.0   33.333333333333336
100.0   60.0   16.666666666666668
50.0   60.0   33.333333333333336
100.0   90.0   33.333333333333336
100.0   60.0   16.666666666666668
50.0   90.0   16.666666666666668
50.0   60.0   33.333333333333336
100.0   60.0   33.333333333333336
50.0   90.0   33.333333333333336
50.0   60.0   50.0
100.0   60.0   33.333333333333336
100.0   90.0   33.333333333333336
50.0   90.0   33.333333333333336
100.0   90.0   50.0
50.0   60.0   50.0
50.0   90.0   50.0
100.0   90.0   50.0
50.0   90.0   33.333333333333336
50.0   60.0   50.0
100.0   90.0   50.0
100.0   60.0   50.0
100.0   60.0   33.333333333333336
50.0   60.0   50.0
100.0   90.0   50.0
100.0   60.0   33.333333333333336
50.0   90.0   33.333333333333336
50.0   90.0   0.0
100.0   90.0   0.0
50.0   120.0   0.0
50.0   90.0   16.666666666666668
100.0   90.0   0.0
100.0   120.0   0.0
50.0   120.0   0.0
100.0   120.0   16.666666666666668
50.0   90.0   16.666666666666668
50.0   120.0   16.666666666666668
100.0   120.0   16.666666666666668
50.0   120.0   0.0
50.0   90.0   16.666666666666668
100.0   120.0   16.666666666666668
100.0   90.0   16.666666666666668
100.0   90.0   0.0
50.0   90.0   16.666666666666668
100.0   120.0   16.666666666666668
100.0   90.0   0.0
50.0   120.0   0.0
50.0   90.0   16.666666666666668
100.0   90.0   16.666666666666668
50.0   120.0   16.666666666666668
50.0   90.0   33.333333333333336
100.0   90.0   16.666666666666668
100.0   120.0   16.666666666666668
50.0   120.0   16.666666666666668
100.0   120.0   33.333333333333336
50.0   90.0   33.333333333333336
50.0   120.0   33.333333333333336
100.0   120.0   33.333333333333336
50.0   120.0   16.666666666666668
50.0   90.0   33.333333333333336
100.0   120.0   33.333333333333336
100.0   90.0   33.333333333333336
100.0   90.0   16.666666666666668
50.0   90.0   33.333333333333336
100.0   120.0   33.333333333333336
100.0   90.0   16.666666666666668
50.0   120.0   16.666666666666668
50.0   90.0   33.333333333333336
100.0   90.0   33.333333333333336
50.0   120.0   33.333333333333336
50.0   90.0   50.0
100.0   90.0   33.333333333333336
100.0   120.0   33.333333333333336
50.0   120.0   33.333333333333336
100.0   120.0   50.0
50.0   90.0   50.0
50.0   120.0   50.0
100.0   120.0   50.0
50.0   120.0   33.333333333333336
50.0   90.0   50.0
100.0   120.0   50.0
100.0   90.0   50.0
100.0   90.0   33.333333333333336
50.0   90.0   50.0
100.0   120.0   50.0
100.0   90.0   33.333333333333336
50.0   120.0   33.333333333333336
50.0   120.0   0.0
100.0   120.0   0.0
50.0   150.0   0.0
50.0   120.0   16.666666666666668
100.0   120.0   0.0
100.0   150.0   0.0
50.0   150.0   0.0
100.0   150.0   16.666666666666668
50.0   120.0   16.666666666666668
50.0   150.0   16.666666666666668
100.0   150.0   16.666666666666668
50.0   150.0   0.0
50.0   120.0   16.666666666666668
100.0   150.0   16.666666666666668
100.0   120.0   16.666666666666668
100.0   120.0   0.0
50.0   120.0   16.666666666666668
100.0   150.0   16.666666666666668
100.0   120.0   0.0
50.0   150.0   0.0
50.0   120.0   16.666666666666668
100.0   120.0   16.666666666666668
50.0   150.0   16.666666666666668
50.0   120.0   33.333333333333336
100.0   120.0   16.666666666666668
100.0   150.0   16.666666666666668
50.0   150.0   16.666666666666668
100.0   150.0   33.333333333333336
50.0   120.0   33.333333333333336
50.0   150.0   33.333333333333336
100.0   150.0   33.333333333333336
50.0   150.0   16.666666666666668
50.0   120.0   33.333333333333336
100.0   150.0   33.333333333333336
100.0   120.0   33.333333333333336
100.0   120.0   16.666666666666668
50.0   120.0   33.333333333333336
100.0   150.0   33.333333333333336
100.0   120.0   16.666666666666668
50.0   150.0   16.666666666666668
50.0   120.0   33.333333333333336
100.0   120.0   33.333333333333336
50.0   150.0   33.333333333333336
50.0   120.0   50.0
100.0   120.0   33.333333333333336
100.0   150.0   33.333333333333336
50.0   150.0   33.333333333333336
100.0   150.0   50.0
50.0   120.0   50.0
50.0   150.0   50.0
100.0   150.0   50.0
50.0   150.0   33.333333333333336
50.0   120.0   50.0
100.0   150.0   50.0
100.0   120.0   50.0
100.0   120.0   33.333333333333336
50.0   120.0   50.0
100.0   150.0   50.0
100.0   120.0   33.333333333333336
50.0   150.0   33.333333333333336
100.0   0.0   0.0
150.0   0.0   0.0
100.0   30.0   0.0
100.0   0.0   16.666666666666668
150.0   0.0   0.0
150.0   30.0   0.0
100.0   30.0   0.0
150.0   30.0   16.666666666666668
100.0   0.0   16.666666666666668
100.0   30.0   16.666666666666668
150.0   30.0   16.666666666666668
100.0   30.0   0.0
100.0   0.0   16.666666666666668
150.0   30.0   16.666666666666668
150.0   0.0   16.666666666666668
150.0   0.0   0.0
100.0   0.0   16.666666666666668
150.0   30.0   16.666666666666668
150.0   0.0   0.0
100.0   30.0   0.0
100.0   0.0   16.666666666666668
150.0   0.0   16.666666666666668
100.0   30.0   16.666666666666668
100.0   0.0   33.333333333333336
150.0   0.0   16.666666666666668
150.0   30.0   16.666666666666668
100.0   30.0   16.666666666666668
150.0   30.0   33.333333333333336
100.0   0.0   33.333333333333336
100.0   30.0   33.333333333333336
150.0   30.0   33.333333333333336
100.0   30.0   16.666666666666668
100.0   0.0   33.333333333333336
150.0   30.0   33.333333333333336
150.0   0.0   33.333333333333336
150.0   0.0   16.666666666666668
100.0   0.0   33.333333333333336
150.0   30.0   33.333333333333336
150.0   0.0   16.666666666666668
100.0   30.0   16.666666666666668
100.0   0.0   33.333333333333336
150.0   0.0   33.333333333333336
100.0   30.0   33.333333333333336
100.0   0.0   50.0
150.0   0.0   33.333333333333336
150.0   30.0   33.333333333333336
100.0   30.0   33.333333333333336
150.0   30.0   50.0
100.0   0.0   50.0
100.0   30.0   50.0
150.0   30.0   50.0
100.0   30.0   33.333333333333336
100.0   0.0   50.0
150.0   30.0   50.0
150.0   0.0   50.0
150.0   0.0   33.333333333333336
100.0   0.0   50.0
150.0   30.0   50.0
150.0   0.0   33.333333333333336
100.0   30.0   33.333333333333336
100.0   30.0   0.0
150.0   30.0   0.0
100.0   60.0   0.0
100.0   30.0   16.666666666666668
150.0   30.0   0.0
150.0   60.0   0.0
100.0   60.0   0.0
150.0   60.0   16.666666666666668
100.0   30.0   16.666666666666668
100.0   60.0   16.666666666666668
150.0   60.0   16.666666666666668
100.0   60.0   0.0
100.0   30.0   16.666666666666668
150.0   60.0   16.666666666666668
150.0   30.0   16.666666666666668
150.0   30.0   0.0
100.0   30.0   16.666666666666668
150.0   60.0   16.666666666666668
150.0   30.0   0.0
100.0   60.0   0.0
100.0   30.0   16.666666666666668
150.0   30.0   16.666666666666668
100.0   60.0   16.666666666666668
100.0   30.0   33.333333333333336
150.0   30.0   16.666666666666668
150.0   60.0   16.666666666666668
100.0   60.0   16.666666666666668
150.0   60.0   33.333333333333336
100.0   30.0   33.333333333333336
100.0   60.0   33.333333333333336
150.0   60.0   33.333333333333336
100.0   60.0   16.666666666666668
100.0   30.0   33.333333333333336
150.0   60.0   33.333333333333336
150.0   30.0   33.333333333333336
150.0   30.0   16.666666666666668
100.0   30.0   33.333333333333336
150.0   60.0   33.333333333333336
150.0   30.0   16.666666666666668
100.0   60.0   16.666666666666668
100.0   30.0   33.333333333333336
150.0   30.0   33.333333333333336
100.0   60.0   33.333333333333336
100.0   30.0   50.0
150.0   30.0   33.333333333333336
150.0   60.0   33.333333333333336
100.0   60.0   33.333333333333336
150.0   60.0   50.0
100.0   30.0   50.0
100.0   60.0   50.0
150.0   60.0   50.0
100.0   60.0   33.333333333333336
100.0   30.0   50.0
150.0   60.0   50.0
150.0   30.0   50.0
150.0   30.0   33.333333333333336
100.0   30.0   50.0
150.0   60.0   50.0
150.0   30.0   33.333333333333336
100.0   60.0   33.333333333333336
100.0   60.0   0.0
150.0   60.0   0.0
100.0   90.0   0.0
100.0   60.0   16.666666666666668
150.0   60.0   0.0
150.0   90.0   0.0
100.0   90.0   0.0
150.0   90.0   16.666666666666668
100.0   60.0   16.666666666666668
100.0   90.0   16.666666666666668
150.0   90.0   16.666666666666668
100.0   90.0   0.0
100.0   60.0   16.666666666666668
150.0   90.0   16.666666666666668
150.0   60.0   16.666666666666668
150.0   60.0   0.0
100.0   60.0   16.666666666666668
150.0   90.0   16.666666666666668
150.0   60.0   0.0
100.0   90.0   0.0
100.0   60.0   16.666666666666668
150.0   60.0   16.666666666666668
100.0   90.0   16.666666666666668
100.0   60.0   33.333333333333336
150.0   60.0   16.666666666666668
150.0   90.0   16.666666666666668
100.0   90.0   16.666666666666668
150.0   90.0   33.333333333333336
100.0   60.0   33.333333333333336
100.0   90.0   33.333333333333336
150.0   90.0   33.333333333333336
100.0   90.0   16.666666666666668
100.0   60.0   33.333333333333336
150.0   90.0   33.333333333333336
150.0   60.0   33.333333333333336
150.0   60.0   16.666666666666668
100.0   60.0   33.333333333333336
150.0   90.0   33.333333333333336
150.0   60.0   16.666666666666668
100.0   90.0   16.666666666666668
100.0   60.0   33.333333333333336
150.0   60.0   33.333333333333336
100.0   90.0   33.333333333333336
100.0   60.0   50.0
150.0   60.0   33.333333333333336
150.0   90.0   33.333333333333336
100.0   90.0   33.333333333333336
150.0   90.0   50.0
100.0   60.0   50.0
100.0   90.0   50.0
150.0   90.0   50.0
100.0   90.0   33.333333333333336
100.0   60.0   50.0
150.0   90.0   50.0
150.0   60.0   50.0
150.0   60.0   33.333333333333336
100.0   60.0   50.0
150.0   90.0   50.0
150.0   60.0   33.333333333333336
100.0   90.0   33.333333333333336
100.0   90.0   0.0
150.0   90.0   0.0
100.0   120.0   0.0
100.0   90.0   16.666666666666668
150.0   90.0   0.0
150.0   120.0   0.0
100.0   120.0   0.0
150.0   120.0   16.666666666666668
100.0   90.0   16.666666666666668
100.0   120.0   16.666666666666668
150.0   120.0   16.666666666666668
100.0   120.0   0.0
100.0   90.0   16.666666666666668
150.0   120.0   16.666666666666668
150.0   90.0   16.666666666666668
150.0   90.0   0.0
100.0   90.0   16.666666666666668
150.0   120.0   16.666666666666668
150.0   90.0   0.0
100.0   120.0   0.0
100.0   90.0   16.666666666666668
150.0   90.0   16.666666666666668
100.0   120.0   16.666666666666668
100.0   90.0   33.333333333333336
150.0   90.0   16.666666666666668
150.0   120.0   16.666666666666668
100.0   120.0   16.666666666666668
150.0   120.0   33.333333333333336
100.0   90.0   33.333333333333336
100.0   120.0   33.333333333333336
150.0   120.0   33.333333333333336
100.0   120.0   16.666666666666668
100.0   90.0   33.333333333333336
150.0   120.0   33.333333333333336
150.0   90.0   33.333333333333336
150.0   90.0   16.666666666666668
100.0   90.0   33.333333333333336
150.0   120.0   33.333333333333336
150.0   90.0   16.666666666666668
100.0   120.0   16.666666666666668
100.0   90.0   33.333333333333336
150.0   90.0   33.333333333333336
100.0   120.0   33.333333333333336
100.0   90.0   50.0
150.0   90.0   33.333333333333336
150.0   120.0   33.333333333333336
100.0   120.0   33.333333333333336
150.0   120.0   50.0
100.0   90.0   50.0
100.0   120.0   50.0
150.0   120.0   50.0
100.0   120.0   33.333333333333336
100.0   90.0   50.0
150.0   120.0   50.0
150.0   90.0   50.0
150.0   90.0   33.333333333333336
100.0   90.0   50.0
150.0   120.0   50.0
150.0   90.0   33.333333333333336
100.0   120.0   33.333333333333336
100.0   120.0   0.0
150.0   120.0   0.0
100.0   150.0   0.0
100.0   120.0   16.666666666666668
150.0   120.0   0.0
150.0   150.0   0.0
100.0   150.0   0.0
150.0   150.0   16.666666666666668
100.0   120.0   16.666666666666668
100.0   150.0   16.666666666666668
150.0   150.0   16.666666666666668
100.0   150.0   0.0
100.0   120.0   16.666666666666668
150.0   150.0   16.666666666666668
150.0   120.0   16.666666666666668
150.0   120.0   0.0
100.0   120.0   16.666666666666668
150.0   150.0   16.666666666666668
150.0   120.0   0.0
100.0   150.0   0.0
100.0   120.0   16.666666666666668
150.0   120.0   16.666666666666668
100.0   150.0   16.666666666666668
100.0   120.0   33.333333333333336
150.0   120.0   16.666666666666668
150.0   150.0   16.666666666666668
100.0   150.0   16.666666666666668
150.0   150.0   33.333333333333336
100.0   120.0   33.333333333333336
100.0   150.0   33.333333333333336
150.0   150.0   33.333333333333336
100.0   150.0   16.666666666666668
100.0   120.0   33.333333333333336
150.0   150.0   33.333333333333336
150.0   120.0   33.333333333333336
150.0   120.0   16.666666666666668
100.0   120.0   33.333333333333336
150.0   150.0   33.333333333333336
150.0   120.0   16.666666666666668
100.0   150.0   16.666666666666668
100.0   120.0   33.333333333333336
150.0   120.0   33.333333333333336
100.0   150.0   33.333333333333336
100.0   120.0   50.0
150.0   120.0   33.333333333333336
150.0   150.0   33.333333333333336
100.0   150.0   33.333333333333336
150.0   150.0   50.0
100.0   120.0   50.0
100.0   150.0   50.0
150.0   150.0   50.0
100.0   150.0   33.333333333333336
100.0   120.0   50.0
150.0   150.0   50.0
150.0   120.0   50.0
150.0   120.0   33.333333333333336
100.0   120.0   50.0
150.0   150.0   50.0
150.0   120.0   33.333333333333336
100.0   150.0   33.333333333333336
150.0   0.0   0.0
200.0   0.0   0.0
150.0   30.0   0.0
150.0   0.0   16.666666666666668
200.0   0.0   0.0
200.0   30.0   0.0
150.0   30.0   0.0
200.0   30.0   16.666666666666668
150.0   0.0   16.666666666666668
150.0   30.0   16.666666666666668
200.0   30.0   16.666666666666668
150.0   30.0   0.0
150.0   0.0   16.666666666666668
200.0   30.0   16.666666666666668
200.0   0.0   16.666666666666668
200.0   0.0   0.0
150.0   0.0   16.666666666666668
200.0   30.0   16.666666666666668
200.0   0.0   0.0
150.0   30.0   0.0
150.0   0.0   16.666666666666668
200.0   0.0   16.666666666666668
150.0   30.0   16.666666666666668
150.0   0.0   33.333333333333336
200.0   0.0   16.666666666666668
200.0   30.0   16.666666666666668
150.0   30.0   16.666666666666668
200.0   30.0   33.333333333333336
150.0   0.0   33.333333333333336
150.0   30.0   33.333333333333336
200.0   30.0   33.333333333333336
150.0   30.0   16.666666666666668
150.0   0.0   33.333333333333336
200.0   30.0   33.333333333333336
200.0   0.0   33.333333333333336
200.0   0.0   16.666666666666668
150.0   0.0   33.333333333333336
200.0   30.0   33.333333333333336
200.0   0.0   16.666666666666668
150.0   30.0   16.666666666666668
150.0   0.0   33.333333333333336
200.0   0.0   33.333333333333336
150.0   30.0   33.333333333333336
150.0   0.0   50.0
200.0   0.0   33.333333333333336
200.0   30.0   33.333333333333336
150.0   30.0   33.333333333333336
200.0   30.0   50.0
150.0   0.0   50.0
150.0   30.0   50.0
200.0   30.0   50.0
150.0   30.0   33.333333333333336
150.0   0.0   50.0
200.0   30.0   50.0
200.0   0.0   50.0
200.0   0.0   33.333333333333336
150.0   0.0   50.0
200.0   30.0   50.0
200.0   0.0   33.333333333333336
150.0   30.0   33.333333333333336
150.0   30.0   0.0
200.0   30.0   0.0
150.0   60.0   0.0
150.0   30.0   16.666666666666668
200.0   30.0   0.0
200.0   60.0   0.0
150.0   60.0   0.0
200.0   60.0   16.666666666666668
150.0   30.0   16.666666666666668
150.0   60.0   16.666666666666668
200.0   60.0   16.666666666666668
150.0   60.0   0.0
150.0   30.0   16.666666666666668
200.0   60.0   16.666666666666668
200.0   30.0   16.666666666666668
200.0   30.0   0.0
150.0   30.0   16.666666666666668
200.0   60.0   16.666666666666668
200.0   30.0   0.0
150.0   60.0   0.0
150.0   30.0   16.666666666666668
200.0   30.0   16.666666666666668
150.0   60.0   16.666666666666668
150.0   30.0   33.333333333333336
200.0   30.0   16.666666666666668
200.0   60.0   16.666666666666668
150.0   60.0   16.666666666666668
200.0   60.0   33.333333333333336
150.0   30.0   33.333333333333336
150.0   60.0   33.333333333333336
200.0   60.0   33.333333333333336
150.0   60.0   16.666666666666668
150.0   30.0   33.333333333333336
200.0   60.0   33.333333333333336
200.0   30.0   33.333333333333336
200.0   30.0   16.666666666666668
150.0   30.0   33.333333333333336
200.0   60.0   33.333333333333336
200.0   30.0   16.666666666666668
150.0   60.0   16.666666666666668
150.0   30.0   33.333333333333336
200.0   30.0   33.333333333333336
150.0   60.0   33.333333333333336
150.0   30.0   50.0
200.0   30.0   33.333333333333336
200.0   60.0   33.333333333333336
150.0   60.0   33.333333333333336
200.0   60.0   50.0
150.0   30.0   50.0
150.0   60.0   50.0
200.0   60.0   50.0
150.0   60.0   33.333333333333336
150.0   30.0   50.0
200.0   60.0   50.0
200.0   30.0   50.0
200.0   30.0   33.333333333333336
150.0   30.0   50.0
200.0   60.0   50.0
200.0   30.0   33.333333333333336
150.0   60.0   33.333333333333336
150.0   60.0   0.0
200.0   60.0   0.0
150.0   90.0   0.0
150.0   60.0   16.666666666666668
200.0   60.0   0.0
200.0   90.0   0.0
150.0   90.0   0.0
200.0   90.0   16.666666666666668
150.0   60.0   16.666666666666668
150.0   90.0   16.666666666666668
200.0   90.0   16.666666666666668
150.0   90.0   0.0
150.0   60.0   16.666666666666668
200.0   90.0   16.666666666666668
200.0   60.0   16.666666666666668
200.0   60.0   0.0
150.0   60.0   16.666666666666668
200.0   90.0   16.666666666666668
200.0   60.0   0.0
150.0   90.0   0.0
150.0   60.0   16.666666666666668
200.0   60.0   16.666666666666668
150.0   90.0   16.666666666666668
150.0   60.0   33.333333333333336
200.0   60.0   16.666666666666668
200.0   90.0   16.666666666666668
150.0   90.0   16.666666666666668
200.0   90.0   33.333333333333336
150.0   60.0   33.333333333333336
150.0   90.0   33.333333333333336
200.0   90.0   33.333333333333336
150.0   90.0   16.666666666666668
150.0   60.0   33.333333333333336
200.0   90.0   33.333333333333336
200.0   60.0   33.333333333333336
200.0   60.0   16.666666666666668
150.0   60.0   33.333333333333336
200.0   90.0   33.333333333333336
200.0   60.0   16.666666666666668
150.0   90.0   16.666666666666668
150.0   60.0   33.333333333333336
200.0   60.0   33.333333333333336
150.0   90.0   33.333333333333336
150.0   60.0   50.0
200.0   60.0   33.333333333333336
200.0   90.0   33.333333333333336
150.0   90.0   33.333333333333336
200.0   90.0   50.0
150.0   60.0   50.0
150.0   90.0   50.0
200.0   90.0   50.0
150.0   90.0   33.333333333333336
150.0   60.0   50.0
200.0   90.0   50.0
200.0   60.0   50.0
200.0   60.0   33.333333333333336
150.0   60.0   50.0
200.0   90.0   50.0
200.0   60.0   33.333333333333336
150.0   90.0   33.333333333333336
150.0   90.0   0.0
200.0   90.0   0.0
150.0   120.0   0.0
150.0   90.0   16.666666666666668
200.0   90.0   0.0
200.0   120.0   0.0
150.0   120.0   0.0
200.0   120.0   16.666666666666668
150.0   90.0   16.666666666666668
150.0   120.0   16.666666666666668
200.0   120.0   16.666666666666668
150.0   120.0   0.0
150.0   90.0   16.666666666666668
200.0   120.0   16.666666666666668
200.0   90.0   16.666666666666668
200.0   90.0   0.0
150.0   90.0   16.666666666666668
200.0   120.0   16.666666666666668
200.0   90.0   0.0
150.0   120.0   0.0
150.0   90.0   16.666666666666668
200.0   90.0   16.666666666666668
150.0   120.0   16.666666666666668
150.0   90.0   33.333333333333336
200.0   90.0   16.666666666666668
200.0   120.0   16.666666666666668
150.0   120.0   16.666666666666668
200.0   120.0   33.333333333333336
150.0   90.0   33.333333333333336
150.0   120.0   33.333333333333336
200.0   120.0   33.333333333333336
150.0   120.0   16.666666666666668
150.0   90.0   33.333333333333336
200.0   120.0   33.333333333333336
200.0   90.0   33.333333333333336
200.0   90.0   16.666666666666668
150.0   90.0   33.333333333333336
200.0   120.0   33.333333333333336
200.0   90.0   16.666666666666668
150.0   120.0   16.666666666666668
150.0   90.0   33.333333333333336
200.0   90.0   33.333333333333336
150.0   120.0   33.333333333333336
150.0   90.0   50.0
200.0   90.0   33.333333333333336
200.0   120.0   33.333333333333336
150.0   120.0   33.333333333333336
200.0   120.0   50.0
150.0   90.0   50.0
150.0   120.0   50.0
200.0   120.0   50.0
150.0   120.0   33.333333333333336
150.0   90.0   50.0
200.0   120.0   50.0
200.0   90.0   50.0
200.0   90.0   33.333333333333336
150.0   90.0   50.0
200.0   120.0   50.0
200.0   90.0   33.333333333333336
150.0   120.0   33.333333333333336
150.0   120.0   0.0
200.0   120.0   0.0
150.0   150.0   0.0
150.0   120.0   16.666666666666668
200.0   120.0   0.0
200.0   150.0   0.0
150.0   150.0   0.0
200.0   150.0   16.666666666666668
150.0   120.0   16.666666666666668
150.0   150.0   16.666666666666668
200.0   150.0   16.666666666666668
150.0   150.0   0.0
150.0   120.0   16.666666666666668
200.0   150.0   16.666666666666668
200.0   120.0   16.666666666666668
200.0   120.0   0.0
150.0   120.0   16.666666666666668
200.0   150.0   16.666666666666668
200.0   120.0   0.0
150.0   150.0   0.0
150.0   120.0   16.666666666666668
200.0   120.0   16.666666666666668
150.0   150.0   16.666666666666668
150.0   120.0   33.333333333333336
200.0   120.0   16.666666666666668
200.0   150.0   16.666666666666668
150.0   150.0   16.666666666666668
200.0   150.0   33.333333333333336
150.0   120.0   33.333333333333336
150.0   150.0   33.333333333333336
200.0   150.0   33.333333333333336
150.0   150.0   16.666666666666668
150.0   120.0   33.333333333333336
200.0   150.0   33.333333333333336
200.0   120.0   33.333333333333336
200.0   120.0   16.666666666666668
150.0   120.0   33.333333333333336
200.0   150.0   33.333333333333336
200.0   120.0   16.666666666666668
150.0   150.0   16.666666666666668
150.0   120.0   33.333333333333336
200.0   120.0   33.333333333333336
150.0   150.0   33.333333333333336
150.0   120.0   50.0
200.0   120.0   33.333333333333336
200.0   150.0   33.333333333333336
150.0   150.0   33.333333333333336
200.0   150.0   50.0
150.0   120.0   50.0
150.0   150.0   50.0
200.0   150.0   50.0
150.0   150.0   33.333333333333336
150.0   120.0   50.0
200.0   150.0   50.0
200.0   120.0   50.0
200.0   120.0   33.333333333333336
150.0   120.0   50.0
200.0   150.0   50.0
200.0   120.0   33.333333333333336
150.0   150.0   33.333333333333336
200.0   0.0   0.0
250.0   0.0   0.0
200.0   30.0   0.0
200.0   0.0   16.666666666666668
250.0   0.0   0.0
250.0   30.0   0.0
200.0   30.0   0.0
250.0   30.0   16.666666666666668
200.0   0.0   16.666666666666668
200.0   30.0   16.666666666666668
250.0   30.0   16.666666666666668
200.0   30.0   0.0
200.0   0.0   16.666666666666668
250.0   30.0   16.666666666666668
250.0   0.0   16.666666666666668
250.0   0.0   0.0
200.0   0.0   16.666666666666668
250.0   30.0   16.666666666666668
250.0   0.0   0.0
200.0   30.0   0.0
200.0   0.0   16.666666666666668
250.0   0.0   16.666666666666668
200.0   30.0   16.666666666666668
200.0   0.0   33.333333333333336
250.0   0.0   16.666666666666668
250.0   30.0   16.666666666666668
200.0   30.0   16.666666666666668
250.0   30.0   33.333333333333336
200.0   0.0   33.333333333333336
200.0   30.0   33.333333333333336
250.0   30.0   33.333333333333336
200.0   30.0   16.666666666666668
200.0   0.0   33.333333333333336
250.0   30.0   33.333333333333336
250.0   0.0   33.333333333333336
250.0   0.0   16.666666666666668
200.0   0.0   33.333333333333336
250.0   30.0   33.333333333333336
250.0   0.0   16.666666666666668
200.0   30.0   16.666666666666668
200.0   0.0   33.333333333333336
250.0   0.0   33.333333333333336
200.0   30.0   33.333333333333336
200.0   0.0   50.0
250.0   0.0   33.333333333333336
250.0   30.0   33.333333333333336
200.0   30.0   33.333333333333336
250.0   30.0   50.0
200.0   0.0   50.0
200.0   30.0   50.0
250.0   30.0   50.0
200.0   30.0   33.333333333333336
200.0   0.0   50.0
250.0   30.0   50.0
250.0   0.0   50.0
250.0   0.0   33.333333333333336
200.0   0.0   50.0
250.0   30.0   50.0
250.0   0.0   33.333333333333336
200.0   30.0   33.333333333333336
200.0   30.0   0.0
250.0   30.0   0.0
200.0   60.0   0.0
200.0   30.0   16.666666666666668
250.0   30.0   0.0
250.0   60.0   0.0
200.0   60.0   0.0
250.0   60.0   16.666666666666668
200.0   30.0   16.666666666666668
200.0   60.0   16.666666666666668
250.0   60.0   16.666666666666668
200.0   60.0   0.0
200.0   30.0   16.666666666666668
250.0   60.0   16.666666666666668
250.0   30.0   16.666666666666668
250.0   30.0   0.0
200.0   30.0   16.666666666666668
250.0   60.0   16.666666666666668
250.0   30.0   0.0
200.0   60.0   0.0
200.0   30.0   16.666666666666668
250.0   30.0   16.666666666666668
200.0   60.0   16.666666666666668
200.0   30.0   33.333333333333336
250.0   30.0   16.666666666666668
250.0   60.0   16.666666666666668
200.0   60.0   16.666666666666668
250.0   60.0   33.333333333333336
200.0   30.0   33.333333333333336
200.0   60.0   33.333333333333336
250.0   60.0   33.333333333333336
200.0   60.0   16.666666666666668
200.0   30.0   33.333333333333336
250.0   60.0   33.333333333333336
250.0   30.0   33.333333333333336
250.0   30.0   16.666666666666668
200.0   30.0   33.333333333333336
250.0   60.0   33.333333333333336
250.0   30.0   16.666666666666668
200.0   60.0   16.666666666666668
200.0   30.0   33.333333333333336
250.0   30.0   33.333333333333336
200.0   60.0   33.333333333333336
200.0   30.0   50.0
250.0   30.0   33.333333333333336
250.0   60.0   33.333333333333336
200.0   60.0   33.333333333333336
250.0   60.0   50.0
200.0   30.0   50.0
200.0   60.0   50.0
250.0   60.0   50.0
200.0   60.0   33.333333333333336
200.0   30.0   50.0
250.0   60.0   50.0
250.0   30.0   50.0
250.0   30.0   33.333333333333336
200.0   30.0   50.0
250.0   60.0   50.0
250.0   30.0   33.333333333333336
200.0   60.0   33.333333333333336
200.0   60.0   0.0
250.0   60.0   0.0
200.0   90.0   0.0
200.0   60.0   16.666666666666668
250.0   60.0   0.0
250.0   90.0   0.0
200.0   90.0   0.0
250.0   90.0   16.666666666666668
200.0   60.0   16.666666666666668
200.0   90.0   16.666666666666668
250.0   90.0   16.666666666666668
200.0   90.0   0.0
200.0   60.0   16.666666666666668
250.0   90.0   16.666666666666668
250.0   60.0   16.666666666666668
250.0   60.0   0.0
200.0   60.0   16.666666666666668
250.0   90.0   16.666666666666668
250.0   60.0   0.0
200.0   90.0   0.0
200.0   60.0   16.666666666666668
250.0   60.0   16.666666666666668
200.0   90.0   16.666666666666668
200.0   60.0   33.333333333333336
250.0   60.0   16.666666666666668
250.0   90.0   16.666666666666668
200.0   90.0   16.666666666666668
250.0   90.0   33.333333333333336
200.0   60.0   33.333333333333336
200.0   90.0   33.333333333333336
250.0   90.0   33.333333333333336
200.0   90.0   16.666666666666668
200.0   60.0   33.333333333333336
250.0   90.0   33.333333333333336
250.0   60.0   33.333333333333336
250.0   60.0   16.666666666666668
200.0   60.0   33.333333333333336
250.0   90.0   33.333333333333336
250.0   60.0   16.666666666666668
200.0   90.0   16.666666666666668
200.0   60.0   33.333333333333336
250.0   60.0   33.333333333333336
200.0   90.0   33.333333333333336
200.0   60.0   50.0
250.0   60.0   33.333333333333336
250.0   90.0   33.333333333333336
200.0   90.0   33.333333333333336
250.0   90.0   50.0
200.0   60.0   50.0
200.0   90.0   50.0
250.0   90.0   50.0
200.0   90.0   33.333333333333336
200.0   60.0   50.0
250.0   90.0   50.0
250.0   60.0   50.0
250.0   60.0   33.333333333333336
200.0   60.0   50.0
250.0   90.0   50.0
250.0   60.0   33.333333333333336
200.0   90.0   33.333333333333336
200.0   90.0   0.0
250.0   90.0   0.0
200.0   120.0   0.0
200.0   90.0   16.666666666666668
250.0   90.0   0.0
250.0   120.0   0.0
200.0   120.0   0.0
250.0   120.0   16.666666666666668
200.0   90.0   16.666666666666668
200.0   120.0   16.666666666666668
250.0   120.0   16.666666666666668
200.0   120.0   0.0
200.0   90.0   16.666666666666668
250.0   120.0   16.666666666666668
250.0   90.0   16.666666666666668
250.0   90.0   0.0
200.0   90.0   16.666666666666668
250.0   120.0   16.666666666666668
250.0   90.0   0.0
200.0   120.0   0.0
200.0   90.0   16.666666666666668
250.0   90.0   16.666666666666668
200.0   120.0   16.666666666666668
200.0   90.0   33.333333333333336
250.0   90.0   16.666666666666668
250.0   120.0   16.666666666666668
200.0   120.0   16.666666666666668
250.0   120.0   33.333333333333336
200.0   90.0   33.333333333333336
200.0   120.0   33.333333333333336
250.0   120.0   33.333333333333336
200.0   120.0   16.666666666666668
200.0   90.0   33.333333333333336
250.0   120.0   33.333333333333336
250.0   90.0   33.333333333333336
250.0   90.0   16.666666666666668
200.0   90.0   33.333333333333336
250.0   120.0   33.333333333333336
250.0   90.0   16.666666666666668
200.0   120.0   16.666666666666668
200.0   90.0   33.333333333333336
250.0   90.0   33.333333333333336
200.0   120.0   33.333333333333336
200.0   90.0   50.0
250.0   90.0   33.333333333333336
250.0   120.0   33.333333333333336
200.0   120.0   33.333333333333336
250.0   120.0   50.0
200.0   90.0   50.0
200.0   120.0   50.0
250.0   120.0   50.0
200.0   120.0   33.333333333333336
200.0   90.0   50.0
250.0   120.0   50.0
250.0   90.0   50.0
250.0   90.0   33.333333333333336
200.0   90.0   50.0
250.0   120.0   50.0
250.0   90.0   33.333333333333336
200.0   120.0   33.333333333333336
200.0   120.0   0.0
250.0   120.0   0.0
200.0   150.0   0.0
200.0   120.0   16.666666666666668
250.0   120.0   0.0
250.0   150.0   0.0
200.0   150.0   0.0
250.0   150.0   16.666666666666668
200.0   120.0   16.666666666666668
200.0   150.0   16.666666666666668
250.0   150.0   16.666666666666668
200.0   150.0   0.0
200.0   120.0   16.666666666666668
250.0   150.0   16.666666666666668
250.0   120.0   16.666666666666668
250.0   120.0   0.0
200.0   120.0   16.666666666666668
250.0   150.0   16.666666666666668
250.0   120.0   0.0
200.0   150.0   0.0
200.0   120.0   16.666666666666668
250.0   120.0   16.666666666666668
200.0   150.0   16.666666666666668
200.0   120.0   33.333333333333336
250.0   120.0   16.666666666666668
250.0   150.0   16.666666666666668
200.0   150.0   16.666666666666668
250.0   150.0   33.333333333333336
200.0   120.0   33.333333333333336
200.0   150.0   33.333333333333336
250.0   150.0   33.333333333333336
200.0   150.0   16.666666666666668
200.0   120.0   33.333333333333336
250.0   150.0   33.333333333333336
250.0   120.0   33.333333333333336
250.0   120.0   16.666666666666668
200.0   120.0   33.333333333333336
250.0   150.0   33.333333333333336
250.0   120.0   16.666666666666668
200.0   150.0   16.666666666666668
200.0   120.0   33.333333333333336
250.0   120.0   33.333333333333336
200.0   150.0   33.333333333333336
200.0   120.0   50.0
250.0   120.0   33.333333333333336
250.0   150.0   33.333333333333336
200.0   150.0   33.333333333333336
250.0   150.0   50.0
200.0   120.0   50.0
200.0   150.0   50.0
250.0   150.0   50.0
200.0   150.0   33.333333333333336
200.0   120.0   50.0
250.0   150.0   50.0
250.0   120.0   50.0
250.0   120.0   33.333333333333336
200.0   120.0   50.0
250.0   150.0   50.0
250.0   120.0   33.333333333333336
200.0   150.0   33.333333333333336
250.0   0.0   0.0
300.0   0.0   0.0
250.0   30.0   0.0
250.0   0.0   16.666666666666668
300.0   0.0   0.0
300.0   30.0   0.0
250.0   30.0   0.0
300.0   30.0   16.666666666666668
250.0   0.0   16.666666666666668
250.0   30.0   16.666666666666668
300.0   30.0   16.666666666666668
250.0   30.0   0.0
250.0   0.0   16.666666666666668
300.0   30.0   16.666666666666668
300.0   0.0   16.666666666666668
300.0   0.0   0.0
250.0   0.0   16.666666666666668
300.0   30.0   16.666666666666668
300.0   0.0   0.0
250.0   30.0   0.0
250.0   0.0   16.666666666666668
300.0   0.0   16.666666666666668
250.0   30.0   16.666666666666668
250.0   0.0   33.333333333333336
300.0   0.0   16.666666666666668
300.0   30.0   16.666666666666668
250.0   30.0   16.666666666666668
300.0   30.0   33.333333333333336
250.0   0.0   33.333333333333336
250.0   30.0   33.333333333333336
300.0   30.0   33.333333333333336
250.0   30.0   16.666666666666668
250.0   0.0   33.333333333333336
300.0   30.0   33.333333333333336
300.0   0.0   33.333333333333336
300.0   0.0   16.666666666666668
250.0   0.0   33.333333333333336
300.0   30.0   33.333333333333336
300.0   0.0   16.666666666666668
250.0   30.0   16.666666666666668
250.0   0.0   33.333333333333336
300.0   0.0   33.333333333333336
250.0   30.0   33.333333333333336
250.0   0.0   50.0
300.0   0.0   33.333333333333336
300.0   30.0   33.333333333333336
250.0   30.0   33.333333333333336
300.0   30.0   50.0
250.0   0.0   50.0
250.0   30.0   50.0
300.0   30.0   50.0
250.0   30.0   33.333333333333336
250.0   0.0   50.0
300.0   30.0   50.0
300.0   0.0   50.0
300.0   0.0   33.333333333333336
250.0   0.0   50.0
300.0   30.0   50.0
300.0   0.0   33.333333333333336
250.0   30.0   33.333333333333336
250.0   30.0   0.0
300.0   30.0   0.0
250.0   60.0   0.0
250.0   30.0   16.666666666666668
300.0   30.0   0.0
300.0   60.0   0.0
250.0   60.0   0.0
300.0   60.0   16.666666666666668
250.0   30.0   16.666666666666668
250.0   60.0   16.666666666666668
300.0   60.0   16.666666666666668
250.0   60.0   0.0
250.0   30.0   16.666666666666668
300.0   60.0   16.666666666666668
300.0   30.0   16.666666666666668
300.0   30.0   0.0
250.0   30.0   16.666666666666668
300.0   60.0   16.666666666666668
300.0   30.0   0.0
250.0   60.0   0.0
250.0   30.0   16.666666666666668
300.0   30.0   16.666666666666668
250.0   60.0   16.666666666666668
250.0   30.0   33.333333333333336
300.0   30.0   16.666666666666668
300.0   60.0   16.666666666666668
250.0   60.0   16.666666666666668
300.0   60.0   33.333333333333336
250.0   30.0   33.333333333333336
250.0   60.0   33.333333333333336
300.0   60.0   33.333333333333336
250.0   60.0   16.666666666666668
250.0   30.0   33.333333333333336
300.0   60.0   33.333333333333336
300.0   30.0   33.333333333333336
300.0   30.0   16.666666666666668
250.0   30.0   33.333333333333336
300.0   60.0   33.333333333333336
300.0   30.0   16.666666666666668
250.0   60.0   16.666666666666668
250.0   30.0   33.333333333333336
300.0   30.0   33.333333333333336
250.0   60.0   33.333333333333336
250.0   30.0   50.0
300.0   30.0   33.333333333333336
300.0   60.0   33.333333333333336
250.0   60.0   33.333333333333336
300.0   60.0   50.0
250.0   30.0   50.0
250.0   60.0   50.0
300.0   60.0   50.0
250.0   60.0   33.333333333333336
250.0   30.0   50.0
300.0   60.0   50.0
300.0   30.0   50.0
300.0   30.0   33.333333333333336
250.0   30.0   50.0
300.0   60.0   50.0
300.0   30.0   33.333333333333336
250.0   60.0   33.333333333333336
250.0   60.0   0.0
300.0   60.0   0.0
250.0   90.0   0.0
250.0   60.0   16.666666666666668
300.0   60.0   0.0
300.0   90.0   0.0
250.0   90.0   0.0
300.0   90.0   16.666666666666668
250.0   60.0   16.666666666666668
250.0   90.0   16.666666666666668
300.0   90.0   16.666666666666668
250.0   90.0   0.0
250.0   60.0   16.666666666666668
300.0   90.0   16.666666666666668
300.0   60.0   16.666666666666668
300.0   60.0   0.0
250.0   60.0   16.666666666666668
300.0   90.0   16.666666666666668
300.0   60.0   0.0
250.0   90.0   0.0
250.0   60.0   16.666666666666668
300.0   60.0   16.666666666666668
250.0   90.0   16.666666666666668
250.0   60.0   33.333333333333336
300.0   60.0   16.666666666666668
300.0   90.0   16.666666666666668
250.0   90.0   16.666666666666668
300.0   90.0   33.333333333333336
250.0   60.0   33.333333333333336
250.0   90.0   33.333333333333336
300.0   90.0   33.333333333333336
250.0   90.0   16.666666666666668
250.0   60.0   33.333333333333336
300.0   90.0   33.333333333333336
300.0   60.0   33.333333333333336
300.0   60.0   16.666666666666668
250.0   60.0   33.333333333333336
300.0   90.0   33.333333333333336
300.0   60.0   16.666666666666668
250.0   90.0   16.666666666666668
250.0   60.0   33.333333333333336
300.0   60.0   33.333333333333336
250.0   90.0   33.333333333333336
250.0   60.0   50.0
300.0   60.0   33.333333333333336
300.0   90.0   33.333333333333336
250.0   90.0   33.333333333333336
300.0   90.0   50.0
250.0   60.0   50.0
250.0   90.0   50.0
300.0   90.0   50.0
250.0   90.0   33.333333333333336
250.0   60.0   50.0
300.0   90.0   50.0
300.0   60.0   50.0
300.0   60.0   33.333333333333336
250.0   60.0   50.0
300.0   90.0   50.0
300.0   60.0   33.333333333333336
250.0   90.0   33.333333333333336
250.0   90.0   0.0
300.0   90.0   0.0
250.0   120.0   0.0
250.0   90.0   16.666666666666668
300.0   90.0   0.0
300.0   120.0   0.0
250.0   120.0   0.0
300.0   120.0   16.666666666666668
250.0   90.0   16.666666666666668
250.0   120.0   16.666666666666668
300.0   120.0   16.666666666666668
250.0   120.0   0.0
250.0   90.0   16.666666666666668
300.0   120.0   16.666666666666668
300.0   90.0   16.666666666666668
300.0   90.0   0.0
250.0   90.0   16.666666666666668
300.0   120.0   16.666666666666668
300.0   90.0   0.0
250.0   120.0   0.0
250.0   90.0   16.666666666666668
300.0   90.0   16.666666666666668
250.0   120.0   16.666666666666668
250.0   90.0   33.333333333333336
300.0   90.0   16.666666666666668
300.0   120.0   16.666666666666668
250.0   120.0   16.666666666666668
300.0   120.0   33.333333333333336
250.0   90.0   33.333333333333336
250.0   120.0   33.333333333333336
300.0   120.0   33.333333333333336
250.0   120.0   16.666666666666668
250.0   90.0   33.333333333333336
300.0   120.0   33.333333333333336
300.0   90.0   33.333333333333336
300.0   90.0   16.666666666666668
250.0   90.0   33.333333333333336
300.0   120.0   33.333333333333336
300.0   90.0   16.666666666666668
250.0   120.0   16.666666666666668
250.0   90.0   33.333333333333336
300.0   90.0   33.333333333333336
250.0   120.0   33.333333333333336
250.0   90.0   50.0
300.0   90.0   33.333333333333336
300.0   120.0   33.333333333333336
250.0   120.0   33.333333333333336
300.0   120.0   50.0
250.0   90.0   50.0
250.0   120.0   50.0
300.0   120.0   50.0
250.0   120.0   33.333333333333336
250.0   90.0   50.0
300.0   120.0   50.0
300.0   90.0   50.0
300.0   90.0   33.333333333333336
250.0   90.0   50.0
300.0   120.0   50.0
300.0   90.0   33.333333333333336
250.0   120.0   33.333333333333336
250.0   120.0   0.0
300.0   120.0   0.0
250.0   150.0   0.0
250.0   120.0   16.666666666666668
300.0   120.0   0.0
300.0   150.0   0.0
250.0   150.0   0.0
300.0   150.0   16.666666666666668
250.0   120.0   16.666666666666668
250.0   150.0   16.666666666666668
300.0   150.0   16.666666666666668
250.0   150.0   0.0
250.0   120.0   16.666666666666668
300.0   150.0   16.666666666666668
300.0   120.0   16.666666666666668
300.0   120.0   0.0
250.0   120.0   16.666666666666668
300.0   150.0   16.666666666666668
300.0   120.0   0.0
250.0   150.0   0.0
250.0   120.0   16.666666666666668
300.0   120.0   16.666666666666668
250.0   150.0   16.666666666666668
250.0   120.0   33.333333333333336
300.0   120.0   16.666666666666668
300.0   150.0   16.666666666666668
250.0   150.0   16.666666666666668
300.0   150.0   33.333333333333336
250.0   120.0   33.333333333333336
250.0   150.0   33.333333333333336
300.0   150.0   33.333333333333336
250.0   150.0   16.666666666666668
250.0   120.0   33.333333333333336
300.0   150.0   33.333333333333336
300.0   120.0   33.333333333333336
300.0   120.0   16.666666666666668
250.0   120.0   33.333333333333336
300.0   150.0   33.333333333333336
300.0   120.0   16.666666666666668
250.0   150.0   16.666666666666668
250.0   120.0   33.333333333333336
300.0   120.0   33.333333333333336
250.0   150.0   33.333333333333336
250.0   120.0   50.0
300.0   120.0   33.333333333333336
300.0   150.0   33.333333333333336
250.0   150.0   33.333333333333336
300.0   150.0   50.0
250.0   120.0   50.0
250.0   150.0   50.0
300.0   150.0   50.0
250.0   150.0   33.333333333333336
250.0   120.0   50.0
300.0   150.0   50.0
300.0   120.0   50.0
300.0   120.0   33.333333333333336
250.0   120.0   50.0
300.0   150.0   50.0
300.0   120.0   33.333333333333336
250.0   150.0   33.333333333333336
300.0   0.0   0.0
350.0   0.0   0.0
300.0   30.0   0.0
300.0   0.0   16.666666666666668
350.0   0.0   0.0
350.0   30.0   0.0
300.0   30.0   0.0
350.0   30.0   16.666666666666668
300.0   0.0   16.666666666666668
300.0   30.0   16.666666666666668
350.0   30.0   16.666666666666668
300.0   30.0   0.0
300.0   0.0   16.666666666666668
350.0   30.0   16.666666666666668
350.0   0.0   16.666666666666668
350.0   0.0   0.0
300.0   0.0   16.666666666666668
350.0   30.0   16.666666666666668
350.0   0.0   0.0
300.0   30.0   0.0
300.0   0.0   16.666666666666668
350.0   0.0   16.666666666666668
300.0   30.0   16.666666666666668
300.0   0.0   33.333333333333336
350.0   0.0   16.666666666666668
350.0   30.0   16.666666666666668
300.0   30.0   16.666666666666668
350.0   30.0   33.333333333333336
300.0   0.0   33.333333333333336
300.0   30.0   33.333333333333336
350.0   30.0   33.333333333333336
300.0   30.0   16.666666666666668
300.0   0.0   33.333333333333336
350.0   30.0   33.333333333333336
350.0   0.0   33.333333333333336
350.0   0.0   16.666666666666668
300.0   0.0   33.333333333333336
350.0   30.0   33.333333333333336
350.0   0.0   16.666666666666668
300.0   30.0   16.666666666666668
300.0   0.0   33.333333333333336
350.0   0.0   33.333333333333336
300.0   30.0   33.333333333333336
300.0   0.0   50.0
350.0   0.0   33.333333333333336
350.0   30.0   33.333333333333336
300.0   30.0   33.333333333333336
350.0   30.0   50.0
300.0   0.0   50.0
300.0   30.0   50.0
350.0   30.0   50.0
300.0   30.0   33.333333333333336
300.0   0.0   50.0
350.0   30.0   50.0
350.0   0.0   50.0
350.0   0.0   33.333333333333336
300.0   0.0   50.0
350.0   30.0   50.0
350.0   0.0   33.333333333333336
300.0   30.0   33.333333333333336
300.0   30.0   0.0
350.0   30.0   0.0
300.0   60.0   0.0
300.0   30.0   16.666666666666668
350.0   30.0   0.0
350.0   60.0   0.0
300.0   60.0   0.0
350.0   60.0   16.666666666666668
300.0   30.0   16.666666666666668
300.0   60.0   16.666666666666668
350.0   60.0   16.666666666666668
300.0   60.0   0.0
300.0   30.0   16.666666666666668
350.0   60.0   16.666666666666668
350.0   30.0   16.666666666666668
350.0   30.0   0.0
300.0   30.0   16.666666666666668
350.0   60.0   16.666666666666668
350.0   30.0   0.0
300.0   60.0   0.0
300.0   30.0   16.666666666666668
350.0   30.0   16.666666666666668
300.0   60.0   16.666666666666668
300.0   30.0   33.333333333333336
350.0   30.0   16.666666666666668
350.0   60.0   16.666666666666668
300.0   60.0   16.666666666666668
350.0   60.0   33.333333333333336
300.0   30.0   33.333333333333336
300.0   60.0   33.333333333333336
350.0   60.0   33.333333333333336
300.0   60.0   16.666666666666668
300.0   30.0   33.333333333333336
350.0   60.0   33.333333333333336
350.0   30.0   33.333333333333336
350.0   30.0   16.666666666666668
300.0   30.0   33.333333333333336
350.0   60.0   33.333333333333336
350.0   30.0   16.666666666666668
300.0   60.0   16.666666666666668
300.0   30.0   33.333333333333336
350.0   30.0   33.333333333333336
300.0   60.0   33.333333333333336
300.0   30.0   50.0
350.0   30.0   33.333333333333336
350.0   60.0   33.333333333333336
300.0   60.0   33.333333333333336
350.0   60.0   50.0
300.0   30.0   50.0
300.0   60.0   50.0
350.0   60.0   50.0
300.0   60.0   33.333333333333336
300.0   30.0   50.0
350.0   60.0   50.0
350.0   30.0   50.0
350.0   30.0   33.333333333333336
300.0   30.0   50.0
350.0   60.0   50.0
350.0   30.0   33.333333333333336
300.0   60.0   33.333333333333336
300.0   60.0   0.0
350.0   60.0   0.0
300.0   90.0   0.0
300.0   60.0   16.666666666666668
350.0   60.0   0.0
350.0   90.0   0.0
300.0   90.0   0.0
350.0   90.0   16.666666666666668
300.0   60.0   16.666666666666668
300.0   90.0   16.666666666666668
350.0   90.0   16.666666666666668
300.0   90.0   0.0
300.0   60.0   16.666666666666668
350.0   90.0   16.666666666666668
350.0   60.0   16.666666666666668
350.0   60.0   0.0
300.0   60.0   16.666666666666668
350.0   90.0   16.666666666666668
350.0   60.0   0.0
300.0   90.0   0.0
300.0   60.0   16.666666666666668
350.0   60.0   16.666666666666668
300.0   90.0   16.666666666666668
300.0   60.0   33.333333333333336
350.0   60.0   16.666666666666668
350.0   90.0   16.666666666666668
300.0   90.0   16.666666666666668
350.0   90.0   33.333333333333336
300.0   60.0   33.333333333333336
300.0   90.0   33.333333333333336
350.0   90.0   33.333333333333336
300.0   90.0   16.666666666666668
300.0   60.0   33.333333333333336
350.0   90.0   33.333333333333336
350.0   60.0   33.333333333333336
350.0   60.0   16.666666666666668
300.0   60.0   33.333333333333336
350.0   90.0   33.333333333333336
350.0   60.0   16.666666666666668
300.0   90.0   16.666666666666668
300.0   60.0   33.333333333333336
350.0   60.0   33.333333333333336
300.0   90.0   33.333333333333336
300.0   60.0   50.0
350.0   60.0   33.333333333333336
350.0   90.0   33.333333333333336
300.0   90.0   33.333333333333336
350.0   90.0   50.0
300.0   60.0   50.0
300.0   90.0   50.0
350.0   90.0   50.0
300.0   90.0   33.333333333333336
300.0   60.0   50.0
350.0   90.0   50.0
350.0   60.0   50.0
350.0   60.0   33.333333333333336
300.0   60.0   50.0
350.0   90.0   50.0
350.0   60.0   33.333333333333336
300.0   90.0   33.333333333333336
300.0   90.0   0.0
350.0   90.0   0.0
300.0   120.0   0.0
300.0   90.0   16.666666666666668
350.0   90.0   0.0
350.0   120.0   0.0
300.0   120.0   0.0
350.0   120.0   16.666666666666668
300.0   90.0   16.666666666666668
300.0   120.0   16.666666666666668
350.0   120.0   16.666666666666668
300.0   120.0   0.0
300.0   90.0   16.666666666666668
350.0   120.0   16.666666666666668
350.0   90.0   16.666666666666668
350.0   90.0   0.0
300.0   90.0   16.666666666666668
350.0   120.0   16.666666666666668
350.0   90.0   0.0
300.0   120.0   0.0
300.0   90.0   16.666666666666668
350.0   90.0   16.666666666666668
300.0   120.0   16.666666666666668
300.0   90.0   33.333333333333336
350.0   90.0   16.666666666666668
350.0   120.0   16.666666666666668
300.0   120.0   16.666666666666668
350.0   120.0   33.333333333333336
300.0   90.0   33.333333333333336
300.0   120.0   33.333333333333336
350.0   120.0   33.333333333333336
300.0   120.0   16.666666666666668
300.0   90.0   33.333333333333336
350.0   120.0   33.333333333333336
350.0   90.0   33.333333333333336
350.0   90.0   16.666666666666668
300.0   90.0   33.333333333333336
350.0   120.0   33.333333333333336
350.0   90.0   16.666666666666668
300.0   120.0   16.666666666666668
300.0   90.0   33.333333333333336
350.0   90.0   33.333333333333336
300.0   120.0   33.333333333333336
300.0   90.0   50.0
350.0   90.0   33.333333333333336
350.0   120.0   33.333333333333336
300.0   120.0   33.333333333333336
350.0   120.0   50.0
300.0   90.0   50.0
300.0   120.0   50.0
350.0   120.0   50.0
300.0   120.0   33.333333333333336
300.0   90.0   50.0
350.0   120.0   50.0
350.0   90.0   50.0
350.0   90.0   33.333333333333336
300.0   90.0   50.0
350.0   120.0   50.0
350.0   90.0   33.333333333333336
300.0   120.0   33.333333333333336
300.0   120.0   0.0
350.0   120.0   0.0
300.0   150.0   0.0
300.0   120.0   16.666666666666668
350.0   120.0   0.0
350.0   150.0   0.0
300.0   150.0   0.0
350.0   150.0   16.666666666666668
300.0   120.0   16.666666666666668
300.0   150.0   16.666666666666668
350.0   150.0   16.666666666666668
300.0   150.0   0.0
300.0   120.0   16.666666666666668
350.0   150.0   16.666666666666668
350.0   120.0   16.666666666666668
350.0   120.0   0.0
300.0   120.0   16.666666666666668
350.0   150.0   16.666666666666668
350.0   120.0   0.0
300.0   150.0   0.0
300.0   120.0   16.666666666666668
350.0   120.0   16.666666666666668
300.0   150.0   16.666666666666668
300.0   120.0   33.333333333333336
350.0   120.0   16.666666666666668
350.0   150.0   16.666666666666668
300.0   150.0   16.666666666666668
350.0   150.0   33.333333333333336
300.0   120.0   33.333333333333336
300.0   150.0   33.333333333333336
350.0   150.0   33.333333333333336
300.0   150.0   16.666666666666668
300.0   120.0   33.333333333333336
350.0   150.0   33.333333333333336
350.0   120.0   33.333333333333336
350.0   120.0   16.666666666666668
300.0   120.0   33.333333333333336
350.0   150.0   33.333333333333336
350.0   120.0   16.666666666666668
300.0   150.0   16.666666666666668
300.0   120.0   33.333333333333336
350.0   120.0   33.333333333333336
300.0   150.0   33.333333333333336
300.0   120.0   50.0
350.0   120.0   33.333333333333336
350.0   150.0   33.333333333333336
300.0   150.0   33.333333333333336
350.0   150.0   50.0
300.0   120.0   50.0
300.0   150.0   50.0
350.0   150.0   50.0
300.0   150.0   33.333333333333336
300.0   120.0   50.0
350.0   150.0   50.0
350.0   120.0   50.0
350.0   120.0   33.333333333333336
300.0   120.0   50.0
350.0   150.0   50.0
350.0   120.0   33.333333333333336
300.0   150.0   33.333333333333336
350.0   0.0   0.0
400.0   0.0   0.0
350.0   30.0   0.0
350.0   0.0   16.666666666666668
400.0   0.0   0.0
400.0   30.0   0.0
350.0   30.0   0.0
400.0   30.0   16.666666666666668
350.0   0.0   16.666666666666668
350.0   30.0   16.666666666666668
400.0   30.0   16.666666666666668
350.0   30.0   0.0
350.0   0.0   16.666666666666668
400.0   30.0   16.666666666666668
400.0   0.0   16.666666666666668
400.0   0.0   0.0
350.0   0.0   16.666666666666668
400.0   30.0   16.666666666666668
400.0   0.0   0.0
350.0   30.0   0.0
350.0   0.0   16.666666666666668
400.0   0.0   16.666666666666668
350.0   30.0   16.666666666666668
350.0   0.0   33.333333333333336
400.0   0.0   16.666666666666668
400.0   30.0   16.666666666666668
350.0   30.0   16.666666666666668
400.0   30.0   33.333333333333336
350.0   0.0   33.333333333333336
350.0   30.0   33.333333333333336
400.0   30.0   33.333333333333336
350.0   30.0   16.666666666666668
350.0   0.0   33.333333333333336
400.0   30.0   33.333333333333336
400.0   0.0   33.333333333333336
400.0   0.0   16.666666666666668
350.0   0.0   33.333333333333336
400.0   30.0   33.333333333333336
400.0   0.0   16.666666666666668
350.0   30.0   16.666666666666668
350.0   0.0   33.333333333333336
400.0   0.0   33.333333333333336
350.0   30.0   33.333333333333336
350.0   0.0   50.0
400.0   0.0   33.333333333333336
400.0   30.0   33.333333333333336
350.0   30.0   33.333333333333336
400.0   30.0   50.0
350.0   0.0   50.0
350.0   30.0   50.0
400.0   30.0   50.0
350.0   30.0   33.333333333333336
350.0   0.0   50.0
400.0   30.0   50.0
400.0   0.0   50.0
400.0   0.0   33.333333333333336
350.0   0.0   50.0
400.0   30.0   50.0
400.0   0.0   33.333333333333336
350.0   30.0   33.333333333333336
350.0   30.0   0.0
400.0   30.0   0.0
350.0   60.0   0.0
350.0   30.0   16.666666666666668
400.0   30.0   0.0
400.0   60.0   0.0
350.0   60.0   0.0
400.0   60.0   16.666666666666668
350.0   30.0   16.666666666666668
350.0   60.0   16.666666666666668
400.0   60.0   16.666666666666668
350.0   60.0   0.0
350.0   30.0   16.666666666666668
400.0   60.0   16.666666666666668
400.0   30.0   16.666666666666668
400.0   30.0   0.0
350.0   30.0   16.666666666666668
400.0   60.0   16.666666666666668
400.0   30.0   0.0
350.0   60.0   0.0
350.0   30.0   16.666666666666668
400.0   30.0   16.666666666666668
350.0   60.0   16.666666666666668
350.0   30.0   33.333333333333336
400.0   30.0   16.666666666666668
400.0   60.0   16.666666666666668
350.0   60.0   16.666666666666668
400.0   60.0   33.333333333333336
350.0   30.0   33.333333333333336
350.0   60.0   33.333333333333336
400.0   60.0   33.333333333333336
350.0   60.0   16.666666666666668
350.0   30.0   33.333333333333336
400.0   60.0   33.333333333333336
400.0   30.0   33.333333333333336
400.0   30.0   16.666666666666668
350.0   30.0   33.333333333333336
400.0   60.0   33.333333333333336
400.0   30.0   16.666666666666668
350.0   60.0   16.666666666666668
350.0   30.0   33.333333333333336
400.0   30.0   33.333333333333336
350.0   60.0   33.333333333333336
350.0   30.0   50.0
400.0   30.0   33.333333333333336
400.0   60.0   33.333333333333336
350.0   60.0   33.333333333333336
400.0   60.0   50.0
350.0   30.0   50.0
350.0   60.0   50.0
400.0   60.0   50.0
350.0   60.0   33.333333333333336
350.0   30.0   50.0
400.0   60.0   50.0
400.0   30.0   50.0
400.0   30.0   33.333333333333336
350.0   30.0   50.0
400.0   60.0   50.0
400.0   30.0   33.333333333333336
350.0   60.0   33.333333333333336
350.0   60.0   0.0
400.0   60.0   0.0
350.0   90.0   0.0
350.0   60.0   16.666666666666668
400.0   60.0   0.0
400.0   90.0   0.0
350.0   90.0   0.0
400.0   90.0   16.666666666666668
350.0   60.0   16.666666666666668
350.0   90.0   16.666666666666668
400.0   90.0   16.666666666666668
350.0   90.0   0.0
350.0   60.0   16.666666666666668
400.0   90.0   16.666666666666668
400.0   60.0   16.666666666666668
400.0   60.0   0.0
350.0   60.0   16.666666666666668
400.0   90.0   16.666666666666668
400.0   60.0   0.0
350.0   90.0   0.0
350.0   60.0   16.666666666666668
400.0   60.0   16.666666666666668
350.0   90.0   16.666666666666668
350.0   60.0   33.333333333333336
400.0   60.0   16.666666666666668
400.0   90.0   16.666666666666668
350.0   90.0   16.666666666666668
400.0   90.0   33.333333333333336
350.0   60.0   33.333333333333336
350.0   90.0   33.333333333333336
400.0   90.0   33.333333333333336
350.0   90.0   16.666666666666668
350.0   60.0   33.333333333333336
400.0   90.0   33.333333333333336
400.0   60.0   33.333333333333336
400.0   60.0   16.666666666666668
350.0   60.0   33.333333333333336
400.0   90.0   33.333333333333336
400.0   60.0   16.666666666666668
350.0   90.0   16.666666666666668
350.0   60.0   33.333333333333336
400.0   60.0   33.333333333333336
350.0   90.0   33.333333333333336
350.0   60.0   50.0
400.0   60.0   33.333333333333336
400.0   90.0   33.333333333333336
350.0   90.0   33.333333333333336
400.0   90.0   50.0
350.0   60.0   50.0
350.0   90.0   50.0
400.0   90.0   50.0
350.0   90.0   33.333333333333336
350.0   60.0   50.0
400.0   90.0   50.0
400.0   60.0   50.0
400.0   60.0   33.333333333333336
350.0   60.0   50.0
400.0   90.0   50.0
400.0   60.0   33.333333333333336
350.0   90.0   33.333333333333336
350.0   90.0   0.0
400.0   90.0   0.0
350.0   120.0   0.0
350.0   90.0   16.666666666666668
400.0   90.0   0.0
400.0   120.0   0.0
350.0   120.0   0.0
400.0   120.0   16.666666666666668
350.0   90.0   16.666666666666668
350.0   120.0   16.666666666666668
400.0   120.0   16.666666666666668
350.0   120.0   0.0
350.0   90.0   16.666666666666668
400.0   120.0   16.666666666666668
400.0   90.0   16.666666666666668
400.0   90.0   0.0
350.0   90.0   16.666666666666668
400.0   120.0   16.666666666666668
400.0   90.0   0.0
350.0   120.0   0.0
350.0   90.0   16.666666666666668
400.0   90.0   16.666666666666668
350.0   120.0   16.666666666666668
350.0   90.0   33.333333333333336
400.0   90.0   16.666666666666668
400.0   120.0   16.666666666666668
350.0   120.0   16.666666666666668
400.0   120.0   33.333333333333336
350.0   90.0   33.333333333333336
350.0   120.0   33.333333333333336
400.0   120.0   33.333333333333336
350.0   120.0   16.666666666666668
350.0   90.0   33.333333333333336
400.0   120.0   33.333333333333336
400.0   90.0   33.333333333333336
400.0   90.0   16.666666666666668
350.0   90.0   33.333333333333336
400.0   120.0   33.333333333333336
400.0   90.0   16.666666666666668
350.0   120.0   16.666666666666668
350.0   90.0   33.333333333333336
400.0   90.0   33.333333333333336
350.0   120.0   33.333333333333336
350.0   90.0   50.0
400.0   90.0   33.333333333333336
400.0   120.0   33.333333333333336
350.0   120.0   33.333333333333336
400.0   120.0   50.0
350.0   90.0   50.0
350.0   120.0   50.0
400.0   120.0   50.0
350.0   120.0   33.333333333333336
350.0   90.0   50.0
400.0   120.0   50.0
400.0   90.0   50.0
400.0   90.0   33.333333333333336
350.0   90.0   50.0
400.0   120.0   50.0
400.0   90.0   33.333333333333336
350.0   120.0   33.333333333333336
350.0   120.0   0.0
400.0   120.0   0.0
350.0   150.0   0.0
350.0   120.0   16.666666666666668
400.0   120.0   0.0
400.0   150.0   0.0
350.0   150.0   0.0
400.0   150.0   16.666666666666668
350.0   120.0   16.666666666666668
350.0   150.0   16.666666666666668
400.0   150.0   16.666666666666668
350.0   150.0   0.0
350.0   120.0   16.666666666666668
400.0   150.0   16.666666666666668
400.0   120.0   16.666666666666668
400.0   120.0   0.0
350.0   120.0   16.666666666666668
400.0   150.0   16.666666666666668
400.0   120.0   0.0
350.0   150.0   0.0
350.0   120.0   16.666666666666668
400.0   120.0   16.666666666666668
350.0   150.0   16.666666666666668
350.0   120.0   33.333333333333336
400.0   120.0   16.666666666666668
400.0   150.0   16.666666666666668
350.0   150.0   16.666666666666668
400.0   150.0   33.333333333333336
350.0   120.0   33.333333333333336
350.0   150.0   33.333333333333336
400.0   150.0   33.333333333333336
350.0   150.0   16.666666666666668
350.0   120.0   33.333333333333336
400.0   150.0   33.333333333333336
400.0   120.0   33.333333333333336
400.0   120.0   16.666666666666668
350.0   120.0   33.333333333333336
400.0   150.0   33.333333333333336
400.0   120.0   16.666666666666668
350.0   150.0   16.666666666666668
350.0   120.0   33.333333333333336
400.0   120.0   33.333333333333336
350.0   150.0   33.333333333333336
350.0   120.0   50.0
400.0   120.0   33.333333333333336
400.0   150.0   33.333333333333336
350.0   150.0   33.333333333333336
400.0   150.0   50.0
350.0   120.0   50.0
350.0   150.0   50.0
400.0   150.0   50.0
350.0   150.0   33.333333333333336
350.0   120.0   50.0
400.0   150.0   50.0
400.0   120.0   50.0
400.0   120.0   33.333333333333336
350.0   120.0   50.0
400.0   150.0   50.0
400.0   120.0   33.333333333333336
350.0   150.0   33.333333333333336
400.0   0.0   0.0
450.0   0.0   0.0
400.0   30.0   0.0
400.0   0.0   16.666666666666668
450.0   0.0   0.0
450.0   30.0   0.0
400.0   30.0   0.0
450.0   30.0   16.666666666666668
400.0   0.0   16.666666666666668
400.0   30.0   16.666666666666668
450.0   30.0   16.666666666666668
400.0   30.0   0.0
400.0   0.0   16.666666666666668
450.0   30.0   16.666666666666668
450.0   0.0   16.666666666666668
450.0   0.0   0.0
400.0   0.0   16.666666666666668
450.0   30.0   16.666666666666668
450.0   0.0   0.0
400.0   30.0   0.0
400.0   0.0   16.666666666666668
450.0   0.0   16.666666666666668
400.0   30.0   16.666666666666668
400.0   0.0   33.333333333333336
450.0   0.0   16.666666666666668
450.0   30.0   16.666666666666668
400.0   30.0   16.666666666666668
450.0   30.0   33.333333333333336
400.0   0.0   33.333333333333336
400.0   30.0   33.333333333333336
450.0   30.0   33.333333333333336
400.0   30.0   16.666666666666668
400.0   0.0   33.333333333333336
450.0   30.0   33.333333333333336
450.0   0.0   33.333333333333336
450.0   0.0   16.666666666666668
400.0   0.0   33.333333333333336
450.0   30.0   33.333333333333336
450.0   0.0   16.666666666666668
400.0   30.0   16.666666666666668
400.0   0.0   33.333333333333336
450.0   0.0   33.333333333333336
400.0   30.0   33.333333333333336
400.0   0.0   50.0
450.0   0.0   33.333333333333336
450.0   30.0   33.333333333333336
400.0   30.0   33.333333333333336
450.0   30.0   50.0
400.0   0.0   50.0
400.0   30.0   50.0
450.0   30.0   50.0
400.0   30.0   33.333333333333336
400.0   0.0   50.0
450.0   30.0   50.0
450.0   0.0   50.0
450.0   0.0   33.333333333333336
400.0   0.0   50.0
450.0   30.0   50.0
450.0   0.0   33.333333333333336
400.0   30.0   33.333333333333336
400.0   30.0   0.0
450.0   30.0   0.0
400.0   60.0   0.0
400.0   30.0   16.666666666666668
450.0   30.0   0.0
450.0   60.0   0.0
400.0   60.0   0.0
450.0   60.0   16.666666666666668
400.0   30.0   16.666666666666668
400.0   60.0   16.666666666666668
450.0   60.0   16.666666666666668
400.0   60.0   0.0
400.0   30.0   16.666666666666668
450.0   60.0   16.666666666666668
450.0   30.0   16.666666666666668
450.0   30.0   0.0
400.0   30.0   16.666666666666668
450.0   60.0   16.666666666666668
450.0   30.0   0.0
400.0   60.0   0.0
400.0   30.0   16.666666666666668
450.0   30.0   16.666666666666668
400.0   60.0   16.666666666666668
400.0   30.0   33.333333333333336
450.0   30.0   16.666666666666668
450.0   60.0   16.666666666666668
400.0   60.0   16.666666666666668
450.0   60.0   33.333333333333336
400.0   30.0   33.333333333333336
400.0   60.0   33.333333333333336
450.0   60.0   33.333333333333336
400.0   60.0   16.666666666666668
400.0   30.0   33.333333333333336
450.0   60.0   33.333333333333336
450.0   30.0   33.333333333333336
450.0   30.0   16.666666666666668
400.0   30.0   33.333333333333336
450.0   60.0   33.333333333333336
450.0   30.0   16.666666666666668
400.0   60.0   16.666666666666668
400.0   30.0   33.333333333333336
450.0   30.0   33.333333333333336
400.0   60.0   33.333333333333336
400.0   30.0   50.0
450.0   30.0   33.333333333333336
450.0   60.0   33.333333333333336
400.0   60.0   33.333333333333336
450.0   60.0   50.0
400.0   30.0   50.0
400.0   60.0   50.0
450.0   60.0   50.0
400.0   60.0   33.333333333333336
400.0   30.0   50.0
450.0   60.0   50.0
450.0   30.0   50.0
450.0   30.0   33.333333333333336
400.0   30.0   50.0
450.0   60.0   50.0
450.0   30.0   33.333333333333336
400.0   60.0   33.333333333333336
400.0   60.0   0.0
450.0   60.0   0.0
400.0   90.0   0.0
400.0   60.0   16.666666666666668
450.0   60.0   0.0
450.0   90.0   0.0
400.0   90.0   0.0
450.0   90.0   16.666666666666668
400.0   60.0   16.666666666666668
400.0   90.0   16.666666666666668
450.0   90.0   16.666666666666668
400.0   90.0   0.0
400.0   60.0   16.666666666666668
450.0   90.0   16.666666666666668
450.0   60.0   16.666666666666668
450.0   60.0   0.0
400.0   60.0   16.666666666666668
450.0   90.0   16.666666666666668
450.0   60.0   0.0
400.0   90.0   0.0
400.0   60.0   16.666666666666668
450.0   60.0   16.666666666666668
400.0   90.0   16.666666666666668
400.0   60.0   33.333333333333336
450.0   60.0   16.666666666666668
450.0   90.0   16.666666666666668
400.0   90.0   16.666666666666668
450.0   90.0   33.333333333333336
400.0   60.0   33.333333333333336
400.0   90.0   33.333333333333336
450.0   90.0   33.333333333333336
400.0   90.0   16.666666666666668
400.0   60.0   33.333333333333336
450.0   90.0   33.333333333333336
450.0   60.0   33.333333333333336
450.0   60.0   16.666666666666668
400.0   60.0   33.333333333333336
450.0   90.0   33.333333333333336
450.0   60.0   16.666666666666668
400.0   90.0   16.666666666666668
400.0   60.0   33.333333333333336
450.0   60.0   33.333333333333336
400.0   90.0   33.333333333333336
400.0   60.0   50.0
450.0   60.0   33.333333333333336
450.0   90.0   33.333333333333336
400.0   90.0   33.333333333333336
450.0   90.0   50.0
400.0   60.0   50.0
400.0   90.0   50.0
450.0   90.0   50.0
400.0   90.0   33.333333333333336
400.0   60.0   50.0
450.0   90.0   50.0
450.0   60.0   50.0
450.0   60.0   33.333333333333336
400.0   60.0   50.0
450.0   90.0   50.0
450.0   60.0   33.333333333333336
400.0   90.0   33.333333333333336
400.0   90.0   0.0
450.0   90.0   0.0
400.0   120.0   0.0
400.0   90.0   16.666666666666668
450.0   90.0   0.0
450.0   120.0   0.0
400.0   120.0   0.0
450.0   120.0   16.666666666666668
400.0   90.0   16.666666666666668
400.0   120.0   16.666666666666668
450.0   120.0   16.666666666666668
400.0   120.0   0.0
400.0   90.0   16.666666666666668
450.0   120.0   16.666666666666668
450.0   90.0   16.666666666666668
450.0   90.0   0.0
400.0   90.0   16.666666666666668
450.0   120.0   16.666666666666668
450.0   90.0   0.0
400.0   120.0   0.0
400.0   90.0   16.666666666666668
450.0   90.0   16.666666666666668
400.0   120.0   16.666666666666668
400.0   90.0   33.333333333333336
450.0   90.0   16.666666666666668
450.0   120.0   16.666666666666668
400.0   120.0   16.666666666666668
450.0   120.0   33.333333333333336
400.0   90.0   33.333333333333336
400.0   120.0   33.333333333333336
450.0   120.0   33.333333333333336
400.0   120.0   16.666666666666668
400.0   90.0   33.333333333333336
450.0   120.0   33.333333333333336
450.0   90.0   33.333333333333336
450.0   90.0   16.666666666666668
400.0   90.0   33.333333333333336
450.0   120.0   33.333333333333336
450.0   90.0   16.666666666666668
400.0   120.0   16.666666666666668
400.0   90.0   33.333333333333336
450.0   90.0   33.333333333333336
400.0   120.0   33.333333333333336
400.0   90.0   50.0
450.0   90.0   33.333333333333336
450.0   120.0   33.333333333333336
400.0   120.0   33.333333333333336
450.0   120.0   50.0
400.0   90.0   50.0
400.0   120.0   50.0
450.0   120.0   50.0
400.0   120.0   33.333333333333336
400.0   90.0   50.0
450.0   120.0   50.0
450.0   90.0   50.0
450.0   90.0   33.333333333333336
400.0   90.0   50.0
450.0   120.0   50.0
450.0   90.0   33.333333333333336
400.0   120.0   33.333333333333336
400.0   120.0   0.0
450.0   120.0   0.0
400.0   150.0   0.0
400.0   120.0   16.666666666666668
450.0   120.0   0.0
450.0   150.0   0.0
400.0   150.0   0.0
450.0   150.0   16.666666666666668
400.0   120.0   16.666666666666668
400.0   150.0   16.666666666666668
450.0   150.0   16.666666666666668
400.0   150.0   0.0
400.0   120.0   16.666666666666668
450.0   150.0   16.666666666666668
450.0   120.0   16.666666666666668
450.0   120.0   0.0
400.0   120.0   16.666666666666668
450.0   150.0   16.666666666666668
450.0   120.0   0.0
400.0   150.0   0.0
400.0   120.0   16.666666666666668
450.0   120.0   16.666666666666668
400.0   150.0   16.666666666666668
400.0   120.0   33.333333333333336
450.0   120.0   16.666666666666668
450.0   150.0   16.666666666666668
400.0   150.0   16.666666666666668
450.0   150.0   33.333333333333336
400.0   120.0   33.333333333333336
400.0   150.0   33.333333333333336
450.0   150.0   33.333333333333336
400.0   150.0   16.666666666666668
400.0   120.0   33.333333333333336
450.0   150.0   33.333333333333336
450.0   120.0   33.333333333333336
450.0   120.0   16.666666666666668
400.0   120.0   33.333333333333336
450.0   150.0   33.333333333333336
450.0   120.0   16.666666666666668
400.0   150.0   16.666666666666668
400.0   120.0   33.333333333333336
450.0   120.0   33.333333333333336
400.0   150.0   33.333333333333336
400.0   120.0   50.0
450.0   120.0   33.333333333333336
450.0   150.0   33.333333333333336
400.0   150.0   33.333333333333336
450.0   150.0   50.0
400.0   120.0   50.0
400.0   150.0   50.0
450.0   150.0   50.0
400.0   150.0   33.333333333333336
400.0   120.0   50.0
450.0   150.0   50.0
450.0   120.0   50.0
450.0   120.0   33.333333333333336
400.0   120.0   50.0
450.0   150.0   50.0
450.0   120.0   33.333333333333336
400.0   150.0   33.333333333333336
450.0   0.0   0.0
500.0   0.0   0.0
450.0   30.0   0.0
450.0   0.0   16.666666666666668
500.0   0.0   0.0
500.0   30.0   0.0
450.0   30.0   0.0
500.0   30.0   16.666666666666668
450.0   0.0   16.666666666666668
450.0   30.0   16.666666666666668
500.0   30.0   16.666666666666668
450.0   30.0   0.0
450.0   0.0   16.666666666666668
500.0   30.0   16.666666666666668
500.0   0.0   16.666666666666668
500.0   0.0   0.0
450.0   0.0   16.666666666666668
500.0   30.0   16.666666666666668
500.0   0.0   0.0
450.0   30.0   0.0
450.0   0.0   16.666666666666668
500.0   0.0   16.666666666666668
450.0   30.0   16.666666666666668
450.0   0.0   33.333333333333336
500.0   0.0   16.666666666666668
500.0   30.0   16.666666666666668
450.0   30.0   16.666666666666668
500.0   30.0   33.333333333333336
450.0   0.0   33.333333333333336
450.0   30.0   33.333333333333336
500.0   30.0   33.333333333333336
450.0   30.0   16.666666666666668
450.0   0.0   33.333333333333336
500.0   30.0   33.333333333333336
500.0   0.0   33.333333333333336
500.0   0.0   16.666666666666668
450.0   0.0   33.333333333333336
500.0   30.0   33.333333333333336
500.0   0.0   16.666666666666668
450.0   30.0   16.666666666666668
450.0   0.0   33.333333333333336
500.0   0.0   33.333333333333336
450.0   30.0   33.333333333333336
450.0   0.0   50.0
500.0   0.0   33.333333333333336
500.0   30.0   33.333333333333336
450.0   30.0   33.333333333333336
500.0   30.0   50.0
450.0   0.0   50.0
450.0   30.0   50.0
500.0   30.0   50.0
450.0   30.0   33.333333333333336
450.0   0.0   50.0
500.0   30.0   50.0
500.0   0.0   50.0
500.0   0.0   33.333333333333336
450.0   0.0   50.0
500.0   30.0   50.0
500.0   0.0   33.333333333333336
450.0   30.0   33.333333333333336
450.0   30.0   0.0
500.0   30.0   0.0
450.0   60.0   0.0
450.0   30.0   16.666666666666668
500.0   30.0   0.0
500.0   60.0   0.0
450.0   60.0   0.0
500.0   60.0   16.666666666666668
450.0   30.0   16.666666666666668
450.0   60.0   16.666666666666668
500.0   60.0   16.666666666666668
450.0   60.0   0.0
450.0   30.0   16.666666666666668
500.0   60.0   16.666666666666668
500.0   30.0   16.666666666666668
500.0   30.0   0.0
450.0   30.0   16.666666666666668
500.0   60.0   16.666666666666668
500.0   30.0   0.0
450.0   60.0   0.0
450.0   30.0   16.666666666666668
500.0   30.0   16.666666666666668
450.0   60.0   16.666666666666668
450.0   30.0   33.333333333333336
500.0   30.0   16.666666666666668
500.0   60.0   16.666666666666668
450.0   60.0   16.666666666666668
500.0   60.0   33.333333333333336
450.0   30.0   33.333333333333336
450.0   60.0   33.333333333333336
500.0   60.0   33.333333333333336
450.0   60.0   16.666666666666668
450.0   30.0   33.333333333333336
500.0   60.0   33.333333333333336
500.0   30.0   33.333333333333336
500.0   30.0   16.666666666666668
450.0   30.0   33.333333333333336
500.0   60.0   33.333333333333336
500.0   30.0   16.666666666666668
450.0   60.0   16.666666666666668
450.0   30.0   33.333333333333336
500.0   30.0   33.333333333333336
450.0   60.0   33.333333333333336
450.0   30.0   50.0
500.0   30.0   33.333333333333336
500.0   60.0   33.333333333333336
450.0   60.0   33.333333333333336
500.0   60.0   50.0
450.0   30.0   50.0
450.0   60.0   50.0
500.0   60.0   50.0
450.0   60.0   33.333333333333336
450.0   30.0   50.0
500.0   60.0   50.0
500.0   30.0   50.0
500.0   30.0   33.333333333333336
450.0   30.0   50.0
500.0   60.0   50.0
500.0   30.0   33.333333333333336
450.0   60.0   33.333333333333336
450.0   60.0   0.0
500.0   60.0   0.0
450.0   90.0   0.0
450.0   60.0   16.666666666666668
500.0   60.0   0.0
500.0   90.0   0.0
450.0   90.0   0.0
500.0   90.0   16.666666666666668
450.0   60.0   16.666666666666668
450.0   90.0   16.666666666666668
500.0   90.0   16.666666666666668
450.0   90.0   0.0
450.0   60.0   16.666666666666668
500.0   90.0   16.666666666666668
500.0   60.0   16.666666666666668
500.0   60.0   0.0
450.0   60.0   16.666666666666668
500.0   90.0   16.666666666666668
500.0   60.0   0.0
450.0   90.0   0.0
450.0   60.0   16.666666666666668
500.0   60.0   16.666666666666668
450.0   90.0   16.666666666666668
450.0   60.0   33.333333333333336
500.0   60.0   16.666666666666668
500.0   90.0   16.666666666666668
450.0   90.0   16.666666666666668
500.0   90.0   33.333333333333336
450.0   60.0   33.333333333333336
450.0   90.0   33.333333333333336
500.0   90.0   33.333333333333336
450.0   90.0   16.666666666666668
450.0   60.0   33.333333333333336
500.0   90.0   33.333333333333336
500.0   60.0   33.333333333333336
500.0   60.0   16.666666666666668
450.0   60.0   33.333333333333336
500.0   90.0   33.333333333333336
500.0   60.0   16.666666666666668
450.0   90.0   16.666666666666668
450.0   60.0   33.333333333333336
500.0   60.0   33.333333333333336
450.0   90.0   33.333333333333336
450.0   60.0   50.0
500.0   60.0   33.333333333333336
500.0   90.0   33.333333333333336
450.0   90.0   33.333333333333336
500.0   90.0   50.0
450.0   60.0   50.0
450.0   90.0   50.0
500.0   90.0   50.0
450.0   90.0   33.333333333333336
450.0   60.0   50.0
500.0   90.0   50.0
500.0   60.0   50.0
500.0   60.0   33.333333333333336
450.0   60.0   50.0
500.0   90.0   50.0
500.0   60.0   33.333333333333336
450.0   90.0   33.333333333333336
450.0   90.0   0.0
500.0   90.0   0.0
450.0   120.0   0.0
450.0   90.0   16.666666666666668
500.0   90.0   0.0
500.0   120.0   0.0
450.0   120.0   0.0
500.0   120.0   16.666666666666668
450.0   90.0   16.666666666666668
450.0   120.0   16.666666666666668
500.0   120.0   16.666666666666668
450.0   120.0   0.0
450.0   90.0   16.666666666666668
500.0   120.0   16.666666666666668
500.0   90.0   16.666666666666668
500.0   90.0   0.0
450.0   90.0   16.666666666666668
500.0   120.0   16.666666666666668
500.0   90.0   0.0
450.0   120.0   0.0
450.0   90.0   16.666666666666668
500.0   90.0   16.666666666666668
450.0   120.0   16.666666666666668
450.0   90.0   33.333333333333336
500.0   90.0   16.666666666666668
500.0   120.0   16.666666666666668
450.0   120.0   16.666666666666668
500.0   120.0   33.333333333333336
450.0   90.0   33.333333333333336
450.0   120.0   33.333333333333336
500.0   120.0   33.333333333333336
450.0   120.0   16.666666666666668
450.0   90.0   33.333333333333336
500.0   120.0   33.333333333333336
500.0   90.0   33.333333333333336
500.0   90.0   16.666666666666668
450.0   90.0   33.333333333333336
500.0   120.0   33.333333333333336
500.0   90.0   16.666666666666668
450.0   120.0   16.666666666666668
450.0   90.0   33.333333333333336
500.0   90.0   33.333333333333336
450.0   120.0   33.333333333333336
450.0   90.0   50.0
500.0   90.0   33.333333333333336
500.0   120.0   33.333333333333336
450.0   120.0   33.333333333333336
500.0   120.0   50.0
450.0   90.0   50.0
450.0   120.0   50.0
500.0   120.0   50.0
450.0   120.0   33.333333333333336
450.0   90.0   50.0
500.0   120.0   50.0
500.0   90.0   50.0
500.0   90.0   33.333333333333336
450.0   90.0   50.0
500.0   120.0   50.0
500.0   90.0   33.333333333333336
450.0   120.0   33.333333333333336
450.0   120.0   0.0
500.0   120.0   0.0
450.0   150.0   0.0
450.0   120.0   16.666666666666668
500.0   120.0   0.0
500.0   150.0   0.0
450.0   150.0   0.0
500.0   150.0   16.666666666666668
450.0   120.0   16.666666666666668
450.0   150.0   16.666666666666668
500.0   150.0   16.666666666666668
450.0   150.0   0.0
450.0   120.0   16.666666666666668
500.0   150.0   16.666666666666668
500.0   120.0   16.666666666666668
500.0   120.0   0.0
450.0   120.0   16.666666666666668
500.0   150.0   16.666666666666668
500.0   120.0   0.0
450.0   150.0   0.0
450.0   120.0   16.666666666666668
500.0   120.0   16.666666666666668
450.0   150.0   16.666666666666668
450.0   120.0   33.333333333333336
500.0   120.0   16.666666666666668
500.0   150.0   16.666666666666668
450.0   150.0   16.666666666666668
500.0   150.0   33.333333333333336
450.0   120.0   33.333333333333336
450.0   150.0   33.333333333333336
500.0   150.0   33.333333333333336
450.0   150.0   16.666666666666668
450.0   120.0   33.333333333333336
500.0   150.0   33.333333333333336
500.0   120.0   33.333333333333336
500.0   120.0   16.666666666666668
450.0   120.0   33.333333333333336
500.0   150.0   33.333333333333336
500.0   120.0   16.666666666666668
450.0   150.0   16.666666666666668
450.0   120.0   33.333333333333336
500.0   120.0   33.333333333333336
450.0   150.0   33.333333333333336
450.0   120.0   50.0
500.0   120.0   33.333333333333336
500.0   150.0   33.333333333333336
450.0   150.0   33.333333333333336
500.0   150.0   50.0
450.0   120.0   50.0
450.0   150.0   50.0
500.0   150.0   50.0
450.0   150.0   33.333333333333336
450.0   120.0   50.0
500.0   150.0   50.0
500.0   120.0   50.0
500.0   120.0   33.333333333333336
450.0   120.0   50.0
500.0   150.0   50.0
500.0   120.0   33.333333333333336
450.0   150.0   33.333333333333336
             </DataArray>   
          </Points>  
          <Cells>  
             <DataArray type="Int32" Name="connectivity" format="ascii">   
0   1   2   3
4   5   6   7
8   9   10   11
12   13   14   15
16   17   18   19
20   21   22   23
24   25   26   27
28   29   30   31
32   33   34   35
36   37   38   39
40   41   42   43
44   45   46   47
48   49   50   51
52   53   54   55
56   57   58   59
60   61   62   63
64   65   66   67
68   69   70   71
72   73   74   75
76   77   78   79
80   81   82   83
84   85   86   87
88   89   90   91
92   93   94   95
96   97   98   99
100   101   102   103
104   105   106   107
108   109   110   111
112   113   114   115
116   117   118   119
120   121   122   123
124   125   126   127
128   129   130   131
132   133   134   135
136   137   138   139
140   141   142   143
144   145   146   147
148   149   150   151
152   153   154   155
156   157   158   159
160   161   162   163
164   165   166   167
168   169   170   171
172   173   174   175
176   177   178   179
180   181   182   183
184   185   186   187
188   189   190   191
192   193   194   195
196   197   198   199
200   201   202   203
204   205   206   207
208   209   210   211
212   213   214   215
216   217   218   219
220   221   222   223
224   225   226   227
228   229   230   231
232   233   234   235
236   237   238   239
240   241   242   243
244   245   246   247
248   249   250   251
252   253   254   255
256   257   258   259
260   261   262   263
264   265   266   267
268   269   270   271
272   273   274   275
276   277   278   279
280   281   282   283
284   285   286   287
288   289   290   291
292   293   294   295
296   297   298   299
300   301   302   303
304   305   306   307
308   309   310   311
312   313   314   315
316   317   318   319
320   321   322   323
324   325   326   327
328   329   330   331
332   333   334   335
336   337   338   339
340   341   342   343
344   345   346   347
348   349   350   351
352   353   354   355
356   357   358   359
360   361   362   363
364   365   366   367
368   369   370   371
372   373   374   375
376   377   378   379
380   381   382   383
384   385   386   387
388   389   390   391
392   393   394   395
396   397   398   399
400   401   402   403
404   405   406   407
408   409   410   411
412   413   414   415
416   417   418   419
420   421   422   423
424   425   426   427
428   429   430   431
432   433   434   435
436   437   438   439
440   441   442   443
444   445   446   447
448   449   450   451
452   453   454   455
456   457   458   459
460   461   462   463
464   465   466   467
468   469   470   471
472   473   474   475
476   477   478   479
480   481   482   483
484   485   486   487
488   489   490   491
492   493   494   495
496   497   498   499
500   501   502   503
504   505   506   507
508   509   510   511
512   513   514   515
516   517   518   519
520   521   522   523
524   525   526   527
528   529   530   531
532   533   534   535
536   537   538   539
540   541   542   543
544   545   546   547
548   549   550   551
552   553   554   555
556   557   558   559
560   561   562   563
564   565   566   567
568   569   570   571
572   573   574   575
576   577   578   579
580   581   582   583
584   585   586   587
588   589   590   591
592   593   594   595
596   597   598   599
600   601   602   603
604   605   606   607
608   609   610   611
612   613   614   615
616   617   618   619
620   621   622   623
624   625   626   627
628   629   630   631
632   633   634   635
636   637   638   639
640   641   642   643
644   645   646   647
648   649   650   651
652   653   654   655
656   657   658   659
660   661   662   663
664   665   666   667
668   669   670   671
672   673   674   675
676   677   678   679
680   681   682   683
684   685   686   687
688   689   690   691
692   693   694   695
696   697   698   699
700   701   702   703
704   705   706   707
708   709   710   711
712   713   714   715
716   717   718   719
720   721   722   723
724   725   726   727
728   729   730   731
732   733   734   735
736   737   738   739
740   741   742   743
744   745   746   747
748   749   750   751
752   753   754   755
756   757   758   759
760   761   762   763
764   765   766   767
768   769   770   771
772   773   774   775
776   777   778   779
780   781   782   783
784   785   786   787
788   789   790   791
792   793   794   795
796   797   798   799
800   801   802   803
804   805   806   807
808   809   810   811
812   813   814   815
816   817   818   819
820   821   822   823
824   825   826   827
828   829   830   831
832   833   834   835
836   837   838   839
840   841   842   843
844   845   846   847
848   849   850   851
852   853   854   855
856   857   858   859
860   861   862   863
864   865   866   867
868   869   870   871
872   873   874   875
876   877   878   879
880   881   882   883
884   885   886   887
888   889   890   891
892   893   894   895
896   897   898   899
900   901   902   903
904   905   906   907
908   909   910   911
912   913   914   915
916   917   918   919
920   921   922   923
924   925   926   927
928   929   930   931
932   933   934   935
936   937   938   939
940   941   942   943
944   945   946   947
948   949   950   951
952   953   954   955
956   957   958   959
960   961   962   963
964   965   966   967
968   969   970   971
972   973   974   975
976   977   978   979
980   981   982   983
984   985   986   987
988   989   990   991
992   993   994   995
996   997   998   999
1000   1001   1002   1003
1004   1005   1006   1007
1008   1009   1010   1011
1012   1013   1014   1015
1016   1017   1018   1019
1020   1021   1022   1023
1024   1025   1026   1027
1028   1029   1030   1031
1032   1033   1034   1035
1036   1037   1038   1039
1040   1041   1042   1043
1044   1045   1046   1047
1048   1049   1050   1051
1052   1053   1054   1055
1056   1057   1058   1059
1060   1061   1062   1063
1064   1065   1066   1067
1068   1069   1070   1071
1072   1073   1074   1075
1076   1077   1078   1079
1080   1081   1082   1083
1084   1085   1086   1087
1088   1089   1090   1091
1092   1093   1094   1095
1096   1097   1098   1099
1100   1101   1102   1103
1104   1105   1106   1107
1108   1109   1110   1111
1112   1113   1114   1115
1116   1117   1118   1119
1120   1121   1122   1123
1124   1125   1126   1127
1128   1129   1130   1131
1132   1133   1134   1135
1136   1137   1138   1139
1140   1141   1142   1143
1144   1145   1146   1147
1148   1149   1150   1151
1152   1153   1154   1155
1156   1157   1158   1159
1160   1161   1162   1163
1164   1165   1166   1167
1168   1169   1170   1171
1172   1173   1174   1175
1176   1177   1178   1179
1180   1181   1182   1183
1184   1185   1186   1187
1188   1189   1190   1191
1192   1193   1194   1195
1196   1197   1198   1199
1200   1201   1202   1203
1204   1205   1206   1207
1208   1209   1210   1211
1212   1213   1214   1215
1216   1217   1218   1219
1220   1221   1222   1223
1224   1225   1226   1227
1228   1229   1230   1231
1232   1233   1234   1235
1236   1237   1238   1239
1240   1241   1242   1243
1244   1245   1246   1247
1248   1249   1250   1251
1252   1253   1254   1255
1256   1257   1258   1259
1260   1261   1262   1263
1264   1265   1266   1267
1268   1269   1270   1271
1272   1273   1274   1275
1276   1277   1278   1279
1280   1281   1282   1283
1284   1285   1286   1287
1288   1289   1290   1291
1292   1293   1294   1295
1296   1297   1298   1299
1300   1301   1302   1303
1304   1305   1306   1307
1308   1309   1310   1311
1312   1313   1314   1315
1316   1317   1318   1319
1320   1321   1322   1323
1324   1325   1326   1327
1328   1329   1330   1331
1332   1333   1334   1335
1336   1337   1338   1339
1340   1341   1342   1343
1344   1345   1346   1347
1348   1349   1350   1351
1352   1353   1354   1355
1356   1357   1358   1359
1360   1361   1362   1363
1364   1365   1366   1367
1368   1369   1370   1371
1372   1373   1374   1375
1376   1377   1378   1379
1380   1381   1382   1383
1384   1385   1386   1387
1388   1389   1390   1391
1392   1393   1394   1395
1396   1397   1398   1399
1400   1401   1402   1403
1404   1405   1406   1407
1408   1409   1410   1411
1412   1413   1414   1415
1416   1417   1418   1419
1420   1421   1422   1423
1424   1425   1426   1427
1428   1429   1430   1431
1432   1433   1434   1435
1436   1437   1438   1439
1440   1441   1442   1443
1444   1445   1446   1447
1448   1449   1450   1451
1452   1453   1454   1455
1456   1457   1458   1459
1460   1461   1462   1463
1464   1465   1466   1467
1468   1469   1470   1471
1472   1473   1474   1475
1476   1477   1478   1479
1480   1481   1482   1483
1484   1485   1486   1487
1488   1489   1490   1491
1492   1493   1494   1495
1496   1497   1498   1499
1500   1501   1502   1503
1504   1505   1506   1507
1508   1509   1510   1511
1512   1513   1514   1515
1516   1517   1518   1519
1520   1521   1522   1523
1524   1525   1526   1527
1528   1529   1530   1531
1532   1533   1534   1535
1536   1537   1538   1539
1540   1541   1542   1543
1544   1545   1546   1547
1548   1549   1550   1551
1552   1553   1554   1555
1556   1557   1558   1559
1560   1561   1562   1563
1564   1565   1566   1567
1568   1569   1570   1571
1572   1573   1574   1575
1576   1577   1578   1579
1580   1581   1582   1583
1584   1585   1586   1587
1588   1589   1590   1591
1592   1593   1594   1595
1596   1597   1598   1599
1600   1601   1602   1603
1604   1605   1606   1607
1608   1609   1610   1611
1612   1613   1614   1615
1616   1617   1618   1619
1620   1621   1622   1623
1624   1625   1626   1627
1628   1629   1630   1631
1632   1633   1634   1635
1636   1637   1638   1639
1640   1641   1642   1643
1644   1645   1646   1647
1648   1649   1650   1651
1652   1653   1654   1655
1656   1657   1658   1659
1660   1661   1662   1663
1664   1665   1666   1667
1668   1669   1670   1671
1672   1673   1674   1675
1676   1677   1678   1679
1680   1681   1682   1683
1684   1685   1686   1687
1688   1689   1690   1691
1692   1693   1694   1695
1696   1697   1698   1699
1700   1701   1702   1703
1704   1705   1706   1707
1708   1709   1710   1711
1712   1713   1714   1715
1716   1717   1718   1719
1720   1721   1722   1723
1724   1725   1726   1727
1728   1729   1730   1731
1732   1733   1734   1735
1736   1737   1738   1739
1740   1741   1742   1743
1744   1745   1746   1747
1748   1749   1750   1751
1752   1753   1754   1755
1756   1757   1758   1759
1760   1761   1762   1763
1764   1765   1766   1767
1768   1769   1770   1771
1772   1773   1774   1775
1776   1777   1778   1779
1780   1781   1782   1783
1784   1785   1786   1787
1788   1789   1790   1791
1792   1793   1794   1795
1796   1797   1798   1799
1800   1801   1802   1803
1804   1805   1806   1807
1808   1809   1810   1811
1812   1813   1814   1815
1816   1817   1818   1819
1820   1821   1822   1823
1824   1825   1826   1827
1828   1829   1830   1831
1832   1833   1834   1835
1836   1837   1838   1839
1840   1841   1842   1843
1844   1845   1846   1847
1848   1849   1850   1851
1852   1853   1854   1855
1856   1857   1858   1859
1860   1861   1862   1863
1864   1865   1866   1867
1868   1869   1870   1871
1872   1873   1874   1875
1876   1877   1878   1879
1880   1881   1882   1883
1884   1885   1886   1887
1888   1889   1890   1891
1892   1893   1894   1895
1896   1897   1898   1899
1900   1901   1902   1903
1904   1905   1906   1907
1908   1909   1910   1911
1912   1913   1914   1915
1916   1917   1918   1919
1920   1921   1922   1923
1924   1925   1926   1927
1928   1929   1930   1931
1932   1933   1934   1935
1936   1937   1938   1939
1940   1941   1942   1943
1944   1945   1946   1947
1948   1949   1950   1951
1952   1953   1954   1955
1956   1957   1958   1959
1960   1961   1962   1963
1964   1965   1966   1967
1968   1969   1970   1971
1972   1973   1974   1975
1976   1977   1978   1979
1980   1981   1982   1983
1984   1985   1986   1987
1988   1989   1990   1991
1992   1993   1994   1995
1996   1997   1998   1999
2000   2001   2002   2003
2004   2005   2006   2007
2008   2009   2010   2011
2012   2013   2014   2015
2016   2017   2018   2019
2020   2021   2022   2023
2024   2025   2026   2027
2028   2029   2030   2031
2032   2033   2034   2035
2036   2037   2038   2039
2040   2041   2042   2043
2044   2045   2046   2047
2048   2049   2050   2051
2052   2053   2054   2055
2056   2057   2058   2059
2060   2061   2062   2063
2064   2065   2066   2067
2068   2069   2070   2071
2072   2073   2074   2075
2076   2077   2078   2079
2080   2081   2082   2083
2084   2085   2086   2087
2088   2089   2090   2091
2092   2093   2094   2095
2096   2097   2098   2099
2100   2101   2102   2103
2104   2105   2106   2107
2108   2109   2110   2111
2112   2113   2114   2115
2116   2117   2118   2119
2120   2121   2122   2123
2124   2125   2126   2127
2128   2129   2130   2131
2132   2133   2134   2135
2136   2137   2138   2139
2140   2141   2142   2143
2144   2145   2146   2147
2148   2149   2150   2151
2152   2153   2154   2155
2156   2157   2158   2159
2160   2161   2162   2163
2164   2165   2166   2167
2168   2169   2170   2171
2172   2173   2174   2175
2176   2177   2178   2179
2180   2181   2182   2183
2184   2185   2186   2187
2188   2189   2190   2191
2192   2193   2194   2195
2196   2197   2198   2199
2200   2201   2202   2203
2204   2205   2206   2207
2208   2209   2210   2211
2212   2213   2214   2215
2216   2217   2218   2219
2220   2221   2222   2223
2224   2225   2226   2227
2228   2229   2230   2231
2232   2233   2234   2235
2236   2237   2238   2239
2240   2241   2242   2243
2244   2245   2246   2247
2248   2249   2250   2251
2252   2253   2254   2255
2256   2257   2258   2259
2260   2261   2262   2263
2264   2265   2266   2267
2268   2269   2270   2271
2272   2273   2274   2275
2276   2277   2278   2279
2280   2281   2282   2283
2284   2285   2286   2287
2288   2289   2290   2291
2292   2293   2294   2295
2296   2297   2298   2299
2300   2301   2302   2303
2304   2305   2306   2307
2308   2309   2310   2311
2312   2313   2314   2315
2316   2317   2318   2319
2320   2321   2322   2323
2324   2325   2326   2327
2328   2329   2330   2331
2332   2333   2334   2335
2336   2337   2338   2339
2340   2341   2342   2343
2344   2345   2346   2347
2348   2349   2350   2351
2352   2353   2354   2355
2356   2357   2358   2359
2360   2361   2362   2363
2364   2365   2366   2367
2368   2369   2370   2371
2372   2373   2374   2375
2376   2377   2378   2379
2380   2381   2382   2383
2384   2385   2386   2387
2388   2389   2390   2391
2392   2393   2394   2395
2396   2397   2398   2399
2400   2401   2402   2403
2404   2405   2406   2407
2408   2409   2410   2411
2412   2413   2414   2415
2416   2417   2418   2419
2420   2421   2422   2423
2424   2425   2426   2427
2428   2429   2430   2431
2432   2433   2434   2435
2436   2437   2438   2439
2440   2441   2442   2443
2444   2445   2446   2447
2448   2449   2450   2451
2452   2453   2454   2455
2456   2457   2458   2459
2460   2461   2462   2463
2464   2465   2466   2467
2468   2469   2470   2471
2472   2473   2474   2475
2476   2477   2478   2479
2480   2481   2482   2483
2484   2485   2486   2487
2488   2489   2490   2491
2492   2493   2494   2495
2496   2497   2498   2499
2500   2501   2502   2503
2504   2505   2506   2507
2508   2509   2510   2511
2512   2513   2514   2515
2516   2517   2518   2519
2520   2521   2522   2523
2524   2525   2526   2527
2528   2529   2530   2531
2532   2533   2534   2535
2536   2537   2538   2539
2540   2541   2542   2543
2544   2545   2546   2547
2548   2549   2550   2551
2552   2553   2554   2555
2556   2557   2558   2559
2560   2561   2562   2563
2564   2565   2566   2567
2568   2569   2570   2571
2572   2573   2574   2575
2576   2577   2578   2579
2580   2581   2582   2583
2584   2585   2586   2587
2588   2589   2590   2591
2592   2593   2594   2595
2596   2597   2598   2599
2600   2601   2602   2603
2604   2605   2606   2607
2608   2609   2610   2611
2612   2613   2614   2615
2616   2617   2618   2619
2620   2621   2622   2623
2624   2625   2626   2627
2628   2629   2630   2631
2632   2633   2634   2635
2636   2637   2638   2639
2640   2641   2642   2643
2644   2645   2646   2647
2648   2649   2650   2651
2652   2653   2654   2655
2656   2657   2658   2659
2660   2661   2662   2663
2664   2665   2666   2667
2668   2669   2670   2671
2672   2673   2674   2675
2676   2677   2678   2679
2680   2681   2682   2683
2684   2685   2686   2687
2688   2689   2690   2691
2692   2693   2694   2695
2696   2697   2698   2699
2700   2701   2702   2703
2704   2705   2706   2707
2708   2709   2710   2711
2712   2713   2714   2715
2716   2717   2718   2719
2720   2721   2722   2723
2724   2725   2726   2727
2728   2729   2730   2731
2732   2733   2734   2735
2736   2737   2738   2739
2740   2741   2742   2743
2744   2745   2746   2747
2748   2749   2750   2751
2752   2753   2754   2755
2756   2757   2758   2759
2760   2761   2762   2763
2764   2765   2766   2767
2768   2769   2770   2771
2772   2773   2774   2775
2776   2777   2778   2779
2780   2781   2782   2783
2784   2785   2786   2787
2788   2789   2790   2791
2792   2793   2794   2795
2796   2797   2798   2799
2800   2801   2802   2803
2804   2805   2806   2807
2808   2809   2810   2811
2812   2813   2814   2815
2816   2817   2818   2819
2820   2821   2822   2823
2824   2825   2826   2827
2828   2829   2830   2831
2832   2833   2834   2835
2836   2837   2838   2839
2840   2841   2842   2843
2844   2845   2846   2847
2848   2849   2850   2851
2852   2853   2854   2855
2856   2857   2858   2859
2860   2861   2862   2863
2864   2865   2866   2867
2868   2869   2870   2871
2872   2873   2874   2875
2876   2877   2878   2879
2880   2881   2882   2883
2884   2885   2886   2887
2888   2889   2890   2891
2892   2893   2894   2895
2896   2897   2898   2899
2900   2901   2902   2903
2904   2905   2906   2907
2908   2909   2910   2911
2912   2913   2914   2915
2916   2917   2918   2919
2920   2921   2922   2923
2924   2925   2926   2927
2928   2929   2930   2931
2932   2933   2934   2935
2936   2937   2938   2939
2940   2941   2942   2943
2944   2945   2946   2947
2948   2949   2950   2951
2952   2953   2954   2955
2956   2957   2958   2959
2960   2961   2962   2963
2964   2965   2966   2967
2968   2969   2970   2971
2972   2973   2974   2975
2976   2977   2978   2979
2980   2981   2982   2983
2984   2985   2986   2987
2988   2989   2990   2991
2992   2993   2994   2995
2996   2997   2998   2999
3000   3001   3002   3003
3004   3005   3006   3007
3008   3009   3010   3011
3012   3013   3014   3015
3016   3017   3018   3019
3020   3021   3022   3023
3024   3025   3026   3027
3028   3029   3030   3031
3032   3033   3034   3035
3036   3037   3038   3039
3040   3041   3042   3043
3044   3045   3046   3047
3048   3049   3050   3051
3052   3053   3054   3055
3056   3057   3058   3059
3060   3061   3062   3063
3064   3065   3066   3067
3068   3069   3070   3071
3072   3073   3074   3075
3076   3077   3078   3079
3080   3081   3082   3083
3084   3085   3086   3087
3088   3089   3090   3091
3092   3093   3094   3095
3096   3097   3098   3099
3100   3101   3102   3103
3104   3105   3106   3107
3108   3109   3110   3111
3112   3113   3114   3115
3116   3117   3118   3119
3120   3121   3122   3123
3124   3125   3126   3127
3128   3129   3130   3131
3132   3133   3134   3135
3136   3137   3138   3139
3140   3141   3142   3143
3144   3145   3146   3147
3148   3149   3150   3151
3152   3153   3154   3155
3156   3157   3158   3159
3160   3161   3162   3163
3164   3165   3166   3167
3168   3169   3170   3171
3172   3173   3174   3175
3176   3177   3178   3179
3180   3181   3182   3183
3184   3185   3186   3187
3188   3189   3190   3191
3192   3193   3194   3195
3196   3197   3198   3199
3200   3201   3202   3203
3204   3205   3206   3207
3208   3209   3210   3211
3212   3213   3214   3215
3216   3217   3218   3219
3220   3221   3222   3223
3224   3225   3226   3227
3228   3229   3230   3231
3232   3233   3234   3235
3236   3237   3238   3239
3240   3241   3242   3243
3244   3245   3246   3247
3248   3249   3250   3251
3252   3253   3254   3255
3256   3257   3258   3259
3260   3261   3262   3263
3264   3265   3266   3267
3268   3269   3270   3271
3272   3273   3274   3275
3276   3277   3278   3279
3280   3281   3282   3283
3284   3285   3286   3287
3288   3289   3290   3291
3292   3293   3294   3295
3296   3297   3298   3299
3300   3301   3302   3303
3304   3305   3306   3307
3308   3309   3310   3311
3312   3313   3314   3315
3316   3317   3318   3319
3320   3321   3322   3323
3324   3325   3326   3327
3328   3329   3330   3331
3332   3333   3334   3335
3336   3337   3338   3339
3340   3341   3342   3343
3344   3345   3346   3347
3348   3349   3350   3351
3352   3353   3354   3355
3356   3357   3358   3359
3360   3361   3362   3363
3364   3365   3366   3367
3368   3369   3370   3371
3372   3373   3374   3375
3376   3377   3378   3379
3380   3381   3382   3383
3384   3385   3386   3387
3388   3389   3390   3391
3392   3393   3394   3395
3396   3397   3398   3399
3400   3401   3402   3403
3404   3405   3406   3407
3408   3409   3410   3411
3412   3413   3414   3415
3416   3417   3418   3419
3420   3421   3422   3423
3424   3425   3426   3427
3428   3429   3430   3431
3432   3433   3434   3435
3436   3437   3438   3439
3440   3441   3442   3443
3444   3445   3446   3447
3448   3449   3450   3451
3452   3453   3454   3455
3456   3457   3458   3459
3460   3461   3462   3463
3464   3465   3466   3467
3468   3469   3470   3471
3472   3473   3474   3475
3476   3477   3478   3479
3480   3481   3482   3483
3484   3485   3486   3487
3488   3489   3490   3491
3492   3493   3494   3495
3496   3497   3498   3499
3500   3501   3502   3503
3504   3505   3506   3507
3508   3509   3510   3511
3512   3513   3514   3515
3516   3517   3518   3519
3520   3521   3522   3523
3524   3525   3526   3527
3528   3529   3530   3531
3532   3533   3534   3535
3536   3537   3538   3539
3540   3541   3542   3543
3544   3545   3546   3547
3548   3549   3550   3551
3552   3553   3554   3555
3556   3557   3558   3559
3560   3561   3562   3563
3564   3565   3566   3567
3568   3569   3570   3571
3572   3573   3574   3575
3576   3577   3578   3579
3580   3581   3582   3583
3584   3585   3586   3587
3588   3589   3590   3591
3592   3593   3594   3595
3596   3597   3598   3599
3600   3601   3602   3603
3604   3605   3606   3607
3608   3609   3610   3611
3612   3613   3614   3615
3616   3617   3618   3619
3620   3621   3622   3623
3624   3625   3626   3627
3628   3629   3630   3631
3632   3633   3634   3635
3636   3637   3638   3639
3640   3641   3642   3643
3644   3645   3646   3647
3648   3649   3650   3651
3652   3653   3654   3655
3656   3657   3658   3659
3660   3661   3662   3663
3664   3665   3666   3667
3668   3669   3670   3671
3672   3673   3674   3675
3676   3677   3678   3679
3680   3681   3682   3683
3684   3685   3686   3687
3688   3689   3690   3691
3692   3693   3694   3695
3696   3697   3698   3699
3700   3701   3702   3703
3704   3705   3706   3707
3708   3709   3710   3711
3712   3713   3714   3715
3716   3717   3718   3719
3720   3721   3722   3723
3724   3725   3726   3727
3728   3729   3730   3731
3732   3733   3734   3735
3736   3737   3738   3739
3740   3741   3742   3743
3744   3745   3746   3747
3748   3749   3750   3751
3752   3753   3754   3755
3756   3757   3758   3759
3760   3761   3762   3763
3764   3765   3766   3767
3768   3769   3770   3771
3772   3773   3774   3775
3776   3777   3778   3779
3780   3781   3782   3783
3784   3785   3786   3787
3788   3789   3790   3791
3792   3793   3794   3795
3796   3797   3798   3799
3800   3801   3802   3803
3804   3805   3806   3807
3808   3809   3810   3811
3812   3813   3814   3815
3816   3817   3818   3819
3820   3821   3822   3823
3824   3825   3826   3827
3828   3829   3830   3831
3832   3833   3834   3835
3836   3837   3838   3839
3840   3841   3842   3843
3844   3845   3846   3847
3848   3849   3850   3851
3852   3853   3854   3855
3856   3857   3858   3859
3860   3861   3862   3863
3864   3865   3866   3867
3868   3869   3870   3871
3872   3873   3874   3875
3876   3877   3878   3879
3880   3881   3882   3883
3884   3885   3886   3887
3888   3889   3890   3891
3892   3893   3894   3895
3896   3897   3898   3899
3900   3901   3902   3903
3904   3905   3906   3907
3908   3909   3910   3911
3912   3913   3914   3915
3916   3917   3918   3919
3920   3921   3922   3923
3924   3925   3926   3927
3928   3929   3930   3931
3932   3933   3934   3935
3936   3937   3938   3939
3940   3941   3942   3943
3944   3945   3946   3947
3948   3949   3950   3951
3952   3953   3954   3955
3956   3957   3958   3959
3960   3961   3962   3963
3964   3965   3966   3967
3968   3969   3970   3971
3972   3973   3974   3975
3976   3977   3978   3979
3980   3981   3982   3983
3984   3985   3986   3987
3988   3989   3990   3991
3992   3993   3994   3995
3996   3997   3998   3999
4000   4001   4002   4003
4004   4005   4006   4007
4008   4009   4010   4011
4012   4013   4014   4015
4016   4017   4018   4019
4020   4021   4022   4023
4024   4025   4026   4027
4028   4029   4030   4031
4032   4033   4034   4035
4036   4037   4038   4039
4040   4041   4042   4043
4044   4045   4046   4047
4048   4049   4050   4051
4052   4053   4054   4055
4056   4057   4058   4059
4060   4061   4062   4063
4064   4065   4066   4067
4068   4069   4070   4071
4072   4073   4074   4075
4076   4077   4078   4079
4080   4081   4082   4083
4084   4085   4086   4087
4088   4089   4090   4091
4092   4093   4094   4095
4096   4097   4098   4099
4100   4101   4102   4103
4104   4105   4106   4107
4108   4109   4110   4111
4112   4113   4114   4115
4116   4117   4118   4119
4120   4121   4122   4123
4124   4125   4126   4127
4128   4129   4130   4131
4132   4133   4134   4135
4136   4137   4138   4139
4140   4141   4142   4143
4144   4145   4146   4147
4148   4149   4150   4151
4152   4153   4154   4155
4156   4157   4158   4159
4160   4161   4162   4163
4164   4165   4166   4167
4168   4169   4170   4171
4172   4173   4174   4175
4176   4177   4178   4179
4180   4181   4182   4183
4184   4185   4186   4187
4188   4189   4190   4191
4192   4193   4194   4195
4196   4197   4198   4199
4200   4201   4202   4203
4204   4205   4206   4207
4208   4209   4210   4211
4212   4213   4214   4215
4216   4217   4218   4219
4220   4221   4222   4223
4224   4225   4226   4227
4228   4229   4230   4231
4232   4233   4234   4235
4236   4237   4238   4239
4240   4241   4242   4243
4244   4245   4246   4247
4248   4249   4250   4251
4252   4253   4254   4255
4256   4257   4258   4259
4260   4261   4262   4263
4264   4265   4266   4267
4268   4269   4270   4271
4272   4273   4274   4275
4276   4277   4278   4279
4280   4281   4282   4283
4284   4285   4286   4287
4288   4289   4290   4291
4292   4293   4294   4295
4296   4297   4298   4299
4300   4301   4302   4303
4304   4305   4306   4307
4308   4309   4310   4311
4312   4313   4314   4315
4316   4317   4318   4319
4320   4321   4322   4323
4324   4325   4326   4327
4328   4329   4330   4331
4332   4333   4334   4335
4336   4337   4338   4339
4340   4341   4342   4343
4344   4345   4346   4347
4348   4349   4350   4351
4352   4353   4354   4355
4356   4357   4358   4359
4360   4361   4362   4363
4364   4365   4366   4367
4368   4369   4370   4371
4372   4373   4374   4375
4376   4377   4378   4379
4380   4381   4382   4383
4384   4385   4386   4387
4388   4389   4390   4391
4392   4393   4394   4395
4396   4397   4398   4399
4400   4401   4402   4403
4404   4405   4406   4407
4408   4409   4410   4411
4412   4413   4414   4415
4416   4417   4418   4419
4420   4421   4422   4423
4424   4425   4426   4427
4428   4429   4430   4431
4432   4433   4434   4435
4436   4437   4438   4439
4440   4441   4442   4443
4444   4445   4446   4447
4448   4449   4450   4451
4452   4453   4454   4455
4456   4457   4458   4459
4460   4461   4462   4463
4464   4465   4466   4467
4468   4469   4470   4471
4472   4473   4474   4475
4476   4477   4478   4479
4480   4481   4482   4483
4484   4485   4486   4487
4488   4489   4490   4491
4492   4493   4494   4495
4496   4497   4498   4499
4500   4501   4502   4503
4504   4505   4506   4507
4508   4509   4510   4511
4512   4513   4514   4515
4516   4517   4518   4519
4520   4521   4522   4523
4524   4525   4526   4527
4528   4529   4530   4531
4532   4533   4534   4535
4536   4537   4538   4539
4540   4541   4542   4543
4544   4545   4546   4547
4548   4549   4550   4551
4552   4553   4554   4555
4556   4557   4558   4559
4560   4561   4562   4563
4564   4565   4566   4567
4568   4569   4570   4571
4572   4573   4574   4575
4576   4577   4578   4579
4580   4581   4582   4583
4584   4585   4586   4587
4588   4589   4590   4591
4592   4593   4594   4595
4596   4597   4598   4599
4600   4601   4602   4603
4604   4605   4606   4607
4608   4609   4610   4611
4612   4613   4614   4615
4616   4617   4618   4619
4620   4621   4622   4623
4624   4625   4626   4627
4628   4629   4630   4631
4632   4633   4634   4635
4636   4637   4638   4639
4640   4641   4642   4643
4644   4645   4646   4647
4648   4649   4650   4651
4652   4653   4654   4655
4656   4657   4658   4659
4660   4661   4662   4663
4664   4665   4666   4667
4668   4669   4670   4671
4672   4673   4674   4675
4676   4677   4678   4679
4680   4681   4682   4683
4684   4685   4686   4687
4688   4689   4690   4691
4692   4693   4694   4695
4696   4697   4698   4699
4700   4701   4702   4703
4704   4705   4706   4707
4708   4709   4710   4711
4712   4713   4714   4715
4716   4717   4718   4719
4720   4721   4722   4723
4724   4725   4726   4727
4728   4729   4730   4731
4732   4733   4734   4735
4736   4737   4738   4739
4740   4741   4742   4743
4744   4745   4746   4747
4748   4749   4750   4751
4752   4753   4754   4755
4756   4757   4758   4759
4760   4761   4762   4763
4764   4765   4766   4767
4768   4769   4770   4771
4772   4773   4774   4775
4776   4777   4778   4779
4780   4781   4782   4783
4784   4785   4786   4787
4788   4789   4790   4791
4792   4793   4794   4795
4796   4797   4798   4799
4800   4801   4802   4803
4804   4805   4806   4807
4808   4809   4810   4811
4812   4813   4814   4815
4816   4817   4818   4819
4820   4821   4822   4823
4824   4825   4826   4827
4828   4829   4830   4831
4832   4833   4834   4835
4836   4837   4838   4839
4840   4841   4842   4843
4844   4845   4846   4847
4848   4849   4850   4851
4852   4853   4854   4855
4856   4857   4858   4859
4860   4861   4862   4863
4864   4865   4866   4867
4868   4869   4870   4871
4872   4873   4874   4875
4876   4877   4878   4879
4880   4881   4882   4883
4884   4885   4886   4887
4888   4889   4890   4891
4892   4893   4894   4895
4896   4897   4898   4899
4900   4901   4902   4903
4904   4905   4906   4907
4908   4909   4910   4911
4912   4913   4914   4915
4916   4917   4918   4919
4920   4921   4922   4923
4924   4925   4926   4927
4928   4929   4930   4931
4932   4933   4934   4935
4936   4937   4938   4939
4940   4941   4942   4943
4944   4945   4946   4947
4948   4949   4950   4951
4952   4953   4954   4955
4956   4957   4958   4959
4960   4961   4962   4963
4964   4965   4966   4967
4968   4969   4970   4971
4972   4973   4974   4975
4976   4977   4978   4979
4980   4981   4982   4983
4984   4985   4986   4987
4988   4989   4990   4991
4992   4993   4994   4995
4996   4997   4998   4999
5000   5001   5002   5003
5004   5005   5006   5007
5008   5009   5010   5011
5012   5013   5014   5015
5016   5017   5018   5019
5020   5021   5022   5023
5024   5025   5026   5027
5028   5029   5030   5031
5032   5033   5034   5035
5036   5037   5038   5039
5040   5041   5042   5043
5044   5045   5046   5047
5048   5049   5050   5051
5052   5053   5054   5055
5056   5057   5058   5059
5060   5061   5062   5063
5064   5065   5066   5067
5068   5069   5070   5071
5072   5073   5074   5075
5076   5077   5078   5079
5080   5081   5082   5083
5084   5085   5086   5087
5088   5089   5090   5091
5092   5093   5094   5095
5096   5097   5098   5099
5100   5101   5102   5103
5104   5105   5106   5107
5108   5109   5110   5111
5112   5113   5114   5115
5116   5117   5118   5119
5120   5121   5122   5123
5124   5125   5126   5127
5128   5129   5130   5131
5132   5133   5134   5135
5136   5137   5138   5139
5140   5141   5142   5143
5144   5145   5146   5147
5148   5149   5150   5151
5152   5153   5154   5155
5156   5157   5158   5159
5160   5161   5162   5163
5164   5165   5166   5167
5168   5169   5170   5171
5172   5173   5174   5175
5176   5177   5178   5179
5180   5181   5182   5183
5184   5185   5186   5187
5188   5189   5190   5191
5192   5193   5194   5195
5196   5197   5198   5199
5200   5201   5202   5203
5204   5205   5206   5207
5208   5209   5210   5211
5212   5213   5214   5215
5216   5217   5218   5219
5220   5221   5222   5223
5224   5225   5226   5227
5228   5229   5230   5231
5232   5233   5234   5235
5236   5237   5238   5239
5240   5241   5242   5243
5244   5245   5246   5247
5248   5249   5250   5251
5252   5253   5254   5255
5256   5257   5258   5259
5260   5261   5262   5263
5264   5265   5266   5267
5268   5269   5270   5271
5272   5273   5274   5275
5276   5277   5278   5279
5280   5281   5282   5283
5284   5285   5286   5287
5288   5289   5290   5291
5292   5293   5294   5295
5296   5297   5298   5299
5300   5301   5302   5303
5304   5305   5306   5307
5308   5309   5310   5311
5312   5313   5314   5315
5316   5317   5318   5319
5320   5321   5322   5323
5324   5325   5326   5327
5328   5329   5330   5331
5332   5333   5334   5335
5336   5337   5338   5339
5340   5341   5342   5343
5344   5345   5346   5347
5348   5349   5350   5351
5352   5353   5354   5355
5356   5357   5358   5359
5360   5361   5362   5363
5364   5365   5366   5367
5368   5369   5370   5371
5372   5373   5374   5375
5376   5377   5378   5379
5380   5381   5382   5383
5384   5385   5386   5387
5388   5389   5390   5391
5392   5393   5394   5395
5396   5397   5398   5399
5400   5401   5402   5403
5404   5405   5406   5407
5408   5409   5410   5411
5412   5413   5414   5415
5416   5417   5418   5419
5420   5421   5422   5423
5424   5425   5426   5427
5428   5429   5430   5431
5432   5433   5434   5435
5436   5437   5438   5439
5440   5441   5442   5443
5444   5445   5446   5447
5448   5449   5450   5451
5452   5453   5454   5455
5456   5457   5458   5459
5460   5461   5462   5463
5464   5465   5466   5467
5468   5469   5470   5471
5472   5473   5474   5475
5476   5477   5478   5479
5480   5481   5482   5483
5484   5485   5486   5487
5488   5489   5490   5491
5492   5493   5494   5495
5496   5497   5498   5499
5500   5501   5502   5503
5504   5505   5506   5507
5508   5509   5510   5511
5512   5513   5514   5515
5516   5517   5518   5519
5520   5521   5522   5523
5524   5525   5526   5527
5528   5529   5530   5531
5532   5533   5534   5535
5536   5537   5538   5539
5540   5541   5542   5543
5544   5545   5546   5547
5548   5549   5550   5551
5552   5553   5554   5555
5556   5557   5558   5559
5560   5561   5562   5563
5564   5565   5566   5567
5568   5569   5570   5571
5572   5573   5574   5575
5576   5577   5578   5579
5580   5581   5582   5583
5584   5585   5586   5587
5588   5589   5590   5591
5592   5593   5594   5595
5596   5597   5598   5599
5600   5601   5602   5603
5604   5605   5606   5607
5608   5609   5610   5611
5612   5613   5614   5615
5616   5617   5618   5619
5620   5621   5622   5623
5624   5625   5626   5627
5628   5629   5630   5631
5632   5633   5634   5635
5636   5637   5638   5639
5640   5641   5642   5643
5644   5645   5646   5647
5648   5649   5650   5651
5652   5653   5654   5655
5656   5657   5658   5659
5660   5661   5662   5663
5664   5665   5666   5667
5668   5669   5670   5671
5672   5673   5674   5675
5676   5677   5678   5679
5680   5681   5682   5683
5684   5685   5686   5687
5688   5689   5690   5691
5692   5693   5694   5695
5696   5697   5698   5699
5700   5701   5702   5703
5704   5705   5706   5707
5708   5709   5710   5711
5712   5713   5714   5715
5716   5717   5718   5719
5720   5721   5722   5723
5724   5725   5726   5727
5728   5729   5730   5731
5732   5733   5734   5735
5736   5737   5738   5739
5740   5741   5742   5743
5744   5745   5746   5747
5748   5749   5750   5751
5752   5753   5754   5755
5756   5757   5758   5759
5760   5761   5762   5763
5764   5765   5766   5767
5768   5769   5770   5771
5772   5773   5774   5775
5776   5777   5778   5779
5780   5781   5782   5783
5784   5785   5786   5787
5788   5789   5790   5791
5792   5793   5794   5795
5796   5797   5798   5799
5800   5801   5802   5803
5804   5805   5806   5807
5808   5809   5810   5811
5812   5813   5814   5815
5816   5817   5818   5819
5820   5821   5822   5823
5824   5825   5826   5827
5828   5829   5830   5831
5832   5833   5834   5835
5836   5837   5838   5839
5840   5841   5842   5843
5844   5845   5846   5847
5848   5849   5850   5851
5852   5853   5854   5855
5856   5857   5858   5859
5860   5861   5862   5863
5864   5865   5866   5867
5868   5869   5870   5871
5872   5873   5874   5875
5876   5877   5878   5879
5880   5881   5882   5883
5884   5885   5886   5887
5888   5889   5890   5891
5892   5893   5894   5895
5896   5897   5898   5899
5900   5901   5902   5903
5904   5905   5906   5907
5908   5909   5910   5911
5912   5913   5914   5915
5916   5917   5918   5919
5920   5921   5922   5923
5924   5925   5926   5927
5928   5929   5930   5931
5932   5933   5934   5935
5936   5937   5938   5939
5940   5941   5942   5943
5944   5945   5946   5947
5948   5949   5950   5951
5952   5953   5954   5955
5956   5957   5958   5959
5960   5961   5962   5963
5964   5965   5966   5967
5968   5969   5970   5971
5972   5973   5974   5975
5976   5977   5978   5979
5980   5981   5982   5983
5984   5985   5986   5987
5988   5989   5990   5991
5992   5993   5994   5995
5996   5997   5998   5999
              </DataArray>   
              <DataArray type="Int32" Name="offsets" format="ascii">   
4
8
12
16
20
24
28
32
36
40
44
48
52
56
60
64
68
72
76
80
84
88
92
96
100
104
108
112
116
120
124
128
132
136
140
144
148
152
156
160
164
168
172
176
180
184
188
192
196
200
204
208
212
216
220
224
228
232
236
240
244
248
252
256
260
264
268
272
276
280
284
288
292
296
300
304
308
312
316
320
324
328
332
336
340
344
348
352
356
360
364
368
372
376
380
384
388
392
396
400
404
408
412
416
420
424
428
432
436
440
444
448
452
456
460
464
468
472
476
480
484
488
492
496
500
504
508
512
516
520
524
528
532
536
540
544
548
552
556
560
564
568
572
576
580
584
588
592
596
600
604
608
612
616
620
624
628
632
636
640
644
648
652
656
660
664
668
672
676
680
684
688
692
696
700
704
708
712
716
720
724
728
732
736
740
744
748
752
756
760
764
768
772
776
780
784
788
792
796
800
804
808
812
816
820
824
828
832
836
840
844
848
852
856
860
864
868
872
876
880
884
888
892
896
900
904
908
912
916
920
924
928
932
936
940
944
948
952
956
960
964
968
972
976
980
984
988
992
996
1000
1004
1008
1012
1016
1020
1024
1028
1032
1036
1040
1044
1048
1052
1056
1060
1064
1068
1072
1076
1080
1084
1088
1092
1096
1100
1104
1108
1112
1116
1120
1124
1128
1132
1136
1140
1144
1148
1152
1156
1160
1164
1168
1172
1176
1180
1184
1188
1192
1196
1200
1204
1208
1212
1216
1220
1224
1228
1232
1236
1240
1244
1248
1252
1256
1260
1264
1268
1272
1276
1280
1284
1288
1292
1296
1300
1304
1308
1312
1316
1320
1324
1328
1332
1336
1340
1344
1348
1352
1356
1360
1364
1368
1372
1376
1380
1384
1388
1392
1396
1400
1404
1408
1412
1416
1420
1424
1428
1432
1436
1440
1444
1448
1452
1456
1460
1464
1468
1472
1476
1480
1484
1488
1492
1496
1500
1504
1508
1512
1516
1520
1524
1528
1532
1536
1540
1544
1548
1552
1556
1560
1564
1568
1572
1576
1580
1584
1588
1592
1596
1600
1604
1608
1612
1616
1620
1624
1628
1632
1636
1640
1644
1648
1652
1656
1660
1664
1668
1672
1676
1680
1684
1688
1692
1696
1700
1704
1708
1712
1716
1720
1724
1728
1732
1736
1740
1744
1748
1752
1756
1760
1764
1768
1772
1776
1780
1784
1788
1792
1796
1800
1804
1808
1812
1816
1820
1824
1828
1832
1836
1840
1844
1848
1852
1856
1860
1864
1868
1872
1876
1880
1884
1888
1892
1896
1900
1904
1908
1912
1916
1920
1924
1928
1932
1936
1940
1944
1948
1952
1956
1960
1964
1968
1972
1976
1980
1984
1988
1992
1996
2000
2004
2008
2012
2016
2020
2024
2028
2032
2036
2040
2044
2048
2052
2056
2060
2064
2068
2072
2076
2080
2084
2088
2092
2096
2100
2104
2108
2112
2116
2120
2124
2128
2132
2136
2140
2144
2148
2152
2156
2160
2164
2168
2172
2176
2180
2184
2188
2192
2196
2200
2204
2208
2212
2216
2220
2224
2228
2232
2236
2240
2244
2248
2252
2256
2260
2264
2268
2272
2276
2280
2284
2288
2292
2296
2300
2304
2308
2312
2316
2320
2324
2328
2332
2336
2340
2344
2348
2352
2356
2360
2364
2368
2372
2376
2380
2384
2388
2392
2396
2400
2404
2408
2412
2416
2420
2424
2428
2432
2436
2440
2444
2448
2452
2456
2460
2464
2468
2472
2476
2480
2484
2488
2492
2496
2500
2504
2508
2512
2516
2520
2524
2528
2532
2536
2540
2544
2548
2552
2556
2560
2564
2568
2572
2576
2580
2584
2588
2592
2596
2600
2604
2608
2612
2616
2620
2624
2628
2632
2636
2640
2644
2648
2652
2656
2660
2664
2668
2672
2676
2680
2684
2688
2692
2696
2700
2704
2708
2712
2716
2720
2724
2728
2732
2736
2740
2744
2748
2752
2756
2760
2764
2768
2772
2776
2780
2784
2788
2792
2796
2800
2804
2808
2812
2816
2820
2824
2828
2832
2836
2840
2844
2848
2852
2856
2860
2864
2868
2872
2876
2880
2884
2888
2892
2896
2900
2904
2908
2912
2916
2920
2924
2928
2932
2936
2940
2944
2948
2952
2956
2960
2964
2968
2972
2976
2980
2984
2988
2992
2996
3000
3004
3008
3012
3016
3020
3024
3028
3032
3036
3040
3044
3048
3052
3056
3060
3064
3068
3072
3076
3080
3084
3088
3092
3096
3100
3104
3108
3112
3116
3120
3124
3128
3132
3136
3140
3144
3148
3152
3156
3160
3164
3168
3172
3176
3180
3184
3188
3192
3196
3200
3204
3208
3212
3216
3220
3224
3228
3232
3236
3240
3244
3248
3252
3256
3260
3264
3268
3272
3276
3280
3284
3288
3292
3296
3300
3304
3308
3312
3316
3320
3324
3328
3332
3336
3340
3344
3348
3352
3356
3360
3364
3368
3372
3376
3380
3384
3388
3392
3396
3400
3404
3408
3412
3416
3420
3424
3428
3432
3436
3440
3444
3448
3452
3456
3460
3464
3468
3472
3476
3480
3484
3488
3492
3496
3500
3504
3508
3512
3516
3520
3524
3528
3532
3536
3540
3544
3548
3552
3556
3560
3564
3568
3572
3576
3580
3584
3588
3592
3596
3600
3604
3608
3612
3616
3620
3624
3628
3632
3636
3640
3644
3648
3652
3656
3660
3664
3668
3672
3676
3680
3684
3688
3692
3696
3700
3704
3708
3712
3716
3720
3724
3728
3732
3736
3740
3744
3748
3752
3756
3760
3764
3768
3772
3776
3780
3784
3788
3792
3796
3800
3804
3808
3812
3816
3820
3824
3828
3832
3836
3840
3844
3848
3852
3856
3860
3864
3868
3872
3876
3880
3884
3888
3892
3896
3900
3904
3908
3912
3916
3920
3924
3928
3932
3936
3940
3944
3948
3952
3956
3960
3964
3968
3972
3976
3980
3984
3988
3992
3996
4000
4004
4008
4012
4016
4020
4024
4028
4032
4036
4040
4044
4048
4052
4056
4060
4064
4068
4072
4076
4080
4084
4088
4092
4096
4100
4104
4108
4112
4116
4120
4124
4128
4132
4136
4140
4144
4148
4152
4156
4160
4164
4168
4172
4176
4180
4184
4188
4192
4196
4200
4204
4208
4212
4216
4220
4224
4228
4232
4236
4240
4244
4248
4252
4256
4260
4264
4268
4272
4276
4280
4284
4288
4292
4296
4300
4304
4308
4312
4316
4320
4324
4328
4332
4336
4340
4344
4348
4352
4356
4360
4364
4368
4372
4376
4380
4384
4388
4392
4396
4400
4404
4408
4412
4416
4420
4424
4428
4432
4436
4440
4444
4448
4452
4456
4460
4464
4468
4472
4476
4480
4484
4488
4492
4496
4500
4504
4508
4512
4516
4520
4524
4528
4532
4536
4540
4544
4548
4552
4556
4560
4564
4568
4572
4576
4580
4584
4588
4592
4596
4600
4604
4608
4612
4616
4620
4624
4628
4632
4636
4640
4644
4648
4652
4656
4660
4664
4668
4672
4676
4680
4684
4688
4692
4696
4700
4704
4708
4712
4716
4720
4724
4728
4732
4736
4740
4744
4748
4752
4756
4760
4764
4768
4772
4776
4780
4784
4788
4792
4796
4800
4804
4808
4812
4816
4820
4824
4828
4832
4836
4840
4844
4848
4852
4856
4860
4864
4868
4872
4876
4880
4884
4888
4892
4896
4900
4904
4908
4912
4916
4920
4924
4928
4932
4936
4940
4944
4948
4952
4956
4960
4964
4968
4972
4976
4980
4984
4988
4992
4996
5000
5004
5008
5012
5016
5020
5024
5028
5032
5036
5040
5044
5048
5052
5056
5060
5064
5068
5072
5076
5080
5084
5088
5092
5096
5100
5104
5108
5112
5116
5120
5124
5128
5132
5136
5140
5144
5148
5152
5156
5160
5164
5168
5172
5176
5180
5184
5188
5192
5196
5200
5204
5208
5212
5216
5220
5224
5228
5232
5236
5240
5244
5248
5252
5256
5260
5264
5268
5272
5276
5280
5284
5288
5292
5296
5300
5304
5308
5312
5316
5320
5324
5328
5332
5336
5340
5344
5348
5352
5356
5360
5364
5368
5372
5376
5380
5384
5388
5392
5396
5400
5404
5408
5412
5416
5420
5424
5428
5432
5436
5440
5444
5448
5452
5456
5460
5464
5468
5472
5476
5480
5484
5488
5492
5496
5500
5504
5508
5512
5516
5520
5524
5528
5532
5536
5540
5544
5548
5552
5556
5560
5564
5568
5572
5576
5580
5584
5588
5592
5596
5600
5604
5608
5612
5616
5620
5624
5628
5632
5636
5640
5644
5648
5652
5656
5660
5664
5668
5672
5676
5680
5684
5688
5692
5696
5700
5704
5708
5712
5716
5720
5724
5728
5732
5736
5740
5744
5748
5752
5756
5760
5764
5768
5772
5776
5780
5784
5788
5792
5796
5800
5804
5808
5812
5816
5820
5824
5828
5832
5836
5840
5844
5848
5852
5856
5860
5864
5868
5872
5876
5880
5884
5888
5892
5896
5900
5904
5908
5912
5916
5920
5924
5928
5932
5936
5940
5944
5948
5952
5956
5960
5964
5968
5972
5976
5980
5984
5988
5992
5996
6000
              </DataArray>   
              <DataArray type="UInt8" Name="types" format="ascii">   
10
10
10
10
10
10
10
10
10
10
10
10
10
10
10
10
10
10
10
10
10
10
10
10
10
10
10
10
10
10
10
10
10
10
10
10
10
10
10
10
10
10
10
10
10
10
10
10
10
10
10
10
10
10
10
10
10
10
10
10
10
10
10
10
10
10
10
10
10
10
10
10
10
10
10
10
10
10
10
10
10
10
10
10
10
10
10
10
10
10
10
10
10
10
10
10
10
10
10
10
10
10
10
10
10
10
10
10
10
10
10
10
10
10
10
10
10
10
10
10
10
10
10
10
10
10
10
10
10
10
10
10
10
10
10
10
10
10
10
10
10
10
10
10
10
10
10
10
10
10
10
10
10
10
10
10
10
10
10
10
10
10
10
10
10
10
10
10
10
10
10
10
10
10
10
10
10
10
10
10
10
10
10
10
10
10
10
10
10
10
10
10
10
10
10
10
10
10
10
10
10
10
10
10
10
10
10
10
10
10
10
10
10
10
10
10
10
10
10
10
10
10
10
10
10
10
10
10
10
10
10
10
10
10
10
10
10
10
10
10
10
10
10
10
10
10
10
10
10
10
10
10
10
10
10
10
10
10
10
10
10
10
10
10
10
10
10
10
10
10
10
10
10
10
10
10
10
10
10
10
10
10
10
10
10
10
10
10
10
10
10
10
10
10
10
10
10
10
10
10
10
10
10
10
10
10
10
10
10
10
10
10
10
10
10
10
10
10
10
10
10
10
10
10
10
10
10
10
10
10
10
10
10
10
10
10
10
10
10
10
10
10
10
10
10
10
10
10
10
10
10
10
10
10
10
10
10
10
10
10
10
10
10
10
10
10
10
10
10
10
10
10
10
10
10
10
10
10
10
10
10
10
10
10
10
10
10
10
10
10
10
10
10
10
10
10
10
10
10
10
10
10
10
10
10
10
10
10
10
10
10
10
10
10
10
10
10
10
10
10
10
10
10
10
10
10
10
10
10
10
10
10
10
10
10
10
10
10
10
10
10
10
10
10
10
10
10
10
10
10
10
10
10
10
10
10
10
10
10
10
10
10
10
10
10
10
10
10
10
10
10
10
10
10
10
10
10
10
10
10
10
10
10
10
10
10
10
10
10
10
10
10
10
10
10
10
10
10
10
10
10
10
10
10
10
10
10
10
10
10
10
10
10
10
10
10
10
10
10
10
10
10
10
10
10
10
10
10
10
10
10
10
10
10
10
10
10
10
10
10
10
10
10
10
10
10
10
10
10
10
10
10
10
10
10
10
10
10
10
10
10
10
10
10
10
10
10
10
10
10
10
10
10
10
10
10
10
10
10
10
10
10
10
10
10
10
10
10
10
10
10
10
10
10
10
10
10
10
10
10
10
10
10
10
10
10
10
10
10
10
10
10
10
10
10
10
10
10
10
10
10
10
10
10
10
10
10
10
10
10
10
10
10
10
10
10
10
10
10
10
10
10
10
10
10
10
10
10
10
10
10
10
10
10
10
10
10
10
10
10
10
10
10
10
10
10
10
10
10
10
10
10
10
10
10
10
10
10
10
10
10
10
10
10
10
10
10
10
10
10
10
10
10
10
10
10
10
10
10
10
10
10
10
10
10
10
10
10
10
10
10
10
10
10
10
10
10
10
10
10
10
10
10
10
10
10
10
10
10
10
10
10
10
10
10
10
10
10
10
10
10
10
10
10
10
10
10
10
10
10
10
10
10
10
10
10
10
10
10
10
10
10
10
10
10
10
10
10
10
10
10
10
10
10
10
10
10
10
10
10
10
10
10
10
10
10
10
10
10
10
10
10
10
10
10
10
10
10
10
10
10
10
10
10
10
10
10
10
10
10
10
10
10
10
10
10
10
10
10
10
10
10
10
10
10
10
10
10
10
10
10
10
10
10
10
10
10
10
10
10
10
10
10
10
10
10
10
10
10
10
10
10
10
10
10
10
10
10
10
10
10
10
10
10
10
10
10
10
10
10
10
10
10
10
10
10
10
10
10
10
10
10
10
10
10
10
10
10
10
10
10
10
10
10
10
10
10
10
10
10
10
10
10
10
10
10
10
10
10
10
10
10
10
10
10
10
10
10
10
10
10
10
10
10
10
10
10
10
10
10
10
10
10
10
10
10
10
10
10
10
10
10
10
10
10
10
10
10
10
10
10
10
10
10
10
10
10
10
10
10
10
10
10
10
10
10
10
10
10
10
10
10
10
10
10
10
10
10
10
10
10
10
10
10
10
10
10
10
10
10
10
10
10
10
10
10
10
10
10
10
10
10
10
10
10
10
10
10
10
10
10
10
10
10
10
10
10
10
10
10
10
10
10
10
10
10
10
10
10
10
10
10
10
10
10
10
10
10
10
10
10
10
10
10
10
10
10
10
10
10
10
10
10
10
10
10
10
10
10
10
10
10
10
10
10
10
10
10
10
10
10
10
10
10
10
10
10
10
10
10
10
10
10
10
10
10
10
10
10
10
10
10
10
10
10
10
10
10
10
10
10
10
10
10
10
10
10
10
10
10
10
10
10
10
10
10
10
10
10
10
10
10
10
10
10
10
10
10
10
10
10
10
10
10
10
10
10
10
10
10
10
10
10
10
10
10
10
10
10
10
10
10
10
10
10
10
10
10
10
10
10
10
10
10
10
10
10
10
10
10
10
10
10
10
10
10
10
10
10
10
10
10
10
10
10
10
10
10
10
10
10
10
10
10
10
10
10
10
10
10
10
10
10
10
10
10
10
10
10
10
10
10
10
10
10
10
10
10
10
10
10
10
10
10
10
10
10
10
10
10
10
10
10
10
10
10
10
10
10
10
10
10
10
10
10
10
10
10
10
10
10
10
10
10
10
10
10
10
10
10
10
10
10
10
10
10
10
10
10
10
10
10
10
10
10
10
10
10
10
10
10
10
10
10
10
10
10
10
10
10
10
10
10
10
10
10
10
10
10
10
10
10
10
10
10
10
10
10
10
10
10
10
10
10
10
10
10
10
10
10
10
10
10
10
10
10
10
10
10
10
10
10
10
10
10
10
10
10
10
10
10
10
10
10
10
10
10
10
10
10
10
10
10
10
10
10
10
10
10
10
10
10
10
10
10
10
10
10
10
10
10
10
10
10
10
10
10
10
10
10
10
10
10
10
10
10
10
10
10
10
10
10
10
10
10
10
10
10
10
10
10
10
10
10
10
10
10
10
10
10
10
10
10
10
10
10
10
10
10
10
10
10
10
10
10
10
10
10
10
10
10
10
10
10
10
10
10
10
10
10
10
10
10
10
10
10
10
10
10
10
10
10
10
10
10
10
10
10
10
10
10
10
10
10
10
10
10
10
10
10
10
10
10
10
10
10
10
10
10
10
10
10
10
10
10
10
10
10
10
10
10
10
10
10
10
10
10
10
10
10
              </DataArray>   
          </Cells>  
          <PointData>  
             <DataArray type="Float64" NumberOfComponents="3" Name="Strains" format="ascii">   
-0.00010063189759967542   0.0   -6.602799002685391e-05
-0.00010063189759967542   0.0   -6.602799002685391e-05
-0.00010063189759967542   0.0   -6.602799002685391e-05
-0.00010063189759967542   0.0   -6.602799002685391e-05
-6.403569818432578e-05   1.1150327294092341e-05   1.655872041850755e-06
-6.403569818432578e-05   1.1150327294092341e-05   1.655872041850755e-06
-6.403569818432578e-05   1.1150327294092341e-05   1.655872041850755e-06
-6.403569818432578e-05   1.1150327294092341e-05   1.655872041850755e-06
-6.277061967548796e-05   0.0   -6.23151704824727e-05
-6.277061967548796e-05   0.0   -6.23151704824727e-05
-6.277061967548796e-05   0.0   -6.23151704824727e-05
-6.277061967548796e-05   0.0   -6.23151704824727e-05
-0.00010531770089546226   1.3379890609270572e-05   5.686971852557332e-07
-0.00010531770089546226   1.3379890609270572e-05   5.686971852557332e-07
-0.00010531770089546226   1.3379890609270572e-05   5.686971852557332e-07
-0.00010531770089546226   1.3379890609270572e-05   5.686971852557332e-07
-8.170125863758155e-05   3.0940162869843357e-06   -3.2620515317840336e-05
-8.170125863758155e-05   3.0940162869843357e-06   -3.2620515317840336e-05
-8.170125863758155e-05   3.0940162869843357e-06   -3.2620515317840336e-05
-8.170125863758155e-05   3.0940162869843357e-06   -3.2620515317840336e-05
-0.00010531770089546245   0.0   -7.034310484803507e-05
-0.00010531770089546245   0.0   -7.034310484803507e-05
-0.00010531770089546245   0.0   -7.034310484803507e-05
-0.00010531770089546245   0.0   -7.034310484803507e-05
-6.277061967548796e-05   1.3379890609270599e-05   8.596631550818082e-06
-6.277061967548796e-05   1.3379890609270599e-05   8.596631550818082e-06
-6.277061967548796e-05   1.3379890609270599e-05   8.596631550818082e-06
-6.277061967548796e-05   1.3379890609270599e-05   8.596631550818082e-06
-6.294909331254578e-05   0.0   -6.384081701997914e-05
-6.294909331254578e-05   0.0   -6.384081701997914e-05
-6.294909331254578e-05   0.0   -6.384081701997914e-05
-6.294909331254578e-05   0.0   -6.384081701997914e-05
-0.00010860916001977444   1.4334244199163808e-05   3.6587476392373013e-06
-0.00010860916001977444   1.4334244199163808e-05   3.6587476392373013e-06
-0.00010860916001977444   1.4334244199163808e-05   3.6587476392373013e-06
-0.00010860916001977444   1.4334244199163808e-05   3.6587476392373013e-06
-8.413339710400397e-05   5.418573190046609e-06   -3.1784787948243144e-05
-8.413339710400397e-05   5.418573190046609e-06   -3.1784787948243144e-05
-8.413339710400397e-05   5.418573190046609e-06   -3.1784787948243144e-05
-8.413339710400397e-05   5.418573190046609e-06   -3.1784787948243144e-05
-0.00010860916001977463   0.0   -7.244136353947745e-05
-0.00010860916001977463   0.0   -7.244136353947745e-05
-0.00010860916001977463   0.0   -7.244136353947745e-05
-0.00010860916001977463   0.0   -7.244136353947745e-05
-6.294909331254578e-05   1.4334244199163835e-05   1.2259294158735597e-05
-6.294909331254578e-05   1.4334244199163835e-05   1.2259294158735597e-05
-6.294909331254578e-05   1.4334244199163835e-05   1.2259294158735597e-05
-6.294909331254578e-05   1.4334244199163835e-05   1.2259294158735597e-05
-6.291763973707571e-05   0.0   -6.423261878088598e-05
-6.291763973707571e-05   0.0   -6.423261878088598e-05
-6.291763973707571e-05   0.0   -6.423261878088598e-05
-6.291763973707571e-05   0.0   -6.423261878088598e-05
-0.00011569843139316285   1.6328730152992087e-05   1.3938129220797624e-05
-0.00011569843139316285   1.6328730152992087e-05   1.3938129220797624e-05
-0.00011569843139316285   1.6328730152992087e-05   1.3938129220797624e-05
-0.00011569843139316285   1.6328730152992087e-05   1.3938129220797624e-05
-8.576339987842502e-05   6.840620632159552e-06   -3.0260724257932536e-05
-8.576339987842502e-05   6.840620632159552e-06   -3.0260724257932536e-05
-8.576339987842502e-05   6.840620632159552e-06   -3.0260724257932536e-05
-8.576339987842502e-05   6.840620632159552e-06   -3.0260724257932536e-05
-6.403569818432588e-05   0.0   -5.93377936503985e-05
-6.403569818432588e-05   0.0   -5.93377936503985e-05
-6.403569818432588e-05   0.0   -5.93377936503985e-05
-6.403569818432588e-05   0.0   -5.93377936503985e-05
-2.916052712699236e-05   4.0899343375233875e-06   1.2414520476713737e-06
-2.916052712699236e-05   4.0899343375233875e-06   1.2414520476713737e-06
-2.916052712699236e-05   4.0899343375233875e-06   1.2414520476713737e-06
-2.916052712699236e-05   4.0899343375233875e-06   1.2414520476713737e-06
-2.80475950727405e-05   0.0   -5.882193404067065e-05
-2.80475950727405e-05   0.0   -5.882193404067065e-05
-2.80475950727405e-05   0.0   -5.882193404067065e-05
-2.80475950727405e-05   0.0   -5.882193404067065e-05
-6.277061967548796e-05   5.822060736336763e-06   -4.443462811226935e-06
-6.277061967548796e-05   5.822060736336763e-06   -4.443462811226935e-06
-6.277061967548796e-05   5.822060736336763e-06   -4.443462811226935e-06
-6.277061967548796e-05   5.822060736336763e-06   -4.443462811226935e-06
-4.604164662853311e-05   4.298830081065399e-07   -2.9089777919213342e-05
-4.604164662853311e-05   4.298830081065399e-07   -2.9089777919213342e-05
-4.604164662853311e-05   4.298830081065399e-07   -2.9089777919213342e-05
-4.604164662853311e-05   4.298830081065399e-07   -2.9089777919213342e-05
-6.277061967548791e-05   0.0   -6.231517048247265e-05
-6.277061967548791e-05   0.0   -6.231517048247265e-05
-6.277061967548791e-05   0.0   -6.231517048247265e-05
-6.277061967548791e-05   0.0   -6.231517048247265e-05
-2.80475950727405e-05   5.822060736336763e-06   -9.502263694248896e-07
-2.80475950727405e-05   5.822060736336763e-06   -9.502263694248896e-07
-2.80475950727405e-05   5.822060736336763e-06   -9.502263694248896e-07
-2.80475950727405e-05   5.822060736336763e-06   -9.502263694248896e-07
-2.7423130635195093e-05   0.0   -5.956060774031566e-05
-2.7423130635195093e-05   0.0   -5.956060774031566e-05
-2.7423130635195093e-05   0.0   -5.956060774031566e-05
-2.7423130635195093e-05   0.0   -5.956060774031566e-05
-6.294909331254578e-05   7.133682132772469e-06   -4.6308792243946665e-06
-6.294909331254578e-05   7.133682132772469e-06   -4.6308792243946665e-06
-6.294909331254578e-05   7.133682132772469e-06   -4.6308792243946665e-06
-6.294909331254578e-05   7.133682132772469e-06   -4.6308792243946665e-06
-4.509687515534144e-05   2.2954689517975374e-06   -3.148164824448336e-05
-4.509687515534144e-05   2.2954689517975374e-06   -3.148164824448336e-05
-4.509687515534144e-05   2.2954689517975374e-06   -3.148164824448336e-05
-4.509687515534144e-05   2.2954689517975374e-06   -3.148164824448336e-05
-6.294909331254578e-05   0.0   -6.384081701997914e-05
-6.294909331254578e-05   0.0   -6.384081701997914e-05
-6.294909331254578e-05   0.0   -6.384081701997914e-05
-6.294909331254578e-05   0.0   -6.384081701997914e-05
-2.7423130635195093e-05   7.133682132772469e-06   -3.506699447311827e-07
-2.7423130635195093e-05   7.133682132772469e-06   -3.506699447311827e-07
-2.7423130635195093e-05   7.133682132772469e-06   -3.506699447311827e-07
-2.7423130635195093e-05   7.133682132772469e-06   -3.506699447311827e-07
-2.685474628138861e-05   0.0   -5.925230201395814e-05
-2.685474628138861e-05   0.0   -5.925230201395814e-05
-2.685474628138861e-05   0.0   -5.925230201395814e-05
-2.685474628138861e-05   0.0   -5.925230201395814e-05
-6.291763973707555e-05   8.300527944879625e-06   -4.127796354740773e-06
-6.291763973707555e-05   8.300527944879625e-06   -4.127796354740773e-06
-6.291763973707555e-05   8.300527944879625e-06   -4.127796354740773e-06
-6.291763973707555e-05   8.300527944879625e-06   -4.127796354740773e-06
-4.490191979696718e-05   3.82376250501746e-06   -3.1467936991004326e-05
-4.490191979696718e-05   3.82376250501746e-06   -3.1467936991004326e-05
-4.490191979696718e-05   3.82376250501746e-06   -3.1467936991004326e-05
-4.490191979696718e-05   3.82376250501746e-06   -3.1467936991004326e-05
-2.916052712699241e-05   0.0   -5.688383304788446e-05
-2.916052712699241e-05   0.0   -5.688383304788446e-05
-2.916052712699241e-05   0.0   -5.688383304788446e-05
-2.916052712699241e-05   0.0   -5.688383304788446e-05
3.791196713612659e-06   -5.236549873280415e-07   -2.2784863059394545e-06
3.791196713612659e-06   -5.236549873280415e-07   -2.2784863059394545e-06
3.791196713612659e-06   -5.236549873280415e-07   -2.2784863059394545e-06
3.791196713612659e-06   -5.236549873280415e-07   -2.2784863059394545e-06
4.50090753890291e-06   0.0   -5.8202718809772585e-05
4.50090753890291e-06   0.0   -5.8202718809772585e-05
4.50090753890291e-06   0.0   -5.8202718809772585e-05
4.50090753890291e-06   0.0   -5.8202718809772585e-05
-2.80475950727405e-05   1.0320253848297766e-06   -4.574429687931619e-06
-2.80475950727405e-05   1.0320253848297766e-06   -4.574429687931619e-06
-2.80475950727405e-05   1.0320253848297766e-06   -4.574429687931619e-06
-2.80475950727405e-05   1.0320253848297766e-06   -4.574429687931619e-06
-1.232980979404472e-05   -1.0990714682402656e-06   -2.9492080373915773e-05
-1.232980979404472e-05   -1.0990714682402656e-06   -2.9492080373915773e-05
-1.232980979404472e-05   -1.0990714682402656e-06   -2.9492080373915773e-05
-1.232980979404472e-05   -1.0990714682402656e-06   -2.9492080373915773e-05
-2.80475950727405e-05   0.0   -5.882193404067065e-05
-2.80475950727405e-05   0.0   -5.882193404067065e-05
-2.80475950727405e-05   0.0   -5.882193404067065e-05
-2.80475950727405e-05   0.0   -5.882193404067065e-05
4.500907538902917e-06   1.0320253848297766e-06   -3.955214457033743e-06
4.500907538902917e-06   1.0320253848297766e-06   -3.955214457033743e-06
4.500907538902917e-06   1.0320253848297766e-06   -3.955214457033743e-06
4.500907538902917e-06   1.0320253848297766e-06   -3.955214457033743e-06
5.060864738226141e-06   0.0   -5.811956234458656e-05
5.060864738226141e-06   0.0   -5.811956234458656e-05
5.060864738226141e-06   0.0   -5.811956234458656e-05
5.060864738226141e-06   0.0   -5.811956234458656e-05
-2.7423130635195046e-05   2.4017423262149895e-06   -5.42061545128025e-06
-2.7423130635195046e-05   2.4017423262149895e-06   -5.42061545128025e-06
-2.7423130635195046e-05   2.4017423262149895e-06   -5.42061545128025e-06
-2.7423130635195046e-05   2.4017423262149895e-06   -5.42061545128025e-06
-1.1493365167257176e-05   5.853097467366575e-07   -3.08803650168231e-05
-1.1493365167257176e-05   5.853097467366575e-07   -3.08803650168231e-05
-1.1493365167257176e-05   5.853097467366575e-07   -3.08803650168231e-05
-1.1493365167257176e-05   5.853097467366575e-07   -3.08803650168231e-05
-2.7423130635195093e-05   0.0   -5.956060774031566e-05
-2.7423130635195093e-05   0.0   -5.956060774031566e-05
-2.7423130635195093e-05   0.0   -5.956060774031566e-05
-2.7423130635195093e-05   0.0   -5.956060774031566e-05
5.06086473822615e-06   2.4017423262149895e-06   -3.979570055551271e-06
5.06086473822615e-06   2.4017423262149895e-06   -3.979570055551271e-06
5.06086473822615e-06   2.4017423262149895e-06   -3.979570055551271e-06
5.06086473822615e-06   2.4017423262149895e-06   -3.979570055551271e-06
5.814770956451886e-06   0.0   -5.6859316130026005e-05
5.814770956451886e-06   0.0   -5.6859316130026005e-05
5.814770956451886e-06   0.0   -5.6859316130026005e-05
5.814770956451886e-06   0.0   -5.6859316130026005e-05
-2.6854746281388585e-05   3.988309806553461e-06   -4.803106617557307e-06
-2.6854746281388585e-05   3.988309806553461e-06   -4.803106617557307e-06
-2.6854746281388585e-05   3.988309806553461e-06   -4.803106617557307e-06
-2.6854746281388585e-05   3.988309806553461e-06   -4.803106617557307e-06
-1.080417983937158e-05   2.2510763419079566e-06   -3.051171060879832e-05
-1.080417983937158e-05   2.2510763419079566e-06   -3.051171060879832e-05
-1.080417983937158e-05   2.2510763419079566e-06   -3.051171060879832e-05
-1.080417983937158e-05   2.2510763419079566e-06   -3.051171060879832e-05
3.7911967136126658e-06   0.0   -5.71980260402813e-05
3.7911967136126658e-06   0.0   -5.71980260402813e-05
3.7911967136126658e-06   0.0   -5.71980260402813e-05
3.7911967136126658e-06   0.0   -5.71980260402813e-05
3.9558561258951746e-05   -4.639807544519936e-06   -3.6963632476140625e-07
3.9558561258951746e-05   -4.639807544519936e-06   -3.6963632476140625e-07
3.9558561258951746e-05   -4.639807544519936e-06   -3.6963632476140625e-07
3.9558561258951746e-05   -4.639807544519936e-06   -3.6963632476140625e-07
3.962647778344956e-05   0.0   -6.030164446848698e-05
3.962647778344956e-05   0.0   -6.030164446848698e-05
3.962647778344956e-05   0.0   -6.030164446848698e-05
3.962647778344956e-05   0.0   -6.030164446848698e-05
4.500907538902925e-06   -3.498209431190339e-06   3.398982644716021e-07
4.500907538902925e-06   -3.498209431190339e-06   3.398982644716021e-07
4.500907538902925e-06   -3.498209431190339e-06   3.398982644716021e-07
4.500907538902925e-06   -3.498209431190339e-06   3.398982644716021e-07
2.1708837248531114e-05   -2.5863486901714144e-06   -2.8887101029520036e-05
2.1708837248531114e-05   -2.5863486901714144e-06   -2.8887101029520036e-05
2.1708837248531114e-05   -2.5863486901714144e-06   -2.8887101029520036e-05
2.1708837248531114e-05   -2.5863486901714144e-06   -2.8887101029520036e-05
4.500907538902925e-06   0.0   -5.820271880977279e-05
4.500907538902925e-06   0.0   -5.820271880977279e-05
4.500907538902925e-06   0.0   -5.820271880977279e-05
4.500907538902925e-06   0.0   -5.820271880977279e-05
3.962647778344956e-05   -3.498209431190339e-06   -1.7590273942425899e-06
3.962647778344956e-05   -3.498209431190339e-06   -1.7590273942425899e-06
3.962647778344956e-05   -3.498209431190339e-06   -1.7590273942425899e-06
3.962647778344956e-05   -3.498209431190339e-06   -1.7590273942425899e-06
3.945467328914547e-05   0.0   -5.944054237852212e-05
3.945467328914547e-05   0.0   -5.944054237852212e-05
3.945467328914547e-05   0.0   -5.944054237852212e-05
3.945467328914547e-05   0.0   -5.944054237852212e-05
5.06086473822615e-06   -2.20163338989243e-06   -7.965480930544716e-07
5.06086473822615e-06   -2.20163338989243e-06   -7.965480930544716e-07
5.06086473822615e-06   -2.20163338989243e-06   -7.965480930544716e-07
5.06086473822615e-06   -2.20163338989243e-06   -7.965480930544716e-07
2.1977790414024196e-05   -1.0315196406244457e-06   -2.9693492468945315e-05
2.1977790414024196e-05   -1.0315196406244457e-06   -2.9693492468945315e-05
2.1977790414024196e-05   -1.0315196406244457e-06   -2.9693492468945315e-05
2.1977790414024196e-05   -1.0315196406244457e-06   -2.9693492468945315e-05
5.060864738226146e-06   0.0   -5.811956234458662e-05
5.060864738226146e-06   0.0   -5.811956234458662e-05
5.060864738226146e-06   0.0   -5.811956234458662e-05
5.060864738226146e-06   0.0   -5.811956234458662e-05
3.945467328914547e-05   -2.20163338989243e-06   -2.1175281269899285e-06
3.945467328914547e-05   -2.20163338989243e-06   -2.1175281269899285e-06
3.945467328914547e-05   -2.20163338989243e-06   -2.1175281269899285e-06
3.945467328914547e-05   -2.20163338989243e-06   -2.1175281269899285e-06
4.021678334215402e-05   0.0   -5.713483452679697e-05
4.021678334215402e-05   0.0   -5.713483452679697e-05
4.021678334215402e-05   0.0   -5.713483452679697e-05
4.021678334215402e-05   0.0   -5.713483452679697e-05
5.814770956451896e-06   -4.591973279514407e-07   4.773711794774102e-07
5.814770956451896e-06   -4.591973279514407e-07   4.773711794774102e-07
5.814770956451896e-06   -4.591973279514407e-07   4.773711794774102e-07
5.814770956451896e-06   -4.591973279514407e-07   4.773711794774102e-07
2.2638824040190063e-05   8.206065148247415e-07   -2.8330599599085224e-05
2.2638824040190063e-05   8.206065148247415e-07   -2.8330599599085224e-05
2.2638824040190063e-05   8.206065148247415e-07   -2.8330599599085224e-05
2.2638824040190063e-05   8.206065148247415e-07   -2.8330599599085224e-05
3.9558561258951746e-05   0.0   -5.998191056699325e-05
3.9558561258951746e-05   0.0   -5.998191056699325e-05
3.9558561258951746e-05   0.0   -5.998191056699325e-05
3.9558561258951746e-05   0.0   -5.998191056699325e-05
8.929627765712573e-05   -1.1760259147572294e-05   1.5858127941420502e-05
8.929627765712573e-05   -1.1760259147572294e-05   1.5858127941420502e-05
8.929627765712573e-05   -1.1760259147572294e-05   1.5858127941420502e-05
8.929627765712573e-05   -1.1760259147572294e-05   1.5858127941420502e-05
8.386046499694918e-05   0.0   -6.630607853841518e-05
8.386046499694918e-05   0.0   -6.630607853841518e-05
8.386046499694918e-05   0.0   -6.630607853841518e-05
8.386046499694918e-05   0.0   -6.630607853841518e-05
3.962647778344956e-05   -1.0007390116546978e-05   1.3421667554012386e-05
3.962647778344956e-05   -1.0007390116546978e-05   1.3421667554012386e-05
3.962647778344956e-05   -1.0007390116546978e-05   1.3421667554012386e-05
3.962647778344956e-05   -1.0007390116546978e-05   1.3421667554012386e-05
6.170951312795046e-05   -5.270139976184935e-06   -2.622574143770633e-05
6.170951312795046e-05   -5.270139976184935e-06   -2.622574143770633e-05
6.170951312795046e-05   -5.270139976184935e-06   -2.622574143770633e-05
6.170951312795046e-05   -5.270139976184935e-06   -2.622574143770633e-05
3.9626477783449526e-05   0.0   -6.0301644468486936e-05
3.9626477783449526e-05   0.0   -6.0301644468486936e-05
3.9626477783449526e-05   0.0   -6.0301644468486936e-05
3.9626477783449526e-05   0.0   -6.0301644468486936e-05
8.386046499694889e-05   -1.000739011654695e-05   7.417233484084131e-06
8.386046499694889e-05   -1.000739011654695e-05   7.417233484084131e-06
8.386046499694889e-05   -1.000739011654695e-05   7.417233484084131e-06
8.386046499694889e-05   -1.000739011654695e-05   7.417233484084131e-06
8.13528503823695e-05   0.0   -6.492751596792883e-05
8.13528503823695e-05   0.0   -6.492751596792883e-05
8.13528503823695e-05   0.0   -6.492751596792883e-05
8.13528503823695e-05   0.0   -6.492751596792883e-05
3.945467328914547e-05   -9.14495598234452e-06   1.0389752776851255e-05
3.945467328914547e-05   -9.14495598234452e-06   1.0389752776851255e-05
3.945467328914547e-05   -9.14495598234452e-06   1.0389752776851255e-05
3.945467328914547e-05   -9.14495598234452e-06   1.0389752776851255e-05
6.0489664082909495e-05   -3.854892916201543e-06   -2.7842603052441245e-05
6.0489664082909495e-05   -3.854892916201543e-06   -2.7842603052441245e-05
6.0489664082909495e-05   -3.854892916201543e-06   -2.7842603052441245e-05
6.0489664082909495e-05   -3.854892916201543e-06   -2.7842603052441245e-05
3.945467328914547e-05   0.0   -5.944054237852212e-05
3.945467328914547e-05   0.0   -5.944054237852212e-05
3.945467328914547e-05   0.0   -5.944054237852212e-05
3.945467328914547e-05   0.0   -5.944054237852212e-05
8.135285038236922e-05   -9.144955982344494e-06   4.9027791874445075e-06
8.135285038236922e-05   -9.144955982344494e-06   4.9027791874445075e-06
8.135285038236922e-05   -9.144955982344494e-06   4.9027791874445075e-06
8.135285038236922e-05   -9.144955982344494e-06   4.9027791874445075e-06
7.762117838159149e-05   0.0   -6.140034601264898e-05
7.762117838159149e-05   0.0   -6.140034601264898e-05
7.762117838159149e-05   0.0   -6.140034601264898e-05
7.762117838159149e-05   0.0   -6.140034601264898e-05
4.021678334215402e-05   -7.109185809753532e-06   5.205823872265699e-06
4.021678334215402e-05   -7.109185809753532e-06   5.205823872265699e-06
4.021678334215402e-05   -7.109185809753532e-06   5.205823872265699e-06
4.021678334215402e-05   -7.109185809753532e-06   5.205823872265699e-06
5.853792583536855e-05   -1.6331696951058094e-06   -2.8615023285213787e-05
5.853792583536855e-05   -1.6331696951058094e-06   -2.8615023285213787e-05
5.853792583536855e-05   -1.6331696951058094e-06   -2.8615023285213787e-05
5.853792583536855e-05   -1.6331696951058094e-06   -2.8615023285213787e-05
-8.732498610903706e-05   1.1150327294092327e-05   -5.72852307540825e-05
-8.732498610903706e-05   1.1150327294092327e-05   -5.72852307540825e-05
-8.732498610903706e-05   1.1150327294092327e-05   -5.72852307540825e-05
-8.732498610903706e-05   1.1150327294092327e-05   -5.72852307540825e-05
-5.592981583851869e-05   1.0028055668602953e-05   -5.633309945178848e-06
-5.592981583851869e-05   1.0028055668602953e-05   -5.633309945178848e-06
-5.592981583851869e-05   1.0028055668602953e-05   -5.633309945178848e-06
-5.592981583851869e-05   1.0028055668602953e-05   -5.633309945178848e-06
-5.733802157193864e-05   1.3379890609270558e-05   -4.81093259937273e-05
-5.733802157193864e-05   1.3379890609270558e-05   -4.81093259937273e-05
-5.733802157193864e-05   1.3379890609270558e-05   -4.81093259937273e-05
-5.733802157193864e-05   1.3379890609270558e-05   -4.81093259937273e-05
-8.827235720686024e-05   1.2035256989492487e-05   4.2546802363423826e-06
-8.827235720686024e-05   1.2035256989492487e-05   4.2546802363423826e-06
-8.827235720686024e-05   1.2035256989492487e-05   4.2546802363423826e-06
-8.827235720686024e-05   1.2035256989492487e-05   4.2546802363423826e-06
-6.935606293817552e-05   1.1646582634442838e-05   -2.7039272265102848e-05
-6.935606293817552e-05   1.1646582634442838e-05   -2.7039272265102848e-05
-6.935606293817552e-05   1.1646582634442838e-05   -2.7039272265102848e-05
-6.935606293817552e-05   1.1646582634442838e-05   -2.7039272265102848e-05
-8.827235720686024e-05   1.3379890609270558e-05   -4.7302545821860435e-05
-8.827235720686024e-05   1.3379890609270558e-05   -4.7302545821860435e-05
-8.827235720686024e-05   1.3379890609270558e-05   -4.7302545821860435e-05
-8.827235720686024e-05   1.3379890609270558e-05   -4.7302545821860435e-05
-5.733802157193884e-05   1.2035256989492487e-05   3.447900064475543e-06
-5.733802157193884e-05   1.2035256989492487e-05   3.447900064475543e-06
-5.733802157193884e-05   1.2035256989492487e-05   3.447900064475543e-06
-5.733802157193884e-05   1.2035256989492487e-05   3.447900064475543e-06
-5.763408526893094e-05   1.4334244199163795e-05   -4.325226655997892e-05
-5.763408526893094e-05   1.4334244199163795e-05   -4.325226655997892e-05
-5.763408526893094e-05   1.4334244199163795e-05   -4.325226655997892e-05
-5.763408526893094e-05   1.4334244199163795e-05   -4.325226655997892e-05
-8.889537337015762e-05   1.294113535387978e-05   9.685745582569045e-06
-8.889537337015762e-05   1.294113535387978e-05   9.685745582569045e-06
-8.889537337015762e-05   1.294113535387978e-05   9.685745582569045e-06
-8.889537337015762e-05   1.294113535387978e-05   9.685745582569045e-06
-7.139672849426854e-05   1.2908709167931958e-05   -1.9459206832343832e-05
-7.139672849426854e-05   1.2908709167931958e-05   -1.9459206832343832e-05
-7.139672849426854e-05   1.2908709167931958e-05   -1.9459206832343832e-05
-7.139672849426854e-05   1.2908709167931958e-05   -1.9459206832343832e-05
-8.889537337015749e-05   1.4334244199163795e-05   -4.241640125280848e-05
-8.889537337015749e-05   1.4334244199163795e-05   -4.241640125280848e-05
-8.889537337015749e-05   1.4334244199163795e-05   -4.241640125280848e-05
-8.889537337015749e-05   1.4334244199163795e-05   -4.241640125280848e-05
-5.763408526893103e-05   1.294113535387978e-05   8.84988027539859e-06
-5.763408526893103e-05   1.294113535387978e-05   8.84988027539859e-06
-5.763408526893103e-05   1.294113535387978e-05   8.84988027539859e-06
-5.763408526893103e-05   1.294113535387978e-05   8.84988027539859e-06
-5.730784574370296e-05   1.632873015299206e-05   -3.1955997380672316e-05
-5.730784574370296e-05   1.632873015299206e-05   -3.1955997380672316e-05
-5.730784574370296e-05   1.632873015299206e-05   -3.1955997380672316e-05
-5.730784574370296e-05   1.632873015299206e-05   -3.1955997380672316e-05
-8.643291993210288e-05   1.3661093701862123e-05   1.818637480400522e-05
-8.643291993210288e-05   1.3661093701862123e-05   1.818637480400522e-05
-8.643291993210288e-05   1.3661093701862123e-05   1.818637480400522e-05
-8.643291993210288e-05   1.3661093701862123e-05   1.818637480400522e-05
-6.95412470825011e-05   1.4158594640554687e-05   -1.0264913841879835e-05
-6.95412470825011e-05   1.4158594640554687e-05   -1.0264913841879835e-05
-6.95412470825011e-05   1.4158594640554687e-05   -1.0264913841879835e-05
-6.95412470825011e-05   1.4158594640554687e-05   -1.0264913841879835e-05
-5.592981583851869e-05   4.089934337523374e-06   -6.082697432606955e-05
-5.592981583851869e-05   4.089934337523374e-06   -6.082697432606955e-05
-5.592981583851869e-05   4.089934337523374e-06   -6.082697432606955e-05
-5.592981583851869e-05   4.089934337523374e-06   -6.082697432606955e-05
-2.6500709736981524e-05   4.666184983907436e-06   -1.1432713769010417e-05
-2.6500709736981524e-05   4.666184983907436e-06   -1.1432713769010417e-05
-2.6500709736981524e-05   4.666184983907436e-06   -1.1432713769010417e-05
-2.6500709736981524e-05   4.666184983907436e-06   -1.1432713769010417e-05
-2.7134914587116952e-05   5.822060736336749e-06   -6.0735484894284414e-05
-2.7134914587116952e-05   5.822060736336749e-06   -6.0735484894284414e-05
-2.7134914587116952e-05   5.822060736336749e-06   -6.0735484894284414e-05
-2.7134914587116952e-05   5.822060736336749e-06   -6.0735484894284414e-05
-5.733802157193864e-05   6.5119531721498304e-06   -1.0810908714402621e-05
-5.733802157193864e-05   6.5119531721498304e-06   -1.0810908714402621e-05
-5.733802157193864e-05   6.5119531721498304e-06   -1.0810908714402621e-05
-5.733802157193864e-05   6.5119531721498304e-06   -1.0810908714402621e-05
-4.1608438440110896e-05   5.243553250342664e-06   -3.626584064769824e-05
-4.1608438440110896e-05   5.243553250342664e-06   -3.626584064769824e-05
-4.1608438440110896e-05   5.243553250342664e-06   -3.626584064769824e-05
-4.1608438440110896e-05   5.243553250342664e-06   -3.626584064769824e-05
-5.73380215719386e-05   5.822060736336749e-06   -6.114942035577216e-05
-5.73380215719386e-05   5.822060736336749e-06   -6.114942035577216e-05
-5.73380215719386e-05   5.822060736336749e-06   -6.114942035577216e-05
-5.73380215719386e-05   5.822060736336749e-06   -6.114942035577216e-05
-2.7134914587117e-05   6.511953172149885e-06   -1.039697325291479e-05
-2.7134914587117e-05   6.511953172149885e-06   -1.039697325291479e-05
-2.7134914587117e-05   6.511953172149885e-06   -1.039697325291479e-05
-2.7134914587117e-05   6.511953172149885e-06   -1.039697325291479e-05
-2.7335316248527452e-05   7.1336821327724415e-06   -5.95988524100439e-05
-2.7335316248527452e-05   7.1336821327724415e-06   -5.95988524100439e-05
-2.7335316248527452e-05   7.1336821327724415e-06   -5.95988524100439e-05
-2.7335316248527452e-05   7.1336821327724415e-06   -5.95988524100439e-05
-5.763408526893094e-05   8.039661354547836e-06   -9.644491575770057e-06
-5.763408526893094e-05   8.039661354547836e-06   -9.644491575770057e-06
-5.763408526893094e-05   8.039661354547836e-06   -9.644491575770057e-06
-5.763408526893094e-05   8.039661354547836e-06   -9.644491575770057e-06
-4.193519987293149e-05   6.654819619046089e-06   -3.497839552780127e-05
-4.193519987293149e-05   6.654819619046089e-06   -3.497839552780127e-05
-4.193519987293149e-05   6.654819619046089e-06   -3.497839552780127e-05
-4.193519987293149e-05   6.654819619046089e-06   -3.497839552780127e-05
-5.763408526893094e-05   7.1336821327724415e-06   -6.014243994310913e-05
-5.763408526893094e-05   7.1336821327724415e-06   -6.014243994310913e-05
-5.763408526893094e-05   7.1336821327724415e-06   -6.014243994310913e-05
-5.763408526893094e-05   7.1336821327724415e-06   -6.014243994310913e-05
-2.7335316248527547e-05   8.039661354547782e-06   -9.10090404270487e-06
-2.7335316248527547e-05   8.039661354547782e-06   -9.10090404270487e-06
-2.7335316248527547e-05   8.039661354547782e-06   -9.10090404270487e-06
-2.7335316248527547e-05   8.039661354547782e-06   -9.10090404270487e-06
-2.7270181249156564e-05   8.300527944879612e-06   -5.898947838045793e-05
-2.7270181249156564e-05   8.300527944879612e-06   -5.898947838045793e-05
-2.7270181249156564e-05   8.300527944879612e-06   -5.898947838045793e-05
-2.7270181249156564e-05   8.300527944879612e-06   -5.898947838045793e-05
-5.730784574370291e-05   9.683332390792918e-06   -9.756386890428663e-06
-5.730784574370291e-05   9.683332390792918e-06   -9.756386890428663e-06
-5.730784574370291e-05   9.683332390792918e-06   -9.756386890428663e-06
-5.730784574370291e-05   9.683332390792918e-06   -9.756386890428663e-06
-4.21836678698756e-05   7.932169148901393e-06   -3.391265206833949e-05
-4.21836678698756e-05   7.932169148901393e-06   -3.391265206833949e-05
-4.21836678698756e-05   7.932169148901393e-06   -3.391265206833949e-05
-4.21836678698756e-05   7.932169148901393e-06   -3.391265206833949e-05
-2.650070973698148e-05   -5.236549873280415e-07   -6.368696929945312e-05
-2.650070973698148e-05   -5.236549873280415e-07   -6.368696929945312e-05
-2.650070973698148e-05   -5.236549873280415e-07   -6.368696929945312e-05
-2.650070973698148e-05   -5.236549873280415e-07   -6.368696929945312e-05
2.5573491567228715e-06   -1.3878206930867778e-07   -1.5025947392467549e-05
2.5573491567228715e-06   -1.3878206930867778e-07   -1.5025947392467549e-05
2.5573491567228715e-06   -1.3878206930867778e-07   -1.5025947392467549e-05
2.5573491567228715e-06   -1.3878206930867778e-07   -1.5025947392467549e-05
2.436318835630986e-06   1.0320253848297766e-06   -6.404183181571294e-05
2.436318835630986e-06   1.0320253848297766e-06   -6.404183181571294e-05
2.436318835630986e-06   1.0320253848297766e-06   -6.404183181571294e-05
2.436318835630986e-06   1.0320253848297766e-06   -6.404183181571294e-05
-2.7134914587116952e-05   1.561786046626898e-06   -1.5074299174877768e-05
-2.7134914587116952e-05   1.561786046626898e-06   -1.5074299174877768e-05
-2.7134914587116952e-05   1.561786046626898e-06   -1.5074299174877768e-05
-2.7134914587116952e-05   1.561786046626898e-06   -1.5074299174877768e-05
-1.2233806065156074e-05   5.184959198699726e-07   -3.928350596875857e-05
-1.2233806065156074e-05   5.184959198699726e-07   -3.928350596875857e-05
-1.2233806065156074e-05   5.184959198699726e-07   -3.928350596875857e-05
-1.2233806065156074e-05   5.184959198699726e-07   -3.928350596875857e-05
-2.7134914587116952e-05   1.032025384829763e-06   -6.435968821279114e-05
-2.7134914587116952e-05   1.032025384829763e-06   -6.435968821279114e-05
-2.7134914587116952e-05   1.032025384829763e-06   -6.435968821279114e-05
-2.7134914587116952e-05   1.032025384829763e-06   -6.435968821279114e-05
2.436318835630986e-06   1.561786046626898e-06   -1.4756442777799511e-05
2.436318835630986e-06   1.561786046626898e-06   -1.4756442777799511e-05
2.436318835630986e-06   1.561786046626898e-06   -1.4756442777799511e-05
2.436318835630986e-06   1.561786046626898e-06   -1.4756442777799511e-05
2.2719870463939205e-06   2.4017423262149895e-06   -6.417584279454706e-05
2.2719870463939205e-06   2.4017423262149895e-06   -6.417584279454706e-05
2.2719870463939205e-06   2.4017423262149895e-06   -6.417584279454706e-05
2.2719870463939205e-06   2.4017423262149895e-06   -6.417584279454706e-05
-2.7335316248527452e-05   3.2233341962915234e-06   -1.5323292425057397e-05
-2.7335316248527452e-05   3.2233341962915234e-06   -1.5323292425057397e-05
-2.7335316248527452e-05   3.2233341962915234e-06   -1.5323292425057397e-05
-2.7335316248527452e-05   3.2233341962915234e-06   -1.5323292425057397e-05
-1.2463717389472607e-05   1.9596817571455557e-06   -3.935109905999443e-05
-1.2463717389472607e-05   1.9596817571455557e-06   -3.935109905999443e-05
-1.2463717389472607e-05   1.9596817571455557e-06   -3.935109905999443e-05
-1.2463717389472607e-05   1.9596817571455557e-06   -3.935109905999443e-05
-2.7335316248527452e-05   2.4017423262149895e-06   -6.466879791659297e-05
-2.7335316248527452e-05   2.4017423262149895e-06   -6.466879791659297e-05
-2.7335316248527452e-05   2.4017423262149895e-06   -6.466879791659297e-05
-2.7335316248527452e-05   2.4017423262149895e-06   -6.466879791659297e-05
2.2719870463939248e-06   3.2233341962915234e-06   -1.4830337303011496e-05
2.2719870463939248e-06   3.2233341962915234e-06   -1.4830337303011496e-05
2.2719870463939248e-06   3.2233341962915234e-06   -1.4830337303011496e-05
2.2719870463939248e-06   3.2233341962915234e-06   -1.4830337303011496e-05
1.9426383424004054e-06   3.988309806553461e-06   -6.406536440568204e-05
1.9426383424004054e-06   3.988309806553461e-06   -6.406536440568204e-05
1.9426383424004054e-06   3.988309806553461e-06   -6.406536440568204e-05
1.9426383424004054e-06   3.988309806553461e-06   -6.406536440568204e-05
-2.7270181249156588e-05   4.9545448140871215e-06   -1.595707275760735e-05
-2.7270181249156588e-05   4.9545448140871215e-06   -1.595707275760735e-05
-2.7270181249156588e-05   4.9545448140871215e-06   -1.595707275760735e-05
-2.7270181249156588e-05   4.9545448140871215e-06   -1.595707275760735e-05
-1.2603578020853882e-05   3.4402180693387445e-06   -3.9492815424596085e-05
-1.2603578020853882e-05   3.4402180693387445e-06   -3.9492815424596085e-05
-1.2603578020853882e-05   3.4402180693387445e-06   -3.9492815424596085e-05
-1.2603578020853882e-05   3.4402180693387445e-06   -3.9492815424596085e-05
2.5573491567228715e-06   -4.639807544519923e-06   -5.8763311040751504e-05
2.5573491567228715e-06   -4.639807544519923e-06   -5.8763311040751504e-05
2.5573491567228715e-06   -4.639807544519923e-06   -5.8763311040751504e-05
2.5573491567228715e-06   -4.639807544519923e-06   -5.8763311040751504e-05
3.2502174088874096e-05   -4.770261890123001e-06   -8.933542094527935e-06
3.2502174088874096e-05   -4.770261890123001e-06   -8.933542094527935e-06
3.2502174088874096e-05   -4.770261890123001e-06   -8.933542094527935e-06
3.2502174088874096e-05   -4.770261890123001e-06   -8.933542094527935e-06
3.2766813972553325e-05   -3.498209431190312e-06   -5.958293807847841e-05
3.2766813972553325e-05   -3.498209431190312e-06   -5.958293807847841e-05
3.2766813972553325e-05   -3.498209431190312e-06   -5.958293807847841e-05
3.2766813972553325e-05   -3.498209431190312e-06   -5.958293807847841e-05
2.436318835630986e-06   -3.2252410716419617e-06   -9.195893866003367e-06
2.436318835630986e-06   -3.2252410716419617e-06   -9.195893866003367e-06
2.436318835630986e-06   -3.2252410716419617e-06   -9.195893866003367e-06
2.436318835630986e-06   -3.2252410716419617e-06   -9.195893866003367e-06
1.7341184414241902e-05   -3.860650045971485e-06   -3.3656091112423966e-05
1.7341184414241902e-05   -3.860650045971485e-06   -3.3656091112423966e-05
1.7341184414241902e-05   -3.860650045971485e-06   -3.3656091112423966e-05
1.7341184414241902e-05   -3.860650045971485e-06   -3.3656091112423966e-05
2.4363188356309816e-06   -3.4982094311903256e-06   -5.974671909420752e-05
2.4363188356309816e-06   -3.4982094311903256e-06   -5.974671909420752e-05
2.4363188356309816e-06   -3.4982094311903256e-06   -5.974671909420752e-05
2.4363188356309816e-06   -3.4982094311903256e-06   -5.974671909420752e-05
3.276681397255338e-05   -3.2252410716419617e-06   -9.032112850274363e-06
3.276681397255338e-05   -3.2252410716419617e-06   -9.032112850274363e-06
3.276681397255338e-05   -3.2252410716419617e-06   -9.032112850274363e-06
3.276681397255338e-05   -3.2252410716419617e-06   -9.032112850274363e-06
3.2602967487870685e-05   -2.2016333898924162e-06   -6.069888834410917e-05
3.2602967487870685e-05   -2.2016333898924162e-06   -6.069888834410917e-05
3.2602967487870685e-05   -2.2016333898924162e-06   -6.069888834410917e-05
3.2602967487870685e-05   -2.2016333898924162e-06   -6.069888834410917e-05
2.2719870463939205e-06   -1.7117459099907808e-06   -1.0441186762922282e-05
2.2719870463939205e-06   -1.7117459099907808e-06   -1.0441186762922282e-05
2.2719870463939205e-06   -1.7117459099907808e-06   -1.0441186762922282e-05
2.2719870463939205e-06   -1.7117459099907808e-06   -1.0441186762922282e-05
1.7153762314937205e-05   -2.627060099865921e-06   -3.469495702990259e-05
1.7153762314937205e-05   -2.627060099865921e-06   -3.469495702990259e-05
1.7153762314937205e-05   -2.627060099865921e-06   -3.469495702990259e-05
1.7153762314937205e-05   -2.627060099865921e-06   -3.469495702990259e-05
2.271987046393918e-06   -2.2016333898924162e-06   -6.099282083205013e-05
2.271987046393918e-06   -2.2016333898924162e-06   -6.099282083205013e-05
2.271987046393918e-06   -2.2016333898924162e-06   -6.099282083205013e-05
2.271987046393918e-06   -2.2016333898924162e-06   -6.099282083205013e-05
3.2602967487870794e-05   -1.7117459099907808e-06   -1.0147254274981316e-05
3.2602967487870794e-05   -1.7117459099907808e-06   -1.0147254274981316e-05
3.2602967487870794e-05   -1.7117459099907808e-06   -1.0147254274981316e-05
3.2602967487870794e-05   -1.7117459099907808e-06   -1.0147254274981316e-05
3.164810136051416e-05   -4.591973279514407e-07   -6.080614418270923e-05
3.164810136051416e-05   -4.591973279514407e-07   -6.080614418270923e-05
3.164810136051416e-05   -4.591973279514407e-07   -6.080614418270923e-05
3.164810136051416e-05   -4.591973279514407e-07   -6.080614418270923e-05
1.9426383424004054e-06   1.603498551653714e-07   -1.1668767462389793e-05
1.9426383424004054e-06   1.603498551653714e-07   -1.1668767462389793e-05
1.9426383424004054e-06   1.603498551653714e-07   -1.1668767462389793e-05
1.9426383424004054e-06   1.603498551653714e-07   -1.1668767462389793e-05
1.696414612084546e-05   -1.186245699447277e-06   -3.589665642703059e-05
1.696414612084546e-05   -1.186245699447277e-06   -3.589665642703059e-05
1.696414612084546e-05   -1.186245699447277e-06   -3.589665642703059e-05
1.696414612084546e-05   -1.186245699447277e-06   -3.589665642703059e-05
3.2502174088874096e-05   -1.1760259147572294e-05   -3.555766389338805e-05
3.2502174088874096e-05   -1.1760259147572294e-05   -3.555766389338805e-05
3.2502174088874096e-05   -1.1760259147572294e-05   -3.555766389338805e-05
3.2502174088874096e-05   -1.1760259147572294e-05   -3.555766389338805e-05
6.205889136144384e-05   -8.867058020845745e-06   1.5439452236930696e-05
6.205889136144384e-05   -8.867058020845745e-06   1.5439452236930696e-05
6.205889136144384e-05   -8.867058020845745e-06   1.5439452236930696e-05
6.205889136144384e-05   -8.867058020845745e-06   1.5439452236930696e-05
6.441408385189106e-05   -1.0007390116546978e-05   -4.322477657725688e-05
6.441408385189106e-05   -1.0007390116546978e-05   -4.322477657725688e-05
6.441408385189106e-05   -1.0007390116546978e-05   -4.322477657725688e-05
6.441408385189106e-05   -1.0007390116546978e-05   -4.322477657725688e-05
3.276681397255345e-05   -8.044945861602386e-06   8.34320666867253e-06
3.276681397255345e-05   -8.044945861602386e-06   8.34320666867253e-06
3.276681397255345e-05   -8.044945861602386e-06   8.34320666867253e-06
3.276681397255345e-05   -8.044945861602386e-06   8.34320666867253e-06
4.570626437804528e-05   -9.629016889902168e-06   -1.2272101390167387e-05
4.570626437804528e-05   -9.629016889902168e-06   -1.2272101390167387e-05
4.570626437804528e-05   -9.629016889902168e-06   -1.2272101390167387e-05
4.570626437804528e-05   -9.629016889902168e-06   -1.2272101390167387e-05
3.276681397255336e-05   -1.000739011654695e-05   -4.4402243130223426e-05
3.276681397255336e-05   -1.000739011654695e-05   -4.4402243130223426e-05
3.276681397255336e-05   -1.000739011654695e-05   -4.4402243130223426e-05
3.276681397255336e-05   -1.000739011654695e-05   -4.4402243130223426e-05
6.441408385189106e-05   -8.044945861602386e-06   9.520673221639301e-06
6.441408385189106e-05   -8.044945861602386e-06   9.520673221639301e-06
6.441408385189106e-05   -8.044945861602386e-06   9.520673221639301e-06
6.441408385189106e-05   -8.044945861602386e-06   9.520673221639301e-06
6.416871754746932e-05   -9.144955982344507e-06   -4.70090021433722e-05
6.416871754746932e-05   -9.144955982344507e-06   -4.70090021433722e-05
6.416871754746932e-05   -9.144955982344507e-06   -4.70090021433722e-05
6.416871754746932e-05   -9.144955982344507e-06   -4.70090021433722e-05
3.2602967487870794e-05   -7.173947154184531e-06   4.417975992395987e-06
3.2602967487870794e-05   -7.173947154184531e-06   4.417975992395987e-06
3.2602967487870794e-05   -7.173947154184531e-06   4.417975992395987e-06
3.2602967487870794e-05   -7.173947154184531e-06   4.417975992395987e-06
4.729986069987353e-05   -8.504291504464446e-06   -1.9278639417440586e-05
4.729986069987353e-05   -8.504291504464446e-06   -1.9278639417440586e-05
4.729986069987353e-05   -8.504291504464446e-06   -1.9278639417440586e-05
4.729986069987353e-05   -8.504291504464446e-06   -1.9278639417440586e-05
3.260296748787074e-05   -9.144955982344507e-06   -4.8191607440268136e-05
3.260296748787074e-05   -9.144955982344507e-06   -4.8191607440268136e-05
3.260296748787074e-05   -9.144955982344507e-06   -4.8191607440268136e-05
3.260296748787074e-05   -9.144955982344507e-06   -4.8191607440268136e-05
6.416871754746932e-05   -7.173947154184531e-06   5.600581289291957e-06
6.416871754746932e-05   -7.173947154184531e-06   5.600581289291957e-06
6.416871754746932e-05   -7.173947154184531e-06   5.600581289291957e-06
6.416871754746932e-05   -7.173947154184531e-06   5.600581289291957e-06
6.377572157766701e-05   -7.109185809753532e-06   -5.4716374620659075e-05
6.377572157766701e-05   -7.109185809753532e-06   -5.4716374620659075e-05
6.377572157766701e-05   -7.109185809753532e-06   -5.4716374620659075e-05
6.377572157766701e-05   -7.109185809753532e-06   -5.4716374620659075e-05
3.164810136051427e-05   -5.299521688934786e-06   -2.2561393978957873e-06
3.164810136051427e-05   -5.299521688934786e-06   -2.2561393978957873e-06
3.164810136051427e-05   -5.299521688934786e-06   -2.2561393978957873e-06
3.164810136051427e-05   -5.299521688934786e-06   -2.2561393978957873e-06
4.59424535058757e-05   -7.32301291611582e-06   -2.4865964903856197e-05
4.59424535058757e-05   -7.32301291611582e-06   -2.4865964903856197e-05
4.59424535058757e-05   -7.32301291611582e-06   -2.4865964903856197e-05
4.59424535058757e-05   -7.32301291611582e-06   -2.4865964903856197e-05
-6.957255501999617e-05   1.0028055668602953e-05   -4.801378607484266e-05
-6.957255501999617e-05   1.0028055668602953e-05   -4.801378607484266e-05
-6.957255501999617e-05   1.0028055668602953e-05   -4.801378607484266e-05
-6.957255501999617e-05   1.0028055668602953e-05   -4.801378607484266e-05
-4.560868121606751e-05   7.663326988746394e-06   -9.492833609542068e-06
-4.560868121606751e-05   7.663326988746394e-06   -9.492833609542068e-06
-4.560868121606751e-05   7.663326988746394e-06   -9.492833609542068e-06
-4.560868121606751e-05   7.663326988746394e-06   -9.492833609542068e-06
-4.5829964119081646e-05   1.2035256989492487e-05   -3.9865509207329445e-05
-4.5829964119081646e-05   1.2035256989492487e-05   -3.9865509207329445e-05
-4.5829964119081646e-05   1.2035256989492487e-05   -3.9865509207329445e-05
-4.5829964119081646e-05   1.2035256989492487e-05   -3.9865509207329445e-05
-6.852066864654915e-05   9.26995263466528e-06   -3.884857153206491e-07
-6.852066864654915e-05   9.26995263466528e-06   -3.884857153206491e-07
-6.852066864654915e-05   9.26995263466528e-06   -3.884857153206491e-07
-6.852066864654915e-05   9.26995263466528e-06   -3.884857153206491e-07
-5.4956235985024945e-05   1.0196821539436274e-05   -2.355199482739046e-05
-5.4956235985024945e-05   1.0196821539436274e-05   -2.355199482739046e-05
-5.4956235985024945e-05   1.0196821539436274e-05   -2.355199482739046e-05
-5.4956235985024945e-05   1.0196821539436274e-05   -2.355199482739046e-05
-6.852066864654915e-05   1.2035256989492487e-05   -3.820632659443313e-05
-6.852066864654915e-05   1.2035256989492487e-05   -3.820632659443313e-05
-6.852066864654915e-05   1.2035256989492487e-05   -3.820632659443313e-05
-6.852066864654915e-05   1.2035256989492487e-05   -3.820632659443313e-05
-4.5829964119081646e-05   9.269952634665389e-06   -2.047668328216773e-06
-4.5829964119081646e-05   9.269952634665389e-06   -2.047668328216773e-06
-4.5829964119081646e-05   9.269952634665389e-06   -2.047668328216773e-06
-4.5829964119081646e-05   9.269952634665389e-06   -2.047668328216773e-06
-4.578438040646584e-05   1.294113535387978e-05   -3.410509023492618e-05
-4.578438040646584e-05   1.294113535387978e-05   -3.410509023492618e-05
-4.578438040646584e-05   1.294113535387978e-05   -3.410509023492618e-05
-4.578438040646584e-05   1.294113535387978e-05   -3.410509023492618e-05
-6.749492512308751e-05   9.975757859122854e-06   3.858377456297313e-06
-6.749492512308751e-05   9.975757859122854e-06   3.858377456297313e-06
-6.749492512308751e-05   9.975757859122854e-06   3.858377456297313e-06
-6.749492512308751e-05   9.975757859122854e-06   3.858377456297313e-06
-5.543255554972786e-05   1.1128201535776571e-05   -1.6937038038627116e-05
-5.543255554972786e-05   1.1128201535776571e-05   -1.6937038038627116e-05
-5.543255554972786e-05   1.1128201535776571e-05   -1.6937038038627116e-05
-5.543255554972786e-05   1.1128201535776571e-05   -1.6937038038627116e-05
-6.749492512308751e-05   1.294113535387978e-05   -3.232586373807202e-05
-6.749492512308751e-05   1.294113535387978e-05   -3.232586373807202e-05
-6.749492512308751e-05   1.294113535387978e-05   -3.232586373807202e-05
-6.749492512308751e-05   1.294113535387978e-05   -3.232586373807202e-05
-4.5784380406465924e-05   9.975757859122963e-06   2.0791509594434235e-06
-4.5784380406465924e-05   9.975757859122963e-06   2.0791509594434235e-06
-4.5784380406465924e-05   9.975757859122963e-06   2.0791509594434235e-06
-4.5784380406465924e-05   9.975757859122963e-06   2.0791509594434235e-06
-4.5831665550790534e-05   1.3661093701862123e-05   -2.603795588434078e-05
-4.5831665550790534e-05   1.3661093701862123e-05   -2.603795588434078e-05
-4.5831665550790534e-05   1.3661093701862123e-05   -2.603795588434078e-05
-4.5831665550790534e-05   1.3661093701862123e-05   -2.603795588434078e-05
-6.615489951096798e-05   1.0670227518785012e-05   9.628620425800873e-06
-6.615489951096798e-05   1.0670227518785012e-05   9.628620425800873e-06
-6.615489951096798e-05   1.0670227518785012e-05   9.628620425800873e-06
-6.615489951096798e-05   1.0670227518785012e-05   9.628620425800873e-06
-5.417103981892316e-05   1.1618105744825463e-05   -1.0913205996563972e-05
-5.417103981892316e-05   1.1618105744825463e-05   -1.0913205996563972e-05
-5.417103981892316e-05   1.1618105744825463e-05   -1.0913205996563972e-05
-5.417103981892316e-05   1.1618105744825463e-05   -1.0913205996563972e-05
-4.560868121606751e-05   4.666184983907382e-06   -5.5577777494418605e-05
-4.560868121606751e-05   4.666184983907382e-06   -5.5577777494418605e-05
-4.560868121606751e-05   4.666184983907382e-06   -5.5577777494418605e-05
-4.560868121606751e-05   4.666184983907382e-06   -5.5577777494418605e-05
-2.321048142737142e-05   3.820840633134148e-06   -1.8754651123722434e-05
-2.321048142737142e-05   3.820840633134148e-06   -1.8754651123722434e-05
-2.321048142737142e-05   3.820840633134148e-06   -1.8754651123722434e-05
-2.321048142737142e-05   3.820840633134148e-06   -1.8754651123722434e-05
-2.3493102534941326e-05   6.5119531721498304e-06   -5.4790965521237433e-05
-2.3493102534941326e-05   6.5119531721498304e-06   -5.4790965521237433e-05
-2.3493102534941326e-05   6.5119531721498304e-06   -5.4790965521237433e-05
-2.3493102534941326e-05   6.5119531721498304e-06   -5.4790965521237433e-05
-4.5829964119081565e-05   5.400873947100041e-06   -1.6896215345973715e-05
-4.5829964119081565e-05   5.400873947100041e-06   -1.6896215345973715e-05
-4.5829964119081565e-05   5.400873947100041e-06   -1.6896215345973715e-05
-4.5829964119081565e-05   5.400873947100041e-06   -1.6896215345973715e-05
-3.423996466115518e-05   5.3810590158206e-06   -3.620099215041682e-05
-3.423996466115518e-05   5.3810590158206e-06   -3.620099215041682e-05
-3.423996466115518e-05   5.3810590158206e-06   -3.620099215041682e-05
-3.423996466115518e-05   5.3810590158206e-06   -3.620099215041682e-05
-4.582996411908162e-05   6.5119531721498304e-06   -5.4124317986207446e-05
-4.582996411908162e-05   6.5119531721498304e-06   -5.4124317986207446e-05
-4.582996411908162e-05   6.5119531721498304e-06   -5.4124317986207446e-05
-4.582996411908162e-05   6.5119531721498304e-06   -5.4124317986207446e-05
-2.349310253494138e-05   5.400873947100041e-06   -1.7562862881003512e-05
-2.349310253494138e-05   5.400873947100041e-06   -1.7562862881003512e-05
-2.349310253494138e-05   5.400873947100041e-06   -1.7562862881003512e-05
-2.349310253494138e-05   5.400873947100041e-06   -1.7562862881003512e-05
-2.3676622441328895e-05   8.039661354547836e-06   -5.3340555729594586e-05
-2.3676622441328895e-05   8.039661354547836e-06   -5.3340555729594586e-05
-2.3676622441328895e-05   8.039661354547836e-06   -5.3340555729594586e-05
-2.3676622441328895e-05   8.039661354547836e-06   -5.3340555729594586e-05
-4.578438040646584e-05   6.8045052820479845e-06   -1.5753198810866773e-05
-4.578438040646584e-05   6.8045052820479845e-06   -1.5753198810866773e-05
-4.578438040646584e-05   6.8045052820479845e-06   -1.5753198810866773e-05
-4.578438040646584e-05   6.8045052820479845e-06   -1.5753198810866773e-05
-3.430399322511275e-05   6.6808867686028945e-06   -3.481300633838757e-05
-3.430399322511275e-05   6.6808867686028945e-06   -3.481300633838757e-05
-3.430399322511275e-05   6.6808867686028945e-06   -3.481300633838757e-05
-3.430399322511275e-05   6.6808867686028945e-06   -3.481300633838757e-05
-4.578438040646584e-05   8.039661354547836e-06   -5.259946208609477e-05
-4.578438040646584e-05   8.039661354547836e-06   -5.259946208609477e-05
-4.578438040646584e-05   8.039661354547836e-06   -5.259946208609477e-05
-4.578438040646584e-05   8.039661354547836e-06   -5.259946208609477e-05
-2.367662244132899e-05   6.804505282048093e-06   -1.649429245436637e-05
-2.367662244132899e-05   6.804505282048093e-06   -1.649429245436637e-05
-2.367662244132899e-05   6.804505282048093e-06   -1.649429245436637e-05
-2.367662244132899e-05   6.804505282048093e-06   -1.649429245436637e-05
-2.3913830702707312e-05   9.683332390792972e-06   -5.321162512418061e-05
-2.3913830702707312e-05   9.683332390792972e-06   -5.321162512418061e-05
-2.3913830702707312e-05   9.683332390792972e-06   -5.321162512418061e-05
-2.3913830702707312e-05   9.683332390792972e-06   -5.321162512418061e-05
-4.5831665550790466e-05   8.297516697319796e-06   -1.585041096129145e-05
-4.5831665550790466e-05   8.297516697319796e-06   -1.585041096129145e-05
-4.5831665550790466e-05   8.297516697319796e-06   -1.585041096129145e-05
-4.5831665550790466e-05   8.297516697319796e-06   -1.585041096129145e-05
-3.4711192428346884e-05   7.968268990266709e-06   -3.41869842077985e-05
-3.4711192428346884e-05   7.968268990266709e-06   -3.41869842077985e-05
-3.4711192428346884e-05   7.968268990266709e-06   -3.41869842077985e-05
-3.4711192428346884e-05   7.968268990266709e-06   -3.41869842077985e-05
-2.321048142737138e-05   -1.3878206930867778e-07   -5.9909141479151364e-05
-2.321048142737138e-05   -1.3878206930867778e-07   -5.9909141479151364e-05
-2.321048142737138e-05   -1.3878206930867778e-07   -5.9909141479151364e-05
-2.321048142737138e-05   -1.3878206930867778e-07   -5.9909141479151364e-05
-1.0636091957088394e-06   2.0335722828400665e-07   -2.279240418115821e-05
-1.0636091957088394e-06   2.0335722828400665e-07   -2.279240418115821e-05
-1.0636091957088394e-06   2.0335722828400665e-07   -2.279240418115821e-05
-1.0636091957088394e-06   2.0335722828400665e-07   -2.279240418115821e-05
-1.290465066942347e-06   1.561786046626898e-06   -5.9350212828031355e-05
-1.290465066942347e-06   1.561786046626898e-06   -5.9350212828031355e-05
-1.290465066942347e-06   1.561786046626898e-06   -5.9350212828031355e-05
-1.290465066942347e-06   1.561786046626898e-06   -5.9350212828031355e-05
-2.3493102534941326e-05   1.7585837385753053e-06   -2.2463895663202152e-05
-2.3493102534941326e-05   1.7585837385753053e-06   -2.2463895663202152e-05
-2.3493102534941326e-05   1.7585837385753053e-06   -2.2463895663202152e-05
-2.3493102534941326e-05   1.7585837385753053e-06   -2.2463895663202152e-05
-1.2195496597115898e-05   1.0245629478119241e-06   -4.085282641845321e-05
-1.2195496597115898e-05   1.0245629478119241e-06   -4.085282641845321e-05
-1.2195496597115898e-05   1.0245629478119241e-06   -4.085282641845321e-05
-1.2195496597115898e-05   1.0245629478119241e-06   -4.085282641845321e-05
-2.3493102534941326e-05   1.561786046626898e-06   -5.946829144320046e-05
-2.3493102534941326e-05   1.561786046626898e-06   -5.946829144320046e-05
-2.3493102534941326e-05   1.561786046626898e-06   -5.946829144320046e-05
-2.3493102534941326e-05   1.561786046626898e-06   -5.946829144320046e-05
-1.2904650669423486e-06   1.7585837385753053e-06   -2.2345817048032994e-05
-1.2904650669423486e-06   1.7585837385753053e-06   -2.2345817048032994e-05
-1.2904650669423486e-06   1.7585837385753053e-06   -2.2345817048032994e-05
-1.2904650669423486e-06   1.7585837385753053e-06   -2.2345817048032994e-05
-1.454635714152185e-06   3.2233341962915234e-06   -5.951144473554195e-05
-1.454635714152185e-06   3.2233341962915234e-06   -5.951144473554195e-05
-1.454635714152185e-06   3.2233341962915234e-06   -5.951144473554195e-05
-1.454635714152185e-06   3.2233341962915234e-06   -5.951144473554195e-05
-2.3676622441328936e-05   3.3091664903002298e-06   -2.2526299566652796e-05
-2.3676622441328936e-05   3.3091664903002298e-06   -2.2526299566652796e-05
-2.3676622441328936e-05   3.3091664903002298e-06   -2.2526299566652796e-05
-2.3676622441328936e-05   3.3091664903002298e-06   -2.2526299566652796e-05
-1.2488087807571128e-05   2.3960953862425197e-06   -4.0626014627147516e-05
-1.2488087807571128e-05   2.3960953862425197e-06   -4.0626014627147516e-05
-1.2488087807571128e-05   2.3960953862425197e-06   -4.0626014627147516e-05
-1.2488087807571128e-05   2.3960953862425197e-06   -4.0626014627147516e-05
-2.3676622441328936e-05   3.2233341962915234e-06   -5.956294411194724e-05
-2.3676622441328936e-05   3.2233341962915234e-06   -5.956294411194724e-05
-2.3676622441328936e-05   3.2233341962915234e-06   -5.956294411194724e-05
-2.3676622441328936e-05   3.2233341962915234e-06   -5.956294411194724e-05
-1.4546357141521874e-06   3.3091664903002298e-06   -2.2474800190247344e-05
-1.4546357141521874e-06   3.3091664903002298e-06   -2.2474800190247344e-05
-1.4546357141521874e-06   3.3091664903002298e-06   -2.2474800190247344e-05
-1.4546357141521874e-06   3.3091664903002298e-06   -2.2474800190247344e-05
-1.7121746819539965e-06   4.9545448140871215e-06   -6.0277237709918175e-05
-1.7121746819539965e-06   4.9545448140871215e-06   -6.0277237709918175e-05
-1.7121746819539965e-06   4.9545448140871215e-06   -6.0277237709918175e-05
-1.7121746819539965e-06   4.9545448140871215e-06   -6.0277237709918175e-05
-2.391383070270729e-05   4.89580472906885e-06   -2.323923362431858e-05
-2.391383070270729e-05   4.89580472906885e-06   -2.323923362431858e-05
-2.391383070270729e-05   4.89580472906885e-06   -2.323923362431858e-05
-2.391383070270729e-05   4.89580472906885e-06   -2.323923362431858e-05
-1.2798879481114016e-05   3.7839196165263627e-06   -4.109702125944825e-05
-1.2798879481114016e-05   3.7839196165263627e-06   -4.109702125944825e-05
-1.2798879481114016e-05   3.7839196165263627e-06   -4.109702125944825e-05
-1.2798879481114016e-05   3.7839196165263627e-06   -4.109702125944825e-05
-1.063609195708841e-06   -4.770261890123001e-06   -5.353317999529423e-05
-1.063609195708841e-06   -4.770261890123001e-06   -5.353317999529423e-05
-1.063609195708841e-06   -4.770261890123001e-06   -5.353317999529423e-05
-1.063609195708841e-06   -4.770261890123001e-06   -5.353317999529423e-05
2.0972370589496145e-05   -3.1991122015339333e-06   -1.586385720679927e-05
2.0972370589496145e-05   -3.1991122015339333e-06   -1.586385720679927e-05
2.0972370589496145e-05   -3.1991122015339333e-06   -1.586385720679927e-05
2.0972370589496145e-05   -3.1991122015339333e-06   -1.586385720679927e-05
2.095556956137531e-05   -3.2252410716419617e-06   -5.291871564963531e-05
2.095556956137531e-05   -3.2252410716419617e-06   -5.291871564963531e-05
2.095556956137531e-05   -3.2252410716419617e-06   -5.291871564963531e-05
2.095556956137531e-05   -3.2252410716419617e-06   -5.291871564963531e-05
-1.2904650669423486e-06   -1.7736606273084437e-06   -1.6712939535705914e-05
-1.2904650669423486e-06   -1.7736606273084437e-06   -1.6712939535705914e-05
-1.2904650669423486e-06   -1.7736606273084437e-06   -1.6712939535705914e-05
-1.2904650669423486e-06   -1.7736606273084437e-06   -1.6712939535705914e-05
9.817918134822585e-06   -3.1299699483592507e-06   -3.441312594601701e-05
9.817918134822585e-06   -3.1299699483592507e-06   -3.441312594601701e-05
9.817918134822585e-06   -3.1299699483592507e-06   -3.441312594601701e-05
9.817918134822585e-06   -3.1299699483592507e-06   -3.441312594601701e-05
-1.2904650669423486e-06   -3.2252410716419617e-06   -5.3789663916235325e-05
-1.2904650669423486e-06   -3.2252410716419617e-06   -5.3789663916235325e-05
-1.2904650669423486e-06   -3.2252410716419617e-06   -5.3789663916235325e-05
-1.2904650669423486e-06   -3.2252410716419617e-06   -5.3789663916235325e-05
2.095556956137531e-05   -1.7736606273084437e-06   -1.5841991269105753e-05
2.095556956137531e-05   -1.7736606273084437e-06   -1.5841991269105753e-05
2.095556956137531e-05   -1.7736606273084437e-06   -1.5841991269105753e-05
2.095556956137531e-05   -1.7736606273084437e-06   -1.5841991269105753e-05
2.1053668194729477e-05   -1.711745909990835e-06   -5.431897411765579e-05
2.1053668194729477e-05   -1.711745909990835e-06   -5.431897411765579e-05
2.1053668194729477e-05   -1.711745909990835e-06   -5.431897411765579e-05
2.1053668194729477e-05   -1.711745909990835e-06   -5.431897411765579e-05
-1.45463571415219e-06   -3.72879113662186e-07   -1.7608454347317037e-05
-1.45463571415219e-06   -3.72879113662186e-07   -1.7608454347317037e-05
-1.45463571415219e-06   -3.72879113662186e-07   -1.7608454347317037e-05
-1.45463571415219e-06   -3.72879113662186e-07   -1.7608454347317037e-05
9.515963369357091e-06   -1.8939236738429685e-06   -3.498015941705706e-05
9.515963369357091e-06   -1.8939236738429685e-06   -3.498015941705706e-05
9.515963369357091e-06   -1.8939236738429685e-06   -3.498015941705706e-05
9.515963369357091e-06   -1.8939236738429685e-06   -3.498015941705706e-05
-1.4546357141521857e-06   -1.7117459099907808e-06   -5.51222941954527e-05
-1.4546357141521857e-06   -1.7117459099907808e-06   -5.51222941954527e-05
-1.4546357141521857e-06   -1.7117459099907808e-06   -5.51222941954527e-05
-1.4546357141521857e-06   -1.7117459099907808e-06   -5.51222941954527e-05
2.1053668194729477e-05   -3.72879113662186e-07   -1.6805134269519547e-05
2.1053668194729477e-05   -3.72879113662186e-07   -1.6805134269519547e-05
2.1053668194729477e-05   -3.72879113662186e-07   -1.6805134269519547e-05
2.1053668194729477e-05   -3.72879113662186e-07   -1.6805134269519547e-05
2.0891224356045163e-05   1.603498551653714e-07   -5.590585380525507e-05
2.0891224356045163e-05   1.603498551653714e-07   -5.590585380525507e-05
2.0891224356045163e-05   1.603498551653714e-07   -5.590585380525507e-05
2.0891224356045163e-05   1.603498551653714e-07   -5.590585380525507e-05
-1.712174681953999e-06   1.2650492117752482e-06   -1.889634168922252e-05
-1.712174681953999e-06   1.2650492117752482e-06   -1.889634168922252e-05
-1.712174681953999e-06   1.2650492117752482e-06   -1.889634168922252e-05
-1.712174681953999e-06   1.2650492117752482e-06   -1.889634168922252e-05
9.409637526656337e-06   -5.712843847750521e-07   -3.633089521230932e-05
9.409637526656337e-06   -5.712843847750521e-07   -3.633089521230932e-05
9.409637526656337e-06   -5.712843847750521e-07   -3.633089521230932e-05
9.409637526656337e-06   -5.712843847750521e-07   -3.633089521230932e-05
2.0972370589496104e-05   -8.867058020845745e-06   -2.9953416526718108e-05
2.0972370589496104e-05   -8.867058020845745e-06   -2.9953416526718108e-05
2.0972370589496104e-05   -8.867058020845745e-06   -2.9953416526718108e-05
2.0972370589496104e-05   -8.867058020845745e-06   -2.9953416526718108e-05
4.160938303184088e-05   -5.802786453508609e-06   6.280167150925697e-06
4.160938303184088e-05   -5.802786453508609e-06   6.280167150925697e-06
4.160938303184088e-05   -5.802786453508609e-06   6.280167150925697e-06
4.160938303184088e-05   -5.802786453508609e-06   6.280167150925697e-06
4.301035302191897e-05   -8.044945861602332e-06   -3.370534024290433e-05
4.301035302191897e-05   -8.044945861602332e-06   -3.370534024290433e-05
4.301035302191897e-05   -8.044945861602332e-06   -3.370534024290433e-05
4.301035302191897e-05   -8.044945861602332e-06   -3.370534024290433e-05
2.095556956137527e-05   -4.981519381962391e-06   1.2145763035512189e-06
2.095556956137527e-05   -4.981519381962391e-06   1.2145763035512189e-06
2.095556956137527e-05   -4.981519381962391e-06   1.2145763035512189e-06
2.095556956137527e-05   -4.981519381962391e-06   1.2145763035512189e-06
3.0284773516754145e-05   -6.842082013175453e-06   -1.3217759376685738e-05
3.0284773516754145e-05   -6.842082013175453e-06   -1.3217759376685738e-05
3.0284773516754145e-05   -6.842082013175453e-06   -1.3217759376685738e-05
3.0284773516754145e-05   -6.842082013175453e-06   -1.3217759376685738e-05
2.0955569561375255e-05   -8.044945861602332e-06   -3.554339613068814e-05
2.0955569561375255e-05   -8.044945861602332e-06   -3.554339613068814e-05
2.0955569561375255e-05   -8.044945861602332e-06   -3.554339613068814e-05
2.0955569561375255e-05   -8.044945861602332e-06   -3.554339613068814e-05
4.301035302191897e-05   -4.981519381962391e-06   3.05263219133533e-06
4.301035302191897e-05   -4.981519381962391e-06   3.05263219133533e-06
4.301035302191897e-05   -4.981519381962391e-06   3.05263219133533e-06
4.301035302191897e-05   -4.981519381962391e-06   3.05263219133533e-06
4.408683225681258e-05   -7.173947154184531e-06   -3.8015571456377804e-05
4.408683225681258e-05   -7.173947154184531e-06   -3.8015571456377804e-05
4.408683225681258e-05   -7.173947154184531e-06   -3.8015571456377804e-05
4.408683225681258e-05   -7.173947154184531e-06   -3.8015571456377804e-05
2.1053668194729395e-05   -4.276993164350129e-06   -1.365137080140016e-06
2.1053668194729395e-05   -4.276993164350129e-06   -1.365137080140016e-06
2.1053668194729395e-05   -4.276993164350129e-06   -1.365137080140016e-06
2.1053668194729395e-05   -4.276993164350129e-06   -1.365137080140016e-06
3.13125359390865e-05   -6.3121899181695865e-06   -1.7242131935109995e-05
3.13125359390865e-05   -6.3121899181695865e-06   -1.7242131935109995e-05
3.13125359390865e-05   -6.3121899181695865e-06   -1.7242131935109995e-05
3.13125359390865e-05   -6.3121899181695865e-06   -1.7242131935109995e-05
2.1053668194729436e-05   -7.173947154184531e-06   -3.975374385027845e-05
2.1053668194729436e-05   -7.173947154184531e-06   -3.975374385027845e-05
2.1053668194729436e-05   -7.173947154184531e-06   -3.975374385027845e-05
2.1053668194729436e-05   -7.173947154184531e-06   -3.975374385027845e-05
4.4086832256812496e-05   -4.276993164350129e-06   3.730353137608314e-07
4.4086832256812496e-05   -4.276993164350129e-06   3.730353137608314e-07
4.4086832256812496e-05   -4.276993164350129e-06   3.730353137608314e-07
4.4086832256812496e-05   -4.276993164350129e-06   3.730353137608314e-07
4.5233691733979875e-05   -5.299521688934786e-06   -4.5348371399886973e-05
4.5233691733979875e-05   -5.299521688934786e-06   -4.5348371399886973e-05
4.5233691733979875e-05   -5.299521688934786e-06   -4.5348371399886973e-05
4.5233691733979875e-05   -5.299521688934786e-06   -4.5348371399886973e-05
2.089122435604508e-05   -2.771883937694678e-06   -6.2941750874066e-06
2.089122435604508e-05   -2.771883937694678e-06   -6.2941750874066e-06
2.089122435604508e-05   -2.771883937694678e-06   -6.2941750874066e-06
2.089122435604508e-05   -2.771883937694678e-06   -6.2941750874066e-06
3.117772401623856e-05   -5.437935301466114e-06   -2.183871036946593e-05
3.117772401623856e-05   -5.437935301466114e-06   -2.183871036946593e-05
3.117772401623856e-05   -5.437935301466114e-06   -2.183871036946593e-05
3.117772401623856e-05   -5.437935301466114e-06   -2.183871036946593e-05
-5.000310829407305e-05   7.663326988746394e-06   -3.803748522499315e-05
-5.000310829407305e-05   7.663326988746394e-06   -3.803748522499315e-05
-5.000310829407305e-05   7.663326988746394e-06   -3.803748522499315e-05
-5.000310829407305e-05   7.663326988746394e-06   -3.803748522499315e-05
-3.404444562806863e-05   4.8756066384509494e-06   -1.3112346325162957e-05
-3.404444562806863e-05   4.8756066384509494e-06   -1.3112346325162957e-05
-3.404444562806863e-05   4.8756066384509494e-06   -1.3112346325162957e-05
-3.404444562806863e-05   4.8756066384509494e-06   -1.3112346325162957e-05
-3.3920571732698945e-05   9.26995263466528e-06   -3.231428620090681e-05
-3.3920571732698945e-05   9.26995263466528e-06   -3.231428620090681e-05
-3.3920571732698945e-05   9.26995263466528e-06   -3.231428620090681e-05
-3.3920571732698945e-05   9.26995263466528e-06   -3.231428620090681e-05
-4.850812711295959e-05   6.205619680093818e-06   -6.163094127729484e-06
-4.850812711295959e-05   6.205619680093818e-06   -6.163094127729484e-06
-4.850812711295959e-05   6.205619680093818e-06   -6.163094127729484e-06
-4.850812711295959e-05   6.205619680093818e-06   -6.163094127729484e-06
-3.985340106710249e-05   7.379197480990394e-06   -2.129178421802927e-05
-3.985340106710249e-05   7.379197480990394e-06   -2.129178421802927e-05
-3.985340106710249e-05   7.379197480990394e-06   -2.129178421802927e-05
-3.985340106710249e-05   7.379197480990394e-06   -2.129178421802927e-05
-4.850812711295959e-05   9.26995263466528e-06   -3.0475686428163952e-05
-4.850812711295959e-05   9.26995263466528e-06   -3.0475686428163952e-05
-4.850812711295959e-05   9.26995263466528e-06   -3.0475686428163952e-05
-4.850812711295959e-05   9.26995263466528e-06   -3.0475686428163952e-05
-3.3920571732699e-05   6.205619680093818e-06   -8.001693900472448e-06
-3.3920571732699e-05   6.205619680093818e-06   -8.001693900472448e-06
-3.3920571732699e-05   6.205619680093818e-06   -8.001693900472448e-06
-3.3920571732699e-05   6.205619680093818e-06   -8.001693900472448e-06
-3.366335954372687e-05   9.975757859122963e-06   -2.817788693968608e-05
-3.366335954372687e-05   9.975757859122963e-06   -2.817788693968608e-05
-3.366335954372687e-05   9.975757859122963e-06   -2.817788693968608e-05
-3.366335954372687e-05   9.975757859122963e-06   -2.817788693968608e-05
-4.739049145232726e-05   6.82524919769971e-06   -3.40902856183151e-06
-4.739049145232726e-05   6.82524919769971e-06   -3.40902856183151e-06
-4.739049145232726e-05   6.82524919769971e-06   -3.40902856183151e-06
-4.739049145232726e-05   6.82524919769971e-06   -3.40902856183151e-06
-3.985585425698655e-05   8.12132962241263e-06   -1.6744405475560477e-05
-3.985585425698655e-05   8.12132962241263e-06   -1.6744405475560477e-05
-3.985585425698655e-05   8.12132962241263e-06   -1.6744405475560477e-05
-3.985585425698655e-05   8.12132962241263e-06   -1.6744405475560477e-05
-4.739049145232726e-05   9.975757859122963e-06   -2.6287581742832184e-05
-4.739049145232726e-05   9.975757859122963e-06   -2.6287581742832184e-05
-4.739049145232726e-05   9.975757859122963e-06   -2.6287581742832184e-05
-4.739049145232726e-05   9.975757859122963e-06   -2.6287581742832184e-05
-3.3663359543726896e-05   6.8252491976998186e-06   -5.2993337586851904e-06
-3.3663359543726896e-05   6.8252491976998186e-06   -5.2993337586851904e-06
-3.3663359543726896e-05   6.8252491976998186e-06   -5.2993337586851904e-06
-3.3663359543726896e-05   6.8252491976998186e-06   -5.2993337586851904e-06
-3.356033334256175e-05   1.067022751878512e-05   -2.245182101044403e-05
-3.356033334256175e-05   1.067022751878512e-05   -2.245182101044403e-05
-3.356033334256175e-05   1.067022751878512e-05   -2.245182101044403e-05
-3.356033334256175e-05   1.067022751878512e-05   -2.245182101044403e-05
-4.592804519958733e-05   7.60433376632212e-06   5.683360766598269e-10
-4.592804519958733e-05   7.60433376632212e-06   5.683360766598269e-10
-4.592804519958733e-05   7.60433376632212e-06   5.683360766598269e-10
-4.592804519958733e-05   7.60433376632212e-06   5.683360766598269e-10
-3.8676812257650795e-05   8.523348466517116e-06   -1.2636228720601438e-05
-3.8676812257650795e-05   8.523348466517116e-06   -1.2636228720601438e-05
-3.8676812257650795e-05   8.523348466517116e-06   -1.2636228720601438e-05
-3.8676812257650795e-05   8.523348466517116e-06   -1.2636228720601438e-05
-3.4044445628068546e-05   3.820840633134148e-06   -4.846472833888683e-05
-3.4044445628068546e-05   3.820840633134148e-06   -4.846472833888683e-05
-3.4044445628068546e-05   3.820840633134148e-06   -4.846472833888683e-05
-3.4044445628068546e-05   3.820840633134148e-06   -4.846472833888683e-05
-1.9580171995606775e-05   2.5203158787990253e-06   -2.513792047071812e-05
-1.9580171995606775e-05   2.5203158787990253e-06   -2.513792047071812e-05
-1.9580171995606775e-05   2.5203158787990253e-06   -2.513792047071812e-05
-1.9580171995606775e-05   2.5203158787990253e-06   -2.513792047071812e-05
-1.9589659096034984e-05   5.400873947100041e-06   -4.80487124043719e-05
-1.9589659096034984e-05   5.400873947100041e-06   -4.80487124043719e-05
-1.9589659096034984e-05   5.400873947100041e-06   -4.80487124043719e-05
-1.9589659096034984e-05   5.400873947100041e-06   -4.80487124043719e-05
-3.3920571732698945e-05   3.9244086375865355e-06   -2.32779788242237e-05
-3.3920571732698945e-05   3.9244086375865355e-06   -2.32779788242237e-05
-3.3920571732698945e-05   3.9244086375865355e-06   -2.32779788242237e-05
-3.3920571732698945e-05   3.9244086375865355e-06   -2.32779788242237e-05
-2.6536794249980466e-05   4.179042479792567e-06   -3.573705493407819e-05
-2.6536794249980466e-05   4.179042479792567e-06   -3.573705493407819e-05
-2.6536794249980466e-05   4.179042479792567e-06   -3.573705493407819e-05
-2.6536794249980466e-05   4.179042479792567e-06   -3.573705493407819e-05
-3.392057173269889e-05   5.400873947100041e-06   -4.716283321866356e-05
-3.392057173269889e-05   5.400873947100041e-06   -4.716283321866356e-05
-3.392057173269889e-05   5.400873947100041e-06   -4.716283321866356e-05
-3.392057173269889e-05   5.400873947100041e-06   -4.716283321866356e-05
-1.9589659096034984e-05   3.924408637586644e-06   -2.4163858009931854e-05
-1.9589659096034984e-05   3.924408637586644e-06   -2.4163858009931854e-05
-1.9589659096034984e-05   3.924408637586644e-06   -2.4163858009931854e-05
-1.9589659096034984e-05   3.924408637586644e-06   -2.4163858009931854e-05
-1.957511920802556e-05   6.8045052820479845e-06   -4.697175126804011e-05
-1.957511920802556e-05   6.8045052820479845e-06   -4.697175126804011e-05
-1.957511920802556e-05   6.8045052820479845e-06   -4.697175126804011e-05
-1.957511920802556e-05   6.8045052820479845e-06   -4.697175126804011e-05
-3.366335954372687e-05   5.201981018640922e-06   -2.252983615049376e-05
-3.366335954372687e-05   5.201981018640922e-06   -2.252983615049376e-05
-3.366335954372687e-05   5.201981018640922e-06   -2.252983615049376e-05
-3.366335954372687e-05   5.201981018640922e-06   -2.252983615049376e-05
-2.6413097224771412e-05   5.33206833567472e-06   -3.4691659072306195e-05
-2.6413097224771412e-05   5.33206833567472e-06   -3.4691659072306195e-05
-2.6413097224771412e-05   5.33206833567472e-06   -3.4691659072306195e-05
-2.6413097224771412e-05   5.33206833567472e-06   -3.4691659072306195e-05
-3.366335954372687e-05   6.8045052820479845e-06   -4.6010236709995926e-05
-3.366335954372687e-05   6.8045052820479845e-06   -4.6010236709995926e-05
-3.366335954372687e-05   6.8045052820479845e-06   -4.6010236709995926e-05
-3.366335954372687e-05   6.8045052820479845e-06   -4.6010236709995926e-05
-1.9575119208025587e-05   5.201981018640922e-06   -2.3491350708537917e-05
-1.9575119208025587e-05   5.201981018640922e-06   -2.3491350708537917e-05
-1.9575119208025587e-05   5.201981018640922e-06   -2.3491350708537917e-05
-1.9575119208025587e-05   5.201981018640922e-06   -2.3491350708537917e-05
-1.959069660243179e-05   8.297516697319796e-06   -4.716105921252073e-05
-1.959069660243179e-05   8.297516697319796e-06   -4.716105921252073e-05
-1.959069660243179e-05   8.297516697319796e-06   -4.716105921252073e-05
-1.959069660243179e-05   8.297516697319796e-06   -4.716105921252073e-05
-3.3560333342561776e-05   6.589639155935522e-06   -2.2853604787473336e-05
-3.3560333342561776e-05   6.589639155935522e-06   -2.2853604787473336e-05
-3.3560333342561776e-05   6.589639155935522e-06   -2.2853604787473336e-05
-3.3560333342561776e-05   6.589639155935522e-06   -2.2853604787473336e-05
-2.6584076505366456e-05   6.472682327266508e-06   -3.441052541893085e-05
-2.6584076505366456e-05   6.472682327266508e-06   -3.441052541893085e-05
-2.6584076505366456e-05   6.472682327266508e-06   -3.441052541893085e-05
-2.6584076505366456e-05   6.472682327266508e-06   -3.441052541893085e-05
-1.9580171995606734e-05   2.0335722828400665e-07   -5.348807982747918e-05
-1.9580171995606734e-05   2.0335722828400665e-07   -5.348807982747918e-05
-1.9580171995606734e-05   2.0335722828400665e-07   -5.348807982747918e-05
-1.9580171995606734e-05   2.0335722828400665e-07   -5.348807982747918e-05
-5.317235840505393e-06   4.3366821579485845e-07   -2.9578332976470554e-05
-5.317235840505393e-06   4.3366821579485845e-07   -2.9578332976470554e-05
-5.317235840505393e-06   4.3366821579485845e-07   -2.9578332976470554e-05
-5.317235840505393e-06   4.3366821579485845e-07   -2.9578332976470554e-05
-5.3272900546053045e-06   1.7585837385753053e-06   -5.289770394133284e-05
-5.3272900546053045e-06   1.7585837385753053e-06   -5.289770394133284e-05
-5.3272900546053045e-06   1.7585837385753053e-06   -5.289770394133284e-05
-5.3272900546053045e-06   1.7585837385753053e-06   -5.289770394133284e-05
-1.958965909603497e-05   1.845319147304389e-06   -2.917913011752095e-05
-1.958965909603497e-05   1.845319147304389e-06   -2.917913011752095e-05
-1.958965909603497e-05   1.845319147304389e-06   -2.917913011752095e-05
-1.958965909603497e-05   1.845319147304389e-06   -2.917913011752095e-05
-1.2370871756896833e-05   1.2427857546371771e-06   -4.084892231381748e-05
-1.2370871756896833e-05   1.2427857546371771e-06   -4.084892231381748e-05
-1.2370871756896833e-05   1.2427857546371771e-06   -4.084892231381748e-05
-1.2370871756896833e-05   1.2427857546371771e-06   -4.084892231381748e-05
-1.958965909603497e-05   1.7585837385753053e-06   -5.2949745186570325e-05
-1.958965909603497e-05   1.7585837385753053e-06   -5.2949745186570325e-05
-1.958965909603497e-05   1.7585837385753053e-06   -5.2949745186570325e-05
-1.958965909603497e-05   1.7585837385753053e-06   -5.2949745186570325e-05
-5.3272900546053045e-06   1.845319147304389e-06   -2.912708887228344e-05
-5.3272900546053045e-06   1.845319147304389e-06   -2.912708887228344e-05
-5.3272900546053045e-06   1.845319147304389e-06   -2.912708887228344e-05
-5.3272900546053045e-06   1.845319147304389e-06   -2.912708887228344e-05
-5.30847124442602e-06   3.3091664903002298e-06   -5.303236908739845e-05
-5.30847124442602e-06   3.3091664903002298e-06   -5.303236908739845e-05
-5.30847124442602e-06   3.3091664903002298e-06   -5.303236908739845e-05
-5.30847124442602e-06   3.3091664903002298e-06   -5.303236908739845e-05
-1.957511920802556e-05   3.2614819785133694e-06   -2.9226011774327154e-05
-1.957511920802556e-05   3.2614819785133694e-06   -2.9226011774327154e-05
-1.957511920802556e-05   3.2614819785133694e-06   -2.9226011774327154e-05
-1.957511920802556e-05   3.2614819785133694e-06   -2.9226011774327154e-05
-1.2453609223665985e-05   2.4776442344017977e-06   -4.062489243512615e-05
-1.2453609223665985e-05   2.4776442344017977e-06   -4.062489243512615e-05
-1.2453609223665985e-05   2.4776442344017977e-06   -4.062489243512615e-05
-1.2453609223665985e-05   2.4776442344017977e-06   -4.062489243512615e-05
-1.957511920802556e-05   3.3091664903001214e-06   -5.30037583803264e-05
-1.957511920802556e-05   3.3091664903001214e-06   -5.30037583803264e-05
-1.957511920802556e-05   3.3091664903001214e-06   -5.30037583803264e-05
-1.957511920802556e-05   3.3091664903001214e-06   -5.30037583803264e-05
-5.308471244426028e-06   3.2614819785133694e-06   -2.9254622481399042e-05
-5.308471244426028e-06   3.2614819785133694e-06   -2.9254622481399042e-05
-5.308471244426028e-06   3.2614819785133694e-06   -2.9254622481399042e-05
-5.308471244426028e-06   3.2614819785133694e-06   -2.9254622481399042e-05
-5.3167835836224395e-06   4.89580472906885e-06   -5.3834432271045456e-05
-5.3167835836224395e-06   4.89580472906885e-06   -5.3834432271045456e-05
-5.3167835836224395e-06   4.89580472906885e-06   -5.3834432271045456e-05
-5.3167835836224395e-06   4.89580472906885e-06   -5.3834432271045456e-05
-1.9590696602431778e-05   4.702405043099846e-06   -2.9928537428114952e-05
-1.9590696602431778e-05   4.702405043099846e-06   -2.9928537428114952e-05
-1.9590696602431778e-05   4.702405043099846e-06   -2.9928537428114952e-05
-1.9590696602431778e-05   4.702405043099846e-06   -2.9928537428114952e-05
-1.256059766850827e-05   3.7287192359861327e-06   -4.1061157500385976e-05
-1.256059766850827e-05   3.7287192359861327e-06   -4.1061157500385976e-05
-1.256059766850827e-05   3.7287192359861327e-06   -4.1061157500385976e-05
-1.256059766850827e-05   3.7287192359861327e-06   -4.1061157500385976e-05
-5.317235840505385e-06   -3.199112201533825e-06   -4.736403607376728e-05
-5.317235840505385e-06   -3.199112201533825e-06   -4.736403607376728e-05
-5.317235840505385e-06   -3.199112201533825e-06   -4.736403607376728e-05
-5.317235840505385e-06   -3.199112201533825e-06   -4.736403607376728e-05
8.738622512055301e-06   -1.4747326976146096e-06   -2.2902977783814627e-05
8.738622512055301e-06   -1.4747326976146096e-06   -2.2902977783814627e-05
8.738622512055301e-06   -1.4747326976146096e-06   -2.2902977783814627e-05
8.738622512055301e-06   -1.4747326976146096e-06   -2.2902977783814627e-05
8.853405500239647e-06   -1.7736606273085521e-06   -4.62877272257166e-05
8.853405500239647e-06   -1.7736606273085521e-06   -4.62877272257166e-05
8.853405500239647e-06   -1.7736606273085521e-06   -4.62877272257166e-05
8.853405500239647e-06   -1.7736606273085521e-06   -4.62877272257166e-05
-5.3272900546053045e-06   -1.451619551601181e-07   -2.3630333837597417e-05
-5.3272900546053045e-06   -1.451619551601181e-07   -2.3630333837597417e-05
-5.3272900546053045e-06   -1.451619551601181e-07   -2.3630333837597417e-05
-5.3272900546053045e-06   -1.451619551601181e-07   -2.3630333837597417e-05
1.745050203412845e-06   -1.525477300894822e-06   -3.458937839352015e-05
1.745050203412845e-06   -1.525477300894822e-06   -3.458937839352015e-05
1.745050203412845e-06   -1.525477300894822e-06   -3.458937839352015e-05
1.745050203412845e-06   -1.525477300894822e-06   -3.458937839352015e-05
-5.3272900546053045e-06   -1.7736606273084437e-06   -4.726482642900562e-05
-5.3272900546053045e-06   -1.7736606273084437e-06   -4.726482642900562e-05
-5.3272900546053045e-06   -1.7736606273084437e-06   -4.726482642900562e-05
-5.3272900546053045e-06   -1.7736606273084437e-06   -4.726482642900562e-05
8.853405500239674e-06   -1.451619551602265e-07   -2.2653234634308376e-05
8.853405500239674e-06   -1.451619551602265e-07   -2.2653234634308376e-05
8.853405500239674e-06   -1.451619551602265e-07   -2.2653234634308376e-05
8.853405500239674e-06   -1.451619551602265e-07   -2.2653234634308376e-05
9.123814965517448e-06   -3.72879113662186e-07   -4.7261901427305786e-05
9.123814965517448e-06   -3.72879113662186e-07   -4.7261901427305786e-05
9.123814965517448e-06   -3.72879113662186e-07   -4.7261901427305786e-05
9.123814965517448e-06   -3.72879113662186e-07   -4.7261901427305786e-05
-5.308471244426028e-06   1.1339905816079012e-06   -2.4112212894561947e-05
-5.308471244426028e-06   1.1339905816079012e-06   -2.4112212894561947e-05
-5.308471244426028e-06   1.1339905816079012e-06   -2.4112212894561947e-05
-5.308471244426028e-06   1.1339905816079012e-06   -2.4112212894561947e-05
1.6637589012016294e-06   -4.1943360725078295e-07   -3.480054195729281e-05
1.6637589012016294e-06   -4.1943360725078295e-07   -3.480054195729281e-05
1.6637589012016294e-06   -4.1943360725078295e-07   -3.480054195729281e-05
1.6637589012016294e-06   -4.1943360725078295e-07   -3.480054195729281e-05
-5.308471244426024e-06   -3.72879113662186e-07   -4.816602324446759e-05
-5.308471244426024e-06   -3.72879113662186e-07   -4.816602324446759e-05
-5.308471244426024e-06   -3.72879113662186e-07   -4.816602324446759e-05
-5.308471244426024e-06   -3.72879113662186e-07   -4.816602324446759e-05
9.123814965517475e-06   1.1339905816077928e-06   -2.3208091077399893e-05
9.123814965517475e-06   1.1339905816077928e-06   -2.3208091077399893e-05
9.123814965517475e-06   1.1339905816077928e-06   -2.3208091077399893e-05
9.123814965517475e-06   1.1339905816077928e-06   -2.3208091077399893e-05
9.256128898372073e-06   1.2650492117752482e-06   -4.8655239210310456e-05
9.256128898372073e-06   1.2650492117752482e-06   -4.8655239210310456e-05
9.256128898372073e-06   1.2650492117752482e-06   -4.8655239210310456e-05
9.256128898372073e-06   1.2650492117752482e-06   -4.8655239210310456e-05
-5.31678358362243e-06   2.6001443361548535e-06   -2.5168108814947284e-05
-5.31678358362243e-06   2.6001443361548535e-06   -2.5168108814947284e-05
-5.31678358362243e-06   2.6001443361548535e-06   -2.5168108814947284e-05
-5.31678358362243e-06   2.6001443361548535e-06   -2.5168108814947284e-05
1.7127195972416216e-06   7.637084934411942e-07   -3.578208594409261e-05
1.7127195972416216e-06   7.637084934411942e-07   -3.578208594409261e-05
1.7127195972416216e-06   7.637084934411942e-07   -3.578208594409261e-05
1.7127195972416216e-06   7.637084934411942e-07   -3.578208594409261e-05
8.738622512055288e-06   -5.802786453508609e-06   -2.602394695409312e-05
8.738622512055288e-06   -5.802786453508609e-06   -2.602394695409312e-05
8.738622512055288e-06   -5.802786453508609e-06   -2.602394695409312e-05
8.738622512055288e-06   -5.802786453508609e-06   -2.602394695409312e-05
2.1223911099121207e-05   -2.7102839316817205e-06   -3.3596311292205874e-06
2.1223911099121207e-05   -2.7102839316817205e-06   -3.3596311292205874e-06
2.1223911099121207e-05   -2.7102839316817205e-06   -3.3596311292205874e-06
2.1223911099121207e-05   -2.7102839316817205e-06   -3.3596311292205874e-06
2.270625728682796e-05   -4.981519381962391e-06   -2.7328139828666353e-05
2.270625728682796e-05   -4.981519381962391e-06   -2.7328139828666353e-05
2.270625728682796e-05   -4.981519381962391e-06   -2.7328139828666353e-05
2.270625728682796e-05   -4.981519381962391e-06   -2.7328139828666353e-05
8.85340550023966e-06   -1.8098196746403053e-06   -6.143073342079058e-06
8.85340550023966e-06   -1.8098196746403053e-06   -6.143073342079058e-06
8.85340550023966e-06   -1.8098196746403053e-06   -6.143073342079058e-06
8.85340550023966e-06   -1.8098196746403053e-06   -6.143073342079058e-06
1.4724737119587695e-05   -3.7075837025078067e-06   -1.4789967624271992e-05
1.4724737119587695e-05   -3.7075837025078067e-06   -1.4789967624271992e-05
1.4724737119587695e-05   -3.7075837025078067e-06   -1.4789967624271992e-05
1.4724737119587695e-05   -3.7075837025078067e-06   -1.4789967624271992e-05
8.853405500239647e-06   -4.981519381962391e-06   -2.923115965305944e-05
8.853405500239647e-06   -4.981519381962391e-06   -2.923115965305944e-05
8.853405500239647e-06   -4.981519381962391e-06   -2.923115965305944e-05
8.853405500239647e-06   -4.981519381962391e-06   -2.923115965305944e-05
2.270625728682788e-05   -1.8098196746401968e-06   -4.2400535176859155e-06
2.270625728682788e-05   -1.8098196746401968e-06   -4.2400535176859155e-06
2.270625728682788e-05   -1.8098196746401968e-06   -4.2400535176859155e-06
2.270625728682788e-05   -1.8098196746401968e-06   -4.2400535176859155e-06
2.3847193683160212e-05   -4.276993164350129e-06   -2.9968564780900794e-05
2.3847193683160212e-05   -4.276993164350129e-06   -2.9968564780900794e-05
2.3847193683160212e-05   -4.276993164350129e-06   -2.9968564780900794e-05
2.3847193683160212e-05   -4.276993164350129e-06   -2.9968564780900794e-05
9.123814965517475e-06   -1.1880940693080643e-06   -7.282939708521476e-06
9.123814965517475e-06   -1.1880940693080643e-06   -7.282939708521476e-06
9.123814965517475e-06   -1.1880940693080643e-06   -7.282939708521476e-06
9.123814965517475e-06   -1.1880940693080643e-06   -7.282939708521476e-06
1.5630824922462165e-05   -3.2452197984748042e-06   -1.6893680865929177e-05
1.5630824922462165e-05   -3.2452197984748042e-06   -1.6893680865929177e-05
1.5630824922462165e-05   -3.2452197984748042e-06   -1.6893680865929177e-05
1.5630824922462165e-05   -3.2452197984748042e-06   -1.6893680865929177e-05
9.123814965517462e-06   -4.27699316435002e-06   -3.1821904237925983e-05
9.123814965517462e-06   -4.27699316435002e-06   -3.1821904237925983e-05
9.123814965517462e-06   -4.27699316435002e-06   -3.1821904237925983e-05
9.123814965517462e-06   -4.27699316435002e-06   -3.1821904237925983e-05
2.384719368316013e-05   -1.1880940693079559e-06   -5.429600251496123e-06
2.384719368316013e-05   -1.1880940693079559e-06   -5.429600251496123e-06
2.384719368316013e-05   -1.1880940693079559e-06   -5.429600251496123e-06
2.384719368316013e-05   -1.1880940693079559e-06   -5.429600251496123e-06
2.5363367568859147e-05   -2.7718839376947866e-06   -3.503220251930284e-05
2.5363367568859147e-05   -2.7718839376947866e-06   -3.503220251930284e-05
2.5363367568859147e-05   -2.7718839376947866e-06   -3.503220251930284e-05
2.5363367568859147e-05   -2.7718839376947866e-06   -3.503220251930284e-05
9.256128898372086e-06   3.4265567568363305e-08   -9.870494438315417e-06
9.256128898372086e-06   3.4265567568363305e-08   -9.870494438315417e-06
9.256128898372086e-06   3.4265567568363305e-08   -9.870494438315417e-06
9.256128898372086e-06   3.4265567568363305e-08   -9.870494438315417e-06
1.5932286976998022e-05   -2.5571752016411006e-06   -1.9442560107832966e-05
1.5932286976998022e-05   -2.5571752016411006e-06   -1.9442560107832966e-05
1.5932286976998022e-05   -2.5571752016411006e-06   -1.9442560107832966e-05
1.5932286976998022e-05   -2.5571752016411006e-06   -1.9442560107832966e-05
-3.02729107606986e-05   4.875606638450841e-06   -2.8367707718516882e-05
-3.02729107606986e-05   4.875606638450841e-06   -2.8367707718516882e-05
-3.02729107606986e-05   4.875606638450841e-06   -2.8367707718516882e-05
-3.02729107606986e-05   4.875606638450841e-06   -2.8367707718516882e-05
-2.2351634859487155e-05   1.9866917272020387e-06   -1.689893016324726e-05
-2.2351634859487155e-05   1.9866917272020387e-06   -1.689893016324726e-05
-2.2351634859487155e-05   1.9866917272020387e-06   -1.689893016324726e-05
-2.2351634859487155e-05   1.9866917272020387e-06   -1.689893016324726e-05
-2.202281929699414e-05   6.2056196800937095e-06   -2.502543737537108e-05
-2.202281929699414e-05   6.2056196800937095e-06   -2.502543737537108e-05
-2.202281929699414e-05   6.2056196800937095e-06   -2.502543737537108e-05
-2.202281929699414e-05   6.2056196800937095e-06   -2.502543737537108e-05
-2.8628121829200046e-05   3.0934447339408828e-06   -1.214929485400247e-05
-2.8628121829200046e-05   3.0934447339408828e-06   -1.214929485400247e-05
-2.8628121829200046e-05   3.0934447339408828e-06   -1.214929485400247e-05
-2.8628121829200046e-05   3.0934447339408828e-06   -1.214929485400247e-05
-2.4724979725434856e-05   4.373379269082944e-06   -1.9422492414697672e-05
-2.4724979725434856e-05   4.373379269082944e-06   -1.9422492414697672e-05
-2.4724979725434856e-05   4.373379269082944e-06   -1.9422492414697672e-05
-2.4724979725434856e-05   4.373379269082944e-06   -1.9422492414697672e-05
-2.8628121829200046e-05   6.2056196800937095e-06   -2.3158132407679233e-05
-2.8628121829200046e-05   6.2056196800937095e-06   -2.3158132407679233e-05
-2.8628121829200046e-05   6.2056196800937095e-06   -2.3158132407679233e-05
-2.8628121829200046e-05   6.2056196800937095e-06   -2.3158132407679233e-05
-2.2022819296994167e-05   3.0934447339408828e-06   -1.4016599821694317e-05
-2.2022819296994167e-05   3.0934447339408828e-06   -1.4016599821694317e-05
-2.2022819296994167e-05   3.0934447339408828e-06   -1.4016599821694317e-05
-2.2022819296994167e-05   3.0934447339408828e-06   -1.4016599821694317e-05
-2.1553543280528666e-05   6.82524919769971e-06   -2.2346387622828277e-05
-2.1553543280528666e-05   6.82524919769971e-06   -2.2346387622828277e-05
-2.1553543280528666e-05   6.82524919769971e-06   -2.2346387622828277e-05
-2.1553543280528666e-05   6.82524919769971e-06   -2.2346387622828277e-05
-2.731607371385202e-05   3.6526044982143277e-06   -1.08385834142647e-05
-2.731607371385202e-05   3.6526044982143277e-06   -1.08385834142647e-05
-2.731607371385202e-05   3.6526044982143277e-06   -1.08385834142647e-05
-2.731607371385202e-05   3.6526044982143277e-06   -1.08385834142647e-05
-2.4291155219337805e-05   4.970562494254274e-06   -1.6670889036079117e-05
-2.4291155219337805e-05   4.970562494254274e-06   -1.6670889036079117e-05
-2.4291155219337805e-05   4.970562494254274e-06   -1.6670889036079117e-05
-2.4291155219337805e-05   4.970562494254274e-06   -1.6670889036079117e-05
-2.731607371385202e-05   6.82524919769971e-06   -2.04428008031372e-05
-2.731607371385202e-05   6.82524919769971e-06   -2.04428008031372e-05
-2.731607371385202e-05   6.82524919769971e-06   -2.04428008031372e-05
-2.731607371385202e-05   6.82524919769971e-06   -2.04428008031372e-05
-2.1553543280528693e-05   3.6526044982143277e-06   -1.274217023395594e-05
-2.1553543280528693e-05   3.6526044982143277e-06   -1.274217023395594e-05
-2.1553543280528693e-05   3.6526044982143277e-06   -1.274217023395594e-05
-2.1553543280528693e-05   3.6526044982143277e-06   -1.274217023395594e-05
-2.1233779058952635e-05   7.6043337663220115e-06   -1.890946744217102e-05
-2.1233779058952635e-05   7.6043337663220115e-06   -1.890946744217102e-05
-2.1233779058952635e-05   7.6043337663220115e-06   -1.890946744217102e-05
-2.1233779058952635e-05   7.6043337663220115e-06   -1.890946744217102e-05
-2.5645354373831958e-05   4.5383254870863966e-06   -9.717236949830649e-06
-2.5645354373831958e-05   4.5383254870863966e-06   -9.717236949830649e-06
-2.5645354373831958e-05   4.5383254870863966e-06   -9.717236949830649e-06
-2.5645354373831958e-05   4.5383254870863966e-06   -9.717236949830649e-06
-2.3156036272396036e-05   5.384541188353667e-06   -1.4373829872984818e-05
-2.3156036272396036e-05   5.384541188353667e-06   -1.4373829872984818e-05
-2.3156036272396036e-05   5.384541188353667e-06   -1.4373829872984818e-05
-2.3156036272396036e-05   5.384541188353667e-06   -1.4373829872984818e-05
-2.2351634859487155e-05   2.5203158787991337e-06   -4.1346315958220355e-05
-2.2351634859487155e-05   2.5203158787991337e-06   -4.1346315958220355e-05
-2.2351634859487155e-05   2.5203158787991337e-06   -4.1346315958220355e-05
-2.2351634859487155e-05   2.5203158787991337e-06   -4.1346315958220355e-05
-1.591561807255303e-05   1.1404452929535038e-06   -3.144754366483753e-05
-1.591561807255303e-05   1.1404452929535038e-06   -3.144754366483753e-05
-1.591561807255303e-05   1.1404452929535038e-06   -3.144754366483753e-05
-1.591561807255303e-05   1.1404452929535038e-06   -3.144754366483753e-05
-1.570027960570502e-05   3.9244086375865355e-06   -4.121067065291956e-05
-1.570027960570502e-05   3.9244086375865355e-06   -4.121067065291956e-05
-1.570027960570502e-05   3.9244086375865355e-06   -4.121067065291956e-05
-1.570027960570502e-05   3.9244086375865355e-06   -4.121067065291956e-05
-2.2022819296994194e-05   2.409494714591216e-06   -2.9764156146973493e-05
-2.2022819296994194e-05   2.409494714591216e-06   -2.9764156146973493e-05
-2.2022819296994194e-05   2.409494714591216e-06   -2.9764156146973493e-05
-2.2022819296994194e-05   2.409494714591216e-06   -2.9764156146973493e-05
-1.88123796184237e-05   2.742128862130407e-06   -3.5314469433115475e-05
-1.88123796184237e-05   2.742128862130407e-06   -3.5314469433115475e-05
-1.88123796184237e-05   2.742128862130407e-06   -3.5314469433115475e-05
-1.88123796184237e-05   2.742128862130407e-06   -3.5314469433115475e-05
-2.2022819296994113e-05   3.9244086375865355e-06   -4.030172229912206e-05
-2.2022819296994113e-05   3.9244086375865355e-06   -4.030172229912206e-05
-2.2022819296994113e-05   3.9244086375865355e-06   -4.030172229912206e-05
-2.2022819296994113e-05   3.9244086375865355e-06   -4.030172229912206e-05
-1.570027960570502e-05   2.409494714591216e-06   -3.067310450077077e-05
-1.570027960570502e-05   2.409494714591216e-06   -3.067310450077077e-05
-1.570027960570502e-05   2.409494714591216e-06   -3.067310450077077e-05
-1.570027960570502e-05   2.409494714591216e-06   -3.067310450077077e-05
-1.546246367007027e-05   5.201981018640922e-06   -4.054438573681488e-05
-1.546246367007027e-05   5.201981018640922e-06   -4.054438573681488e-05
-1.546246367007027e-05   5.201981018640922e-06   -4.054438573681488e-05
-1.546246367007027e-05   5.201981018640922e-06   -4.054438573681488e-05
-2.1553543280528747e-05   3.589488148344252e-06   -2.9425090663872538e-05
-2.1553543280528747e-05   3.589488148344252e-06   -2.9425090663872538e-05
-2.1553543280528747e-05   3.589488148344252e-06   -2.9425090663872538e-05
-2.1553543280528747e-05   3.589488148344252e-06   -2.9425090663872538e-05
-1.852922938842273e-05   3.7681639213993715e-06   -3.457281928121532e-05
-1.852922938842273e-05   3.7681639213993715e-06   -3.457281928121532e-05
-1.852922938842273e-05   3.7681639213993715e-06   -3.457281928121532e-05
-1.852922938842273e-05   3.7681639213993715e-06   -3.457281928121532e-05
-2.1553543280528666e-05   5.201981018640813e-06   -3.9576890014636793e-05
-2.1553543280528666e-05   5.201981018640813e-06   -3.9576890014636793e-05
-2.1553543280528666e-05   5.201981018640813e-06   -3.9576890014636793e-05
-2.1553543280528666e-05   5.201981018640813e-06   -3.9576890014636793e-05
-1.5462463670070243e-05   3.5894881483444687e-06   -3.039258638605052e-05
-1.5462463670070243e-05   3.5894881483444687e-06   -3.039258638605052e-05
-1.5462463670070243e-05   3.5894881483444687e-06   -3.039258638605052e-05
-1.5462463670070243e-05   3.5894881483444687e-06   -3.039258638605052e-05
-1.5250953546555726e-05   6.5896391559354135e-06   -4.0937503217924475e-05
-1.5250953546555726e-05   6.5896391559354135e-06   -4.0937503217924475e-05
-1.5250953546555726e-05   6.5896391559354135e-06   -4.0937503217924475e-05
-1.5250953546555726e-05   6.5896391559354135e-06   -4.0937503217924475e-05
-2.123377905895269e-05   4.9006409831337146e-06   -2.995272846024815e-05
-2.123377905895269e-05   4.9006409831337146e-06   -2.995272846024815e-05
-2.123377905895269e-05   4.9006409831337146e-06   -2.995272846024815e-05
-2.123377905895269e-05   4.9006409831337146e-06   -2.995272846024815e-05
-1.841859864361501e-05   4.807383056972762e-06   -3.458874106344802e-05
-1.841859864361501e-05   4.807383056972762e-06   -3.458874106344802e-05
-1.841859864361501e-05   4.807383056972762e-06   -3.458874106344802e-05
-1.841859864361501e-05   4.807383056972762e-06   -3.458874106344802e-05
-1.5915618072552976e-05   4.3366821579475e-07   -4.6752837407986435e-05
-1.5915618072552976e-05   4.3366821579475e-07   -4.6752837407986435e-05
-1.5915618072552976e-05   4.3366821579475e-07   -4.6752837407986435e-05
-1.5915618072552976e-05   4.3366821579475e-07   -4.6752837407986435e-05
-9.644128233341017e-06   6.535145441995474e-07   -3.616844654559038e-05
-9.644128233341017e-06   6.535145441995474e-07   -3.616844654559038e-05
-9.644128233341017e-06   6.535145441995474e-07   -3.616844654559038e-05
-9.644128233341017e-06   6.535145441995474e-07   -3.616844654559038e-05
-9.434255931018636e-06   1.845319147304389e-06   -4.6165511156257976e-05
-9.434255931018636e-06   1.845319147304389e-06   -4.6165511156257976e-05
-9.434255931018636e-06   1.845319147304389e-06   -4.6165511156257976e-05
-9.434255931018636e-06   1.845319147304389e-06   -4.6165511156257976e-05
-1.570027960570502e-05   1.9460384877224065e-06   -3.5782569969364285e-05
-1.570027960570502e-05   1.9460384877224065e-06   -3.5782569969364285e-05
-1.570027960570502e-05   1.9460384877224065e-06   -3.5782569969364285e-05
-1.570027960570502e-05   1.9460384877224065e-06   -3.5782569969364285e-05
-1.2592361290412495e-05   1.3995552486192366e-06   -4.063454388472407e-05
-1.2592361290412495e-05   1.3995552486192366e-06   -4.063454388472407e-05
-1.2592361290412495e-05   1.3995552486192366e-06   -4.063454388472407e-05
-1.2592361290412495e-05   1.3995552486192366e-06   -4.063454388472407e-05
-1.5700279605705006e-05   1.845319147304389e-06   -4.622594276050855e-05
-1.5700279605705006e-05   1.845319147304389e-06   -4.622594276050855e-05
-1.5700279605705006e-05   1.845319147304389e-06   -4.622594276050855e-05
-1.5700279605705006e-05   1.845319147304389e-06   -4.622594276050855e-05
-9.434255931018636e-06   1.9460384877224065e-06   -3.572213836511371e-05
-9.434255931018636e-06   1.9460384877224065e-06   -3.572213836511371e-05
-9.434255931018636e-06   1.9460384877224065e-06   -3.572213836511371e-05
-9.434255931018636e-06   1.9460384877224065e-06   -3.572213836511371e-05
-9.198144525267915e-06   3.2614819785133694e-06   -4.628600394854991e-05
-9.198144525267915e-06   3.2614819785133694e-06   -4.628600394854991e-05
-9.198144525267915e-06   3.2614819785133694e-06   -4.628600394854991e-05
-9.198144525267915e-06   3.2614819785133694e-06   -4.628600394854991e-05
-1.5462463670070243e-05   3.2498867352699374e-06   -3.583851489459989e-05
-1.5462463670070243e-05   3.2498867352699374e-06   -3.583851489459989e-05
-1.5462463670070243e-05   3.2498867352699374e-06   -3.583851489459989e-05
-1.5462463670070243e-05   3.2498867352699374e-06   -3.583851489459989e-05
-1.245161665783702e-05   2.510028996070574e-06   -4.041267860480225e-05
-1.245161665783702e-05   2.510028996070574e-06   -4.041267860480225e-05
-1.245161665783702e-05   2.510028996070574e-06   -4.041267860480225e-05
-1.245161665783702e-05   2.510028996070574e-06   -4.041267860480225e-05
-1.5462463670070216e-05   3.2614819785133694e-06   -4.6279046802603766e-05
-1.5462463670070216e-05   3.2614819785133694e-06   -4.6279046802603766e-05
-1.5462463670070216e-05   3.2614819785133694e-06   -4.6279046802603766e-05
-1.5462463670070216e-05   3.2614819785133694e-06   -4.6279046802603766e-05
-9.198144525267932e-06   3.2498867352701542e-06   -3.5845472040545927e-05
-9.198144525267932e-06   3.2498867352701542e-06   -3.5845472040545927e-05
-9.198144525267932e-06   3.2498867352701542e-06   -3.5845472040545927e-05
-9.198144525267932e-06   3.2498867352701542e-06   -3.5845472040545927e-05
-8.986013351680472e-06   4.702405043099846e-06   -4.706510591461399e-05
-8.986013351680472e-06   4.702405043099846e-06   -4.706510591461399e-05
-8.986013351680472e-06   4.702405043099846e-06   -4.706510591461399e-05
-8.986013351680472e-06   4.702405043099846e-06   -4.706510591461399e-05
-1.525095354655574e-05   4.573410741635486e-06   -3.6546142342276324e-05
-1.525095354655574e-05   4.573410741635486e-06   -3.6546142342276324e-05
-1.525095354655574e-05   4.573410741635486e-06   -3.6546142342276324e-05
-1.525095354655574e-05   4.573410741635486e-06   -3.6546142342276324e-05
-1.2335252255954718e-05   3.6352657649071397e-06   -4.0842757507241436e-05
-1.2335252255954718e-05   3.6352657649071397e-06   -4.0842757507241436e-05
-1.2335252255954718e-05   3.6352657649071397e-06   -4.0842757507241436e-05
-1.2335252255954718e-05   3.6352657649071397e-06   -4.0842757507241436e-05
-9.644128233340983e-06   -1.4747326976145012e-06   -4.098020212063927e-05
-9.644128233340983e-06   -1.4747326976145012e-06   -4.098020212063927e-05
-9.644128233340983e-06   -1.4747326976145012e-06   -4.098020212063927e-05
-9.644128233340983e-06   -1.4747326976145012e-06   -4.098020212063927e-05
-3.5618548764739335e-06   2.791732485968399e-07   -2.979073629146749e-05
-3.5618548764739335e-06   2.791732485968399e-07   -2.979073629146749e-05
-3.5618548764739335e-06   2.791732485968399e-07   -2.979073629146749e-05
-3.5618548764739335e-06   2.791732485968399e-07   -2.979073629146749e-05
-3.2483004568081624e-06   -1.451619551602265e-07   -3.966295470275889e-05
-3.2483004568081624e-06   -1.451619551602265e-07   -3.966295470275889e-05
-3.2483004568081624e-06   -1.451619551602265e-07   -3.966295470275889e-05
-3.2483004568081624e-06   -1.451619551602265e-07   -3.966295470275889e-05
-9.43425593101862e-06   1.531173742861389e-06   -3.035883033122075e-05
-9.43425593101862e-06   1.531173742861389e-06   -3.035883033122075e-05
-9.43425593101862e-06   1.531173742861389e-06   -3.035883033122075e-05
-9.43425593101862e-06   1.531173742861389e-06   -3.035883033122075e-05
-6.406830370386728e-06   1.7835892549044122e-07   -3.459285070851852e-05
-6.406830370386728e-06   1.7835892549044122e-07   -3.459285070851852e-05
-6.406830370386728e-06   1.7835892549044122e-07   -3.459285070851852e-05
-6.406830370386728e-06   1.7835892549044122e-07   -3.459285070851852e-05
-9.434255931018602e-06   -1.451619551601181e-07   -4.066875612157171e-05
-9.434255931018602e-06   -1.451619551601181e-07   -4.066875612157171e-05
-9.434255931018602e-06   -1.451619551601181e-07   -4.066875612157171e-05
-9.434255931018602e-06   -1.451619551601181e-07   -4.066875612157171e-05
-3.248300456808176e-06   1.531173742861389e-06   -2.9353028912407816e-05
-3.248300456808176e-06   1.531173742861389e-06   -2.9353028912407816e-05
-3.248300456808176e-06   1.531173742861389e-06   -2.9353028912407816e-05
-3.248300456808176e-06   1.531173742861389e-06   -2.9353028912407816e-05
-2.782799556601471e-06   1.1339905816079012e-06   -4.019737788222763e-05
-2.782799556601471e-06   1.1339905816079012e-06   -4.019737788222763e-05
-2.782799556601471e-06   1.1339905816079012e-06   -4.019737788222763e-05
-2.782799556601471e-06   1.1339905816079012e-06   -4.019737788222763e-05
-9.198144525267915e-06   2.7110180474162852e-06   -3.0451352747268512e-05
-9.198144525267915e-06   2.7110180474162852e-06   -3.0451352747268512e-05
-9.198144525267915e-06   2.7110180474162852e-06   -3.0451352747268512e-05
-9.198144525267915e-06   2.7110180474162852e-06   -3.0451352747268512e-05
-6.217235970515231e-06   1.1891968090807156e-06   -3.450644092885496e-05
-6.217235970515231e-06   1.1891968090807156e-06   -3.450644092885496e-05
-6.217235970515231e-06   1.1891968090807156e-06   -3.450644092885496e-05
-6.217235970515231e-06   1.1891968090807156e-06   -3.450644092885496e-05
-9.198144525267892e-06   1.1339905816079012e-06   -4.1143594361712403e-05
-9.198144525267892e-06   1.1339905816079012e-06   -4.1143594361712403e-05
-9.198144525267892e-06   1.1339905816079012e-06   -4.1143594361712403e-05
-9.198144525267892e-06   1.1339905816079012e-06   -4.1143594361712403e-05
-2.7827995566014844e-06   2.7110180474160684e-06   -2.950513626778339e-05
-2.7827995566014844e-06   2.7110180474160684e-06   -2.950513626778339e-05
-2.7827995566014844e-06   2.7110180474160684e-06   -2.950513626778339e-05
-2.7827995566014844e-06   2.7110180474160684e-06   -2.950513626778339e-05
-2.4577811078581432e-06   2.600144336154745e-06   -4.132164247299362e-05
-2.4577811078581432e-06   2.600144336154745e-06   -4.132164247299362e-05
-2.4577811078581432e-06   2.600144336154745e-06   -4.132164247299362e-05
-2.4577811078581432e-06   2.600144336154745e-06   -4.132164247299362e-05
-8.986013351680472e-06   4.045136030940465e-06   -3.130825041682754e-05
-8.986013351680472e-06   4.045136030940465e-06   -3.130825041682754e-05
-8.986013351680472e-06   4.045136030940465e-06   -3.130825041682754e-05
-8.986013351680472e-06   4.045136030940465e-06   -3.130825041682754e-05
-6.018758910268923e-06   2.248683181996485e-06   -3.517580277648041e-05
-6.018758910268923e-06   2.248683181996485e-06   -3.517580277648041e-05
-6.018758910268923e-06   2.248683181996485e-06   -3.517580277648041e-05
-6.018758910268923e-06   2.248683181996485e-06   -3.517580277648041e-05
-3.56185487647392e-06   -2.7102839316817205e-06   -2.2240013411414534e-05
-3.56185487647392e-06   -2.7102839316817205e-06   -2.2240013411414534e-05
-3.56185487647392e-06   -2.7102839316817205e-06   -2.2240013411414534e-05
-3.56185487647392e-06   -2.7102839316817205e-06   -2.2240013411414534e-05
9.375208205588618e-07   3.869382411007035e-07   -1.2882720612690372e-05
9.375208205588618e-07   3.869382411007035e-07   -1.2882720612690372e-05
9.375208205588618e-07   3.869382411007035e-07   -1.2882720612690372e-05
9.375208205588618e-07   3.869382411007035e-07   -1.2882720612690372e-05
2.5917466397917712e-06   -1.8098196746403053e-06   -2.1241015561648672e-05
2.5917466397917712e-06   -1.8098196746403053e-06   -2.1241015561648672e-05
2.5917466397917712e-06   -1.8098196746403053e-06   -2.1241015561648672e-05
2.5917466397917712e-06   -1.8098196746403053e-06   -2.1241015561648672e-05
-3.2483004568081624e-06   1.3764767401612185e-06   -1.3419381582862748e-05
-3.2483004568081624e-06   1.3764767401612185e-06   -1.3419381582862748e-05
-3.2483004568081624e-06   1.3764767401612185e-06   -1.3419381582862748e-05
-3.2483004568081624e-06   1.3764767401612185e-06   -1.3419381582862748e-05
-7.989752984338395e-07   -5.555503169883333e-07   -1.634237394586421e-05
-7.989752984338395e-07   -5.555503169883333e-07   -1.634237394586421e-05
-7.989752984338395e-07   -5.555503169883333e-07   -1.634237394586421e-05
-7.989752984338395e-07   -5.555503169883333e-07   -1.634237394586421e-05
-3.248300456808149e-06   -1.8098196746403053e-06   -2.315279341052925e-05
-3.248300456808149e-06   -1.8098196746403053e-06   -2.315279341052925e-05
-3.248300456808149e-06   -1.8098196746403053e-06   -2.315279341052925e-05
-3.248300456808149e-06   -1.8098196746403053e-06   -2.315279341052925e-05
2.5917466397917712e-06   1.3764767401610017e-06   -1.1507603733981872e-05
2.5917466397917712e-06   1.3764767401610017e-06   -1.1507603733981872e-05
2.5917466397917712e-06   1.3764767401610017e-06   -1.1507603733981872e-05
2.5917466397917712e-06   1.3764767401610017e-06   -1.1507603733981872e-05
3.8979120412117256e-06   -1.1880940693080643e-06   -2.239956284193315e-05
3.8979120412117256e-06   -1.1880940693080643e-06   -2.239956284193315e-05
3.8979120412117256e-06   -1.1880940693080643e-06   -2.239956284193315e-05
3.8979120412117256e-06   -1.1880940693080643e-06   -2.239956284193315e-05
-2.782799556601471e-06   1.9330120497186142e-06   -1.3137707183660298e-05
-2.782799556601471e-06   1.9330120497186142e-06   -1.3137707183660298e-05
-2.782799556601471e-06   1.9330120497186142e-06   -1.3137707183660298e-05
-2.782799556601471e-06   1.9330120497186142e-06   -1.3137707183660298e-05
4.059458849126253e-08   -8.178916561488343e-08   -1.6634483362947992e-05
4.059458849126253e-08   -8.178916561488343e-08   -1.6634483362947992e-05
4.059458849126253e-08   -8.178916561488343e-08   -1.6634483362947992e-05
4.059458849126253e-08   -8.178916561488343e-08   -1.6634483362947992e-05
-2.782799556601471e-06   -1.1880940693080643e-06   -2.427222651334908e-05
-2.782799556601471e-06   -1.1880940693080643e-06   -2.427222651334908e-05
-2.782799556601471e-06   -1.1880940693080643e-06   -2.427222651334908e-05
-2.782799556601471e-06   -1.1880940693080643e-06   -2.427222651334908e-05
3.8979120412117256e-06   1.9330120497186142e-06   -1.1265043512244366e-05
3.8979120412117256e-06   1.9330120497186142e-06   -1.1265043512244366e-05
3.8979120412117256e-06   1.9330120497186142e-06   -1.1265043512244366e-05
3.8979120412117256e-06   1.9330120497186142e-06   -1.1265043512244366e-05
5.5459899789910385e-06   3.4265567568471725e-08   -2.5093612049278513e-05
5.5459899789910385e-06   3.4265567568471725e-08   -2.5093612049278513e-05
5.5459899789910385e-06   3.4265567568471725e-08   -2.5093612049278513e-05
5.5459899789910385e-06   3.4265567568471725e-08   -2.5093612049278513e-05
-2.4577811078581568e-06   2.9200541037533844e-06   -1.3485466692906987e-05
-2.4577811078581568e-06   2.9200541037533844e-06   -1.3485466692906987e-05
-2.4577811078581568e-06   2.9200541037533844e-06   -1.3485466692906987e-05
-2.4577811078581568e-06   2.9200541037533844e-06   -1.3485466692906987e-05
7.622208974266632e-07   4.5908200743335903e-07   -1.737555344392364e-05
7.622208974266632e-07   4.5908200743335903e-07   -1.737555344392364e-05
7.622208974266632e-07   4.5908200743335903e-07   -1.737555344392364e-05
7.622208974266632e-07   4.5908200743335903e-07   -1.737555344392364e-05
-1.0549584455378134e-05   1.9866917272020387e-06   -1.891103534976612e-05
-1.0549584455378134e-05   1.9866917272020387e-06   -1.891103534976612e-05
-1.0549584455378134e-05   1.9866917272020387e-06   -1.891103534976612e-05
-1.0549584455378134e-05   1.9866917272020387e-06   -1.891103534976612e-05
-1.0688393983475391e-05   -9.23542529956186e-07   -2.0888525117556365e-05
-1.0688393983475391e-05   -9.23542529956186e-07   -2.0888525117556365e-05
-1.0688393983475391e-05   -9.23542529956186e-07   -2.0888525117556365e-05
-1.0688393983475391e-05   -9.23542529956186e-07   -2.0888525117556365e-05
-1.0152855916327865e-05   3.0934447339410996e-06   -1.7768221639485014e-05
-1.0152855916327865e-05   3.0934447339410996e-06   -1.7768221639485014e-05
-1.0152855916327865e-05   3.0934447339410996e-06   -1.7768221639485014e-05
-1.0152855916327865e-05   3.0934447339410996e-06   -1.7768221639485014e-05
-8.707134280448899e-06   -2.8163948305459652e-08   -1.8304792489935457e-05
-8.707134280448899e-06   -2.8163948305459652e-08   -1.8304792489935457e-05
-8.707134280448899e-06   -2.8163948305459652e-08   -1.8304792489935457e-05
-8.707134280448899e-06   -2.8163948305459652e-08   -1.8304792489935457e-05
-9.586321566944214e-06   1.3676946032806572e-06   -1.767699547672888e-05
-9.586321566944214e-06   1.3676946032806572e-06   -1.767699547672888e-05
-9.586321566944214e-06   1.3676946032806572e-06   -1.767699547672888e-05
-9.586321566944214e-06   1.3676946032806572e-06   -1.767699547672888e-05
-8.707134280448844e-06   3.0934447339410996e-06   -1.5895256430137144e-05
-8.707134280448844e-06   3.0934447339410996e-06   -1.5895256430137144e-05
-8.707134280448844e-06   3.0934447339410996e-06   -1.5895256430137144e-05
-8.707134280448844e-06   3.0934447339410996e-06   -1.5895256430137144e-05
-1.0152855916327892e-05   -2.8163948305459652e-08   -2.017775769928349e-05
-1.0152855916327892e-05   -2.8163948305459652e-08   -2.017775769928349e-05
-1.0152855916327892e-05   -2.8163948305459652e-08   -2.017775769928349e-05
-1.0152855916327892e-05   -2.8163948305459652e-08   -2.017775769928349e-05
-9.477341264680717e-06   3.6526044982145445e-06   -1.648906776430042e-05
-9.477341264680717e-06   3.6526044982145445e-06   -1.648906776430042e-05
-9.477341264680717e-06   3.6526044982145445e-06   -1.648906776430042e-05
-9.477341264680717e-06   3.6526044982145445e-06   -1.648906776430042e-05
-7.183424152319457e-06   4.783077856671154e-07   -1.8407684924040676e-05
-7.183424152319457e-06   4.783077856671154e-07   -1.8407684924040676e-05
-7.183424152319457e-06   4.783077856671154e-07   -1.8407684924040676e-05
-7.183424152319457e-06   4.783077856671154e-07   -1.8407684924040676e-05
-8.713946486479533e-06   1.8273727095932581e-06   -1.666625332146345e-05
-8.713946486479533e-06   1.8273727095932581e-06   -1.666625332146345e-05
-8.713946486479533e-06   1.8273727095932581e-06   -1.666625332146345e-05
-8.713946486479533e-06   1.8273727095932581e-06   -1.666625332146345e-05
-7.183424152319403e-06   3.6526044982145445e-06   -1.4584489736771855e-05
-7.183424152319403e-06   3.6526044982145445e-06   -1.4584489736771855e-05
-7.183424152319403e-06   3.6526044982145445e-06   -1.4584489736771855e-05
-7.183424152319403e-06   3.6526044982145445e-06   -1.4584489736771855e-05
-9.477341264680744e-06   4.783077856671154e-07   -2.031226295156897e-05
-9.477341264680744e-06   4.783077856671154e-07   -2.031226295156897e-05
-9.477341264680744e-06   4.783077856671154e-07   -2.031226295156897e-05
-9.477341264680744e-06   4.783077856671154e-07   -2.031226295156897e-05
-8.950381999186732e-06   4.5383254870863966e-06   -1.5299582764184e-05
-8.950381999186732e-06   4.5383254870863966e-06   -1.5299582764184e-05
-8.950381999186732e-06   4.5383254870863966e-06   -1.5299582764184e-05
-8.950381999186732e-06   4.5383254870863966e-06   -1.5299582764184e-05
-5.3021316513164195e-06   1.4884435131003876e-06   -1.9550070826242997e-05
-5.3021316513164195e-06   1.4884435131003876e-06   -1.9550070826242997e-05
-5.3021316513164195e-06   1.4884435131003876e-06   -1.9550070826242997e-05
-5.3021316513164195e-06   1.4884435131003876e-06   -1.9550070826242997e-05
-7.623490520968819e-06   2.2678525954059753e-06   -1.6148784826205715e-05
-7.623490520968819e-06   2.2678525954059753e-06   -1.6148784826205715e-05
-7.623490520968819e-06   2.2678525954059753e-06   -1.6148784826205715e-05
-7.623490520968819e-06   2.2678525954059753e-06   -1.6148784826205715e-05
-1.0688393983475364e-05   1.1404452929535038e-06   -3.437786705414391e-05
-1.0688393983475364e-05   1.1404452929535038e-06   -3.437786705414391e-05
-1.0688393983475364e-05   1.1404452929535038e-06   -3.437786705414391e-05
-1.0688393983475364e-05   1.1404452929535038e-06   -3.437786705414391e-05
-1.2312892007423776e-05   -2.0016697793029392e-07   -3.788973112325497e-05
-1.2312892007423776e-05   -2.0016697793029392e-07   -3.788973112325497e-05
-1.2312892007423776e-05   -2.0016697793029392e-07   -3.788973112325497e-05
-1.2312892007423776e-05   -2.0016697793029392e-07   -3.788973112325497e-05
-1.188013421662409e-05   2.409494714591216e-06   -3.440374314338701e-05
-1.188013421662409e-05   2.409494714591216e-06   -3.440374314338701e-05
-1.188013421662409e-05   2.409494714591216e-06   -3.440374314338701e-05
-1.188013421662409e-05   2.409494714591216e-06   -3.440374314338701e-05
-1.0152855916327919e-05   9.295527502201518e-07   -3.6394575131924484e-05
-1.0152855916327919e-05   9.295527502201518e-07   -3.6394575131924484e-05
-1.0152855916327919e-05   9.295527502201518e-07   -3.6394575131924484e-05
-1.0152855916327919e-05   9.295527502201518e-07   -3.6394575131924484e-05
-1.1127425033699856e-05   1.3177425228750282e-06   -3.5003207133231604e-05
-1.1127425033699856e-05   1.3177425228750282e-06   -3.5003207133231604e-05
-1.1127425033699856e-05   1.3177425228750282e-06   -3.5003207133231604e-05
-1.1127425033699856e-05   1.3177425228750282e-06   -3.5003207133231604e-05
-1.0152855916327865e-05   2.409494714591216e-06   -3.3515777964764136e-05
-1.0152855916327865e-05   2.409494714591216e-06   -3.3515777964764136e-05
-1.0152855916327865e-05   2.409494714591216e-06   -3.3515777964764136e-05
-1.0152855916327865e-05   2.409494714591216e-06   -3.3515777964764136e-05
-1.1880134216624077e-05   9.295527502201518e-07   -3.728254031054731e-05
-1.1880134216624077e-05   9.295527502201518e-07   -3.728254031054731e-05
-1.1880134216624077e-05   9.295527502201518e-07   -3.728254031054731e-05
-1.1880134216624077e-05   9.295527502201518e-07   -3.728254031054731e-05
-1.143005127261169e-05   3.589488148344252e-06   -3.411536143175923e-05
-1.143005127261169e-05   3.589488148344252e-06   -3.411536143175923e-05
-1.143005127261169e-05   3.589488148344252e-06   -3.411536143175923e-05
-1.143005127261169e-05   3.589488148344252e-06   -3.411536143175923e-05
-9.477341264680771e-06   2.017199419106653e-06   -3.642650487410156e-05
-9.477341264680771e-06   2.017199419106653e-06   -3.642650487410156e-05
-9.477341264680771e-06   2.017199419106653e-06   -3.642650487410156e-05
-9.477341264680771e-06   2.017199419106653e-06   -3.642650487410156e-05
-1.0693771539775632e-05   2.228499501487867e-06   -3.452590113170548e-05
-1.0693771539775632e-05   2.228499501487867e-06   -3.452590113170548e-05
-1.0693771539775632e-05   2.228499501487867e-06   -3.452590113170548e-05
-1.0693771539775632e-05   2.228499501487867e-06   -3.452590113170548e-05
-9.477341264680717e-06   3.589488148344252e-06   -3.3171988194216693e-05
-9.477341264680717e-06   3.589488148344252e-06   -3.3171988194216693e-05
-9.477341264680717e-06   3.589488148344252e-06   -3.3171988194216693e-05
-9.477341264680717e-06   3.589488148344252e-06   -3.3171988194216693e-05
-1.1430051272611649e-05   2.017199419106653e-06   -3.736987811164415e-05
-1.1430051272611649e-05   2.017199419106653e-06   -3.736987811164415e-05
-1.1430051272611649e-05   2.017199419106653e-06   -3.736987811164415e-05
-1.1430051272611649e-05   2.017199419106653e-06   -3.736987811164415e-05
-1.1006135776398977e-05   4.9006409831337146e-06   -3.4680362258523566e-05
-1.1006135776398977e-05   4.9006409831337146e-06   -3.4680362258523566e-05
-1.1006135776398977e-05   4.9006409831337146e-06   -3.4680362258523566e-05
-1.1006135776398977e-05   4.9006409831337146e-06   -3.4680362258523566e-05
-8.95038199918676e-06   3.2591527306948757e-06   -3.712172560241348e-05
-8.95038199918676e-06   3.2591527306948757e-06   -3.712172560241348e-05
-8.95038199918676e-06   3.2591527306948757e-06   -3.712172560241348e-05
-8.95038199918676e-06   3.2591527306948757e-06   -3.712172560241348e-05
-1.0312215799643433e-05   3.183856398549e-06   -3.4806824802365043e-05
-1.0312215799643433e-05   3.183856398549e-06   -3.4806824802365043e-05
-1.0312215799643433e-05   3.183856398549e-06   -3.4806824802365043e-05
-1.0312215799643433e-05   3.183856398549e-06   -3.4806824802365043e-05
-1.231289200742375e-05   6.535145441997642e-07   -4.003504509446994e-05
-1.231289200742375e-05   6.535145441997642e-07   -4.003504509446994e-05
-1.231289200742375e-05   6.535145441997642e-07   -4.003504509446994e-05
-1.231289200742375e-05   6.535145441997642e-07   -4.003504509446994e-05
-1.4023811289146843e-05   9.367109804611293e-07   -4.271665936891834e-05
-1.4023811289146843e-05   9.367109804611293e-07   -4.271665936891834e-05
-1.4023811289146843e-05   9.367109804611293e-07   -4.271665936891834e-05
-1.4023811289146843e-05   9.367109804611293e-07   -4.271665936891834e-05
-1.3598501268285702e-05   1.9460384877224065e-06   -3.9418226373693385e-05
-1.3598501268285702e-05   1.9460384877224065e-06   -3.9418226373693385e-05
-1.3598501268285702e-05   1.9460384877224065e-06   -3.9418226373693385e-05
-1.3598501268285702e-05   1.9460384877224065e-06   -3.9418226373693385e-05
-1.188013421662409e-05   2.104342218201211e-06   -4.237715369808325e-05
-1.188013421662409e-05   2.104342218201211e-06   -4.237715369808325e-05
-1.188013421662409e-05   2.104342218201211e-06   -4.237715369808325e-05
-1.188013421662409e-05   2.104342218201211e-06   -4.237715369808325e-05
-1.287585400874419e-05   1.5920070357449464e-06   -4.041021960174315e-05
-1.287585400874419e-05   1.5920070357449464e-06   -4.041021960174315e-05
-1.287585400874419e-05   1.5920070357449464e-06   -4.041021960174315e-05
-1.287585400874419e-05   1.5920070357449464e-06   -4.041021960174315e-05
-1.1880134216624022e-05   1.9460384877224065e-06   -3.951320861198047e-05
-1.1880134216624022e-05   1.9460384877224065e-06   -3.951320861198047e-05
-1.1880134216624022e-05   1.9460384877224065e-06   -3.951320861198047e-05
-1.1880134216624022e-05   1.9460384877224065e-06   -3.951320861198047e-05
-1.3598501268285722e-05   2.104342218201211e-06   -4.228217145979616e-05
-1.3598501268285722e-05   2.104342218201211e-06   -4.228217145979616e-05
-1.3598501268285722e-05   2.104342218201211e-06   -4.228217145979616e-05
-1.3598501268285722e-05   2.104342218201211e-06   -4.228217145979616e-05
-1.315118762461298e-05   3.2498867352699374e-06   -3.953263435262891e-05
-1.315118762461298e-05   3.2498867352699374e-06   -3.953263435262891e-05
-1.315118762461298e-05   3.2498867352699374e-06   -3.953263435262891e-05
-1.315118762461298e-05   3.2498867352699374e-06   -3.953263435262891e-05
-1.143005127261169e-05   3.2976460480700544e-06   -4.2429850526977294e-05
-1.143005127261169e-05   3.2976460480700544e-06   -4.2429850526977294e-05
-1.143005127261169e-05   3.2976460480700544e-06   -4.2429850526977294e-05
-1.143005127261169e-05   3.2976460480700544e-06   -4.2429850526977294e-05
-1.2518917777911125e-05   2.5908213201015703e-06   -4.019097818136458e-05
-1.2518917777911125e-05   2.5908213201015703e-06   -4.019097818136458e-05
-1.2518917777911125e-05   2.5908213201015703e-06   -4.019097818136458e-05
-1.2518917777911125e-05   2.5908213201015703e-06   -4.019097818136458e-05
-1.1430051272611649e-05   3.2498867352701542e-06   -3.9561289940308656e-05
-1.1430051272611649e-05   3.2498867352701542e-06   -3.9561289940308656e-05
-1.1430051272611649e-05   3.2498867352701542e-06   -3.9561289940308656e-05
-1.1430051272611649e-05   3.2498867352701542e-06   -3.9561289940308656e-05
-1.315118762461298e-05   3.2976460480700544e-06   -4.240119493929752e-05
-1.315118762461298e-05   3.2976460480700544e-06   -4.240119493929752e-05
-1.315118762461298e-05   3.2976460480700544e-06   -4.240119493929752e-05
-1.315118762461298e-05   3.2976460480700544e-06   -4.240119493929752e-05
-1.2729305893778933e-05   4.573410741635486e-06   -4.029994617290027e-05
-1.2729305893778933e-05   4.573410741635486e-06   -4.029994617290027e-05
-1.2729305893778933e-05   4.573410741635486e-06   -4.029994617290027e-05
-1.2729305893778933e-05   4.573410741635486e-06   -4.029994617290027e-05
-1.100613577639899e-05   4.5074625149193245e-06   -4.313232743250367e-05
-1.100613577639899e-05   4.5074625149193245e-06   -4.313232743250367e-05
-1.100613577639899e-05   4.5074625149193245e-06   -4.313232743250367e-05
-1.100613577639899e-05   4.5074625149193245e-06   -4.313232743250367e-05
-1.219038180323822e-05   3.603610822523664e-06   -4.06162730390008e-05
-1.219038180323822e-05   3.603610822523664e-06   -4.06162730390008e-05
-1.219038180323822e-05   3.603610822523664e-06   -4.06162730390008e-05
-1.219038180323822e-05   3.603610822523664e-06   -4.06162730390008e-05
-1.4023811289146795e-05   2.7917324859662307e-07   -3.4539760546316994e-05
-1.4023811289146795e-05   2.7917324859662307e-07   -3.4539760546316994e-05
-1.4023811289146795e-05   2.7917324859662307e-07   -3.4539760546316994e-05
-1.4023811289146795e-05   2.7917324859662307e-07   -3.4539760546316994e-05
-1.5830240860859675e-05   2.0820134130946754e-06   -3.646877240047301e-05
-1.5830240860859675e-05   2.0820134130946754e-06   -3.646877240047301e-05
-1.5830240860859675e-05   2.0820134130946754e-06   -3.646877240047301e-05
-1.5830240860859675e-05   2.0820134130946754e-06   -3.646877240047301e-05
-1.531565475213406e-05   1.531173742861389e-06   -3.302147943608604e-05
-1.531565475213406e-05   1.531173742861389e-06   -3.302147943608604e-05
-1.531565475213406e-05   1.531173742861389e-06   -3.302147943608604e-05
-1.531565475213406e-05   1.531173742861389e-06   -3.302147943608604e-05
-1.3598501268285702e-05   3.2535719157191466e-06   -3.691684081288095e-05
-1.3598501268285702e-05   3.2535719157191466e-06   -3.691684081288095e-05
-1.3598501268285702e-05   3.2535719157191466e-06   -3.691684081288095e-05
-1.3598501268285702e-05   3.2535719157191466e-06   -3.691684081288095e-05
-1.457850798728091e-05   1.9170048838113886e-06   -3.448155606207808e-05
-1.457850798728091e-05   1.9170048838113886e-06   -3.448155606207808e-05
-1.457850798728091e-05   1.9170048838113886e-06   -3.448155606207808e-05
-1.457850798728091e-05   1.9170048838113886e-06   -3.448155606207808e-05
-1.3598501268285677e-05   1.531173742861389e-06   -3.405491833980052e-05
-1.3598501268285677e-05   1.531173742861389e-06   -3.405491833980052e-05
-1.3598501268285677e-05   1.531173742861389e-06   -3.405491833980052e-05
-1.3598501268285677e-05   1.531173742861389e-06   -3.405491833980052e-05
-1.531565475213406e-05   3.2535719157191466e-06   -3.5883401909166655e-05
-1.531565475213406e-05   3.2535719157191466e-06   -3.5883401909166655e-05
-1.531565475213406e-05   3.2535719157191466e-06   -3.5883401909166655e-05
-1.531565475213406e-05   3.2535719157191466e-06   -3.5883401909166655e-05
-1.4650717559880618e-05   2.7110180474162852e-06   -3.316450249068992e-05
-1.4650717559880618e-05   2.7110180474162852e-06   -3.316450249068992e-05
-1.4650717559880618e-05   2.7110180474162852e-06   -3.316450249068992e-05
-1.4650717559880618e-05   2.7110180474162852e-06   -3.316450249068992e-05
-1.3151187624612954e-05   4.334372328518429e-06   -3.6637731618130514e-05
-1.3151187624612954e-05   4.334372328518429e-06   -3.6637731618130514e-05
-1.3151187624612954e-05   4.334372328518429e-06   -3.6637731618130514e-05
-1.3151187624612954e-05   4.334372328518429e-06   -3.6637731618130514e-05
-1.4118622893560353e-05   2.846479879056122e-06   -3.413260403354121e-05
-1.4118622893560353e-05   2.846479879056122e-06   -3.413260403354121e-05
-1.4118622893560353e-05   2.846479879056122e-06   -3.413260403354121e-05
-1.4118622893560353e-05   2.846479879056122e-06   -3.413260403354121e-05
-1.3151187624612922e-05   2.7110180474160684e-06   -3.4138515059351144e-05
-1.3151187624612922e-05   2.7110180474160684e-06   -3.4138515059351144e-05
-1.3151187624612922e-05   2.7110180474160684e-06   -3.4138515059351144e-05
-1.3151187624612922e-05   2.7110180474160684e-06   -3.4138515059351144e-05
-1.4650717559880645e-05   4.334372328518429e-06   -3.5663719049469286e-05
-1.4650717559880645e-05   4.334372328518429e-06   -3.5663719049469286e-05
-1.4650717559880645e-05   4.334372328518429e-06   -3.5663719049469286e-05
-1.4650717559880645e-05   4.334372328518429e-06   -3.5663719049469286e-05
-1.4128330651241682e-05   4.045136030940465e-06   -3.4084350368257174e-05
-1.4128330651241682e-05   4.045136030940465e-06   -3.4084350368257174e-05
-1.4128330651241682e-05   4.045136030940465e-06   -3.4084350368257174e-05
-1.4128330651241682e-05   4.045136030940465e-06   -3.4084350368257174e-05
-1.2729305893778933e-05   5.5456481947995136e-06   -3.731636559567723e-05
-1.2729305893778933e-05   5.5456481947995136e-06   -3.731636559567723e-05
-1.2729305893778933e-05   5.5456481947995136e-06   -3.731636559567723e-05
-1.2729305893778933e-05   5.5456481947995136e-06   -3.731636559567723e-05
-1.3774111594055264e-05   3.7964155487789017e-06   -3.452548317427041e-05
-1.3774111594055264e-05   3.7964155487789017e-06   -3.452548317427041e-05
-1.3774111594055264e-05   3.7964155487789017e-06   -3.452548317427041e-05
-1.3774111594055264e-05   3.7964155487789017e-06   -3.452548317427041e-05
-1.583024086085962e-05   3.869382411007035e-07   -1.840837407251063e-05
-1.583024086085962e-05   3.869382411007035e-07   -1.840837407251063e-05
-1.583024086085962e-05   3.869382411007035e-07   -1.840837407251063e-05
-1.583024086085962e-05   3.869382411007035e-07   -1.840837407251063e-05
-1.9170844989433643e-05   3.4985650978326763e-06   -2.2109071506094856e-05
-1.9170844989433643e-05   3.4985650978326763e-06   -2.2109071506094856e-05
-1.9170844989433643e-05   3.4985650978326763e-06   -2.2109071506094856e-05
-1.9170844989433643e-05   3.4985650978326763e-06   -2.2109071506094856e-05
-1.7343589026659004e-05   1.3764767401612185e-06   -1.517731749312609e-05
-1.7343589026659004e-05   1.3764767401612185e-06   -1.517731749312609e-05
-1.7343589026659004e-05   1.3764767401612185e-06   -1.517731749312609e-05
-1.7343589026659004e-05   1.3764767401612185e-06   -1.517731749312609e-05
-1.5315654752134033e-05   4.560667762519132e-06   -2.0467722564082358e-05
-1.5315654752134033e-05   4.560667762519132e-06   -2.0467722564082358e-05
-1.5315654752134033e-05   4.560667762519132e-06   -2.0467722564082358e-05
-1.5315654752134033e-05   4.560667762519132e-06   -2.0467722564082358e-05
-1.6230500424068522e-05   2.5842143076431658e-06   -1.775710770459958e-05
-1.6230500424068522e-05   2.5842143076431658e-06   -1.775710770459958e-05
-1.6230500424068522e-05   2.5842143076431658e-06   -1.775710770459958e-05
-1.6230500424068522e-05   2.5842143076431658e-06   -1.775710770459958e-05
-1.5315654752133992e-05   1.3764767401612185e-06   -1.708783210654062e-05
-1.5315654752133992e-05   1.3764767401612185e-06   -1.708783210654062e-05
-1.5315654752133992e-05   1.3764767401612185e-06   -1.708783210654062e-05
-1.5315654752133992e-05   1.3764767401612185e-06   -1.708783210654062e-05
-1.7343589026658977e-05   4.560667762519132e-06   -1.8557207950667745e-05
-1.7343589026658977e-05   4.560667762519132e-06   -1.8557207950667745e-05
-1.7343589026658977e-05   4.560667762519132e-06   -1.8557207950667745e-05
-1.7343589026658977e-05   4.560667762519132e-06   -1.8557207950667745e-05
-1.5857371887556293e-05   1.933012049718831e-06   -1.4928694910684107e-05
-1.5857371887556293e-05   1.933012049718831e-06   -1.4928694910684107e-05
-1.5857371887556293e-05   1.933012049718831e-06   -1.4928694910684107e-05
-1.5857371887556293e-05   1.933012049718831e-06   -1.4928694910684107e-05
-1.4650717559880618e-05   5.046976209523027e-06   -1.88081639526928e-05
-1.4650717559880618e-05   5.046976209523027e-06   -1.88081639526928e-05
-1.4650717559880618e-05   5.046976209523027e-06   -1.88081639526928e-05
-1.4650717559880618e-05   5.046976209523027e-06   -1.88081639526928e-05
-1.545039227294905e-05   3.0759113723304206e-06   -1.62927338619301e-05
-1.545039227294905e-05   3.0759113723304206e-06   -1.62927338619301e-05
-1.545039227294905e-05   3.0759113723304206e-06   -1.62927338619301e-05
-1.545039227294905e-05   3.0759113723304206e-06   -1.62927338619301e-05
-1.465071755988059e-05   1.933012049718831e-06   -1.6797073406566777e-05
-1.465071755988059e-05   1.933012049718831e-06   -1.6797073406566777e-05
-1.465071755988059e-05   1.933012049718831e-06   -1.6797073406566777e-05
-1.465071755988059e-05   1.933012049718831e-06   -1.6797073406566777e-05
-1.5857371887556293e-05   5.0469762095228105e-06   -1.6939785456810156e-05
-1.5857371887556293e-05   5.0469762095228105e-06   -1.6939785456810156e-05
-1.5857371887556293e-05   5.0469762095228105e-06   -1.6939785456810156e-05
-1.5857371887556293e-05   5.0469762095228105e-06   -1.6939785456810156e-05
-1.4039715163471445e-05   2.9200541037531676e-06   -1.540023694658328e-05
-1.4039715163471445e-05   2.9200541037531676e-06   -1.540023694658328e-05
-1.4039715163471445e-05   2.9200541037531676e-06   -1.540023694658328e-05
-1.4039715163471445e-05   2.9200541037531676e-06   -1.540023694658328e-05
-1.4128330651241654e-05   5.800595294795045e-06   -1.698086918159103e-05
-1.4128330651241654e-05   5.800595294795045e-06   -1.698086918159103e-05
-1.4128330651241654e-05   5.800595294795045e-06   -1.698086918159103e-05
-1.4128330651241654e-05   5.800595294795045e-06   -1.698086918159103e-05
-1.4303060930926152e-05   3.4734650413061757e-06   -1.5293373896690102e-05
-1.4303060930926152e-05   3.4734650413061757e-06   -1.5293373896690102e-05
-1.4303060930926152e-05   3.4734650413061757e-06   -1.5293373896690102e-05
-1.4303060930926152e-05   3.4734650413061757e-06   -1.5293373896690102e-05
9.334845137099412e-06   -9.235425299559692e-07   -9.577850979269995e-06
9.334845137099412e-06   -9.235425299559692e-07   -9.577850979269995e-06
9.334845137099412e-06   -9.235425299559692e-07   -9.577850979269995e-06
9.334845137099412e-06   -9.235425299559692e-07   -9.577850979269995e-06
9.572427685980824e-07   -3.8859186137604924e-06   -2.5317947243721464e-05
9.572427685980824e-07   -3.8859186137604924e-06   -2.5317947243721464e-05
9.572427685980824e-07   -3.8859186137604924e-06   -2.5317947243721464e-05
9.572427685980824e-07   -3.8859186137604924e-06   -2.5317947243721464e-05
1.6914920459385884e-06   -2.8163948305459652e-08   -1.0580860009455845e-05
1.6914920459385884e-06   -2.8163948305459652e-08   -1.0580860009455845e-05
1.6914920459385884e-06   -2.8163948305459652e-08   -1.0580860009455845e-05
1.6914920459385884e-06   -2.8163948305459652e-08   -1.0580860009455845e-05
1.1385474375431664e-05   -3.1933150166235397e-06   -2.4838406584286755e-05
1.1385474375431664e-05   -3.1933150166235397e-06   -2.4838406584286755e-05
1.1385474375431664e-05   -3.1933150166235397e-06   -2.4838406584286755e-05
1.1385474375431664e-05   -3.1933150166235397e-06   -2.4838406584286755e-05
5.624611156536917e-06   -1.621256778224162e-06   -1.6180202829168525e-05
5.624611156536917e-06   -1.621256778224162e-06   -1.6180202829168525e-05
5.624611156536917e-06   -1.621256778224162e-06   -1.6180202829168525e-05
5.624611156536917e-06   -1.621256778224162e-06   -1.6180202829168525e-05
1.1385474375431664e-05   -2.8163948305459652e-08   -8.681769368464954e-06
1.1385474375431664e-05   -2.8163948305459652e-08   -8.681769368464954e-06
1.1385474375431664e-05   -2.8163948305459652e-08   -8.681769368464954e-06
1.1385474375431664e-05   -2.8163948305459652e-08   -8.681769368464954e-06
1.6914920459385884e-06   -3.1933150166237566e-06   -2.6737497225277863e-05
1.6914920459385884e-06   -3.1933150166237566e-06   -2.6737497225277863e-05
1.6914920459385884e-06   -3.1933150166237566e-06   -2.6737497225277863e-05
1.6914920459385884e-06   -3.1933150166237566e-06   -2.6737497225277863e-05
2.5570215312286325e-06   4.783077856671154e-07   -1.0661725520670151e-05
2.5570215312286325e-06   4.783077856671154e-07   -1.0661725520670151e-05
2.5570215312286325e-06   4.783077856671154e-07   -1.0661725520670151e-05
2.5570215312286325e-06   4.783077856671154e-07   -1.0661725520670151e-05
1.311888140145763e-05   -2.731614750361034e-06   -2.6338871782768253e-05
1.311888140145763e-05   -2.731614750361034e-06   -2.6338871782768253e-05
1.311888140145763e-05   -2.731614750361034e-06   -2.6338871782768253e-05
1.311888140145763e-05   -2.731614750361034e-06   -2.6338871782768253e-05
6.925441501174276e-06   -1.2976513966134456e-06   -1.687684996121196e-05
6.925441501174276e-06   -1.2976513966134456e-06   -1.687684996121196e-05
6.925441501174276e-06   -1.2976513966134456e-06   -1.687684996121196e-05
6.925441501174276e-06   -1.2976513966134456e-06   -1.687684996121196e-05
1.311888140145763e-05   4.783077856671154e-07   -8.735771999053175e-06
1.311888140145763e-05   4.783077856671154e-07   -8.735771999053175e-06
1.311888140145763e-05   4.783077856671154e-07   -8.735771999053175e-06
1.311888140145763e-05   4.783077856671154e-07   -8.735771999053175e-06
2.5570215312286054e-06   -2.731614750361034e-06   -2.8264825304385338e-05
2.5570215312286054e-06   -2.731614750361034e-06   -2.8264825304385338e-05
2.5570215312286054e-06   -2.731614750361034e-06   -2.8264825304385338e-05
2.5570215312286054e-06   -2.731614750361034e-06   -2.8264825304385338e-05
3.2695913103150827e-06   1.4884435131003876e-06   -1.1681983077823071e-05
3.2695913103150827e-06   1.4884435131003876e-06   -1.1681983077823071e-05
3.2695913103150827e-06   1.4884435131003876e-06   -1.1681983077823071e-05
3.2695913103150827e-06   1.4884435131003876e-06   -1.1681983077823071e-05
1.5201130966770908e-05   -1.5682001386009732e-06   -2.973389631422867e-05
1.5201130966770908e-05   -1.5682001386009732e-06   -2.973389631422867e-05
1.5201130966770908e-05   -1.5682001386009732e-06   -2.973389631422867e-05
1.5201130966770908e-05   -1.5682001386009732e-06   -2.973389631422867e-05
7.960482292916079e-06   -8.224834080079995e-07   -1.81135785628272e-05
7.960482292916079e-06   -8.224834080079995e-07   -1.81135785628272e-05
7.960482292916079e-06   -8.224834080079995e-07   -1.81135785628272e-05
7.960482292916079e-06   -8.224834080079995e-07   -1.81135785628272e-05
9.572427685980824e-07   -2.0016697793029392e-07   -2.755211527272097e-05
9.572427685980824e-07   -2.0016697793029392e-07   -2.755211527272097e-05
9.572427685980824e-07   -2.0016697793029392e-07   -2.755211527272097e-05
9.572427685980824e-07   -2.0016697793029392e-07   -2.755211527272097e-05
-8.82029296932755e-06   -1.5372647864852953e-06   -4.4650266854396464e-05
-8.82029296932755e-06   -1.5372647864852953e-06   -4.4650266854396464e-05
-8.82029296932755e-06   -1.5372647864852953e-06   -4.4650266854396464e-05
-8.82029296932755e-06   -1.5372647864852953e-06   -4.4650266854396464e-05
-8.176180826482461e-06   9.295527502201518e-07   -2.7708052252255894e-05
-8.176180826482461e-06   9.295527502201518e-07   -2.7708052252255894e-05
-8.176180826482461e-06   9.295527502201518e-07   -2.7708052252255894e-05
-8.176180826482461e-06   9.295527502201518e-07   -2.7708052252255894e-05
1.6914920459385884e-06   -5.877386000450839e-07   -4.324379889613224e-05
1.6914920459385884e-06   -5.877386000450839e-07   -4.324379889613224e-05
1.6914920459385884e-06   -5.877386000450839e-07   -4.324379889613224e-05
1.6914920459385884e-06   -5.877386000450839e-07   -4.324379889613224e-05
-3.5040201007661975e-06   -5.8168286179091644e-08   -3.4902354173277144e-05
-3.5040201007661975e-06   -5.8168286179091644e-08   -3.4902354173277144e-05
-3.5040201007661975e-06   -5.8168286179091644e-08   -3.4902354173277144e-05
-3.5040201007661975e-06   -5.8168286179091644e-08   -3.4902354173277144e-05
1.6914920459386155e-06   9.295527502201518e-07   -2.6797677442096947e-05
1.6914920459386155e-06   9.295527502201518e-07   -2.6797677442096947e-05
1.6914920459386155e-06   9.295527502201518e-07   -2.6797677442096947e-05
1.6914920459386155e-06   9.295527502201518e-07   -2.6797677442096947e-05
-8.176180826482461e-06   -5.877386000450839e-07   -4.4154173706291346e-05
-8.176180826482461e-06   -5.877386000450839e-07   -4.4154173706291346e-05
-8.176180826482461e-06   -5.877386000450839e-07   -4.4154173706291346e-05
-8.176180826482461e-06   -5.877386000450839e-07   -4.4154173706291346e-05
-7.528396965775599e-06   2.017199419106653e-06   -2.774984133691277e-05
-7.528396965775599e-06   2.017199419106653e-06   -2.774984133691277e-05
-7.528396965775599e-06   2.017199419106653e-06   -2.774984133691277e-05
-7.528396965775599e-06   2.017199419106653e-06   -2.774984133691277e-05
2.5570215312286325e-06   3.940762629234089e-07   -4.358499827154317e-05
2.5570215312286325e-06   3.940762629234089e-07   -4.358499827154317e-05
2.5570215312286325e-06   3.940762629234089e-07   -4.358499827154317e-05
2.5570215312286325e-06   3.940762629234089e-07   -4.358499827154317e-05
-2.9334862590417064e-06   7.216667254363301e-07   -3.4630706231933894e-05
-2.9334862590417064e-06   7.216667254363301e-07   -3.4630706231933894e-05
-2.9334862590417064e-06   7.216667254363301e-07   -3.4630706231933894e-05
-2.9334862590417064e-06   7.216667254363301e-07   -3.4630706231933894e-05
2.5570215312286325e-06   2.017199419106653e-06   -2.6775967443202738e-05
2.5570215312286325e-06   2.017199419106653e-06   -2.6775967443202738e-05
2.5570215312286325e-06   2.017199419106653e-06   -2.6775967443202738e-05
2.5570215312286325e-06   2.017199419106653e-06   -2.6775967443202738e-05
-7.528396965775599e-06   3.940762629234089e-07   -4.4558872165253094e-05
-7.528396965775599e-06   3.940762629234089e-07   -4.4558872165253094e-05
-7.528396965775599e-06   3.940762629234089e-07   -4.4558872165253094e-05
-7.528396965775599e-06   3.940762629234089e-07   -4.4558872165253094e-05
-6.9094394534097625e-06   3.2591527306948757e-06   -2.844513848520463e-05
-6.9094394534097625e-06   3.2591527306948757e-06   -2.844513848520463e-05
-6.9094394534097625e-06   3.2591527306948757e-06   -2.844513848520463e-05
-6.9094394534097625e-06   3.2591527306948757e-06   -2.844513848520463e-05
3.2695913103150556e-06   1.5567697046906057e-06   -4.438875994247697e-05
3.2695913103150556e-06   1.5567697046906057e-06   -4.438875994247697e-05
3.2695913103150556e-06   1.5567697046906057e-06   -4.438875994247697e-05
3.2695913103150556e-06   1.5567697046906057e-06   -4.438875994247697e-05
-2.2982081248347735e-06   1.5860867725210614e-06   -3.512668445792601e-05
-2.2982081248347735e-06   1.5860867725210614e-06   -3.512668445792601e-05
-2.2982081248347735e-06   1.5860867725210614e-06   -3.512668445792601e-05
-2.2982081248347735e-06   1.5860867725210614e-06   -3.512668445792601e-05
-8.820292969327577e-06   9.367109804609124e-07   -3.3351220065274095e-05
-8.820292969327577e-06   9.367109804609124e-07   -3.3351220065274095e-05
-8.820292969327577e-06   9.367109804609124e-07   -3.3351220065274095e-05
-8.820292969327577e-06   9.367109804609124e-07   -3.3351220065274095e-05
-1.851301208635294e-05   1.1808060545244903e-06   -4.935929488254515e-05
-1.851301208635294e-05   1.1808060545244903e-06   -4.935929488254515e-05
-1.851301208635294e-05   1.1808060545244903e-06   -4.935929488254515e-05
-1.851301208635294e-05   1.1808060545244903e-06   -4.935929488254515e-05
-1.786431418236023e-05   2.104342218201211e-06   -3.2754035389345824e-05
-1.786431418236023e-05   2.104342218201211e-06   -3.2754035389345824e-05
-1.786431418236023e-05   2.104342218201211e-06   -3.2754035389345824e-05
-1.786431418236023e-05   2.104342218201211e-06   -3.2754035389345824e-05
-8.176180826482488e-06   2.1853926356119914e-06   -4.8949554566255366e-05
-8.176180826482488e-06   2.1853926356119914e-06   -4.8949554566255366e-05
-8.176180826482488e-06   2.1853926356119914e-06   -4.8949554566255366e-05
-8.176180826482488e-06   2.1853926356119914e-06   -4.8949554566255366e-05
-1.3266184831702662e-05   1.8067395399902573e-06   -4.023902270018192e-05
-1.3266184831702662e-05   1.8067395399902573e-06   -4.023902270018192e-05
-1.3266184831702662e-05   1.8067395399902573e-06   -4.023902270018192e-05
-1.3266184831702662e-05   1.8067395399902573e-06   -4.023902270018192e-05
-8.176180826482488e-06   2.104342218201211e-06   -3.280266563979238e-05
-8.176180826482488e-06   2.104342218201211e-06   -3.280266563979238e-05
-8.176180826482488e-06   2.104342218201211e-06   -3.280266563979238e-05
-8.176180826482488e-06   2.104342218201211e-06   -3.280266563979238e-05
-1.786431418236023e-05   2.1853926356119914e-06   -4.890092431580884e-05
-1.786431418236023e-05   2.1853926356119914e-06   -4.890092431580884e-05
-1.786431418236023e-05   2.1853926356119914e-06   -4.890092431580884e-05
-1.786431418236023e-05   2.1853926356119914e-06   -4.890092431580884e-05
-1.7205205468910192e-05   3.2976460480700544e-06   -3.2839009095138056e-05
-1.7205205468910192e-05   3.2976460480700544e-06   -3.2839009095138056e-05
-1.7205205468910192e-05   3.2976460480700544e-06   -3.2839009095138056e-05
-1.7205205468910192e-05   3.2976460480700544e-06   -3.2839009095138056e-05
-7.528396965775626e-06   3.2489871432499207e-06   -4.893782792413711e-05
-7.528396965775626e-06   3.2489871432499207e-06   -4.893782792413711e-05
-7.528396965775626e-06   3.2489871432499207e-06   -4.893782792413711e-05
-7.528396965775626e-06   3.2489871432499207e-06   -4.893782792413711e-05
-1.2695334655158758e-05   2.683600996631003e-06   -3.998703342052783e-05
-1.2695334655158758e-05   2.683600996631003e-06   -3.998703342052783e-05
-1.2695334655158758e-05   2.683600996631003e-06   -3.998703342052783e-05
-1.2695334655158758e-05   2.683600996631003e-06   -3.998703342052783e-05
-7.528396965775626e-06   3.2976460480700544e-06   -3.2809813752246214e-05
-7.528396965775626e-06   3.2976460480700544e-06   -3.2809813752246214e-05
-7.528396965775626e-06   3.2976460480700544e-06   -3.2809813752246214e-05
-7.528396965775626e-06   3.2976460480700544e-06   -3.2809813752246214e-05
-1.7205205468910165e-05   3.2489871432499207e-06   -4.8967023267029275e-05
-1.7205205468910165e-05   3.2489871432499207e-06   -4.8967023267029275e-05
-1.7205205468910165e-05   3.2489871432499207e-06   -4.8967023267029275e-05
-1.7205205468910165e-05   3.2489871432499207e-06   -4.8967023267029275e-05
-1.6576703779033662e-05   4.5074625149193245e-06   -3.357674660027293e-05
-1.6576703779033662e-05   4.5074625149193245e-06   -3.357674660027293e-05
-1.6576703779033662e-05   4.5074625149193245e-06   -3.357674660027293e-05
-1.6576703779033662e-05   4.5074625149193245e-06   -3.357674660027293e-05
-6.9094394534097625e-06   4.330963787517114e-06   -4.95829545732045e-05
-6.9094394534097625e-06   4.330963787517114e-06   -4.95829545732045e-05
-6.9094394534097625e-06   4.330963787517114e-06   -4.95829545732045e-05
-6.9094394534097625e-06   4.330963787517114e-06   -4.95829545732045e-05
-1.216427047513688e-05   3.5737771935055035e-06   -4.037059091391984e-05
-1.216427047513688e-05   3.5737771935055035e-06   -4.037059091391984e-05
-1.216427047513688e-05   3.5737771935055035e-06   -4.037059091391984e-05
-1.216427047513688e-05   3.5737771935055035e-06   -4.037059091391984e-05
-1.8513012086352973e-05   2.0820134130948922e-06   -2.8038580151089798e-05
-1.8513012086352973e-05   2.0820134130948922e-06   -2.8038580151089798e-05
-1.8513012086352973e-05   2.0820134130948922e-06   -2.8038580151089798e-05
-1.8513012086352973e-05   2.0820134130948922e-06   -2.8038580151089798e-05
-2.8090101842367226e-05   3.818858088819018e-06   -4.2958289605678907e-05
-2.8090101842367226e-05   3.818858088819018e-06   -4.2958289605678907e-05
-2.8090101842367226e-05   3.818858088819018e-06   -4.2958289605678907e-05
-2.8090101842367226e-05   3.818858088819018e-06   -4.2958289605678907e-05
-2.7348919866387925e-05   3.2535719157191466e-06   -2.6406155364569386e-05
-2.7348919866387925e-05   3.2535719157191466e-06   -2.6406155364569386e-05
-2.7348919866387925e-05   3.2535719157191466e-06   -2.6406155364569386e-05
-2.7348919866387925e-05   3.2535719157191466e-06   -2.6406155364569386e-05
-1.786431418236023e-05   4.891154212154905e-06   -4.319638088247706e-05
-1.786431418236023e-05   4.891154212154905e-06   -4.319638088247706e-05
-1.786431418236023e-05   4.891154212154905e-06   -4.319638088247706e-05
-1.786431418236023e-05   4.891154212154905e-06   -4.319638088247706e-05
-2.2795102899078636e-05   3.65074921625198e-06   -3.42341566904046e-05
-2.2795102899078636e-05   3.65074921625198e-06   -3.42341566904046e-05
-2.2795102899078636e-05   3.65074921625198e-06   -3.42341566904046e-05
-2.2795102899078636e-05   3.65074921625198e-06   -3.42341566904046e-05
-1.7864314182360267e-05   3.2535719157193634e-06   -2.7388704742431014e-05
-1.7864314182360267e-05   3.2535719157193634e-06   -2.7388704742431014e-05
-1.7864314182360267e-05   3.2535719157193634e-06   -2.7388704742431014e-05
-1.7864314182360267e-05   3.2535719157193634e-06   -2.7388704742431014e-05
-2.734891986638796e-05   4.891154212155122e-06   -4.221383150461574e-05
-2.734891986638796e-05   4.891154212155122e-06   -4.221383150461574e-05
-2.734891986638796e-05   4.891154212155122e-06   -4.221383150461574e-05
-2.734891986638796e-05   4.891154212155122e-06   -4.221383150461574e-05
-2.64615522027528e-05   4.334372328518429e-06   -2.6161940765977512e-05
-2.64615522027528e-05   4.334372328518429e-06   -2.6161940765977512e-05
-2.64615522027528e-05   4.334372328518429e-06   -2.6161940765977512e-05
-2.64615522027528e-05   4.334372328518429e-06   -2.6161940765977512e-05
-1.7205205468910192e-05   5.857047341841339e-06   -4.2502790330375574e-05
-1.7205205468910192e-05   5.857047341841339e-06   -4.2502790330375574e-05
-1.7205205468910192e-05   5.857047341841339e-06   -4.2502790330375574e-05
-1.7205205468910192e-05   5.857047341841339e-06   -4.2502790330375574e-05
-2.204813489774339e-05   4.49739128357044e-06   -3.361544764735828e-05
-2.204813489774339e-05   4.49739128357044e-06   -3.361544764735828e-05
-2.204813489774339e-05   4.49739128357044e-06   -3.361544764735828e-05
-2.204813489774339e-05   4.49739128357044e-06   -3.361544764735828e-05
-1.720520546891018e-05   4.334372328518429e-06   -2.707554577397104e-05
-1.720520546891018e-05   4.334372328518429e-06   -2.707554577397104e-05
-1.720520546891018e-05   4.334372328518429e-06   -2.707554577397104e-05
-1.720520546891018e-05   4.334372328518429e-06   -2.707554577397104e-05
-2.64615522027528e-05   5.857047341841339e-06   -4.1589185322382085e-05
-2.64615522027528e-05   5.857047341841339e-06   -4.1589185322382085e-05
-2.64615522027528e-05   5.857047341841339e-06   -4.1589185322382085e-05
-2.64615522027528e-05   5.857047341841339e-06   -4.1589185322382085e-05
-2.5722248653291542e-05   5.5456481947995136e-06   -2.688594356156865e-05
-2.5722248653291542e-05   5.5456481947995136e-06   -2.688594356156865e-05
-2.5722248653291542e-05   5.5456481947995136e-06   -2.688594356156865e-05
-2.5722248653291542e-05   5.5456481947995136e-06   -2.688594356156865e-05
-1.6576703779033662e-05   6.9377686378797356e-06   -4.2963790617846624e-05
-1.6576703779033662e-05   6.9377686378797356e-06   -4.2963790617846624e-05
-1.6576703779033662e-05   6.9377686378797356e-06   -4.2963790617846624e-05
-1.6576703779033662e-05   6.9377686378797356e-06   -4.2963790617846624e-05
-2.1547826928326316e-05   5.331622847619746e-06   -3.3714897894869536e-05
-2.1547826928326316e-05   5.331622847619746e-06   -3.3714897894869536e-05
-2.1547826928326316e-05   5.331622847619746e-06   -3.3714897894869536e-05
-2.1547826928326316e-05   5.331622847619746e-06   -3.3714897894869536e-05
-2.8090101842367226e-05   3.4985650978326763e-06   -1.4503748565316307e-05
-2.8090101842367226e-05   3.4985650978326763e-06   -1.4503748565316307e-05
-2.8090101842367226e-05   3.4985650978326763e-06   -1.4503748565316307e-05
-2.8090101842367226e-05   3.4985650978326763e-06   -1.4503748565316307e-05
-3.900479075554967e-05   6.565499300350457e-06   -3.085473623244293e-05
-3.900479075554967e-05   6.565499300350457e-06   -3.085473623244293e-05
-3.900479075554967e-05   6.565499300350457e-06   -3.085473623244293e-05
-3.900479075554967e-05   6.565499300350457e-06   -3.085473623244293e-05
-3.6968247117465504e-05   4.560667762519132e-06   -9.119630545585504e-06
-3.6968247117465504e-05   4.560667762519132e-06   -9.119630545585504e-06
-3.6968247117465504e-05   4.560667762519132e-06   -9.119630545585504e-06
-3.6968247117465504e-05   4.560667762519132e-06   -9.119630545585504e-06
-2.7348919866387925e-05   7.678743552352396e-06   -2.7022688104614493e-05
-2.7348919866387925e-05   7.678743552352396e-06   -2.7022688104614493e-05
-2.7348919866387925e-05   7.678743552352396e-06   -2.7022688104614493e-05
-2.7348919866387925e-05   7.678743552352396e-06   -2.7022688104614493e-05
-3.151642503320103e-05   5.7031885390755425e-06   -1.889151315196026e-05
-3.151642503320103e-05   5.7031885390755425e-06   -1.889151315196026e-05
-3.151642503320103e-05   5.7031885390755425e-06   -1.889151315196026e-05
-3.151642503320103e-05   5.7031885390755425e-06   -1.889151315196026e-05
-2.7348919866387945e-05   4.560667762519132e-06   -1.0990476019485333e-05
-2.7348919866387945e-05   4.560667762519132e-06   -1.0990476019485333e-05
-2.7348919866387945e-05   4.560667762519132e-06   -1.0990476019485333e-05
-2.7348919866387945e-05   4.560667762519132e-06   -1.0990476019485333e-05
-3.696824711746537e-05   7.678743552352396e-06   -2.515184263071472e-05
-3.696824711746537e-05   7.678743552352396e-06   -2.515184263071472e-05
-3.696824711746537e-05   7.678743552352396e-06   -2.515184263071472e-05
-3.696824711746537e-05   7.678743552352396e-06   -2.515184263071472e-05
-3.528502401112566e-05   5.046976209523027e-06   -7.4879977275776714e-06
-3.528502401112566e-05   5.046976209523027e-06   -7.4879977275776714e-06
-3.528502401112566e-05   5.046976209523027e-06   -7.4879977275776714e-06
-3.528502401112566e-05   5.046976209523027e-06   -7.4879977275776714e-06
-2.6461552202752765e-05   8.077622778895075e-06   -2.401217201648912e-05
-2.6461552202752765e-05   8.077622778895075e-06   -2.401217201648912e-05
-2.6461552202752765e-05   8.077622778895075e-06   -2.401217201648912e-05
-2.6461552202752765e-05   8.077622778895075e-06   -2.401217201648912e-05
-3.0770210918436015e-05   6.2037732839409845e-06   -1.570676446004457e-05
-3.0770210918436015e-05   6.2037732839409845e-06   -1.570676446004457e-05
-3.0770210918436015e-05   6.2037732839409845e-06   -1.570676446004457e-05
-3.0770210918436015e-05   6.2037732839409845e-06   -1.570676446004457e-05
-2.64615522027528e-05   5.046976209523027e-06   -9.306385669201269e-06
-2.64615522027528e-05   5.046976209523027e-06   -9.306385669201269e-06
-2.64615522027528e-05   5.046976209523027e-06   -9.306385669201269e-06
-2.64615522027528e-05   5.046976209523027e-06   -9.306385669201269e-06
-3.528502401112558e-05   8.077622778895075e-06   -2.219378407486601e-05
-3.528502401112558e-05   8.077622778895075e-06   -2.219378407486601e-05
-3.528502401112558e-05   8.077622778895075e-06   -2.219378407486601e-05
-3.528502401112558e-05   8.077622778895075e-06   -2.219378407486601e-05
-3.329451534740601e-05   5.8005952947952615e-06   -5.780975566913428e-06
-3.329451534740601e-05   5.8005952947952615e-06   -5.780975566913428e-06
-3.329451534740601e-05   5.8005952947952615e-06   -5.780975566913428e-06
-3.329451534740601e-05   5.8005952947952615e-06   -5.780975566913428e-06
-2.5722248653291542e-05   8.583560092935948e-06   -2.0071198935988808e-05
-2.5722248653291542e-05   8.583560092935948e-06   -2.0071198935988808e-05
-2.5722248653291542e-05   8.583560092935948e-06   -2.0071198935988808e-05
-2.5722248653291542e-05   8.583560092935948e-06   -2.0071198935988808e-05
-2.9188243436606525e-05   6.4455432305290244e-06   -1.3011730846353029e-05
-2.9188243436606525e-05   6.4455432305290244e-06   -1.3011730846353029e-05
-2.9188243436606525e-05   6.4455432305290244e-06   -1.3011730846353029e-05
-2.9188243436606525e-05   6.4455432305290244e-06   -1.3011730846353029e-05
2.962215005118321e-05   -3.885918613760709e-06   -2.3000791815044538e-07
2.962215005118321e-05   -3.885918613760709e-06   -2.3000791815044538e-07
2.962215005118321e-05   -3.885918613760709e-06   -2.3000791815044538e-07
2.962215005118321e-05   -3.885918613760709e-06   -2.3000791815044538e-07
1.2625553511135521e-05   -7.0105420199445545e-06   -3.0432442861940312e-05
1.2625553511135521e-05   -7.0105420199445545e-06   -3.0432442861940312e-05
1.2625553511135521e-05   -7.0105420199445545e-06   -3.0432442861940312e-05
1.2625553511135521e-05   -7.0105420199445545e-06   -3.0432442861940312e-05
1.352114465612205e-05   -3.1933150166235397e-06   -3.3490711119021042e-06
1.352114465612205e-05   -3.1933150166235397e-06   -3.3490711119021042e-06
1.352114465612205e-05   -3.1933150166235397e-06   -3.3490711119021042e-06
1.352114465612205e-05   -3.1933150166235397e-06   -3.3490711119021042e-06
3.186452590199626e-05   -6.519734932960378e-06   -3.192552123855723e-05
3.186452590199626e-05   -6.519734932960378e-06   -3.192552123855723e-05
3.186452590199626e-05   -6.519734932960378e-06   -3.192552123855723e-05
3.186452590199626e-05   -6.519734932960378e-06   -3.192552123855723e-05
2.1024899938174634e-05   -4.6200933225466236e-06   -1.4999262931769642e-05
2.1024899938174634e-05   -4.6200933225466236e-06   -1.4999262931769642e-05
2.1024899938174634e-05   -4.6200933225466236e-06   -1.4999262931769642e-05
2.1024899938174634e-05   -4.6200933225466236e-06   -1.4999262931769642e-05
3.1864525901996313e-05   -3.1933150166235397e-06   -1.3532191621003047e-06
3.1864525901996313e-05   -3.1933150166235397e-06   -1.3532191621003047e-06
3.1864525901996313e-05   -3.1933150166235397e-06   -1.3532191621003047e-06
3.1864525901996313e-05   -3.1933150166235397e-06   -1.3532191621003047e-06
1.3521144656121996e-05   -6.519734932960812e-06   -3.392137318835914e-05
1.3521144656121996e-05   -6.519734932960812e-06   -3.392137318835914e-05
1.3521144656121996e-05   -6.519734932960812e-06   -3.392137318835914e-05
1.3521144656121996e-05   -6.519734932960812e-06   -3.392137318835914e-05
1.451321372875346e-05   -2.731614750361034e-06   -4.716315888337284e-06
1.451321372875346e-05   -2.731614750361034e-06   -4.716315888337284e-06
1.451321372875346e-05   -2.731614750361034e-06   -4.716315888337284e-06
1.451321372875346e-05   -2.731614750361034e-06   -4.716315888337284e-06
3.374846495250472e-05   -6.098088041418294e-06   -3.475518395328818e-05
3.374846495250472e-05   -6.098088041418294e-06   -3.475518395328818e-05
3.374846495250472e-05   -6.098088041418294e-06   -3.475518395328818e-05
3.374846495250472e-05   -6.098088041418294e-06   -3.475518395328818e-05
2.2709124592851013e-05   -4.432419870567961e-06   -1.7355684256375396e-05
2.2709124592851013e-05   -4.432419870567961e-06   -1.7355684256375396e-05
2.2709124592851013e-05   -4.432419870567961e-06   -1.7355684256375396e-05
2.2709124592851013e-05   -4.432419870567961e-06   -1.7355684256375396e-05
3.374846495250483e-05   -2.731614750361034e-06   -2.696431913702885e-06
3.374846495250483e-05   -2.731614750361034e-06   -2.696431913702885e-06
3.374846495250483e-05   -2.731614750361034e-06   -2.696431913702885e-06
3.374846495250483e-05   -2.731614750361034e-06   -2.696431913702885e-06
1.4513213728753433e-05   -6.098088041418294e-06   -3.6775067927922794e-05
1.4513213728753433e-05   -6.098088041418294e-06   -3.6775067927922794e-05
1.4513213728753433e-05   -6.098088041418294e-06   -3.6775067927922794e-05
1.4513213728753433e-05   -6.098088041418294e-06   -3.6775067927922794e-05
1.5333432919471265e-05   -1.5682001386009732e-06   -7.872407955149176e-06
1.5333432919471265e-05   -1.5682001386009732e-06   -7.872407955149176e-06
1.5333432919471265e-05   -1.5682001386009732e-06   -7.872407955149176e-06
1.5333432919471265e-05   -1.5682001386009732e-06   -7.872407955149176e-06
3.593589795675015e-05   -4.764490132022625e-06   -4.0292075687894144e-05
3.593589795675015e-05   -4.764490132022625e-06   -4.0292075687894144e-05
3.593589795675015e-05   -4.764490132022625e-06   -4.0292075687894144e-05
3.593589795675015e-05   -4.764490132022625e-06   -4.0292075687894144e-05
2.3622354979904343e-05   -3.911570934343311e-06   -2.028125557842602e-05
2.3622354979904343e-05   -3.911570934343311e-06   -2.028125557842602e-05
2.3622354979904343e-05   -3.911570934343311e-06   -2.028125557842602e-05
2.3622354979904343e-05   -3.911570934343311e-06   -2.028125557842602e-05
1.2625553511135548e-05   -1.5372647864852953e-06   -2.063484288740273e-05
1.2625553511135548e-05   -1.5372647864852953e-06   -2.063484288740273e-05
1.2625553511135548e-05   -1.5372647864852953e-06   -2.063484288740273e-05
1.2625553511135548e-05   -1.5372647864852953e-06   -2.063484288740273e-05
-5.367421385847187e-06   -3.2839135782371243e-06   -5.167112365742543e-05
-5.367421385847187e-06   -3.2839135782371243e-06   -5.167112365742543e-05
-5.367421385847187e-06   -3.2839135782371243e-06   -5.167112365742543e-05
-5.367421385847187e-06   -3.2839135782371243e-06   -5.167112365742543e-05
-4.534022889619014e-06   -5.877386000450839e-07   -2.1064191216143722e-05
-4.534022889619014e-06   -5.877386000450839e-07   -2.1064191216143722e-05
-4.534022889619014e-06   -5.877386000450839e-07   -2.1064191216143722e-05
-4.534022889619014e-06   -5.877386000450839e-07   -2.1064191216143722e-05
1.3521144656122023e-05   -2.602435989023516e-06   -4.994731869232503e-05
1.3521144656122023e-05   -2.602435989023516e-06   -4.994731869232503e-05
1.3521144656122023e-05   -2.602435989023516e-06   -4.994731869232503e-05
1.3521144656122023e-05   -2.602435989023516e-06   -4.994731869232503e-05
4.106145671686537e-06   -1.5880151920167652e-06   -3.4864306196469937e-05
4.106145671686537e-06   -1.5880151920167652e-06   -3.4864306196469937e-05
4.106145671686537e-06   -1.5880151920167652e-06   -3.4864306196469937e-05
4.106145671686537e-06   -1.5880151920167652e-06   -3.4864306196469937e-05
1.3521144656122023e-05   -5.877386000450839e-07   -1.985537278275675e-05
1.3521144656122023e-05   -5.877386000450839e-07   -1.985537278275675e-05
1.3521144656122023e-05   -5.877386000450839e-07   -1.985537278275675e-05
1.3521144656122023e-05   -5.877386000450839e-07   -1.985537278275675e-05
-4.534022889619014e-06   -2.602435989023516e-06   -5.1156137125711945e-05
-4.534022889619014e-06   -2.602435989023516e-06   -5.1156137125711945e-05
-4.534022889619014e-06   -2.602435989023516e-06   -5.1156137125711945e-05
-4.534022889619014e-06   -2.602435989023516e-06   -5.1156137125711945e-05
-3.7382949619318973e-06   3.940762629234089e-07   -2.1334575461477755e-05
-3.7382949619318973e-06   3.940762629234089e-07   -2.1334575461477755e-05
-3.7382949619318973e-06   3.940762629234089e-07   -2.1334575461477755e-05
-3.7382949619318973e-06   3.940762629234089e-07   -2.1334575461477755e-05
1.4513213728753433e-05   -1.7694014137143235e-06   -5.045567000663728e-05
1.4513213728753433e-05   -1.7694014137143235e-06   -5.045567000663728e-05
1.4513213728753433e-05   -1.7694014137143235e-06   -5.045567000663728e-05
1.4513213728753433e-05   -1.7694014137143235e-06   -5.045567000663728e-05
4.767518235680284e-06   -9.853150357871758e-07   -3.4683296011604476e-05
4.767518235680284e-06   -9.853150357871758e-07   -3.4683296011604476e-05
4.767518235680284e-06   -9.853150357871758e-07   -3.4683296011604476e-05
4.767518235680284e-06   -9.853150357871758e-07   -3.4683296011604476e-05
1.451321372875346e-05   3.940762629234089e-07   -2.0036488855495332e-05
1.451321372875346e-05   3.940762629234089e-07   -2.0036488855495332e-05
1.451321372875346e-05   3.940762629234089e-07   -2.0036488855495332e-05
1.451321372875346e-05   3.940762629234089e-07   -2.0036488855495332e-05
-3.7382949619318973e-06   -1.7694014137143235e-06   -5.175375661262019e-05
-3.7382949619318973e-06   -1.7694014137143235e-06   -5.175375661262019e-05
-3.7382949619318973e-06   -1.7694014137143235e-06   -5.175375661262019e-05
-3.7382949619318973e-06   -1.7694014137143235e-06   -5.175375661262019e-05
-2.9908220692886965e-06   1.5567697046906057e-06   -2.2060128571125496e-05
-2.9908220692886965e-06   1.5567697046906057e-06   -2.2060128571125496e-05
-2.9908220692886965e-06   1.5567697046906057e-06   -2.2060128571125496e-05
-2.9908220692886965e-06   1.5567697046906057e-06   -2.2060128571125496e-05
1.5333432919471265e-05   -7.213022598915632e-07   -5.123371037364297e-05
1.5333432919471265e-05   -7.213022598915632e-07   -5.123371037364297e-05
1.5333432919471265e-05   -7.213022598915632e-07   -5.123371037364297e-05
1.5333432919471265e-05   -7.213022598915632e-07   -5.123371037364297e-05
5.5923905326278394e-06   -2.420398428179711e-07   -3.528619717914881e-05
5.5923905326278394e-06   -2.420398428179711e-07   -3.528619717914881e-05
5.5923905326278394e-06   -2.420398428179711e-07   -3.528619717914881e-05
5.5923905326278394e-06   -2.420398428179711e-07   -3.528619717914881e-05
-5.367421385847187e-06   1.1808060545244903e-06   -2.6538317235040533e-05
-5.367421385847187e-06   1.1808060545244903e-06   -2.6538317235040533e-05
-5.367421385847187e-06   1.1808060545244903e-06   -2.6538317235040533e-05
-5.367421385847187e-06   1.1808060545244903e-06   -2.6538317235040533e-05
-2.3043477899382376e-05   5.96086508986883e-07   -5.63492431515883e-05
-2.3043477899382376e-05   5.96086508986883e-07   -5.63492431515883e-05
-2.3043477899382376e-05   5.96086508986883e-07   -5.63492431515883e-05
-2.3043477899382376e-05   5.96086508986883e-07   -5.63492431515883e-05
-2.2146434201112288e-05   2.1853926356119914e-06   -2.6353939478817884e-05
-2.2146434201112288e-05   2.1853926356119914e-06   -2.6353939478817884e-05
-2.2146434201112288e-05   2.1853926356119914e-06   -2.6353939478817884e-05
-2.2146434201112288e-05   2.1853926356119914e-06   -2.6353939478817884e-05
-4.534022889619014e-06   1.3614469644277795e-06   -5.521359092859631e-05
-4.534022889619014e-06   1.3614469644277795e-06   -5.521359092859631e-05
-4.534022889619014e-06   1.3614469644277795e-06   -5.521359092859631e-05
-4.534022889619014e-06   1.3614469644277795e-06   -5.521359092859631e-05
-1.3678516168764669e-05   1.6189374066003653e-06   -4.012726306199064e-05
-1.3678516168764669e-05   1.6189374066003653e-06   -4.012726306199064e-05
-1.3678516168764669e-05   1.6189374066003653e-06   -4.012726306199064e-05
-1.3678516168764669e-05   1.6189374066003653e-06   -4.012726306199064e-05
-4.534022889619014e-06   2.1853926356119914e-06   -2.5859572076107444e-05
-4.534022889619014e-06   2.1853926356119914e-06   -2.5859572076107444e-05
-4.534022889619014e-06   2.1853926356119914e-06   -2.5859572076107444e-05
-4.534022889619014e-06   2.1853926356119914e-06   -2.5859572076107444e-05
-2.2146434201112288e-05   1.3614469644277795e-06   -5.570795833130678e-05
-2.2146434201112288e-05   1.3614469644277795e-06   -5.570795833130678e-05
-2.2146434201112288e-05   1.3614469644277795e-06   -5.570795833130678e-05
-2.2146434201112288e-05   1.3614469644277795e-06   -5.570795833130678e-05
-2.128123832248226e-05   3.2489871432499207e-06   -2.6314236853531734e-05
-2.128123832248226e-05   3.2489871432499207e-06   -2.6314236853531734e-05
-2.128123832248226e-05   3.2489871432499207e-06   -2.6314236853531734e-05
-2.128123832248226e-05   3.2489871432499207e-06   -2.6314236853531734e-05
-3.7382949619318973e-06   2.2478110879662477e-06   -5.4951770154612064e-05
-3.7382949619318973e-06   2.2478110879662477e-06   -5.4951770154612064e-05
-3.7382949619318973e-06   2.2478110879662477e-06   -5.4951770154612064e-05
-3.7382949619318973e-06   2.2478110879662477e-06   -5.4951770154612064e-05
-1.2906609687141452e-05   2.3354666890519973e-06   -3.972383897324767e-05
-1.2906609687141452e-05   2.3354666890519973e-06   -3.972383897324767e-05
-1.2906609687141452e-05   2.3354666890519973e-06   -3.972383897324767e-05
-1.2906609687141452e-05   2.3354666890519973e-06   -3.972383897324767e-05
-3.7382949619318973e-06   3.2489871432499207e-06   -2.5713531220361444e-05
-3.7382949619318973e-06   3.2489871432499207e-06   -2.5713531220361444e-05
-3.7382949619318973e-06   3.2489871432499207e-06   -2.5713531220361444e-05
-3.7382949619318973e-06   3.2489871432499207e-06   -2.5713531220361444e-05
-2.128123832248226e-05   2.2478110879662477e-06   -5.555247578778238e-05
-2.128123832248226e-05   2.2478110879662477e-06   -5.555247578778238e-05
-2.128123832248226e-05   2.2478110879662477e-06   -5.555247578778238e-05
-2.128123832248226e-05   2.2478110879662477e-06   -5.555247578778238e-05
-2.048174749905208e-05   4.330963787517114e-06   -2.6933161266773408e-05
-2.048174749905208e-05   4.330963787517114e-06   -2.6933161266773408e-05
-2.048174749905208e-05   4.330963787517114e-06   -2.6933161266773408e-05
-2.048174749905208e-05   4.330963787517114e-06   -2.6933161266773408e-05
-2.9908220692887236e-06   3.1638506533130176e-06   -5.5384435769189786e-05
-2.9908220692887236e-06   3.1638506533130176e-06   -5.5384435769189786e-05
-2.9908220692887236e-06   3.1638506533130176e-06   -5.5384435769189786e-05
-2.9908220692887236e-06   3.1638506533130176e-06   -5.5384435769189786e-05
-1.2216969244468881e-05   3.0706949099754653e-06   -3.9951630364554186e-05
-1.2216969244468881e-05   3.0706949099754653e-06   -3.9951630364554186e-05
-1.2216969244468881e-05   3.0706949099754653e-06   -3.9951630364554186e-05
-1.2216969244468881e-05   3.0706949099754653e-06   -3.9951630364554186e-05
-2.304347789938241e-05   3.818858088819018e-06   -2.153025049093124e-05
-2.304347789938241e-05   3.818858088819018e-06   -2.153025049093124e-05
-2.304347789938241e-05   3.818858088819018e-06   -2.153025049093124e-05
-2.304347789938241e-05   3.818858088819018e-06   -2.153025049093124e-05
-4.039124031502292e-05   4.614886854446658e-06   -4.99655705909559e-05
-4.039124031502292e-05   4.614886854446658e-06   -4.99655705909559e-05
-4.039124031502292e-05   4.614886854446658e-06   -4.99655705909559e-05
-4.039124031502292e-05   4.614886854446658e-06   -4.99655705909559e-05
-3.931007537366334e-05   4.891154212154905e-06   -2.0231956668031147e-05
-3.931007537366334e-05   4.891154212154905e-06   -2.0231956668031147e-05
-3.931007537366334e-05   4.891154212154905e-06   -2.0231956668031147e-05
-3.931007537366334e-05   4.891154212154905e-06   -2.0231956668031147e-05
-2.2146434201112322e-05   5.586886507913651e-06   -4.9255464666404965e-05
-2.2146434201112322e-05   5.586886507913651e-06   -4.9255464666404965e-05
-2.2146434201112322e-05   5.586886507913651e-06   -4.9255464666404965e-05
-2.2146434201112322e-05   5.586886507913651e-06   -4.9255464666404965e-05
-3.0994671523237836e-05   4.931070132668022e-06   -3.4114912637714586e-05
-3.0994671523237836e-05   4.931070132668022e-06   -3.4114912637714586e-05
-3.0994671523237836e-05   4.931070132668022e-06   -3.4114912637714586e-05
-3.0994671523237836e-05   4.931070132668022e-06   -3.4114912637714586e-05
-2.2146434201112322e-05   4.891154212154905e-06   -2.0649396045486525e-05
-2.2146434201112322e-05   4.891154212154905e-06   -2.0649396045486525e-05
-2.2146434201112322e-05   4.891154212154905e-06   -2.0649396045486525e-05
-2.2146434201112322e-05   4.891154212154905e-06   -2.0649396045486525e-05
-3.931007537366341e-05   5.586886507913651e-06   -4.883802528894959e-05
-3.931007537366341e-05   5.586886507913651e-06   -4.883802528894959e-05
-3.931007537366341e-05   5.586886507913651e-06   -4.883802528894959e-05
-3.931007537366341e-05   5.586886507913651e-06   -4.883802528894959e-05
-3.8113833527213674e-05   5.857047341841339e-06   -1.950984238681527e-05
-3.8113833527213674e-05   5.857047341841339e-06   -1.950984238681527e-05
-3.8113833527213674e-05   5.857047341841339e-06   -1.950984238681527e-05
-3.8113833527213674e-05   5.857047341841339e-06   -1.950984238681527e-05
-2.1281238322482302e-05   6.423983225279598e-06   -4.790432925809736e-05
-2.1281238322482302e-05   6.423983225279598e-06   -4.790432925809736e-05
-2.1281238322482302e-05   6.423983225279598e-06   -4.790432925809736e-05
-2.1281238322482302e-05   6.423983225279598e-06   -4.790432925809736e-05
-2.990120609425731e-05   5.687818353930507e-06   -3.30960173823294e-05
-2.990120609425731e-05   5.687818353930507e-06   -3.30960173823294e-05
-2.990120609425731e-05   5.687818353930507e-06   -3.30960173823294e-05
-2.990120609425731e-05   5.687818353930507e-06   -3.30960173823294e-05
-2.128123832248228e-05   5.857047341841339e-06   -1.98500039168784e-05
-2.128123832248228e-05   5.857047341841339e-06   -1.98500039168784e-05
-2.128123832248228e-05   5.857047341841339e-06   -1.98500039168784e-05
-2.128123832248228e-05   5.857047341841339e-06   -1.98500039168784e-05
-3.8113833527213674e-05   6.423983225280032e-06   -4.756416772803431e-05
-3.8113833527213674e-05   6.423983225280032e-06   -4.756416772803431e-05
-3.8113833527213674e-05   6.423983225280032e-06   -4.756416772803431e-05
-3.8113833527213674e-05   6.423983225280032e-06   -4.756416772803431e-05
-3.71029803856916e-05   6.9377686378797356e-06   -1.9960694444822033e-05
-3.71029803856916e-05   6.9377686378797356e-06   -1.9960694444822033e-05
-3.71029803856916e-05   6.9377686378797356e-06   -1.9960694444822033e-05
-3.71029803856916e-05   6.9377686378797356e-06   -1.9960694444822033e-05
-2.048174749905212e-05   7.350108021466056e-06   -4.791015288603954e-05
-2.048174749905212e-05   7.350108021466056e-06   -4.791015288603954e-05
-2.048174749905212e-05   7.350108021466056e-06   -4.791015288603954e-05
-2.048174749905212e-05   7.350108021466056e-06   -4.791015288603954e-05
-2.922080829152005e-05   6.38488515388759e-06   -3.276591784471248e-05
-2.922080829152005e-05   6.38488515388759e-06   -3.276591784471248e-05
-2.922080829152005e-05   6.38488515388759e-06   -3.276591784471248e-05
-2.922080829152005e-05   6.38488515388759e-06   -3.276591784471248e-05
-4.039124031502292e-05   6.565499300350674e-06   -1.0789240379829954e-05
-4.039124031502292e-05   6.565499300350674e-06   -1.0789240379829954e-05
-4.039124031502292e-05   6.565499300350674e-06   -1.0789240379829954e-05
-4.039124031502292e-05   6.565499300350674e-06   -1.0789240379829954e-05
-5.8662763905143896e-05   9.071283455053085e-06   -3.973830920387701e-05
-5.8662763905143896e-05   9.071283455053085e-06   -3.973830920387701e-05
-5.8662763905143896e-05   9.071283455053085e-06   -3.973830920387701e-05
-5.8662763905143896e-05   9.071283455053085e-06   -3.973830920387701e-05
-5.618026485703257e-05   7.678743552352396e-06   -3.4304112839754226e-06
-5.618026485703257e-05   7.678743552352396e-06   -3.4304112839754226e-06
-5.618026485703257e-05   7.678743552352396e-06   -3.4304112839754226e-06
-5.618026485703257e-05   7.678743552352396e-06   -3.4304112839754226e-06
-3.931007537366334e-05   1.0362746859110018e-05   -3.315779574031223e-05
-3.931007537366334e-05   1.0362746859110018e-05   -3.315779574031223e-05
-3.931007537366334e-05   1.0362746859110018e-05   -3.315779574031223e-05
-3.931007537366334e-05   1.0362746859110018e-05   -3.315779574031223e-05
-4.662532230825985e-05   8.642172679097261e-06   -1.9933373007977072e-05
-4.662532230825985e-05   8.642172679097261e-06   -1.9933373007977072e-05
-4.662532230825985e-05   8.642172679097261e-06   -1.9933373007977072e-05
-4.662532230825985e-05   8.642172679097261e-06   -1.9933373007977072e-05
-3.931007537366337e-05   7.678743552352396e-06   -5.040813268029952e-06
-3.931007537366337e-05   7.678743552352396e-06   -5.040813268029952e-06
-3.931007537366337e-05   7.678743552352396e-06   -5.040813268029952e-06
-3.931007537366337e-05   7.678743552352396e-06   -5.040813268029952e-06
-5.6180264857032486e-05   1.0362746859110018e-05   -3.154739375625746e-05
-5.6180264857032486e-05   1.0362746859110018e-05   -3.154739375625746e-05
-5.6180264857032486e-05   1.0362746859110018e-05   -3.154739375625746e-05
-5.6180264857032486e-05   1.0362746859110018e-05   -3.154739375625746e-05
-5.4137421889846395e-05   8.077622778895292e-06   -3.579568500586966e-07
-5.4137421889846395e-05   8.077622778895292e-06   -3.579568500586966e-07
-5.4137421889846395e-05   8.077622778895292e-06   -3.579568500586966e-07
-5.4137421889846395e-05   8.077622778895292e-06   -3.579568500586966e-07
-3.8113833527213674e-05   1.0702409830335487e-05   -2.863880968531049e-05
-3.8113833527213674e-05   1.0702409830335487e-05   -2.863880968531049e-05
-3.8113833527213674e-05   1.0702409830335487e-05   -2.863880968531049e-05
-3.8113833527213674e-05   1.0702409830335487e-05   -2.863880968531049e-05
-4.577905989008178e-05   9.156428120396954e-06   -1.4935843387899983e-05
-4.577905989008178e-05   9.156428120396954e-06   -1.4935843387899983e-05
-4.577905989008178e-05   9.156428120396954e-06   -1.4935843387899983e-05
-4.577905989008178e-05   9.156428120396954e-06   -1.4935843387899983e-05
-3.8113833527213674e-05   8.077622778895292e-06   -1.932829080922684e-06
-3.8113833527213674e-05   8.077622778895292e-06   -1.932829080922684e-06
-3.8113833527213674e-05   8.077622778895292e-06   -1.932829080922684e-06
-3.8113833527213674e-05   8.077622778895292e-06   -1.932829080922684e-06
-5.413742188984622e-05   1.0702409830335054e-05   -2.7063937454446666e-05
-5.413742188984622e-05   1.0702409830335054e-05   -2.7063937454446666e-05
-5.413742188984622e-05   1.0702409830335054e-05   -2.7063937454446666e-05
-5.413742188984622e-05   1.0702409830335054e-05   -2.7063937454446666e-05
-5.193373031472256e-05   8.583560092935948e-06   3.5435929161753074e-06
-5.193373031472256e-05   8.583560092935948e-06   3.5435929161753074e-06
-5.193373031472256e-05   8.583560092935948e-06   3.5435929161753074e-06
-5.193373031472256e-05   8.583560092935948e-06   3.5435929161753074e-06
-3.71029803856916e-05   1.0995173334581252e-05   -2.2621291577197295e-05
-3.71029803856916e-05   1.0995173334581252e-05   -2.2621291577197295e-05
-3.71029803856916e-05   1.0995173334581252e-05   -2.2621291577197295e-05
-3.71029803856916e-05   1.0995173334581252e-05   -2.2621291577197295e-05
-4.370838902536598e-05   9.240407279045761e-06   -1.0559417544419008e-05
-4.370838902536598e-05   9.240407279045761e-06   -1.0559417544419008e-05
-4.370838902536598e-05   9.240407279045761e-06   -1.0559417544419008e-05
-4.370838902536598e-05   9.240407279045761e-06   -1.0559417544419008e-05
5.0272444248068476e-05   -7.0105420199445545e-06   9.958861099431575e-06
5.0272444248068476e-05   -7.0105420199445545e-06   9.958861099431575e-06
5.0272444248068476e-05   -7.0105420199445545e-06   9.958861099431575e-06
5.0272444248068476e-05   -7.0105420199445545e-06   9.958861099431575e-06
2.42288348262492e-05   -1.0381776875555918e-05   -3.5469895516967e-05
2.42288348262492e-05   -1.0381776875555918e-05   -3.5469895516967e-05
2.42288348262492e-05   -1.0381776875555918e-05   -3.5469895516967e-05
2.42288348262492e-05   -1.0381776875555918e-05   -3.5469895516967e-05
2.5221429038042338e-05   -6.519734932960378e-06   4.798369344776636e-06
2.5221429038042338e-05   -6.519734932960378e-06   4.798369344776636e-06
2.5221429038042338e-05   -6.519734932960378e-06   4.798369344776636e-06
2.5221429038042338e-05   -6.519734932960378e-06   4.798369344776636e-06
5.257607849332147e-05   -1.0139180530882499e-05   -3.862104572193543e-05
5.257607849332147e-05   -1.0139180530882499e-05   -3.862104572193543e-05
5.257607849332147e-05   -1.0139180530882499e-05   -3.862104572193543e-05
5.257607849332147e-05   -1.0139180530882499e-05   -3.862104572193543e-05
3.652679687466407e-05   -7.676271137578398e-06   -1.3349988660155707e-05
3.652679687466407e-05   -7.676271137578398e-06   -1.3349988660155707e-05
3.652679687466407e-05   -7.676271137578398e-06   -1.3349988660155707e-05
3.652679687466407e-05   -7.676271137578398e-06   -1.3349988660155707e-05
5.2576078493321576e-05   -6.519734932960378e-06   6.970036703529995e-06
5.2576078493321576e-05   -6.519734932960378e-06   6.970036703529995e-06
5.2576078493321576e-05   -6.519734932960378e-06   6.970036703529995e-06
5.2576078493321576e-05   -6.519734932960378e-06   6.970036703529995e-06
2.5221429038042284e-05   -1.0139180530882499e-05   -4.0792713080688896e-05
2.5221429038042284e-05   -1.0139180530882499e-05   -4.0792713080688896e-05
2.5221429038042284e-05   -1.0139180530882499e-05   -4.0792713080688896e-05
2.5221429038042284e-05   -1.0139180530882499e-05   -4.0792713080688896e-05
2.620882510916001e-05   -6.098088041418294e-06   2.2739897963782243e-06
2.620882510916001e-05   -6.098088041418294e-06   2.2739897963782243e-06
2.620882510916001e-05   -6.098088041418294e-06   2.2739897963782243e-06
2.620882510916001e-05   -6.098088041418294e-06   2.2739897963782243e-06
5.434440865142911e-05   -9.787225813648413e-06   -4.240516677739888e-05
5.434440865142911e-05   -9.787225813648413e-06   -4.240516677739888e-05
5.434440865142911e-05   -9.787225813648413e-06   -4.240516677739888e-05
5.434440865142911e-05   -9.787225813648413e-06   -4.240516677739888e-05
3.846677158977843e-05   -7.650949989086633e-06   -1.7224203836051157e-05
3.846677158977843e-05   -7.650949989086633e-06   -1.7224203836051157e-05
3.846677158977843e-05   -7.650949989086633e-06   -1.7224203836051157e-05
3.846677158977843e-05   -7.650949989086633e-06   -1.7224203836051157e-05
5.434440865142911e-05   -6.098088041418294e-06   4.4874724597161655e-06
5.434440865142911e-05   -6.098088041418294e-06   4.4874724597161655e-06
5.434440865142911e-05   -6.098088041418294e-06   4.4874724597161655e-06
5.434440865142911e-05   -6.098088041418294e-06   4.4874724597161655e-06
2.620882510916001e-05   -9.787225813648413e-06   -4.461864944073704e-05
2.620882510916001e-05   -9.787225813648413e-06   -4.461864944073704e-05
2.620882510916001e-05   -9.787225813648413e-06   -4.461864944073704e-05
2.620882510916001e-05   -9.787225813648413e-06   -4.461864944073704e-05
2.6879596380711957e-05   -4.764490132022625e-06   -2.8112454660202558e-06
2.6879596380711957e-05   -4.764490132022625e-06   -2.8112454660202558e-06
2.6879596380711957e-05   -4.764490132022625e-06   -2.8112454660202558e-06
2.6879596380711957e-05   -4.764490132022625e-06   -2.8112454660202558e-06
5.621426001975382e-05   -8.414259369417861e-06   -4.951248998865288e-05
5.621426001975382e-05   -8.414259369417861e-06   -4.951248998865288e-05
5.621426001975382e-05   -8.414259369417861e-06   -4.951248998865288e-05
5.621426001975382e-05   -8.414259369417861e-06   -4.951248998865288e-05
3.90098016532231e-05   -7.062996072480961e-06   -2.1649150689264393e-05
3.90098016532231e-05   -7.062996072480961e-06   -2.1649150689264393e-05
3.90098016532231e-05   -7.062996072480961e-06   -2.1649150689264393e-05
3.90098016532231e-05   -7.062996072480961e-06   -2.1649150689264393e-05
2.4228834826249226e-05   -3.2839135782371243e-06   -1.2254571334368875e-05
2.4228834826249226e-05   -3.2839135782371243e-06   -1.2254571334368875e-05
2.4228834826249226e-05   -3.2839135782371243e-06   -1.2254571334368875e-05
2.4228834826249226e-05   -3.2839135782371243e-06   -1.2254571334368875e-05
-1.4625985591187266e-06   -6.730319769652961e-06   -5.7141470691498284e-05
-1.4625985591187266e-06   -6.730319769652961e-06   -5.7141470691498284e-05
-1.4625985591187266e-06   -6.730319769652961e-06   -5.7141470691498284e-05
-1.4625985591187266e-06   -6.730319769652961e-06   -5.7141470691498284e-05
-4.4362300658944186e-07   -2.602435989023516e-06   -1.351119153101361e-05
-4.4362300658944186e-07   -2.602435989023516e-06   -1.351119153101361e-05
-4.4362300658944186e-07   -2.602435989023516e-06   -1.351119153101361e-05
-4.4362300658944186e-07   -2.602435989023516e-06   -1.351119153101361e-05
2.5221429038042338e-05   -6.408461608730254e-06   -5.4002662900242175e-05
2.5221429038042338e-05   -6.408461608730254e-06   -5.4002662900242175e-05
2.5221429038042338e-05   -6.408461608730254e-06   -5.4002662900242175e-05
2.5221429038042338e-05   -6.408461608730254e-06   -5.4002662900242175e-05
1.192188994637901e-05   -4.071702826803723e-06   -3.323881968329243e-05
1.192188994637901e-05   -4.071702826803723e-06   -3.323881968329243e-05
1.192188994637901e-05   -4.071702826803723e-06   -3.323881968329243e-05
1.192188994637901e-05   -4.071702826803723e-06   -3.323881968329243e-05
2.522142903804231e-05   -2.602435989023516e-06   -1.1227576159189307e-05
2.522142903804231e-05   -2.602435989023516e-06   -1.1227576159189307e-05
2.522142903804231e-05   -2.602435989023516e-06   -1.1227576159189307e-05
2.522142903804231e-05   -2.602435989023516e-06   -1.1227576159189307e-05
-4.4362300658944186e-07   -6.408461608730254e-06   -5.6286278272066424e-05
-4.4362300658944186e-07   -6.408461608730254e-06   -5.6286278272066424e-05
-4.4362300658944186e-07   -6.408461608730254e-06   -5.6286278272066424e-05
-4.4362300658944186e-07   -6.408461608730254e-06   -5.6286278272066424e-05
4.5418979980780746e-07   -1.7694014137143235e-06   -1.3830356566635425e-05
4.5418979980780746e-07   -1.7694014137143235e-06   -1.3830356566635425e-05
4.5418979980780746e-07   -1.7694014137143235e-06   -1.3830356566635425e-05
4.5418979980780746e-07   -1.7694014137143235e-06   -1.3830356566635425e-05
2.620882510916001e-05   -5.808975220879687e-06   -5.433100446459001e-05
2.620882510916001e-05   -5.808975220879687e-06   -5.433100446459001e-05
2.620882510916001e-05   -5.808975220879687e-06   -5.433100446459001e-05
2.620882510916001e-05   -5.808975220879687e-06   -5.433100446459001e-05
1.2615732235038147e-05   -3.738021307887838e-06   -3.291842202218125e-05
1.2615732235038147e-05   -3.738021307887838e-06   -3.291842202218125e-05
1.2615732235038147e-05   -3.738021307887838e-06   -3.291842202218125e-05
1.2615732235038147e-05   -3.738021307887838e-06   -3.291842202218125e-05
2.620882510916001e-05   -1.7694014137143235e-06   -1.1406612282336206e-05
2.620882510916001e-05   -1.7694014137143235e-06   -1.1406612282336206e-05
2.620882510916001e-05   -1.7694014137143235e-06   -1.1406612282336206e-05
2.620882510916001e-05   -1.7694014137143235e-06   -1.1406612282336206e-05
4.5418979980780746e-07   -5.808975220879687e-06   -5.675474874888907e-05
4.5418979980780746e-07   -5.808975220879687e-06   -5.675474874888907e-05
4.5418979980780746e-07   -5.808975220879687e-06   -5.675474874888907e-05
4.5418979980780746e-07   -5.808975220879687e-06   -5.675474874888907e-05
1.0935106330989806e-06   -7.213022598915632e-07   -1.4375961845856065e-05
1.0935106330989806e-06   -7.213022598915632e-07   -1.4375961845856065e-05
1.0935106330989806e-06   -7.213022598915632e-07   -1.4375961845856065e-05
1.0935106330989806e-06   -7.213022598915632e-07   -1.4375961845856065e-05
2.687959638071201e-05   -4.9560617434579735e-06   -5.4811915735071526e-05
2.687959638071201e-05   -4.9560617434579735e-06   -5.4811915735071526e-05
2.687959638071201e-05   -4.9560617434579735e-06   -5.4811915735071526e-05
2.687959638071201e-05   -4.9560617434579735e-06   -5.4811915735071526e-05
1.3445989424987637e-05   -3.149869678231807e-06   -3.350628604800038e-05
1.3445989424987637e-05   -3.149869678231807e-06   -3.350628604800038e-05
1.3445989424987637e-05   -3.149869678231807e-06   -3.350628604800038e-05
1.3445989424987637e-05   -3.149869678231807e-06   -3.350628604800038e-05
-1.4625985591187266e-06   5.96086508986883e-07   -1.8649702816058962e-05
-1.4625985591187266e-06   5.96086508986883e-07   -1.8649702816058962e-05
-1.4625985591187266e-06   5.96086508986883e-07   -1.8649702816058962e-05
-1.4625985591187266e-06   5.96086508986883e-07   -1.8649702816058962e-05
-2.6774498299742667e-05   -3.538058946120533e-06   -6.331668965683045e-05
-2.6774498299742667e-05   -3.538058946120533e-06   -6.331668965683045e-05
-2.6774498299742667e-05   -3.538058946120533e-06   -6.331668965683045e-05
-2.6774498299742667e-05   -3.538058946120533e-06   -6.331668965683045e-05
-2.5551951601525538e-05   1.3614469644277795e-06   -2.028087750876933e-05
-2.5551951601525538e-05   1.3614469644277795e-06   -2.028087750876933e-05
-2.5551951601525538e-05   1.3614469644277795e-06   -2.028087750876933e-05
-2.5551951601525538e-05   1.3614469644277795e-06   -2.028087750876933e-05
-4.4362300658944186e-07   -3.158939993691892e-06   -5.941585965879128e-05
-4.4362300658944186e-07   -3.158939993691892e-06   -5.941585965879128e-05
-4.4362300658944186e-07   -3.158939993691892e-06   -5.941585965879128e-05
-4.4362300658944186e-07   -3.158939993691892e-06   -5.941585965879128e-05
-1.3397040854586079e-05   -6.867516898182054e-07   -3.931014289445419e-05
-1.3397040854586079e-05   -6.867516898182054e-07   -3.931014289445419e-05
-1.3397040854586079e-05   -6.867516898182054e-07   -3.931014289445419e-05
-1.3397040854586079e-05   -6.867516898182054e-07   -3.931014289445419e-05
-4.4362300658944186e-07   1.3614469644277795e-06   -1.7568645333898006e-05
-4.4362300658944186e-07   1.3614469644277795e-06   -1.7568645333898006e-05
-4.4362300658944186e-07   1.3614469644277795e-06   -1.7568645333898006e-05
-4.4362300658944186e-07   1.3614469644277795e-06   -1.7568645333898006e-05
-2.5551951601525538e-05   -3.1589399936914585e-06   -6.21280918336629e-05
-2.5551951601525538e-05   -3.1589399936914585e-06   -6.21280918336629e-05
-2.5551951601525538e-05   -3.1589399936914585e-06   -6.21280918336629e-05
-2.5551951601525538e-05   -3.1589399936914585e-06   -6.21280918336629e-05
-2.4430323527541578e-05   2.2478110879662477e-06   -1.991807937050112e-05
-2.4430323527541578e-05   2.2478110879662477e-06   -1.991807937050112e-05
-2.4430323527541578e-05   2.2478110879662477e-06   -1.991807937050112e-05
-2.4430323527541578e-05   2.2478110879662477e-06   -1.991807937050112e-05
4.5418979980780746e-07   -2.5683710151557654e-06   -5.8502558987543255e-05
4.5418979980780746e-07   -2.5683710151557654e-06   -5.8502558987543255e-05
4.5418979980780746e-07   -2.5683710151557654e-06   -5.8502558987543255e-05
4.5418979980780746e-07   -2.5683710151557654e-06   -5.8502558987543255e-05
-1.240121837268487e-05   -2.525518220295418e-07   -3.846637021593134e-05
-1.240121837268487e-05   -2.525518220295418e-07   -3.846637021593134e-05
-1.240121837268487e-05   -2.525518220295418e-07   -3.846637021593134e-05
-1.240121837268487e-05   -2.525518220295418e-07   -3.846637021593134e-05
4.5418979980780746e-07   2.2478110879662477e-06   -1.702837010862765e-05
4.5418979980780746e-07   2.2478110879662477e-06   -1.702837010862765e-05
4.5418979980780746e-07   2.2478110879662477e-06   -1.702837010862765e-05
4.5418979980780746e-07   2.2478110879662477e-06   -1.702837010862765e-05
-2.4430323527541618e-05   -2.5683710151557654e-06   -6.1392268249417e-05
-2.4430323527541618e-05   -2.5683710151557654e-06   -6.1392268249417e-05
-2.4430323527541618e-05   -2.5683710151557654e-06   -6.1392268249417e-05
-2.4430323527541618e-05   -2.5683710151557654e-06   -6.1392268249417e-05
-2.3674028990358675e-05   3.1638506533130176e-06   -2.0263189782196434e-05
-2.3674028990358675e-05   3.1638506533130176e-06   -2.0263189782196434e-05
-2.3674028990358675e-05   3.1638506533130176e-06   -2.0263189782196434e-05
-2.3674028990358675e-05   3.1638506533130176e-06   -2.0263189782196434e-05
1.0935106330989806e-06   -2.0083922125913554e-06   -5.843907676841655e-05
1.0935106330989806e-06   -2.0083922125913554e-06   -5.843907676841655e-05
1.0935106330989806e-06   -2.0083922125913554e-06   -5.843907676841655e-05
1.0935106330989806e-06   -2.0083922125913554e-06   -5.843907676841655e-05
-1.1690858643858822e-05   2.3497849984061361e-07   -3.847781706761352e-05
-1.1690858643858822e-05   2.3497849984061361e-07   -3.847781706761352e-05
-1.1690858643858822e-05   2.3497849984061361e-07   -3.847781706761352e-05
-1.1690858643858822e-05   2.3497849984061361e-07   -3.847781706761352e-05
-2.6774498299742612e-05   4.614886854446224e-06   -1.522413478786738e-05
-2.6774498299742612e-05   4.614886854446224e-06   -1.522413478786738e-05
-2.6774498299742612e-05   4.614886854446224e-06   -1.522413478786738e-05
-2.6774498299742612e-05   4.614886854446224e-06   -1.522413478786738e-05
-5.24387955108014e-05   8.894684213984691e-07   -6.0233214532793905e-05
-5.24387955108014e-05   8.894684213984691e-07   -6.0233214532793905e-05
-5.24387955108014e-05   8.894684213984691e-07   -6.0233214532793905e-05
-5.24387955108014e-05   8.894684213984691e-07   -6.0233214532793905e-05
-5.0698404728412996e-05   5.586886507913651e-06   -1.6225887970529708e-05
-5.0698404728412996e-05   5.586886507913651e-06   -1.6225887970529708e-05
-5.0698404728412996e-05   5.586886507913651e-06   -1.6225887970529708e-05
-5.0698404728412996e-05   5.586886507913651e-06   -1.6225887970529708e-05
-2.5551951601525484e-05   1.5910462968097075e-06   -5.5739139055346545e-05
-2.5551951601525484e-05   1.5910462968097075e-06   -5.5739139055346545e-05
-2.5551951601525484e-05   1.5910462968097075e-06   -5.5739139055346545e-05
-2.5551951601525484e-05   1.5910462968097075e-06   -5.5739139055346545e-05
-3.846228577924802e-05   3.504520876656571e-06   -3.537000017371687e-05
-3.846228577924802e-05   3.504520876656571e-06   -3.537000017371687e-05
-3.846228577924802e-05   3.504520876656571e-06   -3.537000017371687e-05
-3.846228577924802e-05   3.504520876656571e-06   -3.537000017371687e-05
-2.5551951601525484e-05   5.586886507913651e-06   -1.3828383843867299e-05
-2.5551951601525484e-05   5.586886507913651e-06   -1.3828383843867299e-05
-2.5551951601525484e-05   5.586886507913651e-06   -1.3828383843867299e-05
-2.5551951601525484e-05   5.586886507913651e-06   -1.3828383843867299e-05
-5.0698404728413084e-05   1.5910462968097075e-06   -5.8136643182009036e-05
-5.0698404728413084e-05   1.5910462968097075e-06   -5.8136643182009036e-05
-5.0698404728413084e-05   1.5910462968097075e-06   -5.8136643182009036e-05
-5.0698404728413084e-05   1.5910462968097075e-06   -5.8136643182009036e-05
-4.901615672152647e-05   6.423983225280032e-06   -1.4782151972149568e-05
-4.901615672152647e-05   6.423983225280032e-06   -1.4782151972149568e-05
-4.901615672152647e-05   6.423983225280032e-06   -1.4782151972149568e-05
-4.901615672152647e-05   6.423983225280032e-06   -1.4782151972149568e-05
-2.4430323527541618e-05   2.2369513397232227e-06   -5.32463214974576e-05
-2.4430323527541618e-05   2.2369513397232227e-06   -5.32463214974576e-05
-2.4430323527541618e-05   2.2369513397232227e-06   -5.32463214974576e-05
-2.4430323527541618e-05   2.2369513397232227e-06   -5.32463214974576e-05
-3.6889603407710434e-05   4.114931554651934e-06   -3.360764315946615e-05
-3.6889603407710434e-05   4.114931554651934e-06   -3.360764315946615e-05
-3.6889603407710434e-05   4.114931554651934e-06   -3.360764315946615e-05
-3.6889603407710434e-05   4.114931554651934e-06   -3.360764315946615e-05
-2.4430323527541557e-05   6.423983225280032e-06   -1.2269932840815742e-05
-2.4430323527541557e-05   6.423983225280032e-06   -1.2269932840815742e-05
-2.4430323527541557e-05   6.423983225280032e-06   -1.2269932840815742e-05
-2.4430323527541557e-05   6.423983225280032e-06   -1.2269932840815742e-05
-4.901615672152655e-05   2.2369513397236564e-06   -5.575854062879102e-05
-4.901615672152655e-05   2.2369513397236564e-06   -5.575854062879102e-05
-4.901615672152655e-05   2.2369513397236564e-06   -5.575854062879102e-05
-4.901615672152655e-05   2.2369513397236564e-06   -5.575854062879102e-05
-4.773979567107024e-05   7.350108021466056e-06   -1.4828637484083466e-05
-4.773979567107024e-05   7.350108021466056e-06   -1.4828637484083466e-05
-4.773979567107024e-05   7.350108021466056e-06   -1.4828637484083466e-05
-4.773979567107024e-05   7.350108021466056e-06   -1.4828637484083466e-05
-2.3674028990358722e-05   2.7834439121996596e-06   -5.219825015304302e-05
-2.3674028990358722e-05   2.7834439121996596e-06   -5.219825015304302e-05
-2.3674028990358722e-05   2.7834439121996596e-06   -5.219825015304302e-05
-2.3674028990358722e-05   2.7834439121996596e-06   -5.219825015304302e-05
-3.6008077377693044e-05   4.540952249502267e-06   -3.2696007843200495e-05
-3.6008077377693044e-05   4.540952249502267e-06   -3.2696007843200495e-05
-3.6008077377693044e-05   4.540952249502267e-06   -3.2696007843200495e-05
-3.6008077377693044e-05   4.540952249502267e-06   -3.2696007843200495e-05
-5.24387955108014e-05   9.071283455053519e-06   -8.735594953438678e-06
-5.24387955108014e-05   9.071283455053519e-06   -8.735594953438678e-06
-5.24387955108014e-05   9.071283455053519e-06   -8.735594953438678e-06
-5.24387955108014e-05   9.071283455053519e-06   -8.735594953438678e-06
-7.925101169813422e-05   8.56235501503922e-06   -5.3727978996335546e-05
-7.925101169813422e-05   8.56235501503922e-06   -5.3727978996335546e-05
-7.925101169813422e-05   8.56235501503922e-06   -5.3727978996335546e-05
-7.925101169813422e-05   8.56235501503922e-06   -5.3727978996335546e-05
-7.581905295166417e-05   1.0362746859110018e-05   -2.584155194091872e-07
-7.581905295166417e-05   1.0362746859110018e-05   -2.584155194091872e-07
-7.581905295166417e-05   1.0362746859110018e-05   -2.584155194091872e-07
-7.581905295166417e-05   1.0362746859110018e-05   -2.584155194091872e-07
-5.06984047284129e-05   1.0841485029915686e-05   -4.241340546064437e-05
-5.06984047284129e-05   1.0841485029915686e-05   -4.241340546064437e-05
-5.06984047284129e-05   1.0841485029915686e-05   -4.241340546064437e-05
-5.06984047284129e-05   1.0841485029915686e-05   -4.241340546064437e-05
-6.176782690008899e-05   1.0222727654484245e-05   -2.3593114082592795e-05
-6.176782690008899e-05   1.0222727654484245e-05   -2.3593114082592795e-05
-6.176782690008899e-05   1.0222727654484245e-05   -2.3593114082592795e-05
-6.176782690008899e-05   1.0222727654484245e-05   -2.3593114082592795e-05
-5.069840472841304e-05   1.0362746859110018e-05   -5.456584218921107e-07
-5.069840472841304e-05   1.0362746859110018e-05   -5.456584218921107e-07
-5.069840472841304e-05   1.0362746859110018e-05   -5.456584218921107e-07
-5.069840472841304e-05   1.0362746859110018e-05   -5.456584218921107e-07
-7.581905295166417e-05   1.0841485029915686e-05   -4.212616255816113e-05
-7.581905295166417e-05   1.0841485029915686e-05   -4.212616255816113e-05
-7.581905295166417e-05   1.0841485029915686e-05   -4.212616255816113e-05
-7.581905295166417e-05   1.0841485029915686e-05   -4.212616255816113e-05
-7.297239855629911e-05   1.0702409830335054e-05   4.533919309693615e-06
-7.297239855629911e-05   1.0702409830335054e-05   4.533919309693615e-06
-7.297239855629911e-05   1.0702409830335054e-05   4.533919309693615e-06
-7.297239855629911e-05   1.0702409830335054e-05   4.533919309693615e-06
-4.901615672152647e-05   1.1353598562201077e-05   -3.5783863654047055e-05
-4.901615672152647e-05   1.1353598562201077e-05   -3.5783863654047055e-05
-4.901615672152647e-05   1.1353598562201077e-05   -3.5783863654047055e-05
-4.901615672152647e-05   1.1353598562201077e-05   -3.5783863654047055e-05
-6.046741234031464e-05   1.0965589504262612e-05   -1.6465632187969643e-05
-6.046741234031464e-05   1.0965589504262612e-05   -1.6465632187969643e-05
-6.046741234031464e-05   1.0965589504262612e-05   -1.6465632187969643e-05
-6.046741234031464e-05   1.0965589504262612e-05   -1.6465632187969643e-05
-4.901615672152655e-05   1.0702409830335487e-05   4.143206070574305e-06
-4.901615672152655e-05   1.0702409830335487e-05   4.143206070574305e-06
-4.901615672152655e-05   1.0702409830335487e-05   4.143206070574305e-06
-4.901615672152655e-05   1.0702409830335487e-05   4.143206070574305e-06
-7.297239855629899e-05   1.1353598562201077e-05   -3.5393150414927575e-05
-7.297239855629899e-05   1.1353598562201077e-05   -3.5393150414927575e-05
-7.297239855629899e-05   1.1353598562201077e-05   -3.5393150414927575e-05
-7.297239855629899e-05   1.1353598562201077e-05   -3.5393150414927575e-05
-6.999542909631674e-05   1.0995173334581252e-05   1.0955974733734258e-05
-6.999542909631674e-05   1.0995173334581252e-05   1.0955974733734258e-05
-6.999542909631674e-05   1.0995173334581252e-05   1.0955974733734258e-05
-6.999542909631674e-05   1.0995173334581252e-05   1.0955974733734258e-05
-4.773979567107024e-05   1.2233764233127251e-05   -2.6879902180803857e-05
-4.773979567107024e-05   1.2233764233127251e-05   -2.6879902180803857e-05
-4.773979567107024e-05   1.2233764233127251e-05   -2.6879902180803857e-05
-4.773979567107024e-05   1.2233764233127251e-05   -2.6879902180803857e-05
-5.759398079651873e-05   1.121550960063878e-05   -9.845307525563782e-06
-5.759398079651873e-05   1.121550960063878e-05   -9.845307525563782e-06
-5.759398079651873e-05   1.121550960063878e-05   -9.845307525563782e-06
-5.759398079651873e-05   1.121550960063878e-05   -9.845307525563782e-06
6.911485445610681e-05   -1.0381776875555918e-05   2.3572088423310256e-05
6.911485445610681e-05   -1.0381776875555918e-05   2.3572088423310256e-05
6.911485445610681e-05   -1.0381776875555918e-05   2.3572088423310256e-05
6.911485445610681e-05   -1.0381776875555918e-05   2.3572088423310256e-05
3.474334606166942e-05   -1.3130406431336589e-05   -3.5362936634220424e-05
3.474334606166942e-05   -1.3130406431336589e-05   -3.5362936634220424e-05
3.474334606166942e-05   -1.3130406431336589e-05   -3.5362936634220424e-05
3.474334606166942e-05   -1.3130406431336589e-05   -3.5362936634220424e-05
3.559292580579106e-05   -1.0139180530882932e-05   1.6906749609511742e-05
3.559292580579106e-05   -1.0139180530882932e-05   1.6906749609511742e-05
3.559292580579106e-05   -1.0139180530882932e-05   1.6906749609511742e-05
3.559292580579106e-05   -1.0139180530882932e-05   1.6906749609511742e-05
7.083801876856864e-05   -1.3458870557781725e-05   -3.9843257978978204e-05
7.083801876856864e-05   -1.3458870557781725e-05   -3.9843257978978204e-05
7.083801876856864e-05   -1.3458870557781725e-05   -3.9843257978978204e-05
7.083801876856864e-05   -1.3458870557781725e-05   -3.9843257978978204e-05
5.0478230345827685e-05   -1.0604761644937219e-05   -7.622742622116893e-06
5.0478230345827685e-05   -1.0604761644937219e-05   -7.622742622116893e-06
5.0478230345827685e-05   -1.0604761644937219e-05   -7.622742622116893e-06
5.0478230345827685e-05   -1.0604761644937219e-05   -7.622742622116893e-06
7.083801876856864e-05   -1.0139180530882932e-05   1.8898563625651408e-05
7.083801876856864e-05   -1.0139180530882932e-05   1.8898563625651408e-05
7.083801876856864e-05   -1.0139180530882932e-05   1.8898563625651408e-05
7.083801876856864e-05   -1.0139180530882932e-05   1.8898563625651408e-05
3.559292580579106e-05   -1.3458870557781725e-05   -4.18350719951176e-05
3.559292580579106e-05   -1.3458870557781725e-05   -4.18350719951176e-05
3.559292580579106e-05   -1.3458870557781725e-05   -4.18350719951176e-05
3.559292580579106e-05   -1.3458870557781725e-05   -4.18350719951176e-05
3.631104659569323e-05   -9.787225813648413e-06   1.3339384066998056e-05
3.631104659569323e-05   -9.787225813648413e-06   1.3339384066998056e-05
3.631104659569323e-05   -9.787225813648413e-06   1.3339384066998056e-05
3.631104659569323e-05   -9.787225813648413e-06   1.3339384066998056e-05
7.191198311337792e-05   -1.3337077087052437e-05   -4.3865599365100385e-05
7.191198311337792e-05   -1.3337077087052437e-05   -4.3865599365100385e-05
7.191198311337792e-05   -1.3337077087052437e-05   -4.3865599365100385e-05
7.191198311337792e-05   -1.3337077087052437e-05   -4.3865599365100385e-05
5.225838542717364e-05   -1.0939888207372843e-05   -1.2547916549234363e-05
5.225838542717364e-05   -1.0939888207372843e-05   -1.2547916549234363e-05
5.225838542717364e-05   -1.0939888207372843e-05   -1.2547916549234363e-05
5.225838542717364e-05   -1.0939888207372843e-05   -1.2547916549234363e-05
7.191198311337792e-05   -9.787225813648413e-06   1.54692948310406e-05
7.191198311337792e-05   -9.787225813648413e-06   1.54692948310406e-05
7.191198311337792e-05   -9.787225813648413e-06   1.54692948310406e-05
7.191198311337792e-05   -9.787225813648413e-06   1.54692948310406e-05
3.631104659569323e-05   -1.3337077087052437e-05   -4.5995510129142984e-05
3.631104659569323e-05   -1.3337077087052437e-05   -4.5995510129142984e-05
3.631104659569323e-05   -1.3337077087052437e-05   -4.5995510129142984e-05
3.631104659569323e-05   -1.3337077087052437e-05   -4.5995510129142984e-05
3.70614201143766e-05   -8.414259369418295e-06   6.416639332615251e-06
3.70614201143766e-05   -8.414259369418295e-06   6.416639332615251e-06
3.70614201143766e-05   -8.414259369418295e-06   6.416639332615251e-06
3.70614201143766e-05   -8.414259369418295e-06   6.416639332615251e-06
7.29694600069729e-05   -1.2595519040151798e-05   -5.092133801927175e-05
7.29694600069729e-05   -1.2595519040151798e-05   -5.092133801927175e-05
7.29694600069729e-05   -1.2595519040151798e-05   -5.092133801927175e-05
7.29694600069729e-05   -1.2595519040151798e-05   -5.092133801927175e-05
5.2284960702643377e-05   -1.0528675197904631e-05   -1.7687278817404123e-05
5.2284960702643377e-05   -1.0528675197904631e-05   -1.7687278817404123e-05
5.2284960702643377e-05   -1.0528675197904631e-05   -1.7687278817404123e-05
5.2284960702643377e-05   -1.0528675197904631e-05   -1.7687278817404123e-05
3.474334606166942e-05   -6.730319769652961e-06   2.3191792301604196e-06
3.474334606166942e-05   -6.730319769652961e-06   2.3191792301604196e-06
3.474334606166942e-05   -6.730319769652961e-06   2.3191792301604196e-06
3.474334606166942e-05   -6.730319769652961e-06   2.3191792301604196e-06
4.128164898015569e-06   -1.3179457458205746e-05   -5.257560532239422e-05
4.128164898015569e-06   -1.3179457458205746e-05   -5.257560532239422e-05
4.128164898015569e-06   -1.3179457458205746e-05   -5.257560532239422e-05
4.128164898015569e-06   -1.3179457458205746e-05   -5.257560532239422e-05
5.118415518230447e-06   -6.408461608730254e-06   -3.253134649796891e-07
5.118415518230447e-06   -6.408461608730254e-06   -3.253134649796891e-07
5.118415518230447e-06   -6.408461608730254e-06   -3.253134649796891e-07
5.118415518230447e-06   -6.408461608730254e-06   -3.253134649796891e-07
3.5592925805791114e-05   -1.3111983700293643e-05   -4.709405068930954e-05
3.5592925805791114e-05   -1.3111983700293643e-05   -4.709405068930954e-05
3.5592925805791114e-05   -1.3111983700293643e-05   -4.709405068930954e-05
3.5592925805791114e-05   -1.3111983700293643e-05   -4.709405068930954e-05
1.997335549686714e-05   -8.891119898800544e-06   -2.3593951788665327e-05
1.997335549686714e-05   -8.891119898800544e-06   -2.3593951788665327e-05
1.997335549686714e-05   -8.891119898800544e-06   -2.3593951788665327e-05
1.997335549686714e-05   -8.891119898800544e-06   -2.3593951788665327e-05
3.559292580579103e-05   -6.408461608730254e-06   3.696799789958084e-06
3.559292580579103e-05   -6.408461608730254e-06   3.696799789958084e-06
3.559292580579103e-05   -6.408461608730254e-06   3.696799789958084e-06
3.559292580579103e-05   -6.408461608730254e-06   3.696799789958084e-06
5.118415518230447e-06   -1.3111983700293643e-05   -5.111616394424764e-05
5.118415518230447e-06   -1.3111983700293643e-05   -5.111616394424764e-05
5.118415518230447e-06   -1.3111983700293643e-05   -5.111616394424764e-05
5.118415518230447e-06   -1.3111983700293643e-05   -5.111616394424764e-05
6.012288610447969e-06   -5.808975220879687e-06   -6.492846829804499e-07
6.012288610447969e-06   -5.808975220879687e-06   -6.492846829804499e-07
6.012288610447969e-06   -5.808975220879687e-06   -6.492846829804499e-07
6.012288610447969e-06   -5.808975220879687e-06   -6.492846829804499e-07
3.631104659569323e-05   -1.2936164764422008e-05   -4.687090093226392e-05
3.631104659569323e-05   -1.2936164764422008e-05   -4.687090093226392e-05
3.631104659569323e-05   -1.2936164764422008e-05   -4.687090093226392e-05
3.631104659569323e-05   -1.2936164764422008e-05   -4.687090093226392e-05
2.0535738391872405e-05   -8.989153208233472e-06   -2.2946927526274515e-05
2.0535738391872405e-05   -8.989153208233472e-06   -2.2946927526274515e-05
2.0535738391872405e-05   -8.989153208233472e-06   -2.2946927526274515e-05
2.0535738391872405e-05   -8.989153208233472e-06   -2.2946927526274515e-05
3.631104659569323e-05   -5.808975220879687e-06   3.6270290431450296e-06
3.631104659569323e-05   -5.808975220879687e-06   3.6270290431450296e-06
3.631104659569323e-05   -5.808975220879687e-06   3.6270290431450296e-06
3.631104659569323e-05   -5.808975220879687e-06   3.6270290431450296e-06
6.0122886104479415e-06   -1.2936164764422008e-05   -5.1147214658389456e-05
6.0122886104479415e-06   -1.2936164764422008e-05   -5.1147214658389456e-05
6.0122886104479415e-06   -1.2936164764422008e-05   -5.1147214658389456e-05
6.0122886104479415e-06   -1.2936164764422008e-05   -5.1147214658389456e-05
7.346313496304878e-06   -4.9560617434579735e-06   -1.2701596703451352e-06
7.346313496304878e-06   -4.9560617434579735e-06   -1.2701596703451352e-06
7.346313496304878e-06   -4.9560617434579735e-06   -1.2701596703451352e-06
7.346313496304878e-06   -4.9560617434579735e-06   -1.2701596703451352e-06
3.706142011437657e-05   -1.258478640842357e-05   -4.621810256815194e-05
3.706142011437657e-05   -1.258478640842357e-05   -4.621810256815194e-05
3.706142011437657e-05   -1.258478640842357e-05   -4.621810256815194e-05
3.706142011437657e-05   -1.258478640842357e-05   -4.621810256815194e-05
2.1607776380726837e-05   -8.849887784321327e-06   -2.27029688531972e-05
2.1607776380726837e-05   -8.849887784321327e-06   -2.27029688531972e-05
2.1607776380726837e-05   -8.849887784321327e-06   -2.27029688531972e-05
2.1607776380726837e-05   -8.849887784321327e-06   -2.27029688531972e-05
4.128164898015569e-06   -3.5380589461209665e-06   -5.245035075238363e-06
4.128164898015569e-06   -3.5380589461209665e-06   -5.245035075238363e-06
4.128164898015569e-06   -3.5380589461209665e-06   -5.245035075238363e-06
4.128164898015569e-06   -3.5380589461209665e-06   -5.245035075238363e-06
-2.6170703398386807e-05   -1.590627567419397e-05   -6.316407893941977e-05
-2.6170703398386807e-05   -1.590627567419397e-05   -6.316407893941977e-05
-2.6170703398386807e-05   -1.590627567419397e-05   -6.316407893941977e-05
-2.6170703398386807e-05   -1.590627567419397e-05   -6.316407893941977e-05
-2.4628261156824094e-05   -3.1589399936914585e-06   -1.1314532139250748e-05
-2.4628261156824094e-05   -3.1589399936914585e-06   -1.1314532139250748e-05
-2.4628261156824094e-05   -3.1589399936914585e-06   -1.1314532139250748e-05
-2.4628261156824094e-05   -3.1589399936914585e-06   -1.1314532139250748e-05
5.118415518230447e-06   -1.6258335472935353e-05   -5.303268931012881e-05
5.118415518230447e-06   -1.6258335472935353e-05   -5.303268931012881e-05
5.118415518230447e-06   -1.6258335472935353e-05   -5.303268931012881e-05
5.118415518230447e-06   -1.6258335472935353e-05   -5.303268931012881e-05
-1.0038028330824314e-05   -8.995357574860703e-06   -3.212973630054884e-05
-1.0038028330824314e-05   -8.995357574860703e-06   -3.212973630054884e-05
-1.0038028330824314e-05   -8.995357574860703e-06   -3.212973630054884e-05
-1.0038028330824314e-05   -8.995357574860703e-06   -3.212973630054884e-05
5.118415518230447e-06   -3.1589399936914585e-06   -3.4548948517046287e-06
5.118415518230447e-06   -3.1589399936914585e-06   -3.4548948517046287e-06
5.118415518230447e-06   -3.1589399936914585e-06   -3.4548948517046287e-06
5.118415518230447e-06   -3.1589399936914585e-06   -3.4548948517046287e-06
-2.462826115682412e-05   -1.6258335472935353e-05   -6.089232659767501e-05
-2.462826115682412e-05   -1.6258335472935353e-05   -6.089232659767501e-05
-2.462826115682412e-05   -1.6258335472935353e-05   -6.089232659767501e-05
-2.462826115682412e-05   -1.6258335472935353e-05   -6.089232659767501e-05
-2.3299175840183148e-05   -2.5683710151553317e-06   -1.0565646152732372e-05
-2.3299175840183148e-05   -2.5683710151553317e-06   -1.0565646152732372e-05
-2.3299175840183148e-05   -2.5683710151553317e-06   -1.0565646152732372e-05
-2.3299175840183148e-05   -2.5683710151553317e-06   -1.0565646152732372e-05
6.0122886104479415e-06   -1.618262306698516e-05   -5.124953567268656e-05
6.0122886104479415e-06   -1.618262306698516e-05   -5.124953567268656e-05
6.0122886104479415e-06   -1.618262306698516e-05   -5.124953567268656e-05
6.0122886104479415e-06   -1.618262306698516e-05   -5.124953567268656e-05
-8.942717632802402e-06   -9.19945527798555e-06   -3.051442594066917e-05
-8.942717632802402e-06   -9.19945527798555e-06   -3.051442594066917e-05
-8.942717632802402e-06   -9.19945527798555e-06   -3.051442594066917e-05
-8.942717632802402e-06   -9.19945527798555e-06   -3.051442594066917e-05
6.0122886104479415e-06   -2.5683710151557654e-06   -2.397094921634691e-06
6.0122886104479415e-06   -2.5683710151557654e-06   -2.397094921634691e-06
6.0122886104479415e-06   -2.5683710151557654e-06   -2.397094921634691e-06
6.0122886104479415e-06   -2.5683710151557654e-06   -2.397094921634691e-06
-2.329917584018323e-05   -1.6182623066985594e-05   -5.94180869037844e-05
-2.329917584018323e-05   -1.6182623066985594e-05   -5.94180869037844e-05
-2.329917584018323e-05   -1.6182623066985594e-05   -5.94180869037844e-05
-2.329917584018323e-05   -1.6182623066985594e-05   -5.94180869037844e-05
-2.1006060821116042e-05   -2.0083922125913554e-06   -1.0520778407706322e-05
-2.1006060821116042e-05   -2.0083922125913554e-06   -1.0520778407706322e-05
-2.1006060821116042e-05   -2.0083922125913554e-06   -1.0520778407706322e-05
-2.1006060821116042e-05   -2.0083922125913554e-06   -1.0520778407706322e-05
7.346313496304878e-06   -1.5615581202851978e-05   -4.961042220925178e-05
7.346313496304878e-06   -1.5615581202851978e-05   -4.961042220925178e-05
7.346313496304878e-06   -1.5615581202851978e-05   -4.961042220925178e-05
7.346313496304878e-06   -1.5615581202851978e-05   -4.961042220925178e-05
-7.519338301971594e-06   -8.995750639384775e-06   -2.880623421687114e-05
-7.519338301971594e-06   -8.995750639384775e-06   -2.880623421687114e-05
-7.519338301971594e-06   -8.995750639384775e-06   -2.880623421687114e-05
-7.519338301971594e-06   -8.995750639384775e-06   -2.880623421687114e-05
-2.6170703398386766e-05   8.894684213989028e-07   -7.3472389282174845e-06
-2.6170703398386766e-05   8.894684213989028e-07   -7.3472389282174845e-06
-2.6170703398386766e-05   8.894684213989028e-07   -7.3472389282174845e-06
-2.6170703398386766e-05   8.894684213989028e-07   -7.3472389282174845e-06
-5.9977307787332823e-05   -1.983978258540079e-05   -7.612913018054048e-05
-5.9977307787332823e-05   -1.983978258540079e-05   -7.612913018054048e-05
-5.9977307787332823e-05   -1.983978258540079e-05   -7.612913018054048e-05
-5.9977307787332823e-05   -1.983978258540079e-05   -7.612913018054048e-05
-5.813578128541914e-05   1.5910462968097075e-06   -1.9170340543743806e-05
-5.813578128541914e-05   1.5910462968097075e-06   -1.9170340543743806e-05
-5.813578128541914e-05   1.5910462968097075e-06   -1.9170340543743806e-05
-5.813578128541914e-05   1.5910462968097075e-06   -1.9170340543743806e-05
-2.4628261156824094e-05   -2.215022234120607e-05   -6.077144624192597e-05
-2.4628261156824094e-05   -2.215022234120607e-05   -6.077144624192597e-05
-2.4628261156824094e-05   -2.215022234120607e-05   -6.077144624192597e-05
-2.4628261156824094e-05   -2.215022234120607e-05   -6.077144624192597e-05
-4.162015456498753e-05   -1.009312670082179e-05   -3.9685881279217486e-05
-4.162015456498753e-05   -1.009312670082179e-05   -3.9685881279217486e-05
-4.162015456498753e-05   -1.009312670082179e-05   -3.9685881279217486e-05
-4.162015456498753e-05   -1.009312670082179e-05   -3.9685881279217486e-05
-2.4628261156824094e-05   1.5910462968097075e-06   -4.925579360934469e-06
-2.4628261156824094e-05   1.5910462968097075e-06   -4.925579360934469e-06
-2.4628261156824094e-05   1.5910462968097075e-06   -4.925579360934469e-06
-2.4628261156824094e-05   1.5910462968097075e-06   -4.925579360934469e-06
-5.813578128541914e-05   -2.215022234120607e-05   -7.501620742473539e-05
-5.813578128541914e-05   -2.215022234120607e-05   -7.501620742473539e-05
-5.813578128541914e-05   -2.215022234120607e-05   -7.501620742473539e-05
-5.813578128541914e-05   -2.215022234120607e-05   -7.501620742473539e-05
-5.637044998125944e-05   2.2369513397236564e-06   -1.712636755253562e-05
-5.637044998125944e-05   2.2369513397236564e-06   -1.712636755253562e-05
-5.637044998125944e-05   2.2369513397236564e-06   -1.712636755253562e-05
-5.637044998125944e-05   2.2369513397236564e-06   -1.712636755253562e-05
-2.329917584018319e-05   -2.2274162246547873e-05   -5.753848963589993e-05
-2.329917584018319e-05   -2.2274162246547873e-05   -5.753848963589993e-05
-2.329917584018319e-05   -2.2274162246547873e-05   -5.753848963589993e-05
-2.329917584018319e-05   -2.2274162246547873e-05   -5.753848963589993e-05
-3.9824594848774916e-05   -1.012766000880929e-05   -3.728402596422375e-05
-3.9824594848774916e-05   -1.012766000880929e-05   -3.728402596422375e-05
-3.9824594848774916e-05   -1.012766000880929e-05   -3.728402596422375e-05
-3.9824594848774916e-05   -1.012766000880929e-05   -3.728402596422375e-05
-2.329917584018316e-05   2.2369513397236564e-06   -2.419699400773006e-06
-2.329917584018316e-05   2.2369513397236564e-06   -2.419699400773006e-06
-2.329917584018316e-05   2.2369513397236564e-06   -2.419699400773006e-06
-2.329917584018316e-05   2.2369513397236564e-06   -2.419699400773006e-06
-5.637044998125954e-05   -2.227416224654744e-05   -7.224515778766279e-05
-5.637044998125954e-05   -2.227416224654744e-05   -7.224515778766279e-05
-5.637044998125954e-05   -2.227416224654744e-05   -7.224515778766279e-05
-5.637044998125954e-05   -2.227416224654744e-05   -7.224515778766279e-05
-5.347730901547906e-05   2.7834439121996596e-06   -1.5044528465391754e-05
-5.347730901547906e-05   2.7834439121996596e-06   -1.5044528465391754e-05
-5.347730901547906e-05   2.7834439121996596e-06   -1.5044528465391754e-05
-5.347730901547906e-05   2.7834439121996596e-06   -1.5044528465391754e-05
-2.100606082111611e-05   -2.0329760075469498e-05   -5.5295353063395135e-05
-2.100606082111611e-05   -2.0329760075469498e-05   -5.5295353063395135e-05
-2.100606082111611e-05   -2.0329760075469498e-05   -5.5295353063395135e-05
-2.100606082111611e-05   -2.0329760075469498e-05   -5.5295353063395135e-05
-3.805122694958157e-05   -8.946647367469654e-06   -3.3716610474085495e-05
-3.805122694958157e-05   -8.946647367469654e-06   -3.3716610474085495e-05
-3.805122694958157e-05   -8.946647367469654e-06   -3.3716610474085495e-05
-3.805122694958157e-05   -8.946647367469654e-06   -3.3716610474085495e-05
-5.9977307787332823e-05   8.56235501503922e-06   -1.2974196931830667e-05
-5.9977307787332823e-05   8.56235501503922e-06   -1.2974196931830667e-05
-5.9977307787332823e-05   8.56235501503922e-06   -1.2974196931830667e-05
-5.9977307787332823e-05   8.56235501503922e-06   -1.2974196931830667e-05
-0.00010327728352272306   0.0   -9.027823616650481e-05
-0.00010327728352272306   0.0   -9.027823616650481e-05
-0.00010327728352272306   0.0   -9.027823616650481e-05
-0.00010327728352272306   0.0   -9.027823616650481e-05
-0.00010058238159632825   1.0841485029915686e-05   -9.95199384032884e-06
-0.00010058238159632825   1.0841485029915686e-05   -9.95199384032884e-06
-0.00010058238159632825   1.0841485029915686e-05   -9.95199384032884e-06
-0.00010058238159632825   1.0841485029915686e-05   -9.95199384032884e-06
-5.8135781285419035e-05   0.0   -7.41914366738948e-05
-5.8135781285419035e-05   0.0   -7.41914366738948e-05
-5.8135781285419035e-05   0.0   -7.41914366738948e-05
-5.8135781285419035e-05   0.0   -7.41914366738948e-05
-7.707296337864582e-05   3.3124189509933614e-06   -4.4616917889112815e-05
-7.707296337864582e-05   3.3124189509933614e-06   -4.4616917889112815e-05
-7.707296337864582e-05   3.3124189509933614e-06   -4.4616917889112815e-05
-7.707296337864582e-05   3.3124189509933614e-06   -4.4616917889112815e-05
-5.813578128541909e-05   1.0841485029915686e-05   -3.4471028223794723e-06
-5.813578128541909e-05   1.0841485029915686e-05   -3.4471028223794723e-06
-5.813578128541909e-05   1.0841485029915686e-05   -3.4471028223794723e-06
-5.813578128541909e-05   1.0841485029915686e-05   -3.4471028223794723e-06
-0.00010058238159632807   0.0   -8.069632769184426e-05
-0.00010058238159632807   0.0   -8.069632769184426e-05
-0.00010058238159632807   0.0   -8.069632769184426e-05
-0.00010058238159632807   0.0   -8.069632769184426e-05
-9.830287323205904e-05   1.1353598562201077e-05   -3.963849715112348e-06
-9.830287323205904e-05   1.1353598562201077e-05   -3.963849715112348e-06
-9.830287323205904e-05   1.1353598562201077e-05   -3.963849715112348e-06
-9.830287323205904e-05   1.1353598562201077e-05   -3.963849715112348e-06
-5.637044998125954e-05   0.0   -6.70390626624579e-05
-5.637044998125954e-05   0.0   -6.70390626624579e-05
-5.637044998125954e-05   0.0   -6.70390626624579e-05
-5.637044998125954e-05   0.0   -6.70390626624579e-05
-7.626913476245826e-05   5.249718006890194e-06   -3.7024418831259676e-05
-7.626913476245826e-05   5.249718006890194e-06   -3.7024418831259676e-05
-7.626913476245826e-05   5.249718006890194e-06   -3.7024418831259676e-05
-7.626913476245826e-05   5.249718006890194e-06   -3.7024418831259676e-05
-5.637044998125954e-05   1.135359856220151e-05   2.8483094222080813e-06
-5.637044998125954e-05   1.135359856220151e-05   2.8483094222080813e-06
-5.637044998125954e-05   1.135359856220151e-05   2.8483094222080813e-06
-5.637044998125954e-05   1.135359856220151e-05   2.8483094222080813e-06
-9.830287323205888e-05   0.0   -7.385122179977841e-05
-9.830287323205888e-05   0.0   -7.385122179977841e-05
-9.830287323205888e-05   0.0   -7.385122179977841e-05
-9.830287323205888e-05   0.0   -7.385122179977841e-05
-9.375503943391384e-05   1.2233764233127251e-05   5.673559432530775e-06
-9.375503943391384e-05   1.2233764233127251e-05   5.673559432530775e-06
-9.375503943391384e-05   1.2233764233127251e-05   5.673559432530775e-06
-9.375503943391384e-05   1.2233764233127251e-05   5.673559432530775e-06
-5.347730901547915e-05   0.0   -5.411573272498451e-05
-5.347730901547915e-05   0.0   -5.411573272498451e-05
-5.347730901547915e-05   0.0   -5.411573272498451e-05
-5.347730901547915e-05   0.0   -5.411573272498451e-05
-7.23006283904207e-05   6.475511080805425e-06   -2.6628840415231347e-05
-7.23006283904207e-05   6.475511080805425e-06   -2.6628840415231347e-05
-7.23006283904207e-05   6.475511080805425e-06   -2.6628840415231347e-05
-7.23006283904207e-05   6.475511080805425e-06   -2.6628840415231347e-05
7.646463340367592e-05   -1.3130406431336589e-05   4.564401507680597e-05
7.646463340367592e-05   -1.3130406431336589e-05   4.564401507680597e-05
7.646463340367592e-05   -1.3130406431336589e-05   4.564401507680597e-05
7.646463340367592e-05   -1.3130406431336589e-05   4.564401507680597e-05
3.967337125170513e-05   -1.0117396433153257e-05   -1.3866949177568757e-05
3.967337125170513e-05   -1.0117396433153257e-05   -1.3866949177568757e-05
3.967337125170513e-05   -1.0117396433153257e-05   -1.3866949177568757e-05
3.967337125170513e-05   -1.0117396433153257e-05   -1.3866949177568757e-05
3.867510036465755e-05   -1.3458870557781725e-05   4.031285490028688e-05
3.867510036465755e-05   -1.3458870557781725e-05   4.031285490028688e-05
3.867510036465755e-05   -1.3458870557781725e-05   4.031285490028688e-05
3.867510036465755e-05   -1.3458870557781725e-05   4.031285490028688e-05
7.564656239660817e-05   -1.112382133137144e-05   -2.270727802214335e-05
7.564656239660817e-05   -1.112382133137144e-05   -2.270727802214335e-05
7.564656239660817e-05   -1.112382133137144e-05   -2.270727802214335e-05
7.564656239660817e-05   -1.112382133137144e-05   -2.270727802214335e-05
5.525741481487539e-05   -1.1313794004738035e-05   1.138861821809749e-05
5.525741481487539e-05   -1.1313794004738035e-05   1.138861821809749e-05
5.525741481487539e-05   -1.1313794004738035e-05   1.138861821809749e-05
5.525741481487539e-05   -1.1313794004738035e-05   1.138861821809749e-05
7.564656239660817e-05   -1.3458870557781725e-05   3.8911825364440836e-05
7.564656239660817e-05   -1.3458870557781725e-05   3.8911825364440836e-05
7.564656239660817e-05   -1.3458870557781725e-05   3.8911825364440836e-05
7.564656239660817e-05   -1.3458870557781725e-05   3.8911825364440836e-05
3.867510036465755e-05   -1.112382133137144e-05   -2.130624848629731e-05
3.867510036465755e-05   -1.112382133137144e-05   -2.130624848629731e-05
3.867510036465755e-05   -1.112382133137144e-05   -2.130624848629731e-05
3.867510036465755e-05   -1.112382133137144e-05   -2.130624848629731e-05
3.777205570218732e-05   -1.3337077087052437e-05   3.619450594071513e-05
3.777205570218732e-05   -1.3337077087052437e-05   3.619450594071513e-05
3.777205570218732e-05   -1.3337077087052437e-05   3.619450594071513e-05
3.777205570218732e-05   -1.3337077087052437e-05   3.619450594071513e-05
7.470049839993626e-05   -1.1216454733891257e-05   -2.6625271967429924e-05
7.470049839993626e-05   -1.1216454733891257e-05   -2.6625271967429924e-05
7.470049839993626e-05   -1.1216454733891257e-05   -2.6625271967429924e-05
7.470049839993626e-05   -1.1216454733891257e-05   -2.6625271967429924e-05
5.5215240016986896e-05   -1.1512214918825339e-05   6.027614781779387e-06
5.5215240016986896e-05   -1.1512214918825339e-05   6.027614781779387e-06
5.5215240016986896e-05   -1.1512214918825339e-05   6.027614781779387e-06
5.5215240016986896e-05   -1.1512214918825339e-05   6.027614781779387e-06
7.470049839993638e-05   -1.3337077087052437e-05   3.492213252881838e-05
7.470049839993638e-05   -1.3337077087052437e-05   3.492213252881838e-05
7.470049839993638e-05   -1.3337077087052437e-05   3.492213252881838e-05
7.470049839993638e-05   -1.3337077087052437e-05   3.492213252881838e-05
3.777205570218732e-05   -1.1216454733891257e-05   -2.5352898555533118e-05
3.777205570218732e-05   -1.1216454733891257e-05   -2.5352898555533118e-05
3.777205570218732e-05   -1.1216454733891257e-05   -2.5352898555533118e-05
3.777205570218732e-05   -1.1216454733891257e-05   -2.5352898555533118e-05
3.667032514090694e-05   -1.2595519040151798e-05   2.9494321613154212e-05
3.667032514090694e-05   -1.2595519040151798e-05   2.9494321613154212e-05
3.667032514090694e-05   -1.2595519040151798e-05   2.9494321613154212e-05
3.667032514090694e-05   -1.2595519040151798e-05   2.9494321613154212e-05
7.321818854353379e-05   -1.0982500509927866e-05   -3.238659517602481e-05
7.321818854353379e-05   -1.0982500509927866e-05   -3.238659517602481e-05
7.321818854353379e-05   -1.0982500509927866e-05   -3.238659517602481e-05
7.321818854353379e-05   -1.0982500509927866e-05   -3.238659517602481e-05
5.3330119171731923e-05   -1.0946994385850964e-05   7.388834358652526e-07
5.3330119171731923e-05   -1.0946994385850964e-05   7.388834358652526e-07
5.3330119171731923e-05   -1.0946994385850964e-05   7.388834358652526e-07
5.3330119171731923e-05   -1.0946994385850964e-05   7.388834358652526e-07
3.967337125170513e-05   -1.3179457458205746e-05   3.4108635000673496e-05
3.967337125170513e-05   -1.3179457458205746e-05   3.4108635000673496e-05
3.967337125170513e-05   -1.3179457458205746e-05   3.4108635000673496e-05
3.967337125170513e-05   -1.3179457458205746e-05   3.4108635000673496e-05
8.453078254444437e-06   -6.256508088893498e-06   -1.3771417039840257e-05
8.453078254444437e-06   -6.256508088893498e-06   -1.3771417039840257e-05
8.453078254444437e-06   -6.256508088893498e-06   -1.3771417039840257e-05
8.453078254444437e-06   -6.256508088893498e-06   -1.3771417039840257e-05
6.873174973451296e-06   -1.3111983700293643e-05   3.8939495210899185e-05
6.873174973451296e-06   -1.3111983700293643e-05   3.8939495210899185e-05
6.873174973451296e-06   -1.3111983700293643e-05   3.8939495210899185e-05
6.873174973451296e-06   -1.3111983700293643e-05   3.8939495210899185e-05
3.867510036465755e-05   -6.635952025620291e-06   -1.794933277924867e-05
3.867510036465755e-05   -6.635952025620291e-06   -1.794933277924867e-05
3.867510036465755e-05   -6.635952025620291e-06   -1.794933277924867e-05
3.867510036465755e-05   -6.635952025620291e-06   -1.794933277924867e-05
2.3386083257542038e-05   -9.433365251183563e-06   9.210810334615003e-06
2.3386083257542038e-05   -9.433365251183563e-06   9.210810334615003e-06
2.3386083257542038e-05   -9.433365251183563e-06   9.210810334615003e-06
2.3386083257542038e-05   -9.433365251183563e-06   9.210810334615003e-06
3.867510036465759e-05   -1.3111983700293643e-05   3.5053876206094826e-05
3.867510036465759e-05   -1.3111983700293643e-05   3.5053876206094826e-05
3.867510036465759e-05   -1.3111983700293643e-05   3.5053876206094826e-05
3.867510036465759e-05   -1.3111983700293643e-05   3.5053876206094826e-05
6.873174973451296e-06   -6.635952025620291e-06   -1.4063713774444637e-05
6.873174973451296e-06   -6.635952025620291e-06   -1.4063713774444637e-05
6.873174973451296e-06   -6.635952025620291e-06   -1.4063713774444637e-05
6.873174973451296e-06   -6.635952025620291e-06   -1.4063713774444637e-05
5.7465533138871625e-06   -1.2936164764422008e-05   3.899799769357991e-05
5.7465533138871625e-06   -1.2936164764422008e-05   3.899799769357991e-05
5.7465533138871625e-06   -1.2936164764422008e-05   3.899799769357991e-05
5.7465533138871625e-06   -1.2936164764422008e-05   3.899799769357991e-05
3.777205570218732e-05   -6.804693837778909e-06   -1.805672217623921e-05
3.777205570218732e-05   -6.804693837778909e-06   -1.805672217623921e-05
3.777205570218732e-05   -6.804693837778909e-06   -1.805672217623921e-05
3.777205570218732e-05   -6.804693837778909e-06   -1.805672217623921e-05
2.203183417418288e-05   -9.24010447864946e-06   9.63822675495782e-06
2.203183417418288e-05   -9.24010447864946e-06   9.63822675495782e-06
2.203183417418288e-05   -9.24010447864946e-06   9.63822675495782e-06
2.203183417418288e-05   -9.24010447864946e-06   9.63822675495782e-06
3.777205570218736e-05   -1.2936164764422008e-05   3.531911513759414e-05
3.777205570218736e-05   -1.2936164764422008e-05   3.531911513759414e-05
3.777205570218736e-05   -1.2936164764422008e-05   3.531911513759414e-05
3.777205570218736e-05   -1.2936164764422008e-05   3.531911513759414e-05
5.7465533138871625e-06   -6.804693837778909e-06   -1.4377839620253411e-05
5.7465533138871625e-06   -6.804693837778909e-06   -1.4377839620253411e-05
5.7465533138871625e-06   -6.804693837778909e-06   -1.4377839620253411e-05
5.7465533138871625e-06   -6.804693837778909e-06   -1.4377839620253411e-05
4.493285107206709e-06   -1.258478640842357e-05   4.0266413621657064e-05
4.493285107206709e-06   -1.258478640842357e-05   4.0266413621657064e-05
4.493285107206709e-06   -1.258478640842357e-05   4.0266413621657064e-05
4.493285107206709e-06   -1.258478640842357e-05   4.0266413621657064e-05
3.66703251409069e-05   -6.6512851501850274e-06   -1.6922087189453138e-05
3.66703251409069e-05   -6.6512851501850274e-06   -1.6922087189453138e-05
3.66703251409069e-05   -6.6512851501850274e-06   -1.6922087189453138e-05
3.66703251409069e-05   -6.6512851501850274e-06   -1.6922087189453138e-05
2.1203592423011574e-05   -8.834732456132737e-06   1.0165869057274571e-05
2.1203592423011574e-05   -8.834732456132737e-06   1.0165869057274571e-05
2.1203592423011574e-05   -8.834732456132737e-06   1.0165869057274571e-05
2.1203592423011574e-05   -8.834732456132737e-06   1.0165869057274571e-05
8.453078254444464e-06   -1.590627567419397e-05   3.509486104207949e-05
8.453078254444464e-06   -1.590627567419397e-05   3.509486104207949e-05
8.453078254444464e-06   -1.590627567419397e-05   3.509486104207949e-05
8.453078254444464e-06   -1.590627567419397e-05   3.509486104207949e-05
-2.1537776925587715e-05   -2.631943470703807e-06   -6.925298269213438e-06
-2.1537776925587715e-05   -2.631943470703807e-06   -6.925298269213438e-06
-2.1537776925587715e-05   -2.631943470703807e-06   -6.925298269213438e-06
-2.1537776925587715e-05   -2.631943470703807e-06   -6.925298269213438e-06
-2.399551917503268e-05   -1.6258335472935353e-05   4.511043755818446e-05
-2.399551917503268e-05   -1.6258335472935353e-05   4.511043755818446e-05
-2.399551917503268e-05   -1.6258335472935353e-05   4.511043755818446e-05
-2.399551917503268e-05   -1.6258335472935353e-05   4.511043755818446e-05
6.873174973451323e-06   -2.779222617657444e-06   -1.4424853735788603e-05
6.873174973451323e-06   -2.779222617657444e-06   -1.4424853735788603e-05
6.873174973451323e-06   -2.779222617657444e-06   -1.4424853735788603e-05
6.873174973451323e-06   -2.779222617657444e-06   -1.4424853735788603e-05
-7.283104851040249e-06   -9.091868502515265e-06   1.2956533502612018e-05
-7.283104851040249e-06   -9.091868502515265e-06   1.2956533502612018e-05
-7.283104851040249e-06   -9.091868502515265e-06   1.2956533502612018e-05
-7.283104851040249e-06   -9.091868502515265e-06   1.2956533502612018e-05
6.873174973451296e-06   -1.6258335472935353e-05   3.7022969845017933e-05
6.873174973451296e-06   -1.6258335472935353e-05   3.7022969845017933e-05
6.873174973451296e-06   -1.6258335472935353e-05   3.7022969845017933e-05
6.873174973451296e-06   -1.6258335472935353e-05   3.7022969845017933e-05
-2.3995519175032626e-05   -2.779222617657444e-06   -6.33738602262221e-06
-2.3995519175032626e-05   -2.779222617657444e-06   -6.33738602262221e-06
-2.3995519175032626e-05   -2.779222617657444e-06   -6.33738602262221e-06
-2.3995519175032626e-05   -2.779222617657444e-06   -6.33738602262221e-06
-2.5497670847966333e-05   -1.6182623066985594e-05   4.68294856884946e-05
-2.5497670847966333e-05   -1.6182623066985594e-05   4.68294856884946e-05
-2.5497670847966333e-05   -1.6182623066985594e-05   4.68294856884946e-05
-2.5497670847966333e-05   -1.6182623066985594e-05   4.68294856884946e-05
5.7465533138871625e-06   -2.9596080516323432e-06   -1.3178030257139569e-05
5.7465533138871625e-06   -2.9596080516323432e-06   -1.3178030257139569e-05
5.7465533138871625e-06   -2.9596080516323432e-06   -1.3178030257139569e-05
5.7465533138871625e-06   -2.9596080516323432e-06   -1.3178030257139569e-05
-8.946979296871817e-06   -9.063017845912374e-06   1.4973236637359983e-05
-8.946979296871817e-06   -9.063017845912374e-06   1.4973236637359983e-05
-8.946979296871817e-06   -9.063017845912374e-06   1.4973236637359983e-05
-8.946979296871817e-06   -9.063017845912374e-06   1.4973236637359983e-05
5.7465533138871625e-06   -1.618262306698516e-05   3.889567667928265e-05
5.7465533138871625e-06   -1.618262306698516e-05   3.889567667928265e-05
5.7465533138871625e-06   -1.618262306698516e-05   3.889567667928265e-05
5.7465533138871625e-06   -1.618262306698516e-05   3.889567667928265e-05
-2.549767084796628e-05   -2.9596080516323432e-06   -5.244221247927916e-06
-2.549767084796628e-05   -2.9596080516323432e-06   -5.244221247927916e-06
-2.549767084796628e-05   -2.9596080516323432e-06   -5.244221247927916e-06
-2.549767084796628e-05   -2.9596080516323432e-06   -5.244221247927916e-06
-2.726445417286421e-05   -1.5615581202851978e-05   4.9055368961594455e-05
-2.726445417286421e-05   -1.5615581202851978e-05   4.9055368961594455e-05
-2.726445417286421e-05   -1.5615581202851978e-05   4.9055368961594455e-05
-2.726445417286421e-05   -1.5615581202851978e-05   4.9055368961594455e-05
4.493285107206709e-06   -2.94218089942188e-06   -1.1478236687248455e-05
4.493285107206709e-06   -2.94218089942188e-06   -1.1478236687248455e-05
4.493285107206709e-06   -2.94218089942188e-06   -1.1478236687248455e-05
4.493285107206709e-06   -2.94218089942188e-06   -1.1478236687248455e-05
-1.0301857559520942e-05   -8.702394316235235e-06   1.663646247405243e-05
-1.0301857559520942e-05   -8.702394316235235e-06   1.663646247405243e-05
-1.0301857559520942e-05   -8.702394316235235e-06   1.663646247405243e-05
-1.0301857559520942e-05   -8.702394316235235e-06   1.663646247405243e-05
-2.1537776925587755e-05   -1.983978258540079e-05   4.253195972713235e-05
-2.1537776925587755e-05   -1.983978258540079e-05   4.253195972713235e-05
-2.1537776925587755e-05   -1.983978258540079e-05   4.253195972713235e-05
-2.1537776925587755e-05   -1.983978258540079e-05   4.253195972713235e-05
-5.569044483099175e-05   2.8272690925806344e-06   -7.889224417519363e-07
-5.569044483099175e-05   2.8272690925806344e-06   -7.889224417519363e-07
-5.569044483099175e-05   2.8272690925806344e-06   -7.889224417519363e-07
-5.569044483099175e-05   2.8272690925806344e-06   -7.889224417519363e-07
-5.864375493204243e-05   -2.215022234120607e-05   6.0116364745276115e-05
-5.864375493204243e-05   -2.215022234120607e-05   6.0116364745276115e-05
-5.864375493204243e-05   -2.215022234120607e-05   6.0116364745276115e-05
-5.864375493204243e-05   -2.215022234120607e-05   6.0116364745276115e-05
-2.3995519175032626e-05   2.6581890443647983e-06   -1.2515741681082813e-05
-2.3995519175032626e-05   2.6581890443647983e-06   -1.2515741681082813e-05
-2.3995519175032626e-05   2.6581890443647983e-06   -1.2515741681082813e-05
-2.3995519175032626e-05   2.6581890443647983e-06   -1.2515741681082813e-05
-3.940813602172422e-05   -8.237525801214115e-06   1.9709381970750437e-05
-3.940813602172422e-05   -8.237525801214115e-06   1.9709381970750437e-05
-3.940813602172422e-05   -8.237525801214115e-06   1.9709381970750437e-05
-3.940813602172422e-05   -8.237525801214115e-06   1.9709381970750437e-05
-2.399551917503268e-05   -2.215022234120607e-05   4.523131791393364e-05
-2.399551917503268e-05   -2.215022234120607e-05   4.523131791393364e-05
-2.399551917503268e-05   -2.215022234120607e-05   4.523131791393364e-05
-2.399551917503268e-05   -2.215022234120607e-05   4.523131791393364e-05
-5.864375493204243e-05   2.6581890443647983e-06   2.3693051502597737e-06
-5.864375493204243e-05   2.6581890443647983e-06   2.3693051502597737e-06
-5.864375493204243e-05   2.6581890443647983e-06   2.3693051502597737e-06
-5.864375493204243e-05   2.6581890443647983e-06   2.3693051502597737e-06
-6.0443854124390414e-05   -2.227416224654744e-05   6.34816054864624e-05
-6.0443854124390414e-05   -2.227416224654744e-05   6.34816054864624e-05
-6.0443854124390414e-05   -2.227416224654744e-05   6.34816054864624e-05
-6.0443854124390414e-05   -2.227416224654744e-05   6.34816054864624e-05
-2.549767084796628e-05   2.3467086369246062e-06   -9.534555837661495e-06
-2.549767084796628e-05   2.3467086369246062e-06   -9.534555837661495e-06
-2.549767084796628e-05   2.3467086369246062e-06   -9.534555837661495e-06
-2.549767084796628e-05   2.3467086369246062e-06   -9.534555837661495e-06
-4.132680293568526e-05   -9.483851855731588e-06   2.3945667270796982e-05
-4.132680293568526e-05   -9.483851855731588e-06   2.3945667270796982e-05
-4.132680293568526e-05   -9.483851855731588e-06   2.3945667270796982e-05
-4.132680293568526e-05   -9.483851855731588e-06   2.3945667270796982e-05
-2.5497670847966265e-05   -2.2274162246547873e-05   4.870908295637861e-05
-2.5497670847966265e-05   -2.2274162246547873e-05   4.870908295637861e-05
-2.5497670847966265e-05   -2.2274162246547873e-05   4.870908295637861e-05
-2.5497670847966265e-05   -2.2274162246547873e-05   4.870908295637861e-05
-6.044385412439029e-05   2.3467086369246062e-06   5.2379666924218075e-06
-6.044385412439029e-05   2.3467086369246062e-06   5.2379666924218075e-06
-6.044385412439029e-05   2.3467086369246062e-06   5.2379666924218075e-06
-6.044385412439029e-05   2.3467086369246062e-06   5.2379666924218075e-06
-6.238335169417364e-05   -2.0329760075469498e-05   6.492904890146168e-05
-6.238335169417364e-05   -2.0329760075469498e-05   6.492904890146168e-05
-6.238335169417364e-05   -2.0329760075469498e-05   6.492904890146168e-05
-6.238335169417364e-05   -2.0329760075469498e-05   6.492904890146168e-05
-2.72644541728641e-05   1.9940689242876723e-06   -6.996744367241482e-06
-2.72644541728641e-05   1.9940689242876723e-06   -6.996744367241482e-06
-2.72644541728641e-05   1.9940689242876723e-06   -6.996744367241482e-06
-2.72644541728641e-05   1.9940689242876723e-06   -6.996744367241482e-06
-4.330348281946369e-05   -9.554846350123391e-06   2.666431920840469e-05
-4.330348281946369e-05   -9.554846350123391e-06   2.666431920840469e-05
-4.330348281946369e-05   -9.554846350123391e-06   2.666431920840469e-05
-4.330348281946369e-05   -9.554846350123391e-06   2.666431920840469e-05
-5.5690444830991544e-05   0.0   4.712049775698005e-05
-5.5690444830991544e-05   0.0   4.712049775698005e-05
-5.5690444830991544e-05   0.0   4.712049775698005e-05
-5.5690444830991544e-05   0.0   4.712049775698005e-05
-9.808630492296793e-05   1.2860704803447764e-05   -1.582284618091177e-05
-9.808630492296793e-05   1.2860704803447764e-05   -1.582284618091177e-05
-9.808630492296793e-05   1.2860704803447764e-05   -1.582284618091177e-05
-9.808630492296793e-05   1.2860704803447764e-05   -1.582284618091177e-05
-0.00010215946999455468   0.0   6.838857696419794e-05
-0.00010215946999455468   0.0   6.838857696419794e-05
-0.00010215946999455468   0.0   6.838857696419794e-05
-0.00010215946999455468   0.0   6.838857696419794e-05
-5.864375493204235e-05   1.241240244680272e-05   -1.1585056274737466e-05
-5.864375493204235e-05   1.241240244680272e-05   -1.1585056274737466e-05
-5.864375493204235e-05   1.241240244680272e-05   -1.1585056274737466e-05
-5.864375493204235e-05   1.241240244680272e-05   -1.1585056274737466e-05
-7.529138838734791e-05   7.63015204650018e-06   1.9030349724286408e-05
-7.529138838734791e-05   7.63015204650018e-06   1.9030349724286408e-05
-7.529138838734791e-05   7.63015204650018e-06   1.9030349724286408e-05
-7.529138838734791e-05   7.63015204650018e-06   1.9030349724286408e-05
-5.8643754932042295e-05   0.0   6.094113549611662e-05
-5.8643754932042295e-05   0.0   6.094113549611662e-05
-5.8643754932042295e-05   0.0   6.094113549611662e-05
-5.8643754932042295e-05   0.0   6.094113549611662e-05
-0.00010215946999455485   1.241240244680272e-05   -4.1376148066560835e-06
-0.00010215946999455485   1.241240244680272e-05   -4.1376148066560835e-06
-0.00010215946999455485   1.241240244680272e-05   -4.1376148066560835e-06
-0.00010215946999455485   1.241240244680272e-05   -4.1376148066560835e-06
-0.00010421087586172682   0.0   7.594410075121086e-05
-0.00010421087586172682   0.0   7.594410075121086e-05
-0.00010421087586172682   0.0   7.594410075121086e-05
-0.00010421087586172682   0.0   7.594410075121086e-05
-6.044385412439029e-05   1.2094000232572896e-05   -4.257335617227528e-06
-6.044385412439029e-05   1.2094000232572896e-05   -4.257335617227528e-06
-6.044385412439029e-05   1.2094000232572896e-05   -4.257335617227528e-06
-6.044385412439029e-05   1.2094000232572896e-05   -4.257335617227528e-06
-7.922003437054904e-05   6.371134861646831e-06   3.047001734892709e-05
-7.922003437054904e-05   6.371134861646831e-06   3.047001734892709e-05
-7.922003437054904e-05   6.371134861646831e-06   3.047001734892709e-05
-7.922003437054904e-05   6.371134861646831e-06   3.047001734892709e-05
-6.044385412439029e-05   0.0   6.868770061166699e-05
-6.044385412439029e-05   0.0   6.868770061166699e-05
-6.044385412439029e-05   0.0   6.868770061166699e-05
-6.044385412439029e-05   0.0   6.868770061166699e-05
-0.00010421087586172717   1.2094000232572896e-05   2.9990645223163664e-06
-0.00010421087586172717   1.2094000232572896e-05   2.9990645223163664e-06
-0.00010421087586172717   1.2094000232572896e-05   2.9990645223163664e-06
-0.00010421087586172717   1.2094000232572896e-05   2.9990645223163664e-06
-0.00010649535716853146   0.0   8.601932040023011e-05
-0.00010649535716853146   0.0   8.601932040023011e-05
-0.00010649535716853146   0.0   8.601932040023011e-05
-0.00010649535716853146   0.0   8.601932040023011e-05
-6.238335169417364e-05   1.0071214612926774e-05   6.456582508543741e-06
-6.238335169417364e-05   1.0071214612926774e-05   6.456582508543741e-06
-6.238335169417364e-05   1.0071214612926774e-05   6.456582508543741e-06
-6.238335169417364e-05   1.0071214612926774e-05   6.456582508543741e-06
-7.98801429131126e-05   4.472286675613092e-06   3.89772579691643e-05
-7.98801429131126e-05   4.472286675613092e-06   3.89772579691643e-05
-7.98801429131126e-05   4.472286675613092e-06   3.89772579691643e-05
-7.98801429131126e-05   4.472286675613092e-06   3.89772579691643e-05
6.72519907696871e-05   -1.0117396433153257e-05   4.774843955853152e-05
6.72519907696871e-05   -1.0117396433153257e-05   4.774843955853152e-05
6.72519907696871e-05   -1.0117396433153257e-05   4.774843955853152e-05
6.72519907696871e-05   -1.0117396433153257e-05   4.774843955853152e-05
3.401386607786504e-05   -7.630057605617982e-06   -6.156031631317574e-06
3.401386607786504e-05   -7.630057605617982e-06   -6.156031631317574e-06
3.401386607786504e-05   -7.630057605617982e-06   -6.156031631317574e-06
3.401386607786504e-05   -7.630057605617982e-06   -6.156031631317574e-06
3.311608614837317e-05   -1.1123821331371873e-05   4.167883841694185e-05
3.311608614837317e-05   -1.1123821331371873e-05   4.167883841694185e-05
3.311608614837317e-05   -1.1123821331371873e-05   4.167883841694185e-05
3.311608614837317e-05   -1.1123821331371873e-05   4.167883841694185e-05
6.564905978696997e-05   -8.647924561869854e-06   -1.4028322375754003e-05
6.564905978696997e-05   -8.647924561869854e-06   -1.4028322375754003e-05
6.564905978696997e-05   -8.647924561869854e-06   -1.4028322375754003e-05
6.564905978696997e-05   -8.647924561869854e-06   -1.4028322375754003e-05
4.7781486449748906e-05   -9.004854252250057e-06   1.5965124333842864e-05
4.7781486449748906e-05   -9.004854252250057e-06   1.5965124333842864e-05
4.7781486449748906e-05   -9.004854252250057e-06   1.5965124333842864e-05
4.7781486449748906e-05   -9.004854252250057e-06   1.5965124333842864e-05
6.564905978696986e-05   -1.1123821331371873e-05   4.019330035524046e-05
6.564905978696986e-05   -1.1123821331371873e-05   4.019330035524046e-05
6.564905978696986e-05   -1.1123821331371873e-05   4.019330035524046e-05
6.564905978696986e-05   -1.1123821331371873e-05   4.019330035524046e-05
3.3116086148373224e-05   -8.647924561869854e-06   -1.2542784314052658e-05
3.3116086148373224e-05   -8.647924561869854e-06   -1.2542784314052658e-05
3.3116086148373224e-05   -8.647924561869854e-06   -1.2542784314052658e-05
3.3116086148373224e-05   -8.647924561869854e-06   -1.2542784314052658e-05
3.1959239114960996e-05   -1.1216454733891257e-05   3.741122188799279e-05
3.1959239114960996e-05   -1.1216454733891257e-05   3.741122188799279e-05
3.1959239114960996e-05   -1.1216454733891257e-05   3.741122188799279e-05
3.1959239114960996e-05   -1.1216454733891257e-05   3.741122188799279e-05
6.402794130416832e-05   -8.799262132522592e-06   -1.748693065484056e-05
6.402794130416832e-05   -8.799262132522592e-06   -1.748693065484056e-05
6.402794130416832e-05   -8.799262132522592e-06   -1.748693065484056e-05
6.402794130416832e-05   -8.799262132522592e-06   -1.748693065484056e-05
4.733159008565539e-05   -9.398094073921268e-06   1.069962054085343e-05
4.733159008565539e-05   -9.398094073921268e-06   1.069962054085343e-05
4.733159008565539e-05   -9.398094073921268e-06   1.069962054085343e-05
4.733159008565539e-05   -9.398094073921268e-06   1.069962054085343e-05
6.402794130416832e-05   -1.1216454733891257e-05   3.596090632717176e-05
6.402794130416832e-05   -1.1216454733891257e-05   3.596090632717176e-05
6.402794130416832e-05   -1.1216454733891257e-05   3.596090632717176e-05
6.402794130416832e-05   -1.1216454733891257e-05   3.596090632717176e-05
3.1959239114960996e-05   -8.799262132522592e-06   -1.6036615094019643e-05
3.1959239114960996e-05   -8.799262132522592e-06   -1.6036615094019643e-05
3.1959239114960996e-05   -8.799262132522592e-06   -1.6036615094019643e-05
3.1959239114960996e-05   -8.799262132522592e-06   -1.6036615094019643e-05
3.0745513408823326e-05   -1.0982500509927866e-05   3.108103843294766e-05
3.0745513408823326e-05   -1.0982500509927866e-05   3.108103843294766e-05
3.0745513408823326e-05   -1.0982500509927866e-05   3.108103843294766e-05
3.0745513408823326e-05   -1.0982500509927866e-05   3.108103843294766e-05
6.199865789218939e-05   -8.743790107493613e-06   -2.2350761947456153e-05
6.199865789218939e-05   -8.743790107493613e-06   -2.2350761947456153e-05
6.199865789218939e-05   -8.743790107493613e-06   -2.2350761947456153e-05
6.199865789218939e-05   -8.743790107493613e-06   -2.2350761947456153e-05
4.52217244053673e-05   -9.152137113960061e-06   5.855802067794645e-06
4.52217244053673e-05   -9.152137113960061e-06   5.855802067794645e-06
4.52217244053673e-05   -9.152137113960061e-06   5.855802067794645e-06
4.52217244053673e-05   -9.152137113960061e-06   5.855802067794645e-06
3.4013866077865106e-05   -6.256508088893498e-06   4.518260537119366e-05
3.4013866077865106e-05   -6.256508088893498e-06   4.518260537119366e-05
3.4013866077865106e-05   -6.256508088893498e-06   4.518260537119366e-05
3.4013866077865106e-05   -6.256508088893498e-06   4.518260537119366e-05
3.730510150571492e-06   -2.6923844291724085e-06   -3.151180311796375e-06
3.730510150571492e-06   -2.6923844291724085e-06   -3.151180311796375e-06
3.730510150571492e-06   -2.6923844291724085e-06   -3.151180311796375e-06
3.730510150571492e-06   -2.6923844291724085e-06   -3.151180311796375e-06
2.8386846909668082e-06   -6.635952025620291e-06   4.7073693447655975e-05
2.8386846909668082e-06   -6.635952025620291e-06   4.7073693447655975e-05
2.8386846909668082e-06   -6.635952025620291e-06   4.7073693447655975e-05
2.8386846909668082e-06   -6.635952025620291e-06   4.7073693447655975e-05
3.3116086148373224e-05   -3.2393864861780634e-06   -5.4265816383533105e-06
3.3116086148373224e-05   -3.2393864861780634e-06   -5.4265816383533105e-06
3.3116086148373224e-05   -3.2393864861780634e-06   -5.4265816383533105e-06
3.3116086148373224e-05   -3.2393864861780634e-06   -5.4265816383533105e-06
1.8248269332406948e-05   -4.375862071291127e-06   2.0034998405991662e-05
1.8248269332406948e-05   -4.375862071291127e-06   2.0034998405991662e-05
1.8248269332406948e-05   -4.375862071291127e-06   2.0034998405991662e-05
1.8248269332406948e-05   -4.375862071291127e-06   2.0034998405991662e-05
3.31160861483732e-05   -6.635952025620291e-06   4.5035754123990595e-05
3.31160861483732e-05   -6.635952025620291e-06   4.5035754123990595e-05
3.31160861483732e-05   -6.635952025620291e-06   4.5035754123990595e-05
3.31160861483732e-05   -6.635952025620291e-06   4.5035754123990595e-05
2.8386846909668082e-06   -3.2393864861780634e-06   -3.3886423146882016e-06
2.8386846909668082e-06   -3.2393864861780634e-06   -3.3886423146882016e-06
2.8386846909668082e-06   -3.2393864861780634e-06   -3.3886423146882016e-06
2.8386846909668082e-06   -3.2393864861780634e-06   -3.3886423146882016e-06
1.7002242124053836e-06   -6.804693837779343e-06   4.663134613288071e-05
1.7002242124053836e-06   -6.804693837779343e-06   4.663134613288071e-05
1.7002242124053836e-06   -6.804693837779343e-06   4.663134613288071e-05
1.7002242124053836e-06   -6.804693837779343e-06   4.663134613288071e-05
3.1959239114960996e-05   -3.598114061788716e-06   -5.724293236972845e-06
3.1959239114960996e-05   -3.598114061788716e-06   -5.724293236972845e-06
3.1959239114960996e-05   -3.598114061788716e-06   -5.724293236972845e-06
3.1959239114960996e-05   -3.598114061788716e-06   -5.724293236972845e-06
1.7117374016752877e-05   -4.582937469745432e-06   1.9603042638148853e-05
1.7117374016752877e-05   -4.582937469745432e-06   1.9603042638148853e-05
1.7117374016752877e-05   -4.582937469745432e-06   1.9603042638148853e-05
1.7117374016752877e-05   -4.582937469745432e-06   1.9603042638148853e-05
3.195923911496093e-05   -6.804693837778909e-06   4.4707398267286504e-05
3.195923911496093e-05   -6.804693837778909e-06   4.4707398267286504e-05
3.195923911496093e-05   -6.804693837778909e-06   4.4707398267286504e-05
3.195923911496093e-05   -6.804693837778909e-06   4.4707398267286504e-05
1.7002242124053836e-06   -3.598114061788716e-06   -3.8003453713786155e-06
1.7002242124053836e-06   -3.598114061788716e-06   -3.8003453713786155e-06
1.7002242124053836e-06   -3.598114061788716e-06   -3.8003453713786155e-06
1.7002242124053836e-06   -3.598114061788716e-06   -3.8003453713786155e-06
4.4257989811903305e-07   -6.6512851501850274e-06   4.731739682145488e-05
4.4257989811903305e-07   -6.6512851501850274e-06   4.731739682145488e-05
4.4257989811903305e-07   -6.6512851501850274e-06   4.731739682145488e-05
4.4257989811903305e-07   -6.6512851501850274e-06   4.731739682145488e-05
3.07455134088233e-05   -3.751849283402473e-06   -4.927153883122149e-06
3.07455134088233e-05   -3.751849283402473e-06   -4.927153883122149e-06
3.07455134088233e-05   -3.751849283402473e-06   -4.927153883122149e-06
3.07455134088233e-05   -3.751849283402473e-06   -4.927153883122149e-06
1.6196062702154523e-05   -4.539527353325957e-06   1.9794537469947407e-05
1.6196062702154523e-05   -4.539527353325957e-06   1.9794537469947407e-05
1.6196062702154523e-05   -4.539527353325957e-06   1.9794537469947407e-05
1.6196062702154523e-05   -4.539527353325957e-06   1.9794537469947407e-05
3.730510150571492e-06   -2.631943470703807e-06   4.620259901555934e-05
3.730510150571492e-06   -2.631943470703807e-06   4.620259901555934e-05
3.730510150571492e-06   -2.631943470703807e-06   4.620259901555934e-05
3.730510150571492e-06   -2.631943470703807e-06   4.620259901555934e-05
-2.5607308221602267e-05   2.3925221635519127e-06   3.209144424898801e-07
-2.5607308221602267e-05   2.3925221635519127e-06   3.209144424898801e-07
-2.5607308221602267e-05   2.3925221635519127e-06   3.209144424898801e-07
-2.5607308221602267e-05   2.3925221635519127e-06   3.209144424898801e-07
-2.661213761445013e-05   -2.7792226176578776e-06   4.9564404597893155e-05
-2.661213761445013e-05   -2.7792226176578776e-06   4.9564404597893155e-05
-2.661213761445013e-05   -2.7792226176578776e-06   4.9564404597893155e-05
-2.661213761445013e-05   -2.7792226176578776e-06   4.9564404597893155e-05
2.8386846909668082e-06   1.9738625683116476e-06   -2.372150356049602e-06
2.8386846909668082e-06   1.9738625683116476e-06   -2.372150356049602e-06
2.8386846909668082e-06   1.9738625683116476e-06   -2.372150356049602e-06
2.8386846909668082e-06   1.9738625683116476e-06   -2.372150356049602e-06
-1.1391617606911332e-05   -4.073429509150739e-08   2.2553778258455347e-05
-1.1391617606911332e-05   -4.073429509150739e-08   2.2553778258455347e-05
-1.1391617606911332e-05   -4.073429509150739e-08   2.2553778258455347e-05
-1.1391617606911332e-05   -4.073429509150739e-08   2.2553778258455347e-05
2.8386846909668082e-06   -2.7792226176578776e-06   4.671255348631187e-05
2.8386846909668082e-06   -2.7792226176578776e-06   4.671255348631187e-05
2.8386846909668082e-06   -2.7792226176578776e-06   4.671255348631187e-05
2.8386846909668082e-06   -2.7792226176578776e-06   4.671255348631187e-05
-2.661213761445013e-05   1.973862568311214e-06   4.797007555315709e-07
-2.661213761445013e-05   1.973862568311214e-06   4.797007555315709e-07
-2.661213761445013e-05   1.973862568311214e-06   4.797007555315709e-07
-2.661213761445013e-05   1.973862568311214e-06   4.797007555315709e-07
-2.795928655978646e-05   -2.9596080516319095e-06   5.055740340324105e-05
-2.795928655978646e-05   -2.9596080516319095e-06   5.055740340324105e-05
-2.795928655978646e-05   -2.9596080516319095e-06   5.055740340324105e-05
-2.795928655978646e-05   -2.9596080516319095e-06   5.055740340324105e-05
1.7002242124053836e-06   1.5841384604447194e-06   -1.6013624576582887e-06
1.7002242124053836e-06   1.5841384604447194e-06   -1.6013624576582887e-06
1.7002242124053836e-06   1.5841384604447194e-06   -1.6013624576582887e-06
1.7002242124053836e-06   1.5841384604447194e-06   -1.6013624576582887e-06
-1.2382797300708885e-05   -1.5843938637287447e-07   2.2915886772289747e-05
-1.2382797300708885e-05   -1.5843938637287447e-07   2.2915886772289747e-05
-1.2382797300708885e-05   -1.5843938637287447e-07   2.2915886772289747e-05
-1.2382797300708885e-05   -1.5843938637287447e-07   2.2915886772289747e-05
1.7002242124053836e-06   -2.9596080516323432e-06   4.7831155495994685e-05
1.7002242124053836e-06   -2.9596080516323432e-06   4.7831155495994685e-05
1.7002242124053836e-06   -2.9596080516323432e-06   4.7831155495994685e-05
1.7002242124053836e-06   -2.9596080516323432e-06   4.7831155495994685e-05
-2.7959286559786406e-05   1.5841384604447194e-06   1.1248854495879163e-06
-2.7959286559786406e-05   1.5841384604447194e-06   1.1248854495879163e-06
-2.7959286559786406e-05   1.5841384604447194e-06   1.1248854495879163e-06
-2.7959286559786406e-05   1.5841384604447194e-06   1.1248854495879163e-06
-2.9394577182822773e-05   -2.94218089942188e-06   5.1748509650817323e-05
-2.9394577182822773e-05   -2.94218089942188e-06   5.1748509650817323e-05
-2.9394577182822773e-05   -2.94218089942188e-06   5.1748509650817323e-05
-2.9394577182822773e-05   -2.94218089942188e-06   5.1748509650817323e-05
4.4257989811903305e-07   1.3034242374128022e-06   -5.274485661865586e-07
4.4257989811903305e-07   1.3034242374128022e-06   -5.274485661865586e-07
4.4257989811903305e-07   1.3034242374128022e-06   -5.274485661865586e-07
4.4257989811903305e-07   1.3034242374128022e-06   -5.274485661865586e-07
-1.3646841174349825e-05   -2.429196544486388e-07   2.38827262230457e-05
-1.3646841174349825e-05   -2.429196544486388e-07   2.38827262230457e-05
-1.3646841174349825e-05   -2.429196544486388e-07   2.38827262230457e-05
-1.3646841174349825e-05   -2.429196544486388e-07   2.38827262230457e-05
-2.5607308221602186e-05   2.8272690925806344e-06   4.1753423216785244e-05
-2.5607308221602186e-05   2.8272690925806344e-06   4.1753423216785244e-05
-2.5607308221602186e-05   2.8272690925806344e-06   4.1753423216785244e-05
-2.5607308221602186e-05   2.8272690925806344e-06   4.1753423216785244e-05
-5.434848059732096e-05   7.794469639073928e-06   -3.168210414850048e-06
-5.434848059732096e-05   7.794469639073928e-06   -3.168210414850048e-06
-5.434848059732096e-05   7.794469639073928e-06   -3.168210414850048e-06
-5.434848059732096e-05   7.794469639073928e-06   -3.168210414850048e-06
-5.5811981882060316e-05   2.658189044365232e-06   4.621599193165753e-05
-5.5811981882060316e-05   2.658189044365232e-06   4.621599193165753e-05
-5.5811981882060316e-05   2.658189044365232e-06   4.621599193165753e-05
-5.5811981882060316e-05   2.658189044365232e-06   4.621599193165753e-05
-2.661213761445005e-05   7.374760698074072e-06   -5.280358173251072e-06
-2.661213761445005e-05   7.374760698074072e-06   -5.280358173251072e-06
-2.661213761445005e-05   7.374760698074072e-06   -5.280358173251072e-06
-2.661213761445005e-05   7.374760698074072e-06   -5.280358173251072e-06
-4.027479907054323e-05   5.253630827289045e-06   1.876342217604172e-05
-4.027479907054323e-05   5.253630827289045e-06   1.876342217604172e-05
-4.027479907054323e-05   5.253630827289045e-06   1.876342217604172e-05
-4.027479907054323e-05   5.253630827289045e-06   1.876342217604172e-05
-2.6612137614450077e-05   2.6581890443647983e-06   4.338604893943244e-05
-2.6612137614450077e-05   2.6581890443647983e-06   4.338604893943244e-05
-2.6612137614450077e-05   2.6581890443647983e-06   4.338604893943244e-05
-2.6612137614450077e-05   2.6581890443647983e-06   4.338604893943244e-05
-5.581198188206021e-05   7.374760698073638e-06   -2.450415181026039e-06
-5.581198188206021e-05   7.374760698073638e-06   -2.450415181026039e-06
-5.581198188206021e-05   7.374760698073638e-06   -2.450415181026039e-06
-5.581198188206021e-05   7.374760698073638e-06   -2.450415181026039e-06
-5.760549750961119e-05   2.3467086369246062e-06   4.905099810805294e-05
-5.760549750961119e-05   2.3467086369246062e-06   4.905099810805294e-05
-5.760549750961119e-05   2.3467086369246062e-06   4.905099810805294e-05
-5.760549750961119e-05   2.3467086369246062e-06   4.905099810805294e-05
-2.7959286559786406e-05   6.986590794500619e-06   -3.1432827695338015e-06
-2.7959286559786406e-05   6.986590794500619e-06   -3.1432827695338015e-06
-2.7959286559786406e-05   6.986590794500619e-06   -3.1432827695338015e-06
-2.7959286559786406e-05   6.986590794500619e-06   -3.1432827695338015e-06
-4.136490760771162e-05   5.156823274720182e-06   2.0297279488876608e-05
-4.136490760771162e-05   5.156823274720182e-06   2.0297279488876608e-05
-4.136490760771162e-05   5.156823274720182e-06   2.0297279488876608e-05
-4.136490760771162e-05   5.156823274720182e-06   2.0297279488876608e-05
-2.795928655978638e-05   2.3467086369246062e-06   4.62670688135072e-05
-2.795928655978638e-05   2.3467086369246062e-06   4.62670688135072e-05
-2.795928655978638e-05   2.3467086369246062e-06   4.62670688135072e-05
-2.795928655978638e-05   2.3467086369246062e-06   4.62670688135072e-05
-5.760549750961119e-05   6.986590794501053e-06   -3.593534749883349e-07
-5.760549750961119e-05   6.986590794501053e-06   -3.593534749883349e-07
-5.760549750961119e-05   6.986590794501053e-06   -3.593534749883349e-07
-5.760549750961119e-05   6.986590794501053e-06   -3.593534749883349e-07
-5.95032003526822e-05   1.9940689242876723e-06   5.130838107034446e-05
-5.95032003526822e-05   1.9940689242876723e-06   5.130838107034446e-05
-5.95032003526822e-05   1.9940689242876723e-06   5.130838107034446e-05
-5.95032003526822e-05   1.9940689242876723e-06   5.130838107034446e-05
-2.9394577182822692e-05   6.464767726918792e-06   -1.5550768276669305e-06
-2.9394577182822692e-05   6.464767726918792e-06   -1.5550768276669305e-06
-2.9394577182822692e-05   6.464767726918792e-06   -1.5550768276669305e-06
-2.9394577182822692e-05   6.464767726918792e-06   -1.5550768276669305e-06
-4.318057212707075e-05   4.841839746962291e-06   2.2395338200722396e-05
-4.318057212707075e-05   4.841839746962291e-06   2.2395338200722396e-05
-4.318057212707075e-05   4.841839746962291e-06   2.2395338200722396e-05
-4.318057212707075e-05   4.841839746962291e-06   2.2395338200722396e-05
-5.434848059732096e-05   1.2860704803447764e-05   2.1983396923452815e-05
-5.434848059732096e-05   1.2860704803447764e-05   2.1983396923452815e-05
-5.434848059732096e-05   1.2860704803447764e-05   2.1983396923452815e-05
-5.434848059732096e-05   1.2860704803447764e-05   2.1983396923452815e-05
-8.187383879926637e-05   1.267633453837019e-05   -2.4002822238836227e-05
-8.187383879926637e-05   1.267633453837019e-05   -2.4002822238836227e-05
-8.187383879926637e-05   1.267633453837019e-05   -2.4002822238836227e-05
-8.187383879926637e-05   1.267633453837019e-05   -2.4002822238836227e-05
-8.450096985623094e-05   1.2412402446802286e-05   3.256590136233744e-05
-8.450096985623094e-05   1.2412402446802286e-05   3.256590136233744e-05
-8.450096985623094e-05   1.2412402446802286e-05   3.256590136233744e-05
-8.450096985623094e-05   1.2412402446802286e-05   3.256590136233744e-05
-5.581198188206021e-05   1.2919520539597662e-05   -1.5553349450291368e-05
-5.581198188206021e-05   1.2919520539597662e-05   -1.5553349450291368e-05
-5.581198188206021e-05   1.2919520539597662e-05   -1.5553349450291368e-05
-5.581198188206021e-05   1.2919520539597662e-05   -1.5553349450291368e-05
-6.635108368661877e-05   1.2917414157092178e-05   2.0130840534762382e-06
-6.635108368661877e-05   1.2917414157092178e-05   2.0130840534762382e-06
-6.635108368661877e-05   1.2917414157092178e-05   2.0130840534762382e-06
-6.635108368661877e-05   1.2917414157092178e-05   2.0130840534762382e-06
-5.581198188206015e-05   1.241240244680272e-05   3.2261630506660345e-05
-5.581198188206015e-05   1.241240244680272e-05   3.2261630506660345e-05
-5.581198188206015e-05   1.241240244680272e-05   3.2261630506660345e-05
-5.581198188206015e-05   1.241240244680272e-05   3.2261630506660345e-05
-8.450096985623094e-05   1.2919520539597662e-05   -1.5249078594614055e-05
-8.450096985623094e-05   1.2919520539597662e-05   -1.5249078594614055e-05
-8.450096985623094e-05   1.2919520539597662e-05   -1.5249078594614055e-05
-8.450096985623094e-05   1.2919520539597662e-05   -1.5249078594614055e-05
-8.707726732349596e-05   1.2094000232572462e-05   3.999516512663364e-05
-8.707726732349596e-05   1.2094000232572462e-05   3.999516512663364e-05
-8.707726732349596e-05   1.2094000232572462e-05   3.999516512663364e-05
-8.707726732349596e-05   1.2094000232572462e-05   3.999516512663364e-05
-5.7605497509611106e-05   1.2826449112956096e-05   -9.563920558071479e-06
-5.7605497509611106e-05   1.2826449112956096e-05   -9.563920558071479e-06
-5.7605497509611106e-05   1.2826449112956096e-05   -9.563920558071479e-06
-5.7605497509611106e-05   1.2826449112956096e-05   -9.563920558071479e-06
-6.936299691385459e-05   1.291551438710025e-05   9.978472617848833e-06
-6.936299691385459e-05   1.291551438710025e-05   9.978472617848833e-06
-6.936299691385459e-05   1.291551438710025e-05   9.978472617848833e-06
-6.936299691385459e-05   1.291551438710025e-05   9.978472617848833e-06
-5.7605497509611106e-05   1.2094000232572896e-05   3.955569579840385e-05
-5.7605497509611106e-05   1.2094000232572896e-05   3.955569579840385e-05
-5.7605497509611106e-05   1.2094000232572896e-05   3.955569579840385e-05
-5.7605497509611106e-05   1.2094000232572896e-05   3.955569579840385e-05
-8.707726732349596e-05   1.2826449112956096e-05   -9.12445122984158e-06
-8.707726732349596e-05   1.2826449112956096e-05   -9.12445122984158e-06
-8.707726732349596e-05   1.2826449112956096e-05   -9.12445122984158e-06
-8.707726732349596e-05   1.2826449112956096e-05   -9.12445122984158e-06
-9.011563306867421e-05   1.0071214612926774e-05   5.2409261924054934e-05
-9.011563306867421e-05   1.0071214612926774e-05   5.2409261924054934e-05
-9.011563306867421e-05   1.0071214612926774e-05   5.2409261924054934e-05
-9.011563306867421e-05   1.0071214612926774e-05   5.2409261924054934e-05
-5.9503200352681985e-05   1.1807633575892668e-05   3.466893529550626e-07
-5.9503200352681985e-05   1.1807633575892668e-05   3.466893529550626e-07
-5.9503200352681985e-05   1.1807633575892668e-05   3.466893529550626e-07
-5.9503200352681985e-05   1.1807633575892668e-05   3.466893529550626e-07
-7.04435944243051e-05   1.2302326791800277e-05   1.8283863542782814e-05
-7.04435944243051e-05   1.2302326791800277e-05   1.8283863542782814e-05
-7.04435944243051e-05   1.2302326791800277e-05   1.8283863542782814e-05
-7.04435944243051e-05   1.2302326791800277e-05   1.8283863542782814e-05
5.4539697284975705e-05   -7.630057605617548e-06   4.2088426061842295e-05
5.4539697284975705e-05   -7.630057605617548e-06   4.2088426061842295e-05
5.4539697284975705e-05   -7.630057605617548e-06   4.2088426061842295e-05
5.4539697284975705e-05   -7.630057605617548e-06   4.2088426061842295e-05
2.7002767390650418e-05   -5.593705539796642e-06   -2.584645855873693e-06
2.7002767390650418e-05   -5.593705539796642e-06   -2.584645855873693e-06
2.7002767390650418e-05   -5.593705539796642e-06   -2.584645855873693e-06
2.7002767390650418e-05   -5.593705539796642e-06   -2.584645855873693e-06
2.596860942384233e-05   -8.647924561869854e-06   3.660039065241766e-05
2.596860942384233e-05   -8.647924561869854e-06   3.660039065241766e-05
2.596860942384233e-05   -8.647924561869854e-06   3.660039065241766e-05
2.596860942384233e-05   -8.647924561869854e-06   3.660039065241766e-05
5.2637738084207994e-05   -6.490404331576955e-06   -9.142669253033497e-06
5.2637738084207994e-05   -6.490404331576955e-06   -9.142669253033497e-06
5.2637738084207994e-05   -6.490404331576955e-06   -9.142669253033497e-06
5.2637738084207994e-05   -6.490404331576955e-06   -9.142669253033497e-06
3.82041768717404e-05   -7.017974806407257e-06   1.5229808385976878e-05
3.82041768717404e-05   -7.017974806407257e-06   1.5229808385976878e-05
3.82041768717404e-05   -7.017974806407257e-06   1.5229808385976878e-05
3.82041768717404e-05   -7.017974806407257e-06   1.5229808385976878e-05
5.2637738084207906e-05   -8.647924561869854e-06   3.530587851424227e-05
5.2637738084207906e-05   -8.647924561869854e-06   3.530587851424227e-05
5.2637738084207906e-05   -8.647924561869854e-06   3.530587851424227e-05
5.2637738084207906e-05   -8.647924561869854e-06   3.530587851424227e-05
2.596860942384241e-05   -6.490404331576955e-06   -7.84815711485842e-06
2.596860942384241e-05   -6.490404331576955e-06   -7.84815711485842e-06
2.596860942384241e-05   -6.490404331576955e-06   -7.84815711485842e-06
2.596860942384241e-05   -6.490404331576955e-06   -7.84815711485842e-06
2.481948329245277e-05   -8.799262132523026e-06   3.2800881860073176e-05
2.481948329245277e-05   -8.799262132523026e-06   3.2800881860073176e-05
2.481948329245277e-05   -8.799262132523026e-06   3.2800881860073176e-05
2.481948329245277e-05   -8.799262132523026e-06   3.2800881860073176e-05
5.091549737167406e-05   -6.670585767177672e-06   -1.1969680757835953e-05
5.091549737167406e-05   -6.670585767177672e-06   -1.1969680757835953e-05
5.091549737167406e-05   -6.670585767177672e-06   -1.1969680757835953e-05
5.091549737167406e-05   -6.670585767177672e-06   -1.1969680757835953e-05
3.7488187047715035e-05   -7.365469335072171e-06   1.0826099922832427e-05
3.7488187047715035e-05   -7.365469335072171e-06   1.0826099922832427e-05
3.7488187047715035e-05   -7.365469335072171e-06   1.0826099922832427e-05
3.7488187047715035e-05   -7.365469335072171e-06   1.0826099922832427e-05
5.0915497371673886e-05   -8.799262132522592e-06   3.1523676040865964e-05
5.0915497371673886e-05   -8.799262132522592e-06   3.1523676040865964e-05
5.0915497371673886e-05   -8.799262132522592e-06   3.1523676040865964e-05
5.0915497371673886e-05   -8.799262132522592e-06   3.1523676040865964e-05
2.481948329245281e-05   -6.670585767177672e-06   -1.0692474938628653e-05
2.481948329245281e-05   -6.670585767177672e-06   -1.0692474938628653e-05
2.481948329245281e-05   -6.670585767177672e-06   -1.0692474938628653e-05
2.481948329245281e-05   -6.670585767177672e-06   -1.0692474938628653e-05
2.3714272992906083e-05   -8.743790107493613e-06   2.7502803438717244e-05
2.3714272992906083e-05   -8.743790107493613e-06   2.7502803438717244e-05
2.3714272992906083e-05   -8.743790107493613e-06   2.7502803438717244e-05
2.3714272992906083e-05   -8.743790107493613e-06   2.7502803438717244e-05
4.8964957299408913e-05   -6.743614587079606e-06   -1.5781775717702404e-05
4.8964957299408913e-05   -6.743614587079606e-06   -1.5781775717702404e-05
4.8964957299408913e-05   -6.743614587079606e-06   -1.5781775717702404e-05
4.8964957299408913e-05   -6.743614587079606e-06   -1.5781775717702404e-05
3.55576610840821e-05   -7.241075237886512e-06   6.862194364993951e-06
3.55576610840821e-05   -7.241075237886512e-06   6.862194364993951e-06
3.55576610840821e-05   -7.241075237886512e-06   6.862194364993951e-06
3.55576610840821e-05   -7.241075237886512e-06   6.862194364993951e-06
2.7002767390650418e-05   -2.692384429172842e-06   4.41766144250236e-05
2.7002767390650418e-05   -2.692384429172842e-06   4.41766144250236e-05
2.7002767390650418e-05   -2.692384429172842e-06   4.41766144250236e-05
2.7002767390650418e-05   -2.692384429172842e-06   4.41766144250236e-05
1.155224168111589e-06   -1.0698245899811755e-06   2.0709116243071424e-06
1.155224168111589e-06   -1.0698245899811755e-06   2.0709116243071424e-06
1.155224168111589e-06   -1.0698245899811755e-06   2.0709116243071424e-06
1.155224168111589e-06   -1.0698245899811755e-06   2.0709116243071424e-06
1.6248443079146355e-07   -3.2393864861780634e-06   4.463679757807956e-05
1.6248443079146355e-07   -3.2393864861780634e-06   4.463679757807956e-05
1.6248443079146355e-07   -3.2393864861780634e-06   4.463679757807956e-05
1.6248443079146355e-07   -3.2393864861780634e-06   4.463679757807956e-05
2.596860942384241e-05   -1.7057127362405354e-06   7.063850063652251e-07
2.596860942384241e-05   -1.7057127362405354e-06   7.063850063652251e-07
2.596860942384241e-05   -1.7057127362405354e-06   7.063850063652251e-07
2.596860942384241e-05   -1.7057127362405354e-06   7.063850063652251e-07
1.3407597093655527e-05   -2.0962083382802636e-06   2.187570291790089e-05
1.3407597093655527e-05   -2.0962083382802636e-06   2.187570291790089e-05
1.3407597093655527e-05   -2.0962083382802636e-06   2.187570291790089e-05
1.3407597093655527e-05   -2.0962083382802636e-06   2.187570291790089e-05
2.596860942384239e-05   -3.2393864861780634e-06   4.371659332811696e-05
2.596860942384239e-05   -3.2393864861780634e-06   4.371659332811696e-05
2.596860942384239e-05   -3.2393864861780634e-06   4.371659332811696e-05
2.596860942384239e-05   -3.2393864861780634e-06   4.371659332811696e-05
1.6248443079146355e-07   -1.7057127362405354e-06   1.6265892563277744e-06
1.6248443079146355e-07   -1.7057127362405354e-06   1.6265892563277744e-06
1.6248443079146355e-07   -1.7057127362405354e-06   1.6265892563277744e-06
1.6248443079146355e-07   -1.7057127362405354e-06   1.6265892563277744e-06
-8.694037356554165e-07   -3.598114061788716e-06   4.3965187888922496e-05
-8.694037356554165e-07   -3.598114061788716e-06   4.3965187888922496e-05
-8.694037356554165e-07   -3.598114061788716e-06   4.3965187888922496e-05
-8.694037356554165e-07   -3.598114061788716e-06   4.3965187888922496e-05
2.481948329245281e-05   -2.1781404421173864e-06   2.9839200360624125e-07
2.481948329245281e-05   -2.1781404421173864e-06   2.9839200360624125e-07
2.481948329245281e-05   -2.1781404421173864e-06   2.9839200360624125e-07
2.481948329245281e-05   -2.1781404421173864e-06   2.9839200360624125e-07
1.2268014957882455e-05   -2.429399567170122e-06   2.136826136958913e-05
1.2268014957882455e-05   -2.429399567170122e-06   2.136826136958913e-05
1.2268014957882455e-05   -2.429399567170122e-06   2.136826136958913e-05
1.2268014957882455e-05   -2.429399567170122e-06   2.136826136958913e-05
2.481948329245277e-05   -3.5981140617891497e-06   4.311320371712e-05
2.481948329245277e-05   -3.5981140617891497e-06   4.311320371712e-05
2.481948329245277e-05   -3.5981140617891497e-06   4.311320371712e-05
2.481948329245277e-05   -3.5981140617891497e-06   4.311320371712e-05
-8.694037356554165e-07   -2.1781404421173864e-06   1.1503761754090742e-06
-8.694037356554165e-07   -2.1781404421173864e-06   1.1503761754090742e-06
-8.694037356554165e-07   -2.1781404421173864e-06   1.1503761754090742e-06
-8.694037356554165e-07   -2.1781404421173864e-06   1.1503761754090742e-06
-1.9436709646680945e-06   -3.751849283402473e-06   4.430376230416715e-05
-1.9436709646680945e-06   -3.751849283402473e-06   4.430376230416715e-05
-1.9436709646680945e-06   -3.751849283402473e-06   4.430376230416715e-05
-1.9436709646680945e-06   -3.751849283402473e-06   4.430376230416715e-05
2.3714272992906137e-05   -2.5508875457756243e-06   8.199453323006189e-07
2.3714272992906137e-05   -2.5508875457756243e-06   8.199453323006189e-07
2.3714272992906137e-05   -2.5508875457756243e-06   8.199453323006189e-07
2.3714272992906137e-05   -2.5508875457756243e-06   8.199453323006189e-07
1.1411100055432465e-05   -2.6083881043336907e-06   2.135973389655885e-05
1.1411100055432465e-05   -2.6083881043336907e-06   2.135973389655885e-05
1.1411100055432465e-05   -2.6083881043336907e-06   2.135973389655885e-05
1.1411100055432465e-05   -2.6083881043336907e-06   2.135973389655885e-05
1.155224168111589e-06   2.3925221635519127e-06   4.560756570227108e-05
1.155224168111589e-06   2.3925221635519127e-06   4.560756570227108e-05
1.155224168111589e-06   2.3925221635519127e-06   4.560756570227108e-05
1.155224168111589e-06   2.3925221635519127e-06   4.560756570227108e-05
-2.3937209656561343e-05   3.4732712552217743e-06   4.435292116151263e-06
-2.3937209656561343e-05   3.4732712552217743e-06   4.435292116151263e-06
-2.3937209656561343e-05   3.4732712552217743e-06   4.435292116151263e-06
-2.3937209656561343e-05   3.4732712552217743e-06   4.435292116151263e-06
-2.4974456331289008e-05   1.973862568311214e-06   4.6235411738069577e-05
-2.4974456331289008e-05   1.973862568311214e-06   4.6235411738069577e-05
-2.4974456331289008e-05   1.973862568311214e-06   4.6235411738069577e-05
-2.4974456331289008e-05   1.973862568311214e-06   4.6235411738069577e-05
1.6248443079146355e-07   2.9440662372300606e-06   3.7583882665837335e-06
1.6248443079146355e-07   2.9440662372300606e-06   3.7583882665837335e-06
1.6248443079146355e-07   2.9440662372300606e-06   3.7583882665837335e-06
1.6248443079146355e-07   2.9440662372300606e-06   3.7583882665837335e-06
-1.191692192318234e-05   2.7266914001903425e-06   2.4021157092097596e-05
-1.191692192318234e-05   2.7266914001903425e-06   2.4021157092097596e-05
-1.191692192318234e-05   2.7266914001903425e-06   2.4021157092097596e-05
-1.191692192318234e-05   2.7266914001903425e-06   2.4021157092097596e-05
1.6248443079146355e-07   1.973862568311214e-06   4.565328953671827e-05
1.6248443079146355e-07   1.973862568311214e-06   4.565328953671827e-05
1.6248443079146355e-07   1.973862568311214e-06   4.565328953671827e-05
1.6248443079146355e-07   1.973862568311214e-06   4.565328953671827e-05
-2.4974456331289008e-05   2.9440662372300606e-06   4.3405104679353126e-06
-2.4974456331289008e-05   2.9440662372300606e-06   4.3405104679353126e-06
-2.4974456331289008e-05   2.9440662372300606e-06   4.3405104679353126e-06
-2.4974456331289008e-05   2.9440662372300606e-06   4.3405104679353126e-06
-2.606977736138491e-05   1.584138460445153e-06   4.667181107648362e-05
-2.606977736138491e-05   1.584138460445153e-06   4.667181107648362e-05
-2.606977736138491e-05   1.584138460445153e-06   4.667181107648362e-05
-2.606977736138491e-05   1.584138460445153e-06   4.667181107648362e-05
-8.694037356554165e-07   2.430205583512767e-06   4.163548093093867e-06
-8.694037356554165e-07   2.430205583512767e-06   4.163548093093867e-06
-8.694037356554165e-07   2.430205583512767e-06   4.163548093093867e-06
-8.694037356554165e-07   2.430205583512767e-06   4.163548093093867e-06
-1.288048706498326e-05   2.424547907756494e-06   2.418541491409394e-05
-1.288048706498326e-05   2.424547907756494e-06   2.418541491409394e-05
-1.288048706498326e-05   2.424547907756494e-06   2.418541491409394e-05
-1.288048706498326e-05   2.424547907756494e-06   2.418541491409394e-05
-8.694037356554165e-07   1.584138460445153e-06   4.616417080264288e-05
-8.694037356554165e-07   1.584138460445153e-06   4.616417080264288e-05
-8.694037356554165e-07   1.584138460445153e-06   4.616417080264288e-05
-8.694037356554165e-07   1.584138460445153e-06   4.616417080264288e-05
-2.6069777361384936e-05   2.430205583512767e-06   4.671188366934609e-06
-2.6069777361384936e-05   2.430205583512767e-06   4.671188366934609e-06
-2.6069777361384936e-05   2.430205583512767e-06   4.671188366934609e-06
-2.6069777361384936e-05   2.430205583512767e-06   4.671188366934609e-06
-2.720006545752285e-05   1.3034242374128022e-06   4.736543398575657e-05
-2.720006545752285e-05   1.3034242374128022e-06   4.736543398575657e-05
-2.720006545752285e-05   1.3034242374128022e-06   4.736543398575657e-05
-2.720006545752285e-05   1.3034242374128022e-06   4.736543398575657e-05
-1.9436709646680945e-06   1.9728040452850377e-06   4.869815279608428e-06
-1.9436709646680945e-06   1.9728040452850377e-06   4.869815279608428e-06
-1.9436709646680945e-06   1.9728040452850377e-06   4.869815279608428e-06
-1.9436709646680945e-06   1.9728040452850377e-06   4.869815279608428e-06
-1.3923222440105298e-05   2.135078011291768e-06   2.4738370025733936e-05
-1.3923222440105298e-05   2.135078011291768e-06   2.4738370025733936e-05
-1.3923222440105298e-05   2.135078011291768e-06   2.4738370025733936e-05
-1.3923222440105298e-05   2.135078011291768e-06   2.4738370025733936e-05
-2.3937209656561424e-05   7.794469639074361e-06   3.978656997203679e-05
-2.3937209656561424e-05   7.794469639074361e-06   3.978656997203679e-05
-2.3937209656561424e-05   7.794469639074361e-06   3.978656997203679e-05
-2.3937209656561424e-05   7.794469639074361e-06   3.978656997203679e-05
-4.8238652482022494e-05   7.893106341947103e-06   -6.566527153408983e-07
-4.8238652482022494e-05   7.893106341947103e-06   -6.566527153408983e-07
-4.8238652482022494e-05   7.893106341947103e-06   -6.566527153408983e-07
-4.8238652482022494e-05   7.893106341947103e-06   -6.566527153408983e-07
-4.944283468123951e-05   7.374760698073638e-06   4.048310892481926e-05
-4.944283468123951e-05   7.374760698073638e-06   4.048310892481926e-05
-4.944283468123951e-05   7.374760698073638e-06   4.048310892481926e-05
-4.944283468123951e-05   7.374760698073638e-06   4.048310892481926e-05
-2.4974456331289035e-05   7.3876875572951445e-06   -3.05277773964181e-07
-2.4974456331289035e-05   7.3876875572951445e-06   -3.05277773964181e-07
-2.4974456331289035e-05   7.3876875572951445e-06   -3.05277773964181e-07
-2.4974456331289035e-05   7.3876875572951445e-06   -3.05277773964181e-07
-3.648451213355807e-05   7.594203086608384e-06   1.8754239245562872e-05
-3.648451213355807e-05   7.594203086608384e-06   1.8754239245562872e-05
-3.648451213355807e-05   7.594203086608384e-06   1.8754239245562872e-05
-3.648451213355807e-05   7.594203086608384e-06   1.8754239245562872e-05
-2.4974456331289035e-05   7.374760698073638e-06   4.0475352809286446e-05
-2.4974456331289035e-05   7.374760698073638e-06   4.0475352809286446e-05
-2.4974456331289035e-05   7.374760698073638e-06   4.0475352809286446e-05
-2.4974456331289035e-05   7.374760698073638e-06   4.0475352809286446e-05
-4.944283468123943e-05   7.387687557294711e-06   -2.975216584317434e-07
-4.944283468123943e-05   7.387687557294711e-06   -2.975216584317434e-07
-4.944283468123943e-05   7.387687557294711e-06   -2.975216584317434e-07
-4.944283468123943e-05   7.387687557294711e-06   -2.975216584317434e-07
-5.0777480297374306e-05   6.986590794501053e-06   4.236477247631298e-05
-5.0777480297374306e-05   6.986590794501053e-06   4.236477247631298e-05
-5.0777480297374306e-05   6.986590794501053e-06   4.236477247631298e-05
-5.0777480297374306e-05   6.986590794501053e-06   4.236477247631298e-05
-2.6069777361384936e-05   6.921806826085987e-06   1.224137964046519e-06
-2.6069777361384936e-05   6.921806826085987e-06   1.224137964046519e-06
-2.6069777361384936e-05   6.921806826085987e-06   1.224137964046519e-06
-2.6069777361384936e-05   6.921806826085987e-06   1.224137964046519e-06
-3.7355241701119904e-05   7.3087293209987e-06   1.9801091699990438e-05
-3.7355241701119904e-05   7.3087293209987e-06   1.9801091699990438e-05
-3.7355241701119904e-05   7.3087293209987e-06   1.9801091699990438e-05
-3.7355241701119904e-05   7.3087293209987e-06   1.9801091699990438e-05
-2.606977736138491e-05   6.986590794501053e-06   4.2403642857361847e-05
-2.606977736138491e-05   6.986590794501053e-06   4.2403642857361847e-05
-2.606977736138491e-05   6.986590794501053e-06   4.2403642857361847e-05
-2.606977736138491e-05   6.986590794501053e-06   4.2403642857361847e-05
-5.077748029737417e-05   6.921806826085987e-06   1.1852675829975446e-06
-5.077748029737417e-05   6.921806826085987e-06   1.1852675829975446e-06
-5.077748029737417e-05   6.921806826085987e-06   1.1852675829975446e-06
-5.077748029737417e-05   6.921806826085987e-06   1.1852675829975446e-06
-5.204947430371997e-05   6.464767726919226e-06   4.3723328779670875e-05
-5.204947430371997e-05   6.464767726919226e-06   4.3723328779670875e-05
-5.204947430371997e-05   6.464767726919226e-06   4.3723328779670875e-05
-5.204947430371997e-05   6.464767726919226e-06   4.3723328779670875e-05
-2.7200065457522958e-05   6.352911289410953e-06   2.3747612318474965e-06
-2.7200065457522958e-05   6.352911289410953e-06   2.3747612318474965e-06
-2.7200065457522958e-05   6.352911289410953e-06   2.3747612318474965e-06
-2.7200065457522958e-05   6.352911289410953e-06   2.3747612318474965e-06
-3.874016061340621e-05   6.938014142785203e-06   2.1257191446296807e-05
-3.874016061340621e-05   6.938014142785203e-06   2.1257191446296807e-05
-3.874016061340621e-05   6.938014142785203e-06   2.1257191446296807e-05
-3.874016061340621e-05   6.938014142785203e-06   2.1257191446296807e-05
-4.823865248202236e-05   1.267633453837019e-05   1.912176232882136e-05
-4.823865248202236e-05   1.267633453837019e-05   1.912176232882136e-05
-4.823865248202236e-05   1.267633453837019e-05   1.912176232882136e-05
-4.823865248202236e-05   1.267633453837019e-05   1.912176232882136e-05
-7.132865632784337e-05   1.1363387659721075e-05   -2.014934554140323e-05
-7.132865632784337e-05   1.1363387659721075e-05   -2.014934554140323e-05
-7.132865632784337e-05   1.1363387659721075e-05   -2.014934554140323e-05
-7.132865632784337e-05   1.1363387659721075e-05   -2.014934554140323e-05
-7.322495478497302e-05   1.2919520539597228e-05   2.6518647475209847e-05
-7.322495478497302e-05   1.2919520539597228e-05   2.6518647475209847e-05
-7.322495478497302e-05   1.2919520539597228e-05   2.6518647475209847e-05
-7.322495478497302e-05   1.2919520539597228e-05   2.6518647475209847e-05
-4.944283468123951e-05   1.148364190569056e-05   -1.2256692184002321e-05
-4.944283468123951e-05   1.148364190569056e-05   -1.2256692184002321e-05
-4.944283468123951e-05   1.148364190569056e-05   -1.2256692184002321e-05
-4.944283468123951e-05   1.148364190569056e-05   -1.2256692184002321e-05
-5.8239976979453185e-05   1.2040257788628172e-05   2.0712421165915065e-06
-5.8239976979453185e-05   1.2040257788628172e-05   2.0712421165915065e-06
-5.8239976979453185e-05   1.2040257788628172e-05   2.0712421165915065e-06
-5.8239976979453185e-05   1.2040257788628172e-05   2.0712421165915065e-06
-4.94428346812394e-05   1.2919520539597662e-05   2.73801746555535e-05
-4.94428346812394e-05   1.2919520539597662e-05   2.73801746555535e-05
-4.94428346812394e-05   1.2919520539597662e-05   2.73801746555535e-05
-4.94428346812394e-05   1.2919520539597662e-05   2.73801746555535e-05
-7.322495478497324e-05   1.148364190569056e-05   -1.3118219364346463e-05
-7.322495478497324e-05   1.148364190569056e-05   -1.3118219364346463e-05
-7.322495478497324e-05   1.148364190569056e-05   -1.3118219364346463e-05
-7.322495478497324e-05   1.148364190569056e-05   -1.3118219364346463e-05
-7.507663855891417e-05   1.2826449112956096e-05   3.227864039105979e-05
-7.507663855891417e-05   1.2826449112956096e-05   3.227864039105979e-05
-7.507663855891417e-05   1.2826449112956096e-05   3.227864039105979e-05
-7.507663855891417e-05   1.2826449112956096e-05   3.227864039105979e-05
-5.0777480297374306e-05   1.1357174109339827e-05   -7.338391709337021e-06
-5.0777480297374306e-05   1.1357174109339827e-05   -7.338391709337021e-06
-5.0777480297374306e-05   1.1357174109339827e-05   -7.338391709337021e-06
-5.0777480297374306e-05   1.1357174109339827e-05   -7.338391709337021e-06
-6.056949985101032e-05   1.2259937469569996e-05   8.439982863919272e-06
-6.056949985101032e-05   1.2259937469569996e-05   8.439982863919272e-06
-6.056949985101032e-05   1.2259937469569996e-05   8.439982863919272e-06
-6.056949985101032e-05   1.2259937469569996e-05   8.439982863919272e-06
-5.0777480297374306e-05   1.2826449112956096e-05   3.3160205393229945e-05
-5.0777480297374306e-05   1.2826449112956096e-05   3.3160205393229945e-05
-5.0777480297374306e-05   1.2826449112956096e-05   3.3160205393229945e-05
-5.0777480297374306e-05   1.2826449112956096e-05   3.3160205393229945e-05
-7.507663855891444e-05   1.1357174109339827e-05   -8.219956711506956e-06
-7.507663855891444e-05   1.1357174109339827e-05   -8.219956711506956e-06
-7.507663855891444e-05   1.1357174109339827e-05   -8.219956711506956e-06
-7.507663855891444e-05   1.1357174109339827e-05   -8.219956711506956e-06
-7.723922847593665e-05   1.1807633575892668e-05   4.214684610409809e-05
-7.723922847593665e-05   1.1807633575892668e-05   4.214684610409809e-05
-7.723922847593665e-05   1.1807633575892668e-05   4.214684610409809e-05
-7.723922847593665e-05   1.1807633575892668e-05   4.214684610409809e-05
-5.204947430371997e-05   1.0481250951532677e-05   9.597520583524716e-07
-5.204947430371997e-05   1.0481250951532677e-05   9.597520583524716e-07
-5.204947430371997e-05   1.0481250951532677e-05   9.597520583524716e-07
-5.204947430371997e-05   1.0481250951532677e-05   9.597520583524716e-07
-6.116171497287145e-05   1.1898576898526983e-05   1.529642427207617e-05
-6.116171497287145e-05   1.1898576898526983e-05   1.529642427207617e-05
-6.116171497287145e-05   1.1898576898526983e-05   1.529642427207617e-05
-6.116171497287145e-05   1.1898576898526983e-05   1.529642427207617e-05
4.139770900944844e-05   -5.593705539796642e-06   3.51364671938954e-05
4.139770900944844e-05   -5.593705539796642e-06   3.51364671938954e-05
4.139770900944844e-05   -5.593705539796642e-06   3.51364671938954e-05
4.139770900944844e-05   -5.593705539796642e-06   3.51364671938954e-05
1.9489556705882188e-05   -3.6960361233535216e-06   -2.3851832884930375e-07
1.9489556705882188e-05   -3.6960361233535216e-06   -2.3851832884930375e-07
1.9489556705882188e-05   -3.6960361233535216e-06   -2.3851832884930375e-07
1.9489556705882188e-05   -3.6960361233535216e-06   -2.3851832884930375e-07
1.8565970713761897e-05   -6.490404331576955e-06   3.087369546754125e-05
1.8565970713761897e-05   -6.490404331576955e-06   3.087369546754125e-05
1.8565970713761897e-05   -6.490404331576955e-06   3.087369546754125e-05
1.8565970713761897e-05   -6.490404331576955e-06   3.087369546754125e-05
3.961081788834934e-05   -4.486289501648508e-06   -5.403518721395307e-06
3.961081788834934e-05   -4.486289501648508e-06   -5.403518721395307e-06
3.961081788834934e-05   -4.486289501648508e-06   -5.403518721395307e-06
3.961081788834934e-05   -4.486289501648508e-06   -5.403518721395307e-06
2.8365763995916444e-05   -5.1052650807360475e-06   1.3709623113445296e-05
2.8365763995916444e-05   -5.1052650807360475e-06   1.3709623113445296e-05
2.8365763995916444e-05   -5.1052650807360475e-06   1.3709623113445296e-05
2.8365763995916444e-05   -5.1052650807360475e-06   1.3709623113445296e-05
3.961081788834934e-05   -6.490404331577389e-06   2.9671226569583835e-05
3.961081788834934e-05   -6.490404331577389e-06   2.9671226569583835e-05
3.961081788834934e-05   -6.490404331577389e-06   2.9671226569583835e-05
3.961081788834934e-05   -6.490404331577389e-06   2.9671226569583835e-05
1.856597071376193e-05   -4.486289501648508e-06   -4.201049823437594e-06
1.856597071376193e-05   -4.486289501648508e-06   -4.201049823437594e-06
1.856597071376193e-05   -4.486289501648508e-06   -4.201049823437594e-06
1.856597071376193e-05   -4.486289501648508e-06   -4.201049823437594e-06
1.7546621475618415e-05   -6.670585767177672e-06   2.7877229945421364e-05
1.7546621475618415e-05   -6.670585767177672e-06   2.7877229945421364e-05
1.7546621475618415e-05   -6.670585767177672e-06   2.7877229945421364e-05
1.7546621475618415e-05   -6.670585767177672e-06   2.7877229945421364e-05
3.8044878734276794e-05   -4.697452104295962e-06   -7.4704123500715495e-06
3.8044878734276794e-05   -4.697452104295962e-06   -7.4704123500715495e-06
3.8044878734276794e-05   -4.697452104295962e-06   -7.4704123500715495e-06
3.8044878734276794e-05   -4.697452104295962e-06   -7.4704123500715495e-06
2.7624853331940704e-05   -5.425863486058571e-06   1.0333343482880062e-05
2.7624853331940704e-05   -5.425863486058571e-06   1.0333343482880062e-05
2.7624853331940704e-05   -5.425863486058571e-06   1.0333343482880062e-05
2.7624853331940704e-05   -5.425863486058571e-06   1.0333343482880062e-05
3.8044878734276726e-05   -6.670585767177672e-06   2.6693349747692555e-05
3.8044878734276726e-05   -6.670585767177672e-06   2.6693349747692555e-05
3.8044878734276726e-05   -6.670585767177672e-06   2.6693349747692555e-05
3.8044878734276726e-05   -6.670585767177672e-06   2.6693349747692555e-05
1.7546621475618442e-05   -4.697452104295962e-06   -6.2865321523424694e-06
1.7546621475618442e-05   -4.697452104295962e-06   -6.2865321523424694e-06
1.7546621475618442e-05   -4.697452104295962e-06   -6.2865321523424694e-06
1.7546621475618442e-05   -4.697452104295962e-06   -6.2865321523424694e-06
1.6605426088434854e-05   -6.743614587079606e-06   2.3819424231307212e-05
1.6605426088434854e-05   -6.743614587079606e-06   2.3819424231307212e-05
1.6605426088434854e-05   -6.743614587079606e-06   2.3819424231307212e-05
1.6605426088434854e-05   -6.743614587079606e-06   2.3819424231307212e-05
3.6295382317756274e-05   -4.8950148941991414e-06   -1.0106329299956418e-05
3.6295382317756274e-05   -4.8950148941991414e-06   -1.0106329299956418e-05
3.6295382317756274e-05   -4.8950148941991414e-06   -1.0106329299956418e-05
3.6295382317756274e-05   -4.8950148941991414e-06   -1.0106329299956418e-05
2.5990593199507093e-05   -5.3949291856465395e-06   7.368267805327645e-06
2.5990593199507093e-05   -5.3949291856465395e-06   7.368267805327645e-06
2.5990593199507093e-05   -5.3949291856465395e-06   7.368267805327645e-06
2.5990593199507093e-05   -5.3949291856465395e-06   7.368267805327645e-06
1.9489556705882127e-05   -1.0698245899811755e-06   3.995709042042676e-05
1.9489556705882127e-05   -1.0698245899811755e-06   3.995709042042676e-05
1.9489556705882127e-05   -1.0698245899811755e-06   3.995709042042676e-05
1.9489556705882127e-05   -1.0698245899811755e-06   3.995709042042676e-05
-1.2472289831665041e-06   -1.8545812960433367e-08   6.0265482048917594e-06
-1.2472289831665041e-06   -1.8545812960433367e-08   6.0265482048917594e-06
-1.2472289831665041e-06   -1.8545812960433367e-08   6.0265482048917594e-06
-1.2472289831665041e-06   -1.8545812960433367e-08   6.0265482048917594e-06
-2.1154923852894313e-06   -1.7057127362405354e-06   4.0028055172516624e-05
-2.1154923852894313e-06   -1.7057127362405354e-06   4.0028055172516624e-05
-2.1154923852894313e-06   -1.7057127362405354e-06   4.0028055172516624e-05
-2.1154923852894313e-06   -1.7057127362405354e-06   4.0028055172516624e-05
1.856597071376193e-05   -7.060167633203898e-07   4.959132423679394e-06
1.856597071376193e-05   -7.060167633203898e-07   4.959132423679394e-06
1.856597071376193e-05   -7.060167633203898e-07   4.959132423679394e-06
1.856597071376193e-05   -7.060167633203898e-07   4.959132423679394e-06
8.532712457974909e-06   -8.999655299211581e-07   2.17975987766178e-05
8.532712457974909e-06   -8.999655299211581e-07   2.17975987766178e-05
8.532712457974909e-06   -8.999655299211581e-07   2.17975987766178e-05
8.532712457974909e-06   -8.999655299211581e-07   2.17975987766178e-05
1.8565970713761884e-05   -1.7057127362401017e-06   3.942823758876484e-05
1.8565970713761884e-05   -1.7057127362401017e-06   3.942823758876484e-05
1.8565970713761884e-05   -1.7057127362401017e-06   3.942823758876484e-05
1.8565970713761884e-05   -1.7057127362401017e-06   3.942823758876484e-05
-2.1154923852894313e-06   -7.060167633203898e-07   5.5589500074309205e-06
-2.1154923852894313e-06   -7.060167633203898e-07   5.5589500074309205e-06
-2.1154923852894313e-06   -7.060167633203898e-07   5.5589500074309205e-06
-2.1154923852894313e-06   -7.060167633203898e-07   5.5589500074309205e-06
-3.0022141844087303e-06   -2.1781404421173864e-06   3.9426172735639985e-05
-3.0022141844087303e-06   -2.1781404421173864e-06   3.9426172735639985e-05
-3.0022141844087303e-06   -2.1781404421173864e-06   3.9426172735639985e-05
-3.0022141844087303e-06   -2.1781404421173864e-06   3.9426172735639985e-05
1.7546621475618442e-05   -1.248014028811667e-06   4.620037454277831e-06
1.7546621475618442e-05   -1.248014028811667e-06   4.620037454277831e-06
1.7546621475618442e-05   -1.248014028811667e-06   4.620037454277831e-06
1.7546621475618442e-05   -1.248014028811667e-06   4.620037454277831e-06
7.558909360936922e-06   -1.3242892341713657e-06   2.1311989435297677e-05
7.558909360936922e-06   -1.3242892341713657e-06   2.1311989435297677e-05
7.558909360936922e-06   -1.3242892341713657e-06   2.1311989435297677e-05
7.558909360936922e-06   -1.3242892341713657e-06   2.1311989435297677e-05
1.7546621475618415e-05   -2.17814044211782e-06   3.88680968876566e-05
1.7546621475618415e-05   -2.17814044211782e-06   3.88680968876566e-05
1.7546621475618415e-05   -2.17814044211782e-06   3.88680968876566e-05
1.7546621475618415e-05   -2.17814044211782e-06   3.88680968876566e-05
-3.0022141844087303e-06   -1.248014028811667e-06   5.178113302261233e-06
-3.0022141844087303e-06   -1.248014028811667e-06   5.178113302261233e-06
-3.0022141844087303e-06   -1.248014028811667e-06   5.178113302261233e-06
-3.0022141844087303e-06   -1.248014028811667e-06   5.178113302261233e-06
-3.893737464040367e-06   -2.5508875457756243e-06   3.97015099059656e-05
-3.893737464040367e-06   -2.5508875457756243e-06   3.97015099059656e-05
-3.893737464040367e-06   -2.5508875457756243e-06   3.97015099059656e-05
-3.893737464040367e-06   -2.5508875457756243e-06   3.97015099059656e-05
1.6605426088434874e-05   -1.7501043176031822e-06   5.055767381603111e-06
1.6605426088434874e-05   -1.7501043176031822e-06   5.055767381603111e-06
1.6605426088434874e-05   -1.7501043176031822e-06   5.055767381603111e-06
1.6605426088434874e-05   -1.7501043176031822e-06   5.055767381603111e-06
6.815107432596143e-06   -1.63851821981904e-06   2.1306013482664653e-05
6.815107432596143e-06   -1.63851821981904e-06   2.1306013482664653e-05
6.815107432596143e-06   -1.63851821981904e-06   2.1306013482664653e-05
6.815107432596143e-06   -1.63851821981904e-06   2.1306013482664653e-05
-1.2472289831665312e-06   3.4732712552217743e-06   4.230378872348197e-05
-1.2472289831665312e-06   3.4732712552217743e-06   4.230378872348197e-05
-1.2472289831665312e-06   3.4732712552217743e-06   4.230378872348197e-05
-1.2472289831665312e-06   3.4732712552217743e-06   4.230378872348197e-05
-2.154896376608414e-05   3.5748160279514864e-06   8.52849094892371e-06
-2.154896376608414e-05   3.5748160279514864e-06   8.52849094892371e-06
-2.154896376608414e-05   3.5748160279514864e-06   8.52849094892371e-06
-2.154896376608414e-05   3.5748160279514864e-06   8.52849094892371e-06
-2.2421866087232972e-05   2.9440662372300606e-06   4.2175794827607575e-05
-2.2421866087232972e-05   2.9440662372300606e-06   4.2175794827607575e-05
-2.2421866087232972e-05   2.9440662372300606e-06   4.2175794827607575e-05
-2.2421866087232972e-05   2.9440662372300606e-06   4.2175794827607575e-05
-2.1154923852894584e-06   2.970633978621913e-06   8.315898012866655e-06
-2.1154923852894584e-06   2.970633978621913e-06   8.315898012866655e-06
-2.1154923852894584e-06   2.970633978621913e-06   8.315898012866655e-06
-2.1154923852894584e-06   2.970633978621913e-06   8.315898012866655e-06
-1.1864106845497124e-05   3.184116361600736e-06   2.4435499350091826e-05
-1.1864106845497124e-05   3.184116361600736e-06   2.4435499350091826e-05
-1.1864106845497124e-05   3.184116361600736e-06   2.4435499350091826e-05
-1.1864106845497124e-05   3.184116361600736e-06   2.4435499350091826e-05
-2.1154923852894584e-06   2.9440662372300606e-06   4.2159854182772854e-05
-2.1154923852894584e-06   2.9440662372300606e-06   4.2159854182772854e-05
-2.1154923852894584e-06   2.9440662372300606e-06   4.2159854182772854e-05
-2.1154923852894584e-06   2.9440662372300606e-06   4.2159854182772854e-05
-2.2421866087232972e-05   2.970633978621913e-06   8.331838657701755e-06
-2.2421866087232972e-05   2.970633978621913e-06   8.331838657701755e-06
-2.2421866087232972e-05   2.970633978621913e-06   8.331838657701755e-06
-2.2421866087232972e-05   2.970633978621913e-06   8.331838657701755e-06
-2.3316585544378424e-05   2.430205583512767e-06   4.240684275779783e-05
-2.3316585544378424e-05   2.430205583512767e-06   4.240684275779783e-05
-2.3316585544378424e-05   2.430205583512767e-06   4.240684275779783e-05
-2.3316585544378424e-05   2.430205583512767e-06   4.240684275779783e-05
-3.0022141844087303e-06   2.3760357576348146e-06   8.582059053375044e-06
-3.0022141844087303e-06   2.3760357576348146e-06   8.582059053375044e-06
-3.0022141844087303e-06   2.3760357576348146e-06   8.582059053375044e-06
-3.0022141844087303e-06   2.3760357576348146e-06   8.582059053375044e-06
-1.2674595996344976e-05   2.777840365979743e-06   2.4461612641595964e-05
-1.2674595996344976e-05   2.777840365979743e-06   2.4461612641595964e-05
-1.2674595996344976e-05   2.777840365979743e-06   2.4461612641595964e-05
-1.2674595996344976e-05   2.777840365979743e-06   2.4461612641595964e-05
-3.0022141844087303e-06   2.430205583512767e-06   4.243934465332478e-05
-3.0022141844087303e-06   2.430205583512767e-06   4.243934465332478e-05
-3.0022141844087303e-06   2.430205583512767e-06   4.243934465332478e-05
-3.0022141844087303e-06   2.430205583512767e-06   4.243934465332478e-05
-2.3316585544378424e-05   2.3760357576348146e-06   8.549557157848343e-06
-2.3316585544378424e-05   2.3760357576348146e-06   8.549557157848343e-06
-2.3316585544378424e-05   2.3760357576348146e-06   8.549557157848343e-06
-2.3316585544378424e-05   2.3760357576348146e-06   8.549557157848343e-06
-2.421096637894075e-05   1.9728040452850377e-06   4.293420215805408e-05
-2.421096637894075e-05   1.9728040452850377e-06   4.293420215805408e-05
-2.421096637894075e-05   1.9728040452850377e-06   4.293420215805408e-05
-2.421096637894075e-05   1.9728040452850377e-06   4.293420215805408e-05
-3.893737464040367e-06   1.811802957546807e-06   9.168754619196521e-06
-3.893737464040367e-06   1.811802957546807e-06   9.168754619196521e-06
-3.893737464040367e-06   1.811802957546807e-06   9.168754619196521e-06
-3.893737464040367e-06   1.811802957546807e-06   9.168754619196521e-06
-1.352308855875355e-05   2.3819368380043927e-06   2.4875592782111153e-05
-1.352308855875355e-05   2.3819368380043927e-06   2.4875592782111153e-05
-1.352308855875355e-05   2.3819368380043927e-06   2.4875592782111153e-05
-1.352308855875355e-05   2.3819368380043927e-06   2.4875592782111153e-05
-2.1548963766084115e-05   7.893106341947103e-06   3.7213588733903775e-05
-2.1548963766084115e-05   7.893106341947103e-06   3.7213588733903775e-05
-2.1548963766084115e-05   7.893106341947103e-06   3.7213588733903775e-05
-2.1548963766084115e-05   7.893106341947103e-06   3.7213588733903775e-05
-4.140128213843202e-05   7.032656431222445e-06   3.6101215002222378e-06
-4.140128213843202e-05   7.032656431222445e-06   3.6101215002222378e-06
-4.140128213843202e-05   7.032656431222445e-06   3.6101215002222378e-06
-4.140128213843202e-05   7.032656431222445e-06   3.6101215002222378e-06
-4.234051301468713e-05   7.3876875572951445e-06   3.69697500982283e-05
-4.234051301468713e-05   7.3876875572951445e-06   3.69697500982283e-05
-4.234051301468713e-05   7.3876875572951445e-06   3.69697500982283e-05
-4.234051301468713e-05   7.3876875572951445e-06   3.69697500982283e-05
-2.2421866087233e-05   6.453926744827594e-06   4.332261706618248e-06
-2.2421866087233e-05   6.453926744827594e-06   4.332261706618248e-06
-2.2421866087233e-05   6.453926744827594e-06   4.332261706618248e-06
-2.2421866087233e-05   6.453926744827594e-06   4.332261706618248e-06
-3.182269611728798e-05   7.098191772397528e-06   1.961375274016743e-05
-3.182269611728798e-05   7.098191772397528e-06   1.961375274016743e-05
-3.182269611728798e-05   7.098191772397528e-06   1.961375274016743e-05
-3.182269611728798e-05   7.098191772397528e-06   1.961375274016743e-05
-2.2421866087232972e-05   7.387687557294711e-06   3.753000658570835e-05
-2.2421866087232972e-05   7.387687557294711e-06   3.753000658570835e-05
-2.2421866087232972e-05   7.387687557294711e-06   3.753000658570835e-05
-2.2421866087232972e-05   7.387687557294711e-06   3.753000658570835e-05
-4.234051301468713e-05   6.453926744827594e-06   3.7720052191380325e-06
-4.234051301468713e-05   6.453926744827594e-06   3.7720052191380325e-06
-4.234051301468713e-05   6.453926744827594e-06   3.7720052191380325e-06
-4.234051301468713e-05   6.453926744827594e-06   3.7720052191380325e-06
-4.337451456716605e-05   6.921806826085987e-06   3.835558707616536e-05
-4.337451456716605e-05   6.921806826085987e-06   3.835558707616536e-05
-4.337451456716605e-05   6.921806826085987e-06   3.835558707616536e-05
-4.337451456716605e-05   6.921806826085987e-06   3.835558707616536e-05
-2.331658554437845e-05   5.914798028178354e-06   5.529910650263904e-06
-2.331658554437845e-05   5.914798028178354e-06   5.529910650263904e-06
-2.331658554437845e-05   5.914798028178354e-06   5.529910650263904e-06
-2.331658554437845e-05   5.914798028178354e-06   5.529910650263904e-06
-3.249712600700714e-05   6.728663377648936e-06   2.0342492211630194e-05
-3.249712600700714e-05   6.728663377648936e-06   2.0342492211630194e-05
-3.249712600700714e-05   6.728663377648936e-06   2.0342492211630194e-05
-3.249712600700714e-05   6.728663377648936e-06   2.0342492211630194e-05
-2.331658554437845e-05   6.921806826085987e-06   3.895979235490985e-05
-2.331658554437845e-05   6.921806826085987e-06   3.895979235490985e-05
-2.331658554437845e-05   6.921806826085987e-06   3.895979235490985e-05
-2.331658554437845e-05   6.921806826085987e-06   3.895979235490985e-05
-4.337451456716605e-05   5.914798028178354e-06   4.925705371519248e-06
-4.337451456716605e-05   5.914798028178354e-06   4.925705371519248e-06
-4.337451456716605e-05   5.914798028178354e-06   4.925705371519248e-06
-4.337451456716605e-05   5.914798028178354e-06   4.925705371519248e-06
-4.432002480869658e-05   6.352911289410953e-06   3.9398017886239315e-05
-4.432002480869658e-05   6.352911289410953e-06   3.9398017886239315e-05
-4.432002480869658e-05   6.352911289410953e-06   3.9398017886239315e-05
-4.432002480869658e-05   6.352911289410953e-06   3.9398017886239315e-05
-2.4210966378940778e-05   5.28707405719319e-06   6.522422842643511e-06
-2.4210966378940778e-05   5.28707405719319e-06   6.522422842643511e-06
-2.4210966378940778e-05   5.28707405719319e-06   6.522422842643511e-06
-2.4210966378940778e-05   5.28707405719319e-06   6.522422842643511e-06
-3.356969291249503e-05   6.311957378184272e-06   2.1505370405974344e-05
-3.356969291249503e-05   6.311957378184272e-06   2.1505370405974344e-05
-3.356969291249503e-05   6.311957378184272e-06   2.1505370405974344e-05
-3.356969291249503e-05   6.311957378184272e-06   2.1505370405974344e-05
-4.140128213843202e-05   1.1363387659721075e-05   1.7992394088596052e-05
-4.140128213843202e-05   1.1363387659721075e-05   1.7992394088596052e-05
-4.140128213843202e-05   1.1363387659721075e-05   1.7992394088596052e-05
-4.140128213843202e-05   1.1363387659721075e-05   1.7992394088596052e-05
-6.025062968545555e-05   9.690686282891325e-06   -1.4426805982541125e-05
-6.025062968545555e-05   9.690686282891325e-06   -1.4426805982541125e-05
-6.025062968545555e-05   9.690686282891325e-06   -1.4426805982541125e-05
-6.025062968545555e-05   9.690686282891325e-06   -1.4426805982541125e-05
-6.193846453773487e-05   1.1483641905690994e-05   2.3905470882761015e-05
-6.193846453773487e-05   1.1483641905690994e-05   2.3905470882761015e-05
-6.193846453773487e-05   1.1483641905690994e-05   2.3905470882761015e-05
-6.193846453773487e-05   1.1483641905690994e-05   2.3905470882761015e-05
-4.234051301468713e-05   9.641794089197079e-06   -7.652672965755957e-06
-4.234051301468713e-05   9.641794089197079e-06   -7.652672965755957e-06
-4.234051301468713e-05   9.641794089197079e-06   -7.652672965755957e-06
-4.234051301468713e-05   9.641794089197079e-06   -7.652672965755957e-06
-4.952410481299529e-05   1.0390610652598244e-05   3.8706900933835895e-06
-4.952410481299529e-05   1.0390610652598244e-05   3.8706900933835895e-06
-4.952410481299529e-05   1.0390610652598244e-05   3.8706900933835895e-06
-4.952410481299529e-05   1.0390610652598244e-05   3.8706900933835895e-06
-4.234051301468713e-05   1.148364190569056e-05   2.5010579572657234e-05
-4.234051301468713e-05   1.148364190569056e-05   2.5010579572657234e-05
-4.234051301468713e-05   1.148364190569056e-05   2.5010579572657234e-05
-4.234051301468713e-05   1.148364190569056e-05   2.5010579572657234e-05
-6.193846453773498e-05   9.641794089197079e-06   -8.757781655652284e-06
-6.193846453773498e-05   9.641794089197079e-06   -8.757781655652284e-06
-6.193846453773498e-05   9.641794089197079e-06   -8.757781655652284e-06
-6.193846453773498e-05   9.641794089197079e-06   -8.757781655652284e-06
-6.344979712761607e-05   1.1357174109339393e-05   2.8684723636514817e-05
-6.344979712761607e-05   1.1357174109339393e-05   2.8684723636514817e-05
-6.344979712761607e-05   1.1357174109339393e-05   2.8684723636514817e-05
-6.344979712761607e-05   1.1357174109339393e-05   2.8684723636514817e-05
-4.337451456716605e-05   9.445167197146605e-06   -3.6268764835865105e-06
-4.337451456716605e-05   9.445167197146605e-06   -3.6268764835865105e-06
-4.337451456716605e-05   9.445167197146605e-06   -3.6268764835865105e-06
-4.337451456716605e-05   9.445167197146605e-06   -3.6268764835865105e-06
-5.1463437380988244e-05   1.0505201143610511e-05   9.218641171574024e-06
-5.1463437380988244e-05   1.0505201143610511e-05   9.218641171574024e-06
-5.1463437380988244e-05   1.0505201143610511e-05   9.218641171574024e-06
-5.1463437380988244e-05   1.0505201143610511e-05   9.218641171574024e-06
-4.337451456716605e-05   1.1357174109339827e-05   2.9831927783830576e-05
-4.337451456716605e-05   1.1357174109339827e-05   2.9831927783830576e-05
-4.337451456716605e-05   1.1357174109339827e-05   2.9831927783830576e-05
-4.337451456716605e-05   1.1357174109339827e-05   2.9831927783830576e-05
-6.344979712761623e-05   9.445167197146605e-06   -4.774080630901944e-06
-6.344979712761623e-05   9.445167197146605e-06   -4.774080630901944e-06
-6.344979712761623e-05   9.445167197146605e-06   -4.774080630901944e-06
-6.344979712761623e-05   9.445167197146605e-06   -4.774080630901944e-06
-6.518651443696672e-05   1.0481250951532677e-05   3.690826809839591e-05
-6.518651443696672e-05   1.0481250951532677e-05   3.690826809839591e-05
-6.518651443696672e-05   1.0481250951532677e-05   3.690826809839591e-05
-6.518651443696672e-05   1.0481250951532677e-05   3.690826809839591e-05
-4.432002480869658e-05   8.578160156777568e-06   3.2726398614652636e-06
-4.432002480869658e-05   8.578160156777568e-06   3.2726398614652636e-06
-4.432002480869658e-05   8.578160156777568e-06   3.2726398614652636e-06
-4.432002480869658e-05   8.578160156777568e-06   3.2726398614652636e-06
-5.187917304362078e-05   1.0145769852448316e-05   1.4930654435604037e-05
-5.187917304362078e-05   1.0145769852448316e-05   1.4930654435604037e-05
-5.187917304362078e-05   1.0145769852448316e-05   1.4930654435604037e-05
-5.187917304362078e-05   1.0145769852448316e-05   1.4930654435604037e-05
2.8516015824634303e-05   -3.6960361233535216e-06   2.8599720180977383e-05
2.8516015824634303e-05   -3.6960361233535216e-06   2.8599720180977383e-05
2.8516015824634303e-05   -3.6960361233535216e-06   2.8599720180977383e-05
2.8516015824634303e-05   -3.6960361233535216e-06   2.8599720180977383e-05
1.1832043225576233e-05   -1.816022670129416e-06   1.921107254481769e-06
1.1832043225576233e-05   -1.816022670129416e-06   1.921107254481769e-06
1.1832043225576233e-05   -1.816022670129416e-06   1.921107254481769e-06
1.1832043225576233e-05   -1.816022670129416e-06   1.921107254481769e-06
1.1089302335989125e-05   -4.486289501648508e-06   2.571437813321314e-05
1.1089302335989125e-05   -4.486289501648508e-06   2.571437813321314e-05
1.1089302335989125e-05   -4.486289501648508e-06   2.571437813321314e-05
1.1089302335989125e-05   -4.486289501648508e-06   2.571437813321314e-05
2.6935128711000136e-05   -2.5227267598433058e-06   -1.8734701368884046e-06
2.6935128711000136e-05   -2.5227267598433058e-06   -1.8734701368884046e-06
2.6935128711000136e-05   -2.5227267598433058e-06   -1.8734701368884046e-06
2.6935128711000136e-05   -2.5227267598433058e-06   -1.8734701368884046e-06
1.861823577911241e-05   -3.2055497934165705e-06   1.2397711903069281e-05
1.861823577911241e-05   -3.2055497934165705e-06   1.2397711903069281e-05
1.861823577911241e-05   -3.2055497934165705e-06   1.2397711903069281e-05
1.861823577911241e-05   -3.2055497934165705e-06   1.2397711903069281e-05
2.6935128711000197e-05   -4.486289501648508e-06   2.4536240488130193e-05
2.6935128711000197e-05   -4.486289501648508e-06   2.4536240488130193e-05
2.6935128711000197e-05   -4.486289501648508e-06   2.4536240488130193e-05
2.6935128711000197e-05   -4.486289501648508e-06   2.4536240488130193e-05
1.1089302335989088e-05   -2.5227267598433058e-06   -6.953324918051312e-07
1.1089302335989088e-05   -2.5227267598433058e-06   -6.953324918051312e-07
1.1089302335989088e-05   -2.5227267598433058e-06   -6.953324918051312e-07
1.1089302335989088e-05   -2.5227267598433058e-06   -6.953324918051312e-07
1.0255171914443102e-05   -4.697452104295962e-06   2.3571584395644298e-05
1.0255171914443102e-05   -4.697452104295962e-06   2.3571584395644298e-05
1.0255171914443102e-05   -4.697452104295962e-06   2.3571584395644298e-05
1.0255171914443102e-05   -4.697452104295962e-06   2.3571584395644298e-05
2.557812301549405e-05   -2.766102218648009e-06   -3.1254773708291807e-06
2.557812301549405e-05   -2.766102218648009e-06   -3.1254773708291807e-06
2.557812301549405e-05   -2.766102218648009e-06   -3.1254773708291807e-06
2.557812301549405e-05   -2.766102218648009e-06   -3.1254773708291807e-06
1.7914578920643044e-05   -3.50527479093545e-06   1.0090599663962034e-05
1.7914578920643044e-05   -3.50527479093545e-06   1.0090599663962034e-05
1.7914578920643044e-05   -3.50527479093545e-06   1.0090599663962034e-05
1.7914578920643044e-05   -3.50527479093545e-06   1.0090599663962034e-05
2.5578123015494097e-05   -4.697452104295962e-06   2.2412774464255613e-05
2.5578123015494097e-05   -4.697452104295962e-06   2.2412774464255613e-05
2.5578123015494097e-05   -4.697452104295962e-06   2.2412774464255613e-05
2.5578123015494097e-05   -4.697452104295962e-06   2.2412774464255613e-05
1.0255171914443086e-05   -2.766102218648009e-06   -1.9666674394404685e-06
1.0255171914443086e-05   -2.766102218648009e-06   -1.9666674394404685e-06
1.0255171914443086e-05   -2.766102218648009e-06   -1.9666674394404685e-06
1.0255171914443086e-05   -2.766102218648009e-06   -1.9666674394404685e-06
9.507492425711615e-06   -4.8950148941991414e-06   2.07898326107926e-05
9.507492425711615e-06   -4.8950148941991414e-06   2.07898326107926e-05
9.507492425711615e-06   -4.8950148941991414e-06   2.07898326107926e-05
9.507492425711615e-06   -4.8950148941991414e-06   2.07898326107926e-05
2.4039124350544745e-05   -3.088125313435242e-06   -4.513687679054504e-06
2.4039124350544745e-05   -3.088125313435242e-06   -4.513687679054504e-06
2.4039124350544745e-05   -3.088125313435242e-06   -4.513687679054504e-06
2.4039124350544745e-05   -3.088125313435242e-06   -4.513687679054504e-06
1.661239902342263e-05   -3.5642164405219265e-06   8.149842542401013e-06
1.661239902342263e-05   -3.5642164405219265e-06   8.149842542401013e-06
1.661239902342263e-05   -3.5642164405219265e-06   8.149842542401013e-06
1.661239902342263e-05   -3.5642164405219265e-06   8.149842542401013e-06
1.1832043225576277e-05   -1.8545812960433367e-08   3.5362027520440724e-05
1.1832043225576277e-05   -1.8545812960433367e-08   3.5362027520440724e-05
1.1832043225576277e-05   -1.8545812960433367e-08   3.5362027520440724e-05
1.1832043225576277e-05   -1.8545812960433367e-08   3.5362027520440724e-05
-3.824699613338002e-06   9.35640598869825e-07   9.839967969348324e-06
-3.824699613338002e-06   9.35640598869825e-07   9.839967969348324e-06
-3.824699613338002e-06   9.35640598869825e-07   9.839967969348324e-06
-3.824699613338002e-06   9.35640598869825e-07   9.839967969348324e-06
-4.507141798585219e-06   -7.060167633203898e-07   3.543019202098584e-05
-4.507141798585219e-06   -7.060167633203898e-07   3.543019202098584e-05
-4.507141798585219e-06   -7.060167633203898e-07   3.543019202098584e-05
-4.507141798585219e-06   -7.060167633203898e-07   3.543019202098584e-05
1.1089302335989088e-05   2.2003597110564592e-07   8.880486822706343e-06
1.1089302335989088e-05   2.2003597110564592e-07   8.880486822706343e-06
1.1089302335989088e-05   2.2003597110564592e-07   8.880486822706343e-06
1.1089302335989088e-05   2.2003597110564592e-07   8.880486822706343e-06
3.5357923061727413e-06   4.6351371544781084e-08   2.1573880965470758e-05
3.5357923061727413e-06   4.6351371544781084e-08   2.1573880965470758e-05
3.5357923061727413e-06   4.6351371544781084e-08   2.1573880965470758e-05
3.5357923061727413e-06   4.6351371544781084e-08   2.1573880965470758e-05
1.1089302335989115e-05   -7.060167633203898e-07   3.487456038033009e-05
1.1089302335989115e-05   -7.060167633203898e-07   3.487456038033009e-05
1.1089302335989115e-05   -7.060167633203898e-07   3.487456038033009e-05
1.1089302335989115e-05   -7.060167633203898e-07   3.487456038033009e-05
-4.507141798585192e-06   2.2003597110564592e-07   9.436118463361986e-06
-4.507141798585192e-06   2.2003597110564592e-07   9.436118463361986e-06
-4.507141798585192e-06   2.2003597110564592e-07   9.436118463361986e-06
-4.507141798585192e-06   2.2003597110564592e-07   9.436118463361986e-06
-5.204871151245243e-06   -1.248014028811667e-06   3.5007582501176294e-05
-5.204871151245243e-06   -1.248014028811667e-06   3.5007582501176294e-05
-5.204871151245243e-06   -1.248014028811667e-06   3.5007582501176294e-05
-5.204871151245243e-06   -1.248014028811667e-06   3.5007582501176294e-05
1.0255171914443086e-05   -3.656331972923428e-07   8.71141555945093e-06
1.0255171914443086e-05   -3.656331972923428e-07   8.71141555945093e-06
1.0255171914443086e-05   -3.656331972923428e-07   8.71141555945093e-06
1.0255171914443086e-05   -3.656331972923428e-07   8.71141555945093e-06
2.785560408144362e-06   -4.3101033917218243e-07   2.119999435507789e-05
2.785560408144362e-06   -4.3101033917218243e-07   2.119999435507789e-05
2.785560408144362e-06   -4.3101033917218243e-07   2.119999435507789e-05
2.785560408144362e-06   -4.3101033917218243e-07   2.119999435507789e-05
1.025517191444312e-05   -1.248014028811667e-06   3.447815400226461e-05
1.025517191444312e-05   -1.248014028811667e-06   3.447815400226461e-05
1.025517191444312e-05   -1.248014028811667e-06   3.447815400226461e-05
1.025517191444312e-05   -1.248014028811667e-06   3.447815400226461e-05
-5.204871151245243e-06   -3.656331972923428e-07   9.240844058362686e-06
-5.204871151245243e-06   -3.656331972923428e-07   9.240844058362686e-06
-5.204871151245243e-06   -3.656331972923428e-07   9.240844058362686e-06
-5.204871151245243e-06   -3.656331972923428e-07   9.240844058362686e-06
-5.896724619477566e-06   -1.7501043176031822e-06   3.5327075694322916e-05
-5.896724619477566e-06   -1.7501043176031822e-06   3.5327075694322916e-05
-5.896724619477566e-06   -1.7501043176031822e-06   3.5327075694322916e-05
-5.896724619477566e-06   -1.7501043176031822e-06   3.5327075694322916e-05
9.507492425711578e-06   -9.42927288104245e-07   9.169074401308681e-06
9.507492425711578e-06   -9.42927288104245e-07   9.169074401308681e-06
9.507492425711578e-06   -9.42927288104245e-07   9.169074401308681e-06
9.507492425711578e-06   -9.42927288104245e-07   9.169074401308681e-06
2.192725128065827e-06   -8.291285425563073e-07   2.1292073983389333e-05
2.192725128065827e-06   -8.291285425563073e-07   2.1292073983389333e-05
2.192725128065827e-06   -8.291285425563073e-07   2.1292073983389333e-05
2.192725128065827e-06   -8.291285425563073e-07   2.1292073983389333e-05
-3.824699613338002e-06   3.5748160279514864e-06   3.8375555247932916e-05
-3.824699613338002e-06   3.5748160279514864e-06   3.8375555247932916e-05
-3.824699613338002e-06   3.5748160279514864e-06   3.8375555247932916e-05
-3.824699613338002e-06   3.5748160279514864e-06   3.8375555247932916e-05
-1.9223806994512327e-05   3.5175409925248396e-06   1.267601125805296e-05
-1.9223806994512327e-05   3.5175409925248396e-06   1.267601125805296e-05
-1.9223806994512327e-05   3.5175409925248396e-06   1.267601125805296e-05
-1.9223806994512327e-05   3.5175409925248396e-06   1.267601125805296e-05
-1.989705153037036e-05   2.970633978621913e-06   3.812504833377163e-05
-1.989705153037036e-05   2.970633978621913e-06   3.812504833377163e-05
-1.989705153037036e-05   2.970633978621913e-06   3.812504833377163e-05
-1.989705153037036e-05   2.970633978621913e-06   3.812504833377163e-05
-4.507141798585192e-06   2.8671478242061482e-06   1.2537290473446313e-05
-4.507141798585192e-06   2.8671478242061482e-06   1.2537290473446313e-05
-4.507141798585192e-06   2.8671478242061482e-06   1.2537290473446313e-05
-4.507141798585192e-06   2.8671478242061482e-06   1.2537290473446313e-05
-1.1892754341664505e-05   3.152521379848989e-06   2.4675420578526802e-05
-1.1892754341664505e-05   3.152521379848989e-06   2.4675420578526802e-05
-1.1892754341664505e-05   3.152521379848989e-06   2.4675420578526802e-05
-1.1892754341664505e-05   3.152521379848989e-06   2.4675420578526802e-05
-4.507141798585219e-06   2.970633978621913e-06   3.818714002642152e-05
-4.507141798585219e-06   2.970633978621913e-06   3.818714002642152e-05
-4.507141798585219e-06   2.970633978621913e-06   3.818714002642152e-05
-4.507141798585219e-06   2.970633978621913e-06   3.818714002642152e-05
-1.989705153037036e-05   2.8671478242059314e-06   1.2475198780796692e-05
-1.989705153037036e-05   2.8671478242059314e-06   1.2475198780796692e-05
-1.989705153037036e-05   2.8671478242059314e-06   1.2475198780796692e-05
-1.989705153037036e-05   2.8671478242059314e-06   1.2475198780796692e-05
-2.0586506459634873e-05   2.3760357576348146e-06   3.83204335606738e-05
-2.0586506459634873e-05   2.3760357576348146e-06   3.83204335606738e-05
-2.0586506459634873e-05   2.3760357576348146e-06   3.83204335606738e-05
-2.0586506459634873e-05   2.3760357576348146e-06   3.83204335606738e-05
-5.204871151245216e-06   2.224211271607303e-06   1.2775469404974497e-05
-5.204871151245216e-06   2.224211271607303e-06   1.2775469404974497e-05
-5.204871151245216e-06   2.224211271607303e-06   1.2775469404974497e-05
-5.204871151245216e-06   2.224211271607303e-06   1.2775469404974497e-05
-1.2509379989634144e-05   2.6804013147955445e-06   2.4675936776377e-05
-1.2509379989634144e-05   2.6804013147955445e-06   2.4675936776377e-05
-1.2509379989634144e-05   2.6804013147955445e-06   2.4675936776377e-05
-1.2509379989634144e-05   2.6804013147955445e-06   2.4675936776377e-05
-5.204871151245243e-06   2.3760357576348146e-06   3.841152825229035e-05
-5.204871151245243e-06   2.3760357576348146e-06   3.841152825229035e-05
-5.204871151245243e-06   2.3760357576348146e-06   3.841152825229035e-05
-5.204871151245243e-06   2.3760357576348146e-06   3.841152825229035e-05
-2.0586506459634873e-05   2.224211271607303e-06   1.2684374713358001e-05
-2.0586506459634873e-05   2.224211271607303e-06   1.2684374713358001e-05
-2.0586506459634873e-05   2.224211271607303e-06   1.2684374713358001e-05
-2.0586506459634873e-05   2.224211271607303e-06   1.2684374713358001e-05
-2.126795349259819e-05   1.811802957546807e-06   3.883564166464338e-05
-2.126795349259819e-05   1.811802957546807e-06   3.883564166464338e-05
-2.126795349259819e-05   1.811802957546807e-06   3.883564166464338e-05
-2.126795349259819e-05   1.811802957546807e-06   3.883564166464338e-05
-5.896724619477539e-06   1.605217406930575e-06   1.3340878206478653e-05
-5.896724619477539e-06   1.605217406930575e-06   1.3340878206478653e-05
-5.896724619477539e-06   1.605217406930575e-06   1.3340878206478653e-05
-5.896724619477539e-06   1.605217406930575e-06   1.3340878206478653e-05
-1.315433937646583e-05   2.21936679717415e-06   2.5068413167312806e-05
-1.315433937646583e-05   2.21936679717415e-06   2.5068413167312806e-05
-1.315433937646583e-05   2.21936679717415e-06   2.5068413167312806e-05
-1.315433937646583e-05   2.21936679717415e-06   2.5068413167312806e-05
-1.9223806994512327e-05   7.032656431222445e-06   3.393909072441038e-05
-1.9223806994512327e-05   7.032656431222445e-06   3.393909072441038e-05
-1.9223806994512327e-05   7.032656431222445e-06   3.393909072441038e-05
-1.9223806994512327e-05   7.032656431222445e-06   3.393909072441038e-05
-3.436313728804382e-05   6.029208863806302e-06   8.104805028074898e-06
-3.436313728804382e-05   6.029208863806302e-06   8.104805028074898e-06
-3.436313728804382e-05   6.029208863806302e-06   8.104805028074898e-06
-3.436313728804382e-05   6.029208863806302e-06   8.104805028074898e-06
-3.508525667753271e-05   6.453926744827594e-06   3.348936101863105e-05
-3.508525667753271e-05   6.453926744827594e-06   3.348936101863105e-05
-3.508525667753271e-05   6.453926744827594e-06   3.348936101863105e-05
-3.508525667753271e-05   6.453926744827594e-06   3.348936101863105e-05
-1.989705153037028e-05   5.393742804732241e-06   8.81179613741761e-06
-1.989705153037028e-05   5.393742804732241e-06   8.81179613741761e-06
-1.989705153037028e-05   5.393742804732241e-06   8.81179613741761e-06
-1.989705153037028e-05   5.393742804732241e-06   8.81179613741761e-06
-2.7065653840477948e-05   6.121633512253064e-06   2.032273222975212e-05
-2.7065653840477948e-05   6.121633512253064e-06   2.032273222975212e-05
-2.7065653840477948e-05   6.121633512253064e-06   2.032273222975212e-05
-2.7065653840477948e-05   6.121633512253064e-06   2.032273222975212e-05
-1.989705153037036e-05   6.453926744827594e-06   3.4125471382688176e-05
-1.989705153037036e-05   6.453926744827594e-06   3.4125471382688176e-05
-1.989705153037036e-05   6.453926744827594e-06   3.4125471382688176e-05
-1.989705153037036e-05   6.453926744827594e-06   3.4125471382688176e-05
-3.50852566775326e-05   5.393742804732241e-06   8.17568577336043e-06
-3.50852566775326e-05   5.393742804732241e-06   8.17568577336043e-06
-3.50852566775326e-05   5.393742804732241e-06   8.17568577336043e-06
-3.50852566775326e-05   5.393742804732241e-06   8.17568577336043e-06
-3.5898002997401454e-05   5.914798028178354e-06   3.4635426673120103e-05
-3.5898002997401454e-05   5.914798028178354e-06   3.4635426673120103e-05
-3.5898002997401454e-05   5.914798028178354e-06   3.4635426673120103e-05
-3.5898002997401454e-05   5.914798028178354e-06   3.4635426673120103e-05
-2.0586506459634792e-05   4.805864061562621e-06   9.781626156811724e-06
-2.0586506459634792e-05   4.805864061562621e-06   9.781626156811724e-06
-2.0586506459634792e-05   4.805864061562621e-06   9.781626156811724e-06
-2.0586506459634792e-05   4.805864061562621e-06   9.781626156811724e-06
-2.756610399136027e-05   5.688704927070496e-06   2.08845841903835e-05
-2.756610399136027e-05   5.688704927070496e-06   2.08845841903835e-05
-2.756610399136027e-05   5.688704927070496e-06   2.08845841903835e-05
-2.756610399136027e-05   5.688704927070496e-06   2.08845841903835e-05
-2.058650645963482e-05   5.914798028178354e-06   3.5300787053089196e-05
-2.058650645963482e-05   5.914798028178354e-06   3.5300787053089196e-05
-2.058650645963482e-05   5.914798028178354e-06   3.5300787053089196e-05
-2.058650645963482e-05   5.914798028178354e-06   3.5300787053089196e-05
-3.5898002997401454e-05   4.805864061562838e-06   9.116265776842251e-06
-3.5898002997401454e-05   4.805864061562838e-06   9.116265776842251e-06
-3.5898002997401454e-05   4.805864061562838e-06   9.116265776842251e-06
-3.5898002997401454e-05   4.805864061562838e-06   9.116265776842251e-06
-3.6620693270986474e-05   5.28707405719319e-06   3.560294993725931e-05
-3.6620693270986474e-05   5.28707405719319e-06   3.560294993725931e-05
-3.6620693270986474e-05   5.28707405719319e-06   3.560294993725931e-05
-3.6620693270986474e-05   5.28707405719319e-06   3.560294993725931e-05
-2.1267953492598135e-05   4.148806384737238e-06   1.069801091008616e-05
-2.1267953492598135e-05   4.148806384737238e-06   1.069801091008616e-05
-2.1267953492598135e-05   4.148806384737238e-06   1.069801091008616e-05
-2.1267953492598135e-05   4.148806384737238e-06   1.069801091008616e-05
-2.8380552304752276e-05   5.233161889055e-06   2.1901728961086378e-05
-2.8380552304752276e-05   5.233161889055e-06   2.1901728961086378e-05
-2.8380552304752276e-05   5.233161889055e-06   2.1901728961086378e-05
-2.8380552304752276e-05   5.233161889055e-06   2.1901728961086378e-05
-3.436313728804382e-05   9.690686282890892e-06   1.630371552729503e-05
-3.436313728804382e-05   9.690686282890892e-06   1.630371552729503e-05
-3.436313728804382e-05   9.690686282890892e-06   1.630371552729503e-05
-3.436313728804382e-05   9.690686282890892e-06   1.630371552729503e-05
-4.8555272384854945e-05   7.906763269430314e-06   -8.420196775466991e-06
-4.8555272384854945e-05   7.906763269430314e-06   -8.420196775466991e-06
-4.8555272384854945e-05   7.906763269430314e-06   -8.420196775466991e-06
-4.8555272384854945e-05   7.906763269430314e-06   -8.420196775466991e-06
-5.006487937473297e-05   9.641794089197079e-06   2.0901153350990362e-05
-5.006487937473297e-05   9.641794089197079e-06   2.0901153350990362e-05
-5.006487937473297e-05   9.641794089197079e-06   2.0901153350990362e-05
-5.006487937473297e-05   9.641794089197079e-06   2.0901153350990362e-05
-3.50852566775326e-05   7.702578284619465e-06   -2.9013549949300768e-06
-3.50852566775326e-05   7.702578284619465e-06   -2.9013549949300768e-06
-3.50852566775326e-05   7.702578284619465e-06   -2.9013549949300768e-06
-3.50852566775326e-05   7.702578284619465e-06   -2.9013549949300768e-06
-4.0442541794312393e-05   8.576697991691295e-06   5.502981708794012e-06
-4.0442541794312393e-05   8.576697991691295e-06   5.502981708794012e-06
-4.0442541794312393e-05   8.576697991691295e-06   5.502981708794012e-06
-4.0442541794312393e-05   8.576697991691295e-06   5.502981708794012e-06
-3.5085256677532656e-05   9.641794089197079e-06   2.206468283373706e-05
-3.5085256677532656e-05   9.641794089197079e-06   2.206468283373706e-05
-3.5085256677532656e-05   9.641794089197079e-06   2.206468283373706e-05
-3.5085256677532656e-05   9.641794089197079e-06   2.206468283373706e-05
-5.0064879374733025e-05   7.702578284619465e-06   -4.064884477676558e-06
-5.0064879374733025e-05   7.702578284619465e-06   -4.064884477676558e-06
-5.0064879374733025e-05   7.702578284619465e-06   -4.064884477676558e-06
-5.0064879374733025e-05   7.702578284619465e-06   -4.064884477676558e-06
-5.138214823614134e-05   9.445167197147039e-06   2.488777476520568e-05
-5.138214823614134e-05   9.445167197147039e-06   2.488777476520568e-05
-5.138214823614134e-05   9.445167197147039e-06   2.488777476520568e-05
-5.138214823614134e-05   9.445167197147039e-06   2.488777476520568e-05
-3.5898002997401346e-05   7.4533837757990475e-06   2.7593608678110754e-07
-3.5898002997401346e-05   7.4533837757990475e-06   2.7593608678110754e-07
-3.5898002997401346e-05   7.4533837757990475e-06   2.7593608678110754e-07
-3.5898002997401346e-05   7.4533837757990475e-06   2.7593608678110754e-07
-4.204065028537475e-05   8.582023443112936e-06   9.836497766349778e-06
-4.204065028537475e-05   8.582023443112936e-06   9.836497766349778e-06
-4.204065028537475e-05   8.582023443112936e-06   9.836497766349778e-06
-4.204065028537475e-05   8.582023443112936e-06   9.836497766349778e-06
-3.5898002997401454e-05   9.445167197146605e-06   2.6082844818014345e-05
-3.5898002997401454e-05   9.445167197146605e-06   2.6082844818014345e-05
-3.5898002997401454e-05   9.445167197146605e-06   2.6082844818014345e-05
-3.5898002997401454e-05   9.445167197146605e-06   2.6082844818014345e-05
-5.138214823614134e-05   7.4533837757990475e-06   -9.191339660275574e-07
-5.138214823614134e-05   7.4533837757990475e-06   -9.191339660275574e-07
-5.138214823614134e-05   7.4533837757990475e-06   -9.191339660275574e-07
-5.138214823614134e-05   7.4533837757990475e-06   -9.191339660275574e-07
-5.291031979533624e-05   8.578160156777568e-06   3.181624306264059e-05
-5.291031979533624e-05   8.578160156777568e-06   3.181624306264059e-05
-5.291031979533624e-05   8.578160156777568e-06   3.181624306264059e-05
-5.291031979533624e-05   8.578160156777568e-06   3.181624306264059e-05
-3.662069327098631e-05   6.617449768825693e-06   5.843291754828472e-06
-3.662069327098631e-05   6.617449768825693e-06   5.843291754828472e-06
-3.662069327098631e-05   6.617449768825693e-06   5.843291754828472e-06
-3.662069327098631e-05   6.617449768825693e-06   5.843291754828472e-06
-4.2398423471833334e-05   8.218001312663026e-06   1.4512511163270727e-05
-4.2398423471833334e-05   8.218001312663026e-06   1.4512511163270727e-05
-4.2398423471833334e-05   8.218001312663026e-06   1.4512511163270727e-05
-4.2398423471833334e-05   8.218001312663026e-06   1.4512511163270727e-05
1.582753372612643e-05   -1.816022670129416e-06   2.2497872652223064e-05
1.582753372612643e-05   -1.816022670129416e-06   2.2497872652223064e-05
1.582753372612643e-05   -1.816022670129416e-06   2.2497872652223064e-05
1.582753372612643e-05   -1.816022670129416e-06   2.2497872652223064e-05
4.135216406076097e-06   4.4204545816741575e-08   4.126813448373677e-06
4.135216406076097e-06   4.4204545816741575e-08   4.126813448373677e-06
4.135216406076097e-06   4.4204545816741575e-08   4.126813448373677e-06
4.135216406076097e-06   4.4204545816741575e-08   4.126813448373677e-06
3.5798024537518513e-06   -2.5227267598433058e-06   2.0977343124843682e-05
3.5798024537518513e-06   -2.5227267598433058e-06   2.0977343124843682e-05
3.5798024537518513e-06   -2.5227267598433058e-06   2.0977343124843682e-05
3.5798024537518513e-06   -2.5227267598433058e-06   2.0977343124843682e-05
1.445476172999159e-05   -5.889673715777418e-07   1.6921553648185006e-06
1.445476172999159e-05   -5.889673715777418e-07   1.6921553648185006e-06
1.445476172999159e-05   -5.889673715777418e-07   1.6921553648185006e-06
1.445476172999159e-05   -5.889673715777418e-07   1.6921553648185006e-06
8.938317900763339e-06   -1.3105099067570354e-06   1.1319153934640443e-05
8.938317900763339e-06   -1.3105099067570354e-06   1.1319153934640443e-05
8.938317900763339e-06   -1.3105099067570354e-06   1.1319153934640443e-05
8.938317900763339e-06   -1.3105099067570354e-06   1.1319153934640443e-05
1.4454761729991604e-05   -2.5227267598433058e-06   1.9817087491884496e-05
1.4454761729991604e-05   -2.5227267598433058e-06   1.9817087491884496e-05
1.4454761729991604e-05   -2.5227267598433058e-06   1.9817087491884496e-05
1.4454761729991604e-05   -2.5227267598433058e-06   1.9817087491884496e-05
3.579802453751848e-06   -5.889673715777418e-07   2.8524109977777143e-06
3.579802453751848e-06   -5.889673715777418e-07   2.8524109977777143e-06
3.579802453751848e-06   -5.889673715777418e-07   2.8524109977777143e-06
3.579802453751848e-06   -5.889673715777418e-07   2.8524109977777143e-06
2.9326200990014356e-06   -2.766102218648009e-06   1.9689018938855835e-05
2.9326200990014356e-06   -2.766102218648009e-06   1.9689018938855835e-05
2.9326200990014356e-06   -2.766102218648009e-06   1.9689018938855835e-05
2.9326200990014356e-06   -2.766102218648009e-06   1.9689018938855835e-05
1.3292577719515843e-05   -8.621093753593753e-07   1.2800271986919355e-06
1.3292577719515843e-05   -8.621093753593753e-07   1.2800271986919355e-06
1.3292577719515843e-05   -8.621093753593753e-07   1.2800271986919355e-06
1.3292577719515843e-05   -8.621093753593753e-07   1.2800271986919355e-06
8.274557159397956e-06   -1.5868778526070479e-06   1.0078255885236957e-05
8.274557159397956e-06   -1.5868778526070479e-06   1.0078255885236957e-05
8.274557159397956e-06   -1.5868778526070479e-06   1.0078255885236957e-05
8.274557159397956e-06   -1.5868778526070479e-06   1.0078255885236957e-05
1.329257771951587e-05   -2.766102218648009e-06   1.8546623232882547e-05
1.329257771951587e-05   -2.766102218648009e-06   1.8546623232882547e-05
1.329257771951587e-05   -2.766102218648009e-06   1.8546623232882547e-05
1.329257771951587e-05   -2.766102218648009e-06   1.8546623232882547e-05
2.932620099001422e-06   -8.621093753593753e-07   2.4224229046650343e-06
2.932620099001422e-06   -8.621093753593753e-07   2.4224229046650343e-06
2.932620099001422e-06   -8.621093753593753e-07   2.4224229046650343e-06
2.932620099001422e-06   -8.621093753593753e-07   2.4224229046650343e-06
2.3719483399694074e-06   -3.088125313435242e-06   1.820100643585925e-05
2.3719483399694074e-06   -3.088125313435242e-06   1.820100643585925e-05
2.3719483399694074e-06   -3.088125313435242e-06   1.820100643585925e-05
2.3719483399694074e-06   -3.088125313435242e-06   1.820100643585925e-05
1.1931842974263206e-05   -1.3173594742821836e-06   1.2053892085448685e-06
1.1931842974263206e-05   -1.3173594742821836e-06   1.2053892085448685e-06
1.1931842974263206e-05   -1.3173594742821836e-06   1.2053892085448685e-06
1.1931842974263206e-05   -1.3173594742821836e-06   1.2053892085448685e-06
7.297513920671323e-06   -1.7297135716954487e-06   9.17668342297962e-06
7.297513920671323e-06   -1.7297135716954487e-06   9.17668342297962e-06
7.297513920671323e-06   -1.7297135716954487e-06   9.17668342297962e-06
7.297513920671323e-06   -1.7297135716954487e-06   9.17668342297962e-06
4.135216406076107e-06   9.35640598869825e-07   3.096035784955903e-05
4.135216406076107e-06   9.35640598869825e-07   3.096035784955903e-05
4.135216406076107e-06   9.35640598869825e-07   3.096035784955903e-05
4.135216406076107e-06   9.35640598869825e-07   3.096035784955903e-05
-6.517574098440166e-06   1.7776562088709941e-06   1.3710916374699432e-05
-6.517574098440166e-06   1.7776562088709941e-06   1.3710916374699432e-05
-6.517574098440166e-06   1.7776562088709941e-06   1.3710916374699432e-05
-6.517574098440166e-06   1.7776562088709941e-06   1.3710916374699432e-05
-7.005428848960119e-06   2.2003597110542908e-07   3.1058327039977605e-05
-7.005428848960119e-06   2.2003597110542908e-07   3.1058327039977605e-05
-7.005428848960119e-06   2.2003597110542908e-07   3.1058327039977605e-05
-7.005428848960119e-06   2.2003597110542908e-07   3.1058327039977605e-05
3.579802453751848e-06   1.061976972142626e-06   1.2911110268168937e-05
3.579802453751848e-06   1.061976972142626e-06   1.2911110268168937e-05
3.579802453751848e-06   1.061976972142626e-06   1.2911110268168937e-05
3.579802453751848e-06   1.061976972142626e-06   1.2911110268168937e-05
-1.5316152765948041e-06   9.275599857623638e-07   2.1510790010575867e-05
-1.5316152765948041e-06   9.275599857623638e-07   2.1510790010575867e-05
-1.5316152765948041e-06   9.275599857623638e-07   2.1510790010575867e-05
-1.5316152765948041e-06   9.275599857623638e-07   2.1510790010575867e-05
3.579802453751848e-06   2.2003597110564592e-07   3.0553162439355156e-05
3.579802453751848e-06   2.2003597110564592e-07   3.0553162439355156e-05
3.579802453751848e-06   2.2003597110564592e-07   3.0553162439355156e-05
3.579802453751848e-06   2.2003597110564592e-07   3.0553162439355156e-05
-7.005428848960119e-06   1.061976972142626e-06   1.3416274868791392e-05
-7.005428848960119e-06   1.061976972142626e-06   1.3416274868791392e-05
-7.005428848960119e-06   1.061976972142626e-06   1.3416274868791392e-05
-7.005428848960119e-06   1.061976972142626e-06   1.3416274868791392e-05
-7.5075030800120235e-06   -3.656331972923428e-07   3.08596629888234e-05
-7.5075030800120235e-06   -3.656331972923428e-07   3.08596629888234e-05
-7.5075030800120235e-06   -3.656331972923428e-07   3.08596629888234e-05
-7.5075030800120235e-06   -3.656331972923428e-07   3.08596629888234e-05
2.932620099001422e-06   4.553018878349427e-07   1.2966896639391421e-05
2.932620099001422e-06   4.553018878349427e-07   1.2966896639391421e-05
2.932620099001422e-06   4.553018878349427e-07   1.2966896639391421e-05
2.932620099001422e-06   4.553018878349427e-07   1.2966896639391421e-05
-2.052304962914666e-06   4.283258719763386e-07   2.129129068543389e-05
-2.052304962914666e-06   4.283258719763386e-07   2.129129068543389e-05
-2.052304962914666e-06   4.283258719763386e-07   2.129129068543389e-05
-2.052304962914666e-06   4.283258719763386e-07   2.129129068543389e-05
2.9326200990014356e-06   -3.656331972923428e-07   3.03671019377472e-05
2.9326200990014356e-06   -3.656331972923428e-07   3.03671019377472e-05
2.9326200990014356e-06   -3.656331972923428e-07   3.03671019377472e-05
2.9326200990014356e-06   -3.656331972923428e-07   3.03671019377472e-05
-7.507503080012051e-06   4.5530188783472585e-07   1.3459457690467836e-05
-7.507503080012051e-06   4.5530188783472585e-07   1.3459457690467836e-05
-7.507503080012051e-06   4.5530188783472585e-07   1.3459457690467836e-05
-7.507503080012051e-06   4.5530188783472585e-07   1.3459457690467836e-05
-8.00205654511902e-06   -9.42927288104245e-07   3.126648603056915e-05
-8.00205654511902e-06   -9.42927288104245e-07   3.126648603056915e-05
-8.00205654511902e-06   -9.42927288104245e-07   3.126648603056915e-05
-8.00205654511902e-06   -9.42927288104245e-07   3.126648603056915e-05
2.3719483399694006e-06   -1.648418500959075e-07   1.3509626625950072e-05
2.3719483399694006e-06   -1.648418500959075e-07   1.3509626625950072e-05
2.3719483399694006e-06   -1.648418500959075e-07   1.3509626625950072e-05
2.3719483399694006e-06   -1.648418500959075e-07   1.3509626625950072e-05
-2.493303732226161e-06   -1.9833750992265253e-08   2.1531375220147577e-05
-2.493303732226161e-06   -1.9833750992265253e-08   2.1531375220147577e-05
-2.493303732226161e-06   -1.9833750992265253e-08   2.1531375220147577e-05
-2.493303732226161e-06   -1.9833750992265253e-08   2.1531375220147577e-05
-6.517574098440166e-06   3.5175409925248396e-06   3.433597552552053e-05
-6.517574098440166e-06   3.5175409925248396e-06   3.433597552552053e-05
-6.517574098440166e-06   3.5175409925248396e-06   3.433597552552053e-05
-6.517574098440166e-06   3.5175409925248396e-06   3.433597552552053e-05
-1.6990410869580178e-05   3.315448726990723e-06   1.6759992214300068e-05
-1.6990410869580178e-05   3.315448726990723e-06   1.6759992214300068e-05
-1.6990410869580178e-05   3.315448726990723e-06   1.6759992214300068e-05
-1.6990410869580178e-05   3.315448726990723e-06   1.6759992214300068e-05
-1.74584446369244e-05   2.8671478242061482e-06   3.4032511246241334e-05
-1.74584446369244e-05   2.8671478242061482e-06   3.4032511246241334e-05
-1.74584446369244e-05   2.8671478242061482e-06   3.4032511246241334e-05
-1.74584446369244e-05   2.8671478242061482e-06   3.4032511246241334e-05
-7.005428848960092e-06   2.6555014845050257e-06   1.6737806070121688e-05
-7.005428848960092e-06   2.6555014845050257e-06   1.6737806070121688e-05
-7.005428848960092e-06   2.6555014845050257e-06   1.6737806070121688e-05
-7.005428848960092e-06   2.6555014845050257e-06   1.6737806070121688e-05
-1.2015289312798002e-05   3.015235134289085e-06   2.487173331998198e-05
-1.2015289312798002e-05   3.015235134289085e-06   2.487173331998198e-05
-1.2015289312798002e-05   3.015235134289085e-06   2.487173331998198e-05
-1.2015289312798002e-05   3.015235134289085e-06   2.487173331998198e-05
-7.005428848960119e-06   2.8671478242061482e-06   3.415949905006188e-05
-7.005428848960119e-06   2.8671478242061482e-06   3.415949905006188e-05
-7.005428848960119e-06   2.8671478242061482e-06   3.415949905006188e-05
-7.005428848960119e-06   2.8671478242061482e-06   3.415949905006188e-05
-1.7458444636924374e-05   2.6555014845050257e-06   1.6610818266300873e-05
-1.7458444636924374e-05   2.6555014845050257e-06   1.6610818266300873e-05
-1.7458444636924374e-05   2.6555014845050257e-06   1.6610818266300873e-05
-1.7458444636924374e-05   2.6555014845050257e-06   1.6610818266300873e-05
-1.7941846429666316e-05   2.224211271607303e-06   3.425911909742726e-05
-1.7941846429666316e-05   2.224211271607303e-06   3.425911909742726e-05
-1.7941846429666316e-05   2.224211271607303e-06   3.425911909742726e-05
-1.7941846429666316e-05   2.224211271607303e-06   3.425911909742726e-05
-7.5075030800120235e-06   1.9989292082604835e-06   1.700371608601156e-05
-7.5075030800120235e-06   1.9989292082604835e-06   1.700371608601156e-05
-7.5075030800120235e-06   1.9989292082604835e-06   1.700371608601156e-05
-7.5075030800120235e-06   1.9989292082604835e-06   1.700371608601156e-05
-1.243205628813956e-05   2.5131925007844044e-06   2.4902746790709878e-05
-1.243205628813956e-05   2.5131925007844044e-06   2.4902746790709878e-05
-1.243205628813956e-05   2.5131925007844044e-06   2.4902746790709878e-05
-1.243205628813956e-05   2.5131925007844044e-06   2.4902746790709878e-05
-7.507503080012051e-06   2.224211271607303e-06   3.439428833543526e-05
-7.507503080012051e-06   2.224211271607303e-06   3.439428833543526e-05
-7.507503080012051e-06   2.224211271607303e-06   3.439428833543526e-05
-7.507503080012051e-06   2.224211271607303e-06   3.439428833543526e-05
-1.794184642966629e-05   1.9989292082604835e-06   1.686854684800369e-05
-1.794184642966629e-05   1.9989292082604835e-06   1.686854684800369e-05
-1.794184642966629e-05   1.9989292082604835e-06   1.686854684800369e-05
-1.794184642966629e-05   1.9989292082604835e-06   1.686854684800369e-05
-1.8417713657164353e-05   1.605217406930575e-06   3.4812975328180366e-05
-1.8417713657164353e-05   1.605217406930575e-06   3.4812975328180366e-05
-1.8417713657164353e-05   1.605217406930575e-06   3.4812975328180366e-05
-1.8417713657164353e-05   1.605217406930575e-06   3.4812975328180366e-05
-8.002056545119046e-06   1.3702035904982965e-06   1.7594555097964754e-05
-8.002056545119046e-06   1.3702035904982965e-06   1.7594555097964754e-05
-8.002056545119046e-06   1.3702035904982965e-06   1.7594555097964754e-05
-8.002056545119046e-06   1.3702035904982965e-06   1.7594555097964754e-05
-1.2875332205497812e-05   2.0211863801954024e-06   2.5326091524778202e-05
-1.2875332205497812e-05   2.0211863801954024e-06   2.5326091524778202e-05
-1.2875332205497812e-05   2.0211863801954024e-06   2.5326091524778202e-05
-1.2875332205497812e-05   2.0211863801954024e-06   2.5326091524778202e-05
-1.6990410869580178e-05   6.029208863806302e-06   3.0245582476671638e-05
-1.6990410869580178e-05   6.029208863806302e-06   3.0245582476671638e-05
-1.6990410869580178e-05   6.029208863806302e-06   3.0245582476671638e-05
-1.6990410869580178e-05   6.029208863806302e-06   3.0245582476671638e-05
-2.7271891763961818e-05   4.923798490445415e-06   1.2446534762019005e-05
-2.7271891763961818e-05   4.923798490445415e-06   1.2446534762019005e-05
-2.7271891763961818e-05   4.923798490445415e-06   1.2446534762019005e-05
-2.7271891763961818e-05   4.923798490445415e-06   1.2446534762019005e-05
-2.7781970545593705e-05   5.393742804732241e-06   2.9687768914716216e-05
-2.7781970545593705e-05   5.393742804732241e-06   2.9687768914716216e-05
-2.7781970545593705e-05   5.393742804732241e-06   2.9687768914716216e-05
-2.7781970545593705e-05   5.393742804732241e-06   2.9687768914716216e-05
-1.7458444636924347e-05   4.2581766578225246e-06   1.3163232088413764e-05
-1.7458444636924347e-05   4.2581766578225246e-06   1.3163232088413764e-05
-1.7458444636924347e-05   4.2581766578225246e-06   1.3163232088413764e-05
-1.7458444636924347e-05   4.2581766578225246e-06   1.3163232088413764e-05
-2.2321750138857828e-05   5.067629619505062e-06   2.0783069481294274e-05
-2.2321750138857828e-05   5.067629619505062e-06   2.0783069481294274e-05
-2.2321750138857828e-05   5.067629619505062e-06   2.0783069481294274e-05
-2.2321750138857828e-05   5.067629619505062e-06   2.0783069481294274e-05
-1.74584446369244e-05   5.393742804732241e-06   3.0369108602862306e-05
-1.74584446369244e-05   5.393742804732241e-06   3.0369108602862306e-05
-1.74584446369244e-05   5.393742804732241e-06   3.0369108602862306e-05
-1.74584446369244e-05   5.393742804732241e-06   3.0369108602862306e-05
-2.7781970545593705e-05   4.2581766578225246e-06   1.2481892400267836e-05
-2.7781970545593705e-05   4.2581766578225246e-06   1.2481892400267836e-05
-2.7781970545593705e-05   4.2581766578225246e-06   1.2481892400267836e-05
-2.7781970545593705e-05   4.2581766578225246e-06   1.2481892400267836e-05
-2.8386130550957288e-05   4.805864061562621e-06   3.066473731053805e-05
-2.8386130550957288e-05   4.805864061562621e-06   3.066473731053805e-05
-2.8386130550957288e-05   4.805864061562621e-06   3.066473731053805e-05
-2.8386130550957288e-05   4.805864061562621e-06   3.066473731053805e-05
-1.7941846429666262e-05   3.653142010991454e-06   1.3949230338729615e-05
-1.7941846429666262e-05   3.653142010991454e-06   1.3949230338729615e-05
-1.7941846429666262e-05   3.653142010991454e-06   1.3949230338729615e-05
-1.7941846429666262e-05   3.653142010991454e-06   1.3949230338729615e-05
-2.2652510016717362e-05   4.596778530590196e-06   2.1234154405388832e-05
-2.2652510016717362e-05   4.596778530590196e-06   2.1234154405388832e-05
-2.2652510016717362e-05   4.596778530590196e-06   2.1234154405388832e-05
-2.2652510016717362e-05   4.596778530590196e-06   2.1234154405388832e-05
-1.7941846429666316e-05   4.805864061562621e-06   3.1356370540880927e-05
-1.7941846429666316e-05   4.805864061562621e-06   3.1356370540880927e-05
-1.7941846429666316e-05   4.805864061562621e-06   3.1356370540880927e-05
-1.7941846429666316e-05   4.805864061562621e-06   3.1356370540880927e-05
-2.838613055095718e-05   3.653142010991454e-06   1.325759710838685e-05
-2.838613055095718e-05   3.653142010991454e-06   1.325759710838685e-05
-2.838613055095718e-05   3.653142010991454e-06   1.325759710838685e-05
-2.838613055095718e-05   3.653142010991454e-06   1.325759710838685e-05
-2.890467954359355e-05   4.148806384737455e-06   3.160879514383253e-05
-2.890467954359355e-05   4.148806384737455e-06   3.160879514383253e-05
-2.890467954359355e-05   4.148806384737455e-06   3.160879514383253e-05
-2.890467954359355e-05   4.148806384737455e-06   3.160879514383253e-05
-1.841771365716427e-05   3.006699354195057e-06   1.481578288477605e-05
-1.841771365716427e-05   3.006699354195057e-06   1.481578288477605e-05
-1.841771365716427e-05   3.006699354195057e-06   1.481578288477605e-05
-1.841771365716427e-05   3.006699354195057e-06   1.481578288477605e-05
-2.3220837046382346e-05   4.125394780478712e-06   2.2149771277703712e-05
-2.3220837046382346e-05   4.125394780478712e-06   2.2149771277703712e-05
-2.3220837046382346e-05   4.125394780478712e-06   2.2149771277703712e-05
-2.3220837046382346e-05   4.125394780478712e-06   2.2149771277703712e-05
-2.7271891763961872e-05   7.906763269430097e-06   1.4127688257190019e-05
-2.7271891763961872e-05   7.906763269430097e-06   1.4127688257190019e-05
-2.7271891763961872e-05   7.906763269430097e-06   1.4127688257190019e-05
-2.7271891763961872e-05   7.906763269430097e-06   1.4127688257190019e-05
-3.65400618218964e-05   6.05567425797501e-06   -2.4299152462407478e-06
-3.65400618218964e-05   6.05567425797501e-06   -2.4299152462407478e-06
-3.65400618218964e-05   6.05567425797501e-06   -2.4299152462407478e-06
-3.65400618218964e-05   6.05567425797501e-06   -2.4299152462407478e-06
-3.784750993114395e-05   7.702578284619465e-06   1.7417723526604555e-05
-3.784750993114395e-05   7.702578284619465e-06   1.7417723526604555e-05
-3.784750993114395e-05   7.702578284619465e-06   1.7417723526604555e-05
-3.784750993114395e-05   7.702578284619465e-06   1.7417723526604555e-05
-2.7781970545593597e-05   5.7142372515842435e-06   1.8348291705085496e-06
-2.7781970545593597e-05   5.7142372515842435e-06   1.8348291705085496e-06
-2.7781970545593597e-05   5.7142372515842435e-06   1.8348291705085496e-06
-2.7781970545593597e-05   5.7142372515842435e-06   1.8348291705085496e-06
-3.118197811067153e-05   6.719359232423405e-06   6.898435257136296e-06
-3.118197811067153e-05   6.719359232423405e-06   6.898435257136296e-06
-3.118197811067153e-05   6.719359232423405e-06   6.898435257136296e-06
-3.118197811067153e-05   6.719359232423405e-06   6.898435257136296e-06
-2.778197054559365e-05   7.702578284619465e-06   1.8610728146425384e-05
-2.778197054559365e-05   7.702578284619465e-06   1.8610728146425384e-05
-2.778197054559365e-05   7.702578284619465e-06   1.8610728146425384e-05
-2.778197054559365e-05   7.702578284619465e-06   1.8610728146425384e-05
-3.784750993114395e-05   5.7142372515842435e-06   6.418245506875035e-07
-3.784750993114395e-05   5.7142372515842435e-06   6.418245506875035e-07
-3.784750993114395e-05   5.7142372515842435e-06   6.418245506875035e-07
-3.784750993114395e-05   5.7142372515842435e-06   6.418245506875035e-07
-3.897338246316252e-05   7.4533837757990475e-06   2.0609916046899785e-05
-3.897338246316252e-05   7.4533837757990475e-06   2.0609916046899785e-05
-3.897338246316252e-05   7.4533837757990475e-06   2.0609916046899785e-05
-3.897338246316252e-05   7.4533837757990475e-06   2.0609916046899785e-05
-2.838613055095718e-05   5.429231153170327e-06   4.178987766801376e-06
-2.838613055095718e-05   5.429231153170327e-06   4.178987766801376e-06
-2.838613055095718e-05   5.429231153170327e-06   4.178987766801376e-06
-2.838613055095718e-05   5.429231153170327e-06   4.178987766801376e-06
-3.2436885603685653e-05   6.630662889792194e-06   1.0209387146042936e-05
-3.2436885603685653e-05   6.630662889792194e-06   1.0209387146042936e-05
-3.2436885603685653e-05   6.630662889792194e-06   1.0209387146042936e-05
-3.2436885603685653e-05   6.630662889792194e-06   1.0209387146042936e-05
-2.8386130550957234e-05   7.4533837757990475e-06   2.1824407620477018e-05
-2.8386130550957234e-05   7.4533837757990475e-06   2.1824407620477018e-05
-2.8386130550957234e-05   7.4533837757990475e-06   2.1824407620477018e-05
-2.8386130550957234e-05   7.4533837757990475e-06   2.1824407620477018e-05
-3.897338246316252e-05   5.429231153170327e-06   2.964496193224252e-06
-3.897338246316252e-05   5.429231153170327e-06   2.964496193224252e-06
-3.897338246316252e-05   5.429231153170327e-06   2.964496193224252e-06
-3.897338246316252e-05   5.429231153170327e-06   2.964496193224252e-06
-4.0321069371468865e-05   6.6174497688254764e-06   2.6259258803898716e-05
-4.0321069371468865e-05   6.6174497688254764e-06   2.6259258803898716e-05
-4.0321069371468865e-05   6.6174497688254764e-06   2.6259258803898716e-05
-4.0321069371468865e-05   6.6174497688254764e-06   2.6259258803898716e-05
-2.890467954359344e-05   4.654486788575798e-06   8.409720212256173e-06
-2.890467954359344e-05   4.654486788575798e-06   8.409720212256173e-06
-2.890467954359344e-05   4.654486788575798e-06   8.409720212256173e-06
-2.890467954359344e-05   4.654486788575798e-06   8.409720212256173e-06
-3.27506026794825e-05   6.278355864801355e-06   1.3845270659669658e-05
-3.27506026794825e-05   6.278355864801355e-06   1.3845270659669658e-05
-3.27506026794825e-05   6.278355864801355e-06   1.3845270659669658e-05
-3.27506026794825e-05   6.278355864801355e-06   1.3845270659669658e-05
3.148015932019204e-06   4.4204545816741575e-08   1.6781568495853475e-05
3.148015932019204e-06   4.4204545816741575e-08   1.6781568495853475e-05
3.148015932019204e-06   4.4204545816741575e-08   1.6781568495853475e-05
3.148015932019204e-06   4.4204545816741575e-08   1.6781568495853475e-05
-3.5354704579378647e-06   1.8296069284162286e-06   6.713665942151346e-06
-3.5354704579378647e-06   1.8296069284162286e-06   6.713665942151346e-06
-3.5354704579378647e-06   1.8296069284162286e-06   6.713665942151346e-06
-3.5354704579378647e-06   1.8296069284162286e-06   6.713665942151346e-06
-3.928465456112611e-06   -5.889673715777418e-07   1.655543329890654e-05
-3.928465456112611e-06   -5.889673715777418e-07   1.655543329890654e-05
-3.928465456112611e-06   -5.889673715777418e-07   1.655543329890654e-05
-3.928465456112611e-06   -5.889673715777418e-07   1.655543329890654e-05
1.9516767593064e-06   1.2389627891877617e-06   5.658438176748946e-06
1.9516767593064e-06   1.2389627891877617e-06   5.658438176748946e-06
1.9516767593064e-06   1.2389627891877617e-06   5.658438176748946e-06
1.9516767593064e-06   1.2389627891877617e-06   5.658438176748946e-06
-7.468959293172201e-07   5.299258320817703e-07   1.058148149871854e-05
-7.468959293172201e-07   5.299258320817703e-07   1.058148149871854e-05
-7.468959293172201e-07   5.299258320817703e-07   1.058148149871854e-05
-7.468959293172201e-07   5.299258320817703e-07   1.058148149871854e-05
1.9516767593064e-06   -5.889673715777418e-07   1.5458675202447325e-05
1.9516767593064e-06   -5.889673715777418e-07   1.5458675202447325e-05
1.9516767593064e-06   -5.889673715777418e-07   1.5458675202447325e-05
1.9516767593064e-06   -5.889673715777418e-07   1.5458675202447325e-05
-3.928465456112611e-06   1.2389627891877617e-06   6.7551962732081885e-06
-3.928465456112611e-06   1.2389627891877617e-06   6.7551962732081885e-06
-3.928465456112611e-06   1.2389627891877617e-06   6.7551962732081885e-06
-3.928465456112611e-06   1.2389627891877617e-06   6.7551962732081885e-06
-4.413878429352465e-06   -8.621093753593753e-07   1.6124425871586975e-05
-4.413878429352465e-06   -8.621093753593753e-07   1.6124425871586975e-05
-4.413878429352465e-06   -8.621093753593753e-07   1.6124425871586975e-05
-4.413878429352465e-06   -8.621093753593753e-07   1.6124425871586975e-05
9.13720542714859e-07   9.136206553569254e-07   6.179656233045046e-06
9.13720542714859e-07   9.136206553569254e-07   6.179656233045046e-06
9.13720542714859e-07   9.136206553569254e-07   6.179656233045046e-06
9.13720542714859e-07   9.136206553569254e-07   6.179656233045046e-06
-1.3927337622589317e-06   2.782342042476158e-07   1.0404978612000345e-05
-1.3927337622589317e-06   2.782342042476158e-07   1.0404978612000345e-05
-1.3927337622589317e-06   2.782342042476158e-07   1.0404978612000345e-05
-1.3927337622589317e-06   2.782342042476158e-07   1.0404978612000345e-05
9.13720542714859e-07   -8.621093753591585e-07   1.5058987853157e-05
9.13720542714859e-07   -8.621093753591585e-07   1.5058987853157e-05
9.13720542714859e-07   -8.621093753591585e-07   1.5058987853157e-05
9.13720542714859e-07   -8.621093753591585e-07   1.5058987853157e-05
-4.4138784293524544e-06   9.136206553569254e-07   7.2450942514749135e-06
-4.4138784293524544e-06   9.136206553569254e-07   7.2450942514749135e-06
-4.4138784293524544e-06   9.136206553569254e-07   7.2450942514749135e-06
-4.4138784293524544e-06   9.136206553569254e-07   7.2450942514749135e-06
-4.819463241074514e-06   -1.3173594742824004e-06   1.5974258633028927e-05
-4.819463241074514e-06   -1.3173594742824004e-06   1.5974258633028927e-05
-4.819463241074514e-06   -1.3173594742824004e-06   1.5974258633028927e-05
-4.819463241074514e-06   -1.3173594742824004e-06   1.5974258633028927e-05
-3.883368071077269e-07   2.233763255526846e-07   7.66460642985013e-06
-3.883368071077269e-07   2.233763255526846e-07   7.66460642985013e-06
-3.883368071077269e-07   2.233763255526846e-07   7.66460642985013e-06
-3.883368071077269e-07   2.233763255526846e-07   7.66460642985013e-06
-2.0875889651408334e-06   4.7206824964254185e-08   1.0602395060258302e-05
-2.0875889651408334e-06   4.7206824964254185e-08   1.0602395060258302e-05
-2.0875889651408334e-06   4.7206824964254185e-08   1.0602395060258302e-05
-2.0875889651408334e-06   4.7206824964254185e-08   1.0602395060258302e-05
-3.5354704579378647e-06   1.7776562088709941e-06   2.6931703485738416e-05
-3.5354704579378647e-06   1.7776562088709941e-06   2.6931703485738416e-05
-3.5354704579378647e-06   1.7776562088709941e-06   2.6931703485738416e-05
-3.5354704579378647e-06   1.7776562088709941e-06   2.6931703485738416e-05
-9.130057487985308e-06   2.1295042133685597e-06   1.7818500571691043e-05
-9.130057487985308e-06   2.1295042133685597e-06   1.7818500571691043e-05
-9.130057487985308e-06   2.1295042133685597e-06   1.7818500571691043e-05
-9.130057487985308e-06   2.1295042133685597e-06   1.7818500571691043e-05
-9.426306867361858e-06   1.061976972142626e-06   2.6858820732780396e-05
-9.426306867361858e-06   1.061976972142626e-06   2.6858820732780396e-05
-9.426306867361858e-06   1.061976972142626e-06   2.6858820732780396e-05
-9.426306867361858e-06   1.061976972142626e-06   2.6858820732780396e-05
-3.928465456112611e-06   1.4697905779468938e-06   1.745106355054918e-05
-3.928465456112611e-06   1.4697905779468938e-06   1.745106355054918e-05
-3.928465456112611e-06   1.4697905779468938e-06   1.745106355054918e-05
-3.928465456112611e-06   1.4697905779468938e-06   1.745106355054918e-05
-6.543618116900495e-06   1.5333294470715794e-06   2.1771527997054273e-05
-6.543618116900495e-06   1.5333294470715794e-06   2.1771527997054273e-05
-6.543618116900495e-06   1.5333294470715794e-06   2.1771527997054273e-05
-6.543618116900495e-06   1.5333294470715794e-06   2.1771527997054273e-05
-3.9284654561126145e-06   1.061976972142626e-06   2.661413256929777e-05
-3.9284654561126145e-06   1.061976972142626e-06   2.661413256929777e-05
-3.9284654561126145e-06   1.061976972142626e-06   2.661413256929777e-05
-3.9284654561126145e-06   1.061976972142626e-06   2.661413256929777e-05
-9.42630686736183e-06   1.4697905779468938e-06   1.7695751714031597e-05
-9.42630686736183e-06   1.4697905779468938e-06   1.7695751714031597e-05
-9.42630686736183e-06   1.4697905779468938e-06   1.7695751714031597e-05
-9.42630686736183e-06   1.4697905779468938e-06   1.7695751714031597e-05
-9.73185271133708e-06   4.553018878349427e-07   2.6912082479549695e-05
-9.73185271133708e-06   4.553018878349427e-07   2.6912082479549695e-05
-9.73185271133708e-06   4.553018878349427e-07   2.6912082479549695e-05
-9.73185271133708e-06   4.553018878349427e-07   2.6912082479549695e-05
-4.4138784293524544e-06   8.606066765617319e-07   1.780560913633913e-05
-4.4138784293524544e-06   8.606066765617319e-07   1.780560913633913e-05
-4.4138784293524544e-06   8.606066765617319e-07   1.780560913633913e-05
-4.4138784293524544e-06   8.606066765617319e-07   1.780560913633913e-05
-6.846059671660166e-06   1.0510993216856016e-06   2.1744948953111268e-05
-6.846059671660166e-06   1.0510993216856016e-06   2.1744948953111268e-05
-6.846059671660166e-06   1.0510993216856016e-06   2.1744948953111268e-05
-6.846059671660166e-06   1.0510993216856016e-06   2.1744948953111268e-05
-4.413878429352465e-06   4.5530188783472585e-07   2.6668899606313253e-05
-4.413878429352465e-06   4.5530188783472585e-07   2.6668899606313253e-05
-4.413878429352465e-06   4.5530188783472585e-07   2.6668899606313253e-05
-4.413878429352465e-06   4.5530188783472585e-07   2.6668899606313253e-05
-9.73185271133708e-06   8.606066765617319e-07   1.804879200957522e-05
-9.73185271133708e-06   8.606066765617319e-07   1.804879200957522e-05
-9.73185271133708e-06   8.606066765617319e-07   1.804879200957522e-05
-9.73185271133708e-06   8.606066765617319e-07   1.804879200957522e-05
-1.0031527264676635e-05   -1.6484185009569066e-07   2.743518605941779e-05
-1.0031527264676635e-05   -1.6484185009569066e-07   2.743518605941779e-05
-1.0031527264676635e-05   -1.6484185009569066e-07   2.743518605941779e-05
-1.0031527264676635e-05   -1.6484185009569066e-07   2.743518605941779e-05
-4.81946324107451e-06   2.0040733736295495e-07   1.8529263174272432e-05
-4.81946324107451e-06   2.0040733736295495e-07   1.8529263174272432e-05
-4.81946324107451e-06   2.0040733736295495e-07   1.8529263174272432e-05
-4.81946324107451e-06   2.0040733736295495e-07   1.8529263174272432e-05
-7.148229209219399e-06   5.7693084702529e-07   2.2184625682049482e-05
-7.148229209219399e-06   5.7693084702529e-07   2.2184625682049482e-05
-7.148229209219399e-06   5.7693084702529e-07   2.2184625682049482e-05
-7.148229209219399e-06   5.7693084702529e-07   2.2184625682049482e-05
-9.130057487985308e-06   3.315448726990723e-06   3.0313143487357866e-05
-9.130057487985308e-06   3.315448726990723e-06   3.0313143487357866e-05
-9.130057487985308e-06   3.315448726990723e-06   3.0313143487357866e-05
-9.130057487985308e-06   3.315448726990723e-06   3.0313143487357866e-05
-1.4706627827753562e-05   2.5523292352090405e-06   2.0560987892675195e-05
-1.4706627827753562e-05   2.5523292352090405e-06   2.0560987892675195e-05
-1.4706627827753562e-05   2.5523292352090405e-06   2.0560987892675195e-05
-1.4706627827753562e-05   2.5523292352090405e-06   2.0560987892675195e-05
-1.4957271722573708e-05   2.6555014845050257e-06   2.97515371218656e-05
-1.4957271722573708e-05   2.6555014845050257e-06   2.97515371218656e-05
-1.4957271722573708e-05   2.6555014845050257e-06   2.97515371218656e-05
-1.4957271722573708e-05   2.6555014845050257e-06   2.97515371218656e-05
-9.42630686736183e-06   1.940810130763226e-06   2.0962077175424275e-05
-9.42630686736183e-06   1.940810130763226e-06   2.0962077175424275e-05
-9.42630686736183e-06   1.940810130763226e-06   2.0962077175424275e-05
-9.42630686736183e-06   1.940810130763226e-06   2.0962077175424275e-05
-1.2061034058807375e-05   2.5657182831930695e-06   2.497834426970903e-05
-1.2061034058807375e-05   2.5657182831930695e-06   2.497834426970903e-05
-1.2061034058807375e-05   2.5657182831930695e-06   2.497834426970903e-05
-1.2061034058807375e-05   2.5657182831930695e-06   2.497834426970903e-05
-9.42630686736183e-06   2.6555014845050257e-06   3.0180351934110637e-05
-9.42630686736183e-06   2.6555014845050257e-06   3.0180351934110637e-05
-9.42630686736183e-06   2.6555014845050257e-06   3.0180351934110637e-05
-9.42630686736183e-06   2.6555014845050257e-06   3.0180351934110637e-05
-1.4957271722573708e-05   1.940810130763226e-06   2.053326236317924e-05
-1.4957271722573708e-05   1.940810130763226e-06   2.053326236317924e-05
-1.4957271722573708e-05   1.940810130763226e-06   2.053326236317924e-05
-1.4957271722573708e-05   1.940810130763226e-06   2.053326236317924e-05
-1.5225886662020177e-05   1.9989292082604835e-06   3.0048549627385672e-05
-1.5225886662020177e-05   1.9989292082604835e-06   3.0048549627385672e-05
-1.5225886662020177e-05   1.9989292082604835e-06   3.0048549627385672e-05
-1.5225886662020177e-05   1.9989292082604835e-06   3.0048549627385672e-05
-9.73185271133708e-06   1.319277128747744e-06   2.1299617623954923e-05
-9.73185271133708e-06   1.319277128747744e-06   2.1299617623954923e-05
-9.73185271133708e-06   1.319277128747744e-06   2.1299617623954923e-05
-9.73185271133708e-06   1.319277128747744e-06   2.1299617623954923e-05
-1.2275179194362365e-05   2.075942395421068e-06   2.5084495935659597e-05
-1.2275179194362365e-05   2.075942395421068e-06   2.5084495935659597e-05
-1.2275179194362365e-05   2.075942395421068e-06   2.5084495935659597e-05
-1.2275179194362365e-05   2.075942395421068e-06   2.5084495935659597e-05
-9.73185271133708e-06   1.9989292082607003e-06   3.0456340875093337e-05
-9.73185271133708e-06   1.9989292082607003e-06   3.0456340875093337e-05
-9.73185271133708e-06   1.9989292082607003e-06   3.0456340875093337e-05
-9.73185271133708e-06   1.9989292082607003e-06   3.0456340875093337e-05
-1.5225886662020177e-05   1.3192771287475272e-06   2.0891826376247095e-05
-1.5225886662020177e-05   1.3192771287475272e-06   2.0891826376247095e-05
-1.5225886662020177e-05   1.3192771287475272e-06   2.0891826376247095e-05
-1.5225886662020177e-05   1.3192771287475272e-06   2.0891826376247095e-05
-1.5488953211012643e-05   1.3702035904980796e-06   3.0669130459682e-05
-1.5488953211012643e-05   1.3702035904980796e-06   3.0669130459682e-05
-1.5488953211012643e-05   1.3702035904980796e-06   3.0669130459682e-05
-1.5488953211012643e-05   1.3702035904980796e-06   3.0669130459682e-05
-1.0031527264676608e-05   7.299822422563752e-07   2.1957553358067396e-05
-1.0031527264676608e-05   7.299822422563752e-07   2.1957553358067396e-05
-1.0031527264676608e-05   7.299822422563752e-07   2.1957553358067396e-05
-1.0031527264676608e-05   7.299822422563752e-07   2.1957553358067396e-05
-1.2513783679279978e-05   1.5935041590511324e-06   2.557653423232941e-05
-1.2513783679279978e-05   1.5935041590511324e-06   2.557653423232941e-05
-1.2513783679279978e-05   1.5935041590511324e-06   2.557653423232941e-05
-1.2513783679279978e-05   1.5935041590511324e-06   2.557653423232941e-05
-1.470662782775367e-05   4.923798490445415e-06   2.6205060564024564e-05
-1.470662782775367e-05   4.923798490445415e-06   2.6205060564024564e-05
-1.470662782775367e-05   4.923798490445415e-06   2.6205060564024564e-05
-1.470662782775367e-05   4.923798490445415e-06   2.6205060564024564e-05
-2.019084770361998e-05   3.4496145231554393e-06   1.6180183723873e-05
-2.019084770361998e-05   3.4496145231554393e-06   1.6180183723873e-05
-2.019084770361998e-05   3.4496145231554393e-06   1.6180183723873e-05
-2.019084770361998e-05   3.4496145231554393e-06   1.6180183723873e-05
-2.0466220252376142e-05   4.258176657822741e-06   2.543277986904514e-05
-2.0466220252376142e-05   4.258176657822741e-06   2.543277986904514e-05
-2.0466220252376142e-05   4.258176657822741e-06   2.543277986904514e-05
-2.0466220252376142e-05   4.258176657822741e-06   2.543277986904514e-05
-1.4957271722573708e-05   2.8062248662668286e-06   1.712237006097449e-05
-1.4957271722573708e-05   2.8062248662668286e-06   1.712237006097449e-05
-1.4957271722573708e-05   2.8062248662668286e-06   1.712237006097449e-05
-1.4957271722573708e-05   2.8062248662668286e-06   1.712237006097449e-05
-1.754300597847953e-05   3.82681460169205e-06   2.0819573312895793e-05
-1.754300597847953e-05   3.82681460169205e-06   2.0819573312895793e-05
-1.754300597847953e-05   3.82681460169205e-06   2.0819573312895793e-05
-1.754300597847953e-05   3.82681460169205e-06   2.0819573312895793e-05
-1.4957271722573708e-05   4.2581766578225246e-06   2.630395094397849e-05
-1.4957271722573708e-05   4.2581766578225246e-06   2.630395094397849e-05
-1.4957271722573708e-05   4.2581766578225246e-06   2.630395094397849e-05
-1.4957271722573708e-05   4.2581766578225246e-06   2.630395094397849e-05
-2.0466220252376034e-05   2.8062248662668286e-06   1.6251198986041136e-05
-2.0466220252376034e-05   2.8062248662668286e-06   1.6251198986041136e-05
-2.0466220252376034e-05   2.8062248662668286e-06   1.6251198986041136e-05
-2.0466220252376034e-05   2.8062248662668286e-06   1.6251198986041136e-05
-2.0846938600980287e-05   3.653142010991454e-06   2.6277712817140064e-05
-2.0846938600980287e-05   3.653142010991454e-06   2.6277712817140064e-05
-2.0846938600980287e-05   3.653142010991454e-06   2.6277712817140064e-05
-2.0846938600980287e-05   3.653142010991454e-06   2.6277712817140064e-05
-1.5225886662020177e-05   2.233941509371907e-06   1.7760813219844837e-05
-1.5225886662020177e-05   2.233941509371907e-06   1.7760813219844837e-05
-1.5225886662020177e-05   2.233941509371907e-06   1.7760813219844837e-05
-1.5225886662020177e-05   2.233941509371907e-06   1.7760813219844837e-05
-1.7692706690864362e-05   3.3521318095065377e-06   2.120126575450433e-05
-1.7692706690864362e-05   3.3521318095065377e-06   2.120126575450433e-05
-1.7692706690864362e-05   3.3521318095065377e-06   2.120126575450433e-05
-1.7692706690864362e-05   3.3521318095065377e-06   2.120126575450433e-05
-1.5225886662020177e-05   3.6531420109912373e-06   2.712923311811127e-05
-1.5225886662020177e-05   3.6531420109912373e-06   2.712923311811127e-05
-1.5225886662020177e-05   3.6531420109912373e-06   2.712923311811127e-05
-1.5225886662020177e-05   3.6531420109912373e-06   2.712923311811127e-05
-2.0846938600980233e-05   2.233941509371907e-06   1.6909292918873087e-05
-2.0846938600980233e-05   2.233941509371907e-06   1.6909292918873087e-05
-2.0846938600980233e-05   2.233941509371907e-06   1.6909292918873087e-05
-2.0846938600980233e-05   2.233941509371907e-06   1.6909292918873087e-05
-2.115218849093334e-05   3.006699354195057e-06   2.721798181645795e-05
-2.115218849093334e-05   3.006699354195057e-06   2.721798181645795e-05
-2.115218849093334e-05   3.006699354195057e-06   2.721798181645795e-05
-2.115218849093334e-05   3.006699354195057e-06   2.721798181645795e-05
-1.548895321101259e-05   1.651058154370508e-06   1.859264106981827e-05
-1.548895321101259e-05   1.651058154370508e-06   1.859264106981827e-05
-1.548895321101259e-05   1.651058154370508e-06   1.859264106981827e-05
-1.548895321101259e-05   1.651058154370508e-06   1.859264106981827e-05
-1.8007952518798352e-05   2.9008638821092017e-06   2.2041089812818628e-05
-1.8007952518798352e-05   2.9008638821092017e-06   2.2041089812818628e-05
-1.8007952518798352e-05   2.9008638821092017e-06   2.2041089812818628e-05
-1.8007952518798352e-05   2.9008638821092017e-06   2.2041089812818628e-05
-2.019084770361998e-05   6.055674257975227e-06   1.1554753582263748e-05
-2.019084770361998e-05   6.055674257975227e-06   1.1554753582263748e-05
-2.019084770361998e-05   6.055674257975227e-06   1.1554753582263748e-05
-2.019084770361998e-05   6.055674257975227e-06   1.1554753582263748e-05
-2.4491644444781576e-05   4.07407929632164e-06   3.197802036669097e-06
-2.4491644444781576e-05   4.07407929632164e-06   3.197802036669097e-06
-2.4491644444781576e-05   4.07407929632164e-06   3.197802036669097e-06
-2.4491644444781576e-05   4.07407929632164e-06   3.197802036669097e-06
-2.553715050802516e-05   5.7142372515842435e-06   1.3544730065451769e-05
-2.553715050802516e-05   5.7142372515842435e-06   1.3544730065451769e-05
-2.553715050802516e-05   5.7142372515842435e-06   1.3544730065451769e-05
-2.553715050802516e-05   5.7142372515842435e-06   1.3544730065451769e-05
-2.0466220252376034e-05   3.645926295194014e-06   6.334166213203991e-06
-2.0466220252376034e-05   3.645926295194014e-06   6.334166213203991e-06
-2.0466220252376034e-05   3.645926295194014e-06   6.334166213203991e-06
-2.0466220252376034e-05   3.645926295194014e-06   6.334166213203991e-06
-2.188496103274905e-05   4.823719287787688e-06   7.99205838493606e-06
-2.188496103274905e-05   4.823719287787688e-06   7.99205838493606e-06
-2.188496103274905e-05   4.823719287787688e-06   7.99205838493606e-06
-2.188496103274905e-05   4.823719287787688e-06   7.99205838493606e-06
-2.0466220252376034e-05   5.71423725158446e-06   1.4785716639285581e-05
-2.0466220252376034e-05   5.71423725158446e-06   1.4785716639285581e-05
-2.0466220252376034e-05   5.71423725158446e-06   1.4785716639285581e-05
-2.0466220252376034e-05   5.71423725158446e-06   1.4785716639285581e-05
-2.5537150508025215e-05   3.645926295194014e-06   5.093179639369962e-06
-2.5537150508025215e-05   3.645926295194014e-06   5.093179639369962e-06
-2.5537150508025215e-05   3.645926295194014e-06   5.093179639369962e-06
-2.5537150508025215e-05   3.645926295194014e-06   5.093179639369962e-06
-2.643488815420544e-05   5.429231153170327e-06   1.59527679558253e-05
-2.643488815420544e-05   5.429231153170327e-06   1.59527679558253e-05
-2.643488815420544e-05   5.429231153170327e-06   1.59527679558253e-05
-2.643488815420544e-05   5.429231153170327e-06   1.59527679558253e-05
-2.0846938600980233e-05   3.3520052869545538e-06   7.885854220179194e-06
-2.0846938600980233e-05   3.3520052869545538e-06   7.885854220179194e-06
-2.0846938600980233e-05   3.3520052869545538e-06   7.885854220179194e-06
-2.0846938600980233e-05   3.3520052869545538e-06   7.885854220179194e-06
-2.2770619565925745e-05   4.655569640146795e-06   1.0309850549840424e-05
-2.2770619565925745e-05   4.655569640146795e-06   1.0309850549840424e-05
-2.2770619565925745e-05   4.655569640146795e-06   1.0309850549840424e-05
-2.2770619565925745e-05   4.655569640146795e-06   1.0309850549840424e-05
-2.0846938600980233e-05   5.429231153170327e-06   1.7199103475554374e-05
-2.0846938600980233e-05   5.429231153170327e-06   1.7199103475554374e-05
-2.0846938600980233e-05   5.429231153170327e-06   1.7199103475554374e-05
-2.0846938600980233e-05   5.429231153170327e-06   1.7199103475554374e-05
-2.6434888154205493e-05   3.3520052869547706e-06   6.639518700449795e-06
-2.6434888154205493e-05   3.3520052869547706e-06   6.639518700449795e-06
-2.6434888154205493e-05   3.3520052869547706e-06   6.639518700449795e-06
-2.6434888154205493e-05   3.3520052869547706e-06   6.639518700449795e-06
-2.7578288084137762e-05   4.654486788575798e-06   2.0311100376011826e-05
-2.7578288084137762e-05   4.654486788575798e-06   2.0311100376011826e-05
-2.7578288084137762e-05   4.654486788575798e-06   2.0311100376011826e-05
-2.7578288084137762e-05   4.654486788575798e-06   2.0311100376011826e-05
-2.1152188490933287e-05   2.6776818114896198e-06   1.0787017373589604e-05
-2.1152188490933287e-05   2.6776818114896198e-06   1.0787017373589604e-05
-2.1152188490933287e-05   2.6776818114896198e-06   1.0787017373589604e-05
-2.1152188490933287e-05   2.6776818114896198e-06   1.0787017373589604e-05
-2.302418501866349e-05   4.333999932655801e-06   1.2913220713773568e-05
-2.302418501866349e-05   4.333999932655801e-06   1.2913220713773568e-05
-2.302418501866349e-05   4.333999932655801e-06   1.2913220713773568e-05
-2.302418501866349e-05   4.333999932655801e-06   1.2913220713773568e-05
-1.0077063995211316e-05   1.8296069284162286e-06   1.1964905305553771e-05
-1.0077063995211316e-05   1.8296069284162286e-06   1.1964905305553771e-05
-1.0077063995211316e-05   1.8296069284162286e-06   1.1964905305553771e-05
-1.0077063995211316e-05   1.8296069284162286e-06   1.1964905305553771e-05
-1.099803871199313e-05   3.45169264680614e-06   1.1403198875284729e-05
-1.099803871199313e-05   3.45169264680614e-06   1.1403198875284729e-05
-1.099803871199313e-05   3.45169264680614e-06   1.1403198875284729e-05
-1.099803871199313e-05   3.45169264680614e-06   1.1403198875284729e-05
-1.127977513974557e-05   1.2389627891877617e-06   1.2859005369722726e-05
-1.127977513974557e-05   1.2389627891877617e-06   1.2859005369722726e-05
-1.127977513974557e-05   1.2389627891877617e-06   1.2859005369722726e-05
-1.127977513974557e-05   1.2389627891877617e-06   1.2859005369722726e-05
-1.1264915828840288e-05   2.6974980023717265e-06   1.1959118723636769e-05
-1.1264915828840288e-05   2.6974980023717265e-06   1.1959118723636769e-05
-1.1264915828840288e-05   2.6974980023717265e-06   1.1959118723636769e-05
-1.1264915828840288e-05   2.6974980023717265e-06   1.1959118723636769e-05
-1.0633418647479932e-05   2.1543656900579675e-06   1.1232502808757822e-05
-1.0633418647479932e-05   2.1543656900579675e-06   1.1232502808757822e-05
-1.0633418647479932e-05   2.1543656900579675e-06   1.1232502808757822e-05
-1.0633418647479932e-05   2.1543656900579675e-06   1.1232502808757822e-05
-1.1264915828840315e-05   1.2389627891875449e-06   1.1983884241812065e-05
-1.1264915828840315e-05   1.2389627891875449e-06   1.1983884241812065e-05
-1.1264915828840315e-05   1.2389627891875449e-06   1.1983884241812065e-05
-1.1264915828840315e-05   1.2389627891875449e-06   1.1983884241812065e-05
-1.127977513974557e-05   2.6974980023717265e-06   1.283423985154724e-05
-1.127977513974557e-05   2.6974980023717265e-06   1.283423985154724e-05
-1.127977513974557e-05   2.6974980023717265e-06   1.283423985154724e-05
-1.127977513974557e-05   2.6974980023717265e-06   1.283423985154724e-05
-1.1645483820036227e-05   9.136206553571422e-07   1.326922729109328e-05
-1.1645483820036227e-05   9.136206553571422e-07   1.326922729109328e-05
-1.1645483820036227e-05   9.136206553571422e-07   1.326922729109328e-05
-1.1645483820036227e-05   9.136206553571422e-07   1.326922729109328e-05
-1.2419954895657382e-05   2.175809427865864e-06   1.3802699153623086e-05
-1.2419954895657382e-05   2.175809427865864e-06   1.3802699153623086e-05
-1.2419954895657382e-05   2.175809427865864e-06   1.3802699153623086e-05
-1.2419954895657382e-05   2.175809427865864e-06   1.3802699153623086e-05
-1.1340561129998334e-05   1.8289701121169911e-06   1.2211813133640331e-05
-1.1340561129998334e-05   1.8289701121169911e-06   1.2211813133640331e-05
-1.1340561129998334e-05   1.8289701121169911e-06   1.2211813133640331e-05
-1.1340561129998334e-05   1.8289701121169911e-06   1.2211813133640331e-05
-1.2419954895657396e-05   9.136206553571422e-07   1.2511914027587764e-05
-1.2419954895657396e-05   9.136206553571422e-07   1.2511914027587764e-05
-1.2419954895657396e-05   9.136206553571422e-07   1.2511914027587764e-05
-1.2419954895657396e-05   9.136206553571422e-07   1.2511914027587764e-05
-1.1645483820036227e-05   2.175809427865864e-06   1.4560012417128357e-05
-1.1645483820036227e-05   2.175809427865864e-06   1.4560012417128357e-05
-1.1645483820036227e-05   2.175809427865864e-06   1.4560012417128357e-05
-1.1645483820036227e-05   2.175809427865864e-06   1.4560012417128357e-05
-1.1877840772271745e-05   2.2337632555290143e-07   1.4589841938105353e-05
-1.1877840772271745e-05   2.2337632555290143e-07   1.4589841938105353e-05
-1.1877840772271745e-05   2.2337632555290143e-07   1.4589841938105353e-05
-1.1877840772271745e-05   2.2337632555290143e-07   1.4589841938105353e-05
-1.3649591248332456e-05   8.924943011282991e-07   1.714128861286091e-05
-1.3649591248332456e-05   8.924943011282991e-07   1.714128861286091e-05
-1.3649591248332456e-05   8.924943011282991e-07   1.714128861286091e-05
-1.3649591248332456e-05   8.924943011282991e-07   1.714128861286091e-05
-1.1835379180875308e-05   1.4292199350818139e-06   1.3795566453393224e-05
-1.1835379180875308e-05   1.4292199350818139e-06   1.3795566453393224e-05
-1.1835379180875308e-05   1.4292199350818139e-06   1.3795566453393224e-05
-1.1835379180875308e-05   1.4292199350818139e-06   1.3795566453393224e-05
-1.099803871199311e-05   2.1295042133685597e-06   2.3831882563428897e-05
-1.099803871199311e-05   2.1295042133685597e-06   2.3831882563428897e-05
-1.099803871199311e-05   2.1295042133685597e-06   2.3831882563428897e-05
-1.099803871199311e-05   2.1295042133685597e-06   2.3831882563428897e-05
-1.1134480652121232e-05   8.932313093695191e-07   2.2862715587482674e-05
-1.1134480652121232e-05   8.932313093695191e-07   2.2862715587482674e-05
-1.1134480652121232e-05   8.932313093695191e-07   2.2862715587482674e-05
-1.1134480652121232e-05   8.932313093695191e-07   2.2862715587482674e-05
-1.1220971519883792e-05   1.4697905779468938e-06   2.2930214721394093e-05
-1.1220971519883792e-05   1.4697905779468938e-06   2.2930214721394093e-05
-1.1220971519883792e-05   1.4697905779468938e-06   2.2930214721394093e-05
-1.1220971519883792e-05   1.4697905779468938e-06   2.2930214721394093e-05
-1.127977513974557e-05   4.286940351639918e-07   2.3652878680166682e-05
-1.127977513974557e-05   4.286940351639918e-07   2.3652878680166682e-05
-1.127977513974557e-05   4.286940351639918e-07   2.3652878680166682e-05
-1.127977513974557e-05   4.286940351639918e-07   2.3652878680166682e-05
-1.112386176079002e-05   1.0881370963273466e-06   2.2997357211876124e-05
-1.112386176079002e-05   1.0881370963273466e-06   2.2997357211876124e-05
-1.112386176079002e-05   1.0881370963273466e-06   2.2997357211876124e-05
-1.112386176079002e-05   1.0881370963273466e-06   2.2997357211876124e-05
-1.1279775139745564e-05   1.469790577946677e-06   2.3554872647063184e-05
-1.1279775139745564e-05   1.469790577946677e-06   2.3554872647063184e-05
-1.1279775139745564e-05   1.469790577946677e-06   2.3554872647063184e-05
-1.1279775139745564e-05   1.469790577946677e-06   2.3554872647063184e-05
-1.1220971519883765e-05   4.286940351639918e-07   2.3028220754496955e-05
-1.1220971519883765e-05   4.286940351639918e-07   2.3028220754496955e-05
-1.1220971519883765e-05   4.286940351639918e-07   2.3028220754496955e-05
-1.1220971519883765e-05   4.286940351639918e-07   2.3028220754496955e-05
-1.1328254047771193e-05   8.606066765617319e-07   2.3247170584505834e-05
-1.1328254047771193e-05   8.606066765617319e-07   2.3247170584505834e-05
-1.1328254047771193e-05   8.606066765617319e-07   2.3247170584505834e-05
-1.1328254047771193e-05   8.606066765617319e-07   2.3247170584505834e-05
-1.1645483820036227e-05   -1.1034597585798597e-07   2.4358458463065783e-05
-1.1645483820036227e-05   -1.1034597585798597e-07   2.4358458463065783e-05
-1.1645483820036227e-05   -1.1034597585798597e-07   2.4358458463065783e-05
-1.1645483820036227e-05   -1.1034597585798597e-07   2.4358458463065783e-05
-1.1229981617061392e-05   7.031330842971733e-07   2.317786735534774e-05
-1.1229981617061392e-05   7.031330842971733e-07   2.317786735534774e-05
-1.1229981617061392e-05   7.031330842971733e-07   2.317786735534774e-05
-1.1229981617061392e-05   7.031330842971733e-07   2.317786735534774e-05
-1.1645483820036227e-05   8.606066765617319e-07   2.3829742175957144e-05
-1.1645483820036227e-05   8.606066765617319e-07   2.3829742175957144e-05
-1.1645483820036227e-05   8.606066765617319e-07   2.3829742175957144e-05
-1.1645483820036227e-05   8.606066765617319e-07   2.3829742175957144e-05
-1.1328254047771166e-05   -1.1034597585798597e-07   2.3775886871613985e-05
-1.1328254047771166e-05   -1.1034597585798597e-07   2.3775886871613985e-05
-1.1328254047771166e-05   -1.1034597585798597e-07   2.3775886871613985e-05
-1.1328254047771166e-05   -1.1034597585798597e-07   2.3775886871613985e-05
-1.140595950649916e-05   2.0040733736295495e-07   2.3918460102187412e-05
-1.140595950649916e-05   2.0040733736295495e-07   2.3918460102187412e-05
-1.140595950649916e-05   2.0040733736295495e-07   2.3918460102187412e-05
-1.140595950649916e-05   2.0040733736295495e-07   2.3918460102187412e-05
-1.1877840772271732e-05   -8.189211633691934e-07   2.531652597891411e-05
-1.1877840772271732e-05   -8.189211633691934e-07   2.531652597891411e-05
-1.1877840772271732e-05   -8.189211633691934e-07   2.531652597891411e-05
-1.1877840772271732e-05   -8.189211633691934e-07   2.531652597891411e-05
-1.13982928962813e-05   2.504698149686461e-07   2.3875644931926736e-05
-1.13982928962813e-05   2.504698149686461e-07   2.3875644931926736e-05
-1.13982928962813e-05   2.504698149686461e-07   2.3875644931926736e-05
-1.13982928962813e-05   2.504698149686461e-07   2.3875644931926736e-05
-1.1134480652121286e-05   2.5523292352090405e-06   2.6290477837082613e-05
-1.1134480652121286e-05   2.5523292352090405e-06   2.6290477837082613e-05
-1.1134480652121286e-05   2.5523292352090405e-06   2.6290477837082613e-05
-1.1134480652121286e-05   2.5523292352090405e-06   2.6290477837082613e-05
-1.1979988079204246e-05   2.4822680814388237e-07   2.349883733570511e-05
-1.1979988079204246e-05   2.4822680814388237e-07   2.349883733570511e-05
-1.1979988079204246e-05   2.4822680814388237e-07   2.349883733570511e-05
-1.1979988079204246e-05   2.4822680814388237e-07   2.349883733570511e-05
-1.2008394345272566e-05   1.940810130763226e-06   2.494541207900998e-05
-1.2008394345272566e-05   1.940810130763226e-06   2.494541207900998e-05
-1.2008394345272566e-05   1.940810130763226e-06   2.494541207900998e-05
-1.2008394345272566e-05   1.940810130763226e-06   2.494541207900998e-05
-1.1220971519883765e-05   -1.4440337553120984e-07   2.4884168807138597e-05
-1.1220971519883765e-05   -1.4440337553120984e-07   2.4884168807138597e-05
-1.1220971519883765e-05   -1.4440337553120984e-07   2.4884168807138597e-05
-1.1220971519883765e-05   -1.4440337553120984e-07   2.4884168807138597e-05
-1.1566004209946564e-05   1.1105890825078386e-06   2.4706227815753123e-05
-1.1566004209946564e-05   1.1105890825078386e-06   2.4706227815753123e-05
-1.1566004209946564e-05   1.1105890825078386e-06   2.4706227815753123e-05
-1.1566004209946564e-05   1.1105890825078386e-06   2.4706227815753123e-05
-1.1220971519883792e-05   1.940810130763226e-06   2.6196540182786554e-05
-1.1220971519883792e-05   1.940810130763226e-06   2.6196540182786554e-05
-1.1220971519883792e-05   1.940810130763226e-06   2.6196540182786554e-05
-1.1220971519883792e-05   1.940810130763226e-06   2.6196540182786554e-05
-1.2008394345272512e-05   -1.4440337553120984e-07   2.3633040703361914e-05
-1.2008394345272512e-05   -1.4440337553120984e-07   2.3633040703361914e-05
-1.2008394345272512e-05   -1.4440337553120984e-07   2.3633040703361914e-05
-1.2008394345272512e-05   -1.4440337553120984e-07   2.3633040703361914e-05
-1.2060785640407917e-05   1.3192771287475272e-06   2.5337679910692368e-05
-1.2060785640407917e-05   1.3192771287475272e-06   2.5337679910692368e-05
-1.2060785640407917e-05   1.3192771287475272e-06   2.5337679910692368e-05
-1.2060785640407917e-05   1.3192771287475272e-06   2.5337679910692368e-05
-1.1328254047771166e-05   -6.145833515740955e-07   2.5277110211157294e-05
-1.1328254047771166e-05   -6.145833515740955e-07   2.5277110211157294e-05
-1.1328254047771166e-05   -6.145833515740955e-07   2.5277110211157294e-05
-1.1328254047771166e-05   -6.145833515740955e-07   2.5277110211157294e-05
-1.1571495557552786e-05   7.215961180288225e-07   2.4880805045697605e-05
-1.1571495557552786e-05   7.215961180288225e-07   2.4880805045697605e-05
-1.1571495557552786e-05   7.215961180288225e-07   2.4880805045697605e-05
-1.1571495557552786e-05   7.215961180288225e-07   2.4880805045697605e-05
-1.1328254047771193e-05   1.3192771287475272e-06   2.6497996198885103e-05
-1.1328254047771193e-05   1.3192771287475272e-06   2.6497996198885103e-05
-1.1328254047771193e-05   1.3192771287475272e-06   2.6497996198885103e-05
-1.1328254047771193e-05   1.3192771287475272e-06   2.6497996198885103e-05
-1.2060785640407808e-05   -6.145833515742039e-07   2.4116793922964288e-05
-1.2060785640407808e-05   -6.145833515742039e-07   2.4116793922964288e-05
-1.2060785640407808e-05   -6.145833515742039e-07   2.4116793922964288e-05
-1.2060785640407808e-05   -6.145833515742039e-07   2.4116793922964288e-05
-1.2093933514676226e-05   7.299822422561584e-07   2.603749356888457e-05
-1.2093933514676226e-05   7.299822422561584e-07   2.603749356888457e-05
-1.2093933514676226e-05   7.299822422561584e-07   2.603749356888457e-05
-1.2093933514676226e-05   7.299822422561584e-07   2.603749356888457e-05
-1.1405959506499133e-05   -1.0868630987813247e-06   2.5980977426545075e-05
-1.1405959506499133e-05   -1.0868630987813247e-06   2.5980977426545075e-05
-1.1405959506499133e-05   -1.0868630987813247e-06   2.5980977426545075e-05
-1.1405959506499133e-05   -1.0868630987813247e-06   2.5980977426545075e-05
-1.1596170497155282e-05   3.2164614919942547e-07   2.545289019551607e-05
-1.1596170497155282e-05   3.2164614919942547e-07   2.545289019551607e-05
-1.1596170497155282e-05   3.2164614919942547e-07   2.545289019551607e-05
-1.1596170497155282e-05   3.2164614919942547e-07   2.545289019551607e-05
-1.1979988079204246e-05   3.4496145231554393e-06   2.1411722592415416e-05
-1.1979988079204246e-05   3.4496145231554393e-06   2.1411722592415416e-05
-1.1979988079204246e-05   3.4496145231554393e-06   2.1411722592415416e-05
-1.1979988079204246e-05   3.4496145231554393e-06   2.1411722592415416e-05
-1.3206410140074716e-05   1.1323812350705733e-06   1.797734585144733e-05
-1.3206410140074716e-05   1.1323812350705733e-06   1.797734585144733e-05
-1.3206410140074716e-05   1.1323812350705733e-06   1.797734585144733e-05
-1.3206410140074716e-05   1.1323812350705733e-06   1.797734585144733e-05
-1.3227127071421352e-05   2.8062248662670455e-06   2.021989299784313e-05
-1.3227127071421352e-05   2.8062248662670455e-06   2.021989299784313e-05
-1.3227127071421352e-05   2.8062248662670455e-06   2.021989299784313e-05
-1.3227127071421352e-05   2.8062248662670455e-06   2.021989299784313e-05
-1.2008394345272566e-05   6.15180234663816e-07   1.9503298566557145e-05
-1.2008394345272566e-05   6.15180234663816e-07   1.9503298566557145e-05
-1.2008394345272566e-05   6.15180234663816e-07   1.9503298566557145e-05
-1.2008394345272566e-05   6.15180234663816e-07   1.9503298566557145e-05
-1.2572503840695484e-05   2.048467991963912e-06   1.9583508404548487e-05
-1.2572503840695484e-05   2.048467991963912e-06   1.9583508404548487e-05
-1.2572503840695484e-05   2.048467991963912e-06   1.9583508404548487e-05
-1.2572503840695484e-05   2.048467991963912e-06   1.9583508404548487e-05
-1.2008394345272566e-05   2.8062248662670455e-06   2.1534519776805067e-05
-1.2008394345272566e-05   2.8062248662670455e-06   2.1534519776805067e-05
-1.2008394345272566e-05   2.8062248662670455e-06   2.1534519776805067e-05
-1.2008394345272566e-05   2.8062248662670455e-06   2.1534519776805067e-05
-1.3227127071421352e-05   6.15180234663816e-07   1.8188671787595207e-05
-1.3227127071421352e-05   6.15180234663816e-07   1.8188671787595207e-05
-1.3227127071421352e-05   6.15180234663816e-07   1.8188671787595207e-05
-1.3227127071421352e-05   6.15180234663816e-07   1.8188671787595207e-05
-1.336976534099891e-05   2.233941509372124e-06   2.096971896469314e-05
-1.336976534099891e-05   2.233941509372124e-06   2.096971896469314e-05
-1.336976534099891e-05   2.233941509372124e-06   2.096971896469314e-05
-1.336976534099891e-05   2.233941509372124e-06   2.096971896469314e-05
-1.2060785640407863e-05   1.7236186004355482e-07   2.0025033919971553e-05
-1.2060785640407863e-05   1.7236186004355482e-07   2.0025033919971553e-05
-1.2060785640407863e-05   1.7236186004355482e-07   2.0025033919971553e-05
-1.2060785640407863e-05   1.7236186004355482e-07   2.0025033919971553e-05
-1.253573307680194e-05   1.6234526045757472e-06   1.9945958533908116e-05
-1.253573307680194e-05   1.6234526045757472e-06   1.9945958533908116e-05
-1.253573307680194e-05   1.6234526045757472e-06   1.9945958533908116e-05
-1.253573307680194e-05   1.6234526045757472e-06   1.9945958533908116e-05
-1.2060785640407808e-05   2.233941509372124e-06   2.220666675428946e-05
-1.2060785640407808e-05   2.233941509372124e-06   2.220666675428946e-05
-1.2060785640407808e-05   2.233941509372124e-06   2.220666675428946e-05
-1.2060785640407808e-05   2.233941509372124e-06   2.220666675428946e-05
-1.336976534099891e-05   1.7236186004355482e-07   1.878808613037453e-05
-1.336976534099891e-05   1.7236186004355482e-07   1.878808613037453e-05
-1.336976534099891e-05   1.7236186004355482e-07   1.878808613037453e-05
-1.336976534099891e-05   1.7236186004355482e-07   1.878808613037453e-05
-1.3454534534330085e-05   1.651058154370725e-06   2.1901682781812594e-05
-1.3454534534330085e-05   1.651058154370725e-06   2.1901682781812594e-05
-1.3454534534330085e-05   1.651058154370725e-06   2.1901682781812594e-05
-1.3454534534330085e-05   1.651058154370725e-06   2.1901682781812594e-05
-1.2093933514676226e-05   -2.7399402524283e-07   2.0789045723490648e-05
-1.2093933514676226e-05   -2.7399402524283e-07   2.0789045723490648e-05
-1.2093933514676226e-05   -2.7399402524283e-07   2.0789045723490648e-05
-1.2093933514676226e-05   -2.7399402524283e-07   2.0789045723490648e-05
-1.2597666700170888e-05   1.2439204459228784e-06   2.071785234994861e-05
-1.2597666700170888e-05   1.2439204459228784e-06   2.071785234994861e-05
-1.2597666700170888e-05   1.2439204459228784e-06   2.071785234994861e-05
-1.2597666700170888e-05   1.2439204459228784e-06   2.071785234994861e-05
-1.3206410140074662e-05   4.0740792963214235e-06   8.227957909352724e-06
-1.3206410140074662e-05   4.0740792963214235e-06   8.227957909352724e-06
-1.3206410140074662e-05   4.0740792963214235e-06   8.227957909352724e-06
-1.3206410140074662e-05   4.0740792963214235e-06   8.227957909352724e-06
-1.3029545845104806e-05   1.8648063990344289e-06   7.197167995930175e-06
-1.3029545845104806e-05   1.8648063990344289e-06   7.197167995930175e-06
-1.3029545845104806e-05   1.8648063990344289e-06   7.197167995930175e-06
-1.3029545845104806e-05   1.8648063990344289e-06   7.197167995930175e-06
-1.3699486131734523e-05   3.645926295194231e-06   9.014693760299106e-06
-1.3699486131734523e-05   3.645926295194231e-06   9.014693760299106e-06
-1.3699486131734523e-05   3.645926295194231e-06   9.014693760299106e-06
-1.3699486131734523e-05   3.645926295194231e-06   9.014693760299106e-06
-1.3227127071421352e-05   1.498982187349198e-06   9.515595124484177e-06
-1.3227127071421352e-05   1.498982187349198e-06   9.515595124484177e-06
-1.3227127071421352e-05   1.498982187349198e-06   9.515595124484177e-06
-1.3227127071421352e-05   1.498982187349198e-06   9.515595124484177e-06
-1.2858976820074837e-05   2.865695683130576e-06   8.081983274771127e-06
-1.2858976820074837e-05   2.865695683130576e-06   8.081983274771127e-06
-1.2858976820074837e-05   2.865695683130576e-06   8.081983274771127e-06
-1.2858976820074837e-05   2.865695683130576e-06   8.081983274771127e-06
-1.3227127071421298e-05   3.645926295194014e-06   1.0302860225005822e-05
-1.3227127071421298e-05   3.645926295194014e-06   1.0302860225005822e-05
-1.3227127071421298e-05   3.645926295194014e-06   1.0302860225005822e-05
-1.3227127071421298e-05   3.645926295194014e-06   1.0302860225005822e-05
-1.3699486131734523e-05   1.4989821873490896e-06   8.227428659777244e-06
-1.3699486131734523e-05   1.4989821873490896e-06   8.227428659777244e-06
-1.3699486131734523e-05   1.4989821873490896e-06   8.227428659777244e-06
-1.3699486131734523e-05   1.4989821873490896e-06   8.227428659777244e-06
-1.4287854828241376e-05   3.3520052869547706e-06   1.0690914329926707e-05
-1.4287854828241376e-05   3.3520052869547706e-06   1.0690914329926707e-05
-1.4287854828241376e-05   3.3520052869547706e-06   1.0690914329926707e-05
-1.4287854828241376e-05   3.3520052869547706e-06   1.0690914329926707e-05
-1.3369765340998855e-05   1.2597287268342836e-06   1.0416131120594596e-05
-1.3369765340998855e-05   1.2597287268342836e-06   1.0416131120594596e-05
-1.3369765340998855e-05   1.2597287268342836e-06   1.0416131120594596e-05
-1.3369765340998855e-05   1.2597287268342836e-06   1.0416131120594596e-05
-1.3336065961254412e-05   2.6517192435720344e-06   9.524771177643891e-06
-1.3336065961254412e-05   2.6517192435720344e-06   9.524771177643891e-06
-1.3336065961254412e-05   2.6517192435720344e-06   9.524771177643891e-06
-1.3336065961254412e-05   2.6517192435720344e-06   9.524771177643891e-06
-1.3369765340998801e-05   3.3520052869545538e-06   1.1946280265998652e-05
-1.3369765340998801e-05   3.3520052869545538e-06   1.1946280265998652e-05
-1.3369765340998801e-05   3.3520052869545538e-06   1.1946280265998652e-05
-1.3369765340998801e-05   3.3520052869545538e-06   1.1946280265998652e-05
-1.4287854828241484e-05   1.2597287268342836e-06   9.160765184522488e-06
-1.4287854828241484e-05   1.2597287268342836e-06   9.160765184522488e-06
-1.4287854828241484e-05   1.2597287268342836e-06   9.160765184522488e-06
-1.4287854828241484e-05   1.2597287268342836e-06   9.160765184522488e-06
-1.5163507739463541e-05   2.6776818114896198e-06   1.3770294891024331e-05
-1.5163507739463541e-05   2.6776818114896198e-06   1.3770294891024331e-05
-1.5163507739463541e-05   2.6776818114896198e-06   1.3770294891024331e-05
-1.5163507739463541e-05   2.6776818114896198e-06   1.3770294891024331e-05
-1.345453453433014e-05   7.791002873992758e-07   1.2061155130256031e-05
-1.345453453433014e-05   7.791002873992758e-07   1.2061155130256031e-05
-1.345453453433014e-05   7.791002873992758e-07   1.2061155130256031e-05
-1.345453453433014e-05   7.791002873992758e-07   1.2061155130256031e-05
-1.34972832363253e-05   2.3977632258926533e-06   1.1161205203817463e-05
-1.34972832363253e-05   2.3977632258926533e-06   1.1161205203817463e-05
-1.34972832363253e-05   2.3977632258926533e-06   1.1161205203817463e-05
-1.34972832363253e-05   2.3977632258926533e-06   1.1161205203817463e-05
-2.606918849494293e-05   3.45169264680614e-06   9.999595072096752e-06
-2.606918849494293e-05   3.45169264680614e-06   9.999595072096752e-06
-2.606918849494293e-05   3.45169264680614e-06   9.999595072096752e-06
-2.606918849494293e-05   3.45169264680614e-06   9.999595072096752e-06
-1.758619304664285e-05   4.781163330090969e-06   2.493560322923454e-05
-1.758619304664285e-05   4.781163330090969e-06   2.493560322923454e-05
-1.758619304664285e-05   4.781163330090969e-06   2.493560322923454e-05
-1.758619304664285e-05   4.781163330090969e-06   2.493560322923454e-05
-1.757681432459589e-05   2.6974980023717265e-06   1.1372200377507066e-05
-1.757681432459589e-05   2.6974980023717265e-06   1.1372200377507066e-05
-1.757681432459589e-05   2.6974980023717265e-06   1.1372200377507066e-05
-1.757681432459589e-05   2.6974980023717265e-06   1.1372200377507066e-05
-2.8707534521801043e-05   1.944177172342478e-06   3.0375393204200096e-05
-2.8707534521801043e-05   1.944177172342478e-06   3.0375393204200096e-05
-2.8707534521801043e-05   1.944177172342478e-06   3.0375393204200096e-05
-2.8707534521801043e-05   1.944177172342478e-06   3.0375393204200096e-05
-2.1324942786832677e-05   2.8349369042734085e-06   1.75366178067609e-05
-2.1324942786832677e-05   2.8349369042734085e-06   1.75366178067609e-05
-2.1324942786832677e-05   2.8349369042734085e-06   1.75366178067609e-05
-2.1324942786832677e-05   2.8349369042734085e-06   1.75366178067609e-05
-2.870753452180109e-05   2.697498002371618e-06   1.1824192875524594e-05
-2.870753452180109e-05   2.697498002371618e-06   1.1824192875524594e-05
-2.870753452180109e-05   2.697498002371618e-06   1.1824192875524594e-05
-2.870753452180109e-05   2.697498002371618e-06   1.1824192875524594e-05
-1.757681432459589e-05   1.944177172342478e-06   2.9923400706182595e-05
-1.757681432459589e-05   1.944177172342478e-06   2.9923400706182595e-05
-1.757681432459589e-05   1.944177172342478e-06   2.9923400706182595e-05
-1.757681432459589e-05   1.944177172342478e-06   2.9923400706182595e-05
-1.781411369821043e-05   2.175809427865864e-06   1.2726440722880187e-05
-1.781411369821043e-05   2.175809427865864e-06   1.2726440722880187e-05
-1.781411369821043e-05   2.175809427865864e-06   1.2726440722880187e-05
-1.781411369821043e-05   2.175809427865864e-06   1.2726440722880187e-05
-2.8806329071014763e-05   1.39769186566441e-06   3.151367021487487e-05
-2.8806329071014763e-05   1.39769186566441e-06   3.151367021487487e-05
-2.8806329071014763e-05   1.39769186566441e-06   3.151367021487487e-05
-2.8806329071014763e-05   1.39769186566441e-06   3.151367021487487e-05
-2.2751520222302596e-05   1.7737938998502092e-06   2.1196660913176236e-05
-2.2751520222302596e-05   1.7737938998502092e-06   2.1196660913176236e-05
-2.2751520222302596e-05   1.7737938998502092e-06   2.1196660913176236e-05
-2.2751520222302596e-05   1.7737938998502092e-06   2.1196660913176236e-05
-2.8806329071014804e-05   2.175809427865864e-06   1.3193311260201093e-05
-2.8806329071014804e-05   2.175809427865864e-06   1.3193311260201093e-05
-2.8806329071014804e-05   2.175809427865864e-06   1.3193311260201093e-05
-2.8806329071014804e-05   2.175809427865864e-06   1.3193311260201093e-05
-1.7814113698210402e-05   1.39769186566441e-06   3.104679967755401e-05
-1.7814113698210402e-05   1.39769186566441e-06   3.104679967755401e-05
-1.7814113698210402e-05   1.39769186566441e-06   3.104679967755401e-05
-1.7814113698210402e-05   1.39769186566441e-06   3.104679967755401e-05
-1.762151781271437e-05   8.924943011282991e-07   1.5095616019874288e-05
-1.762151781271437e-05   8.924943011282991e-07   1.5095616019874288e-05
-1.762151781271437e-05   8.924943011282991e-07   1.5095616019874288e-05
-1.762151781271437e-05   8.924943011282991e-07   1.5095616019874288e-05
-2.9114225652728727e-05   -9.247742790584779e-07   3.5340490234676866e-05
-2.9114225652728727e-05   -9.247742790584779e-07   3.5340490234676866e-05
-2.9114225652728727e-05   -9.247742790584779e-07   3.5340490234676866e-05
-2.9114225652728727e-05   -9.247742790584779e-07   3.5340490234676866e-05
-2.2401765088555554e-05   8.63410405033127e-07   2.3080145150600018e-05
-2.2401765088555554e-05   8.63410405033127e-07   2.3080145150600018e-05
-2.2401765088555554e-05   8.63410405033127e-07   2.3080145150600018e-05
-2.2401765088555554e-05   8.63410405033127e-07   2.3080145150600018e-05
-1.7586193046642884e-05   8.932313093695191e-07   2.299855793666506e-05
-1.7586193046642884e-05   8.932313093695191e-07   2.299855793666506e-05
-1.7586193046642884e-05   8.932313093695191e-07   2.299855793666506e-05
-1.7586193046642884e-05   8.932313093695191e-07   2.299855793666506e-05
-1.0784223132054998e-05   -5.37551033230366e-06   3.057392947597426e-05
-1.0784223132054998e-05   -5.37551033230366e-06   3.057392947597426e-05
-1.0784223132054998e-05   -5.37551033230366e-06   3.057392947597426e-05
-1.0784223132054998e-05   -5.37551033230366e-06   3.057392947597426e-05
-1.0804553010561606e-05   4.2869403516410023e-07   1.9293463888891526e-05
-1.0804553010561606e-05   4.2869403516410023e-07   1.9293463888891526e-05
-1.0804553010561606e-05   4.2869403516410023e-07   1.9293463888891526e-05
-1.0804553010561606e-05   4.2869403516410023e-07   1.9293463888891526e-05
-1.757681432459589e-05   -4.400264826894408e-06   3.347794139618394e-05
-1.757681432459589e-05   -4.400264826894408e-06   3.347794139618394e-05
-1.757681432459589e-05   -4.400264826894408e-06   3.347794139618394e-05
-1.757681432459589e-05   -4.400264826894408e-06   3.347794139618394e-05
-1.4112106893458813e-05   -2.657910520720329e-06   2.665801642725112e-05
-1.4112106893458813e-05   -2.657910520720329e-06   2.665801642725112e-05
-1.4112106893458813e-05   -2.657910520720329e-06   2.665801642725112e-05
-1.4112106893458813e-05   -2.657910520720329e-06   2.665801642725112e-05
-1.7576814324595896e-05   4.2869403516410023e-07   2.2190839206126414e-05
-1.7576814324595896e-05   4.2869403516410023e-07   2.2190839206126414e-05
-1.7576814324595896e-05   4.2869403516410023e-07   2.2190839206126414e-05
-1.7576814324595896e-05   4.2869403516410023e-07   2.2190839206126414e-05
-1.0804553010561579e-05   -4.400264826894408e-06   3.058056607894885e-05
-1.0804553010561579e-05   -4.400264826894408e-06   3.058056607894885e-05
-1.0804553010561579e-05   -4.400264826894408e-06   3.058056607894885e-05
-1.0804553010561579e-05   -4.400264826894408e-06   3.058056607894885e-05
-1.0844852978606021e-05   -1.1034597585798597e-07   1.989079386495381e-05
-1.0844852978606021e-05   -1.1034597585798597e-07   1.989079386495381e-05
-1.0844852978606021e-05   -1.1034597585798597e-07   1.989079386495381e-05
-1.0844852978606021e-05   -1.1034597585798597e-07   1.989079386495381e-05
-1.7814113698210402e-05   -4.500500815630992e-06   3.4140321301491443e-05
-1.7814113698210402e-05   -4.500500815630992e-06   3.4140321301491443e-05
-1.7814113698210402e-05   -4.500500815630992e-06   3.4140321301491443e-05
-1.7814113698210402e-05   -4.500500815630992e-06   3.4140321301491443e-05
-1.4007587598702364e-05   -2.322102790487516e-06   2.648907232055838e-05
-1.4007587598702364e-05   -2.322102790487516e-06   2.648907232055838e-05
-1.4007587598702364e-05   -2.322102790487516e-06   2.648907232055838e-05
-1.4007587598702364e-05   -2.322102790487516e-06   2.648907232055838e-05
-1.781411369821043e-05   -1.1034597585798597e-07   2.2524886768817613e-05
-1.781411369821043e-05   -1.1034597585798597e-07   2.2524886768817613e-05
-1.781411369821043e-05   -1.1034597585798597e-07   2.2524886768817613e-05
-1.781411369821043e-05   -1.1034597585798597e-07   2.2524886768817613e-05
-1.0844852978605994e-05   -4.500500815630992e-06   3.150622839762764e-05
-1.0844852978605994e-05   -4.500500815630992e-06   3.150622839762764e-05
-1.0844852978605994e-05   -4.500500815630992e-06   3.150622839762764e-05
-1.0844852978605994e-05   -4.500500815630992e-06   3.150622839762764e-05
-1.0736426471797262e-05   -8.189211633691934e-07   2.063516867990378e-05
-1.0736426471797262e-05   -8.189211633691934e-07   2.063516867990378e-05
-1.0736426471797262e-05   -8.189211633691934e-07   2.063516867990378e-05
-1.0736426471797262e-05   -8.189211633691934e-07   2.063516867990378e-05
-1.7621517812714324e-05   -4.542611031166323e-06   3.4344534835443845e-05
-1.7621517812714324e-05   -4.542611031166323e-06   3.4344534835443845e-05
-1.7621517812714324e-05   -4.542611031166323e-06   3.4344534835443845e-05
-1.7621517812714324e-05   -4.542611031166323e-06   3.4344534835443845e-05
-1.407051557126366e-05   -2.608161181875436e-06   2.7265527856784952e-05
-1.407051557126366e-05   -2.608161181875436e-06   2.7265527856784952e-05
-1.407051557126366e-05   -2.608161181875436e-06   2.7265527856784952e-05
-1.407051557126366e-05   -2.608161181875436e-06   2.7265527856784952e-05
-1.0784223132054998e-05   2.482268081439908e-07   2.1255896156122643e-05
-1.0784223132054998e-05   2.482268081439908e-07   2.1255896156122643e-05
-1.0784223132054998e-05   2.482268081439908e-07   2.1255896156122643e-05
-1.0784223132054998e-05   2.482268081439908e-07   2.1255896156122643e-05
-7.929017542290155e-06   -4.199176875603334e-06   2.3346129928815743e-05
-7.929017542290155e-06   -4.199176875603334e-06   2.3346129928815743e-05
-7.929017542290155e-06   -4.199176875603334e-06   2.3346129928815743e-05
-7.929017542290155e-06   -4.199176875603334e-06   2.3346129928815743e-05
-7.856690979084376e-06   -1.4440337553120984e-07   1.876160862449136e-05
-7.856690979084376e-06   -1.4440337553120984e-07   1.876160862449136e-05
-7.856690979084376e-06   -1.4440337553120984e-07   1.876160862449136e-05
-7.856690979084376e-06   -1.4440337553120984e-07   1.876160862449136e-05
-1.0804553010561579e-05   -4.124075570600711e-06   2.6062515327328643e-05
-1.0804553010561579e-05   -4.124075570600711e-06   2.6062515327328643e-05
-1.0804553010561579e-05   -4.124075570600711e-06   2.6062515327328643e-05
-1.0804553010561579e-05   -4.124075570600711e-06   2.6062515327328643e-05
-9.285981465972245e-06   -2.1224267533789636e-06   2.2330573462680213e-05
-9.285981465972245e-06   -2.1224267533789636e-06   2.2330573462680213e-05
-9.285981465972245e-06   -2.1224267533789636e-06   2.2330573462680213e-05
-9.285981465972245e-06   -2.1224267533789636e-06   2.2330573462680213e-05
-1.0804553010561579e-05   -1.4440337553120984e-07   2.1149411941533114e-05
-1.0804553010561579e-05   -1.4440337553120984e-07   2.1149411941533114e-05
-1.0804553010561579e-05   -1.4440337553120984e-07   2.1149411941533114e-05
-1.0804553010561579e-05   -1.4440337553120984e-07   2.1149411941533114e-05
-7.856690979084376e-06   -4.124075570600711e-06   2.3674712010286942e-05
-7.856690979084376e-06   -4.124075570600711e-06   2.3674712010286942e-05
-7.856690979084376e-06   -4.124075570600711e-06   2.3674712010286942e-05
-7.856690979084376e-06   -4.124075570600711e-06   2.3674712010286942e-05
-7.794151123520856e-06   -6.145833515740955e-07   1.921061328689585e-05
-7.794151123520856e-06   -6.145833515740955e-07   1.921061328689585e-05
-7.794151123520856e-06   -6.145833515740955e-07   1.921061328689585e-05
-7.794151123520856e-06   -6.145833515740955e-07   1.921061328689585e-05
-1.0844852978605994e-05   -4.250256547576336e-06   2.6476520296305655e-05
-1.0844852978605994e-05   -4.250256547576336e-06   2.6476520296305655e-05
-1.0844852978605994e-05   -4.250256547576336e-06   2.6476520296305655e-05
-1.0844852978605994e-05   -4.250256547576336e-06   2.6476520296305655e-05
-9.20252342807215e-06   -2.264127350665038e-06   2.2547626860601932e-05
-9.20252342807215e-06   -2.264127350665038e-06   2.2547626860601932e-05
-9.20252342807215e-06   -2.264127350665038e-06   2.2547626860601932e-05
-9.20252342807215e-06   -2.264127350665038e-06   2.2547626860601932e-05
-1.0844852978605994e-05   -6.145833515742039e-07   2.1392017204497173e-05
-1.0844852978605994e-05   -6.145833515742039e-07   2.1392017204497173e-05
-1.0844852978605994e-05   -6.145833515742039e-07   2.1392017204497173e-05
-1.0844852978605994e-05   -6.145833515742039e-07   2.1392017204497173e-05
-7.794151123520856e-06   -4.250256547576336e-06   2.429511637870444e-05
-7.794151123520856e-06   -4.250256547576336e-06   2.429511637870444e-05
-7.794151123520856e-06   -4.250256547576336e-06   2.429511637870444e-05
-7.794151123520856e-06   -4.250256547576336e-06   2.429511637870444e-05
-7.639245249044149e-06   -1.086863098781433e-06   1.9905678571169815e-05
-7.639245249044149e-06   -1.086863098781433e-06   1.9905678571169815e-05
-7.639245249044149e-06   -1.086863098781433e-06   1.9905678571169815e-05
-7.639245249044149e-06   -1.086863098781433e-06   1.9905678571169815e-05
-1.0736426471797235e-05   -4.429427526788461e-06   2.7073185932562386e-05
-1.0736426471797235e-05   -4.429427526788461e-06   2.7073185932562386e-05
-1.0736426471797235e-05   -4.429427526788461e-06   2.7073185932562386e-05
-1.0736426471797235e-05   -4.429427526788461e-06   2.7073185932562386e-05
-9.104847037526897e-06   -2.4704556315567573e-06   2.317850373830617e-05
-9.104847037526897e-06   -2.4704556315567573e-06   2.317850373830617e-05
-9.104847037526897e-06   -2.4704556315567573e-06   2.317850373830617e-05
-9.104847037526897e-06   -2.4704556315567573e-06   2.317850373830617e-05
-7.929017542290155e-06   1.1323812350705733e-06   1.4456302434467266e-05
-7.929017542290155e-06   1.1323812350705733e-06   1.4456302434467266e-05
-7.929017542290155e-06   1.1323812350705733e-06   1.4456302434467266e-05
-7.929017542290155e-06   1.1323812350705733e-06   1.4456302434467266e-05
-6.605031508811533e-06   -1.72257133146034e-06   1.4949974283679662e-05
-6.605031508811533e-06   -1.72257133146034e-06   1.4949974283679662e-05
-6.605031508811533e-06   -1.72257133146034e-06   1.4949974283679662e-05
-6.605031508811533e-06   -1.72257133146034e-06   1.4949974283679662e-05
-6.461456019836562e-06   6.15180234663816e-07   1.3052621101001735e-05
-6.461456019836562e-06   6.15180234663816e-07   1.3052621101001735e-05
-6.461456019836562e-06   6.15180234663816e-07   1.3052621101001735e-05
-6.461456019836562e-06   6.15180234663816e-07   1.3052621101001735e-05
-7.856690979084376e-06   -2.0168954098108882e-06   1.6957258086433037e-05
-7.856690979084376e-06   -2.0168954098108882e-06   1.6957258086433037e-05
-7.856690979084376e-06   -2.0168954098108882e-06   1.6957258086433037e-05
-7.856690979084376e-06   -2.0168954098108882e-06   1.6957258086433037e-05
-7.160338379085229e-06   -3.928937151818218e-07   1.4822269402990748e-05
-7.160338379085229e-06   -3.928937151818218e-07   1.4822269402990748e-05
-7.160338379085229e-06   -3.928937151818218e-07   1.4822269402990748e-05
-7.160338379085229e-06   -3.928937151818218e-07   1.4822269402990748e-05
-7.856690979084376e-06   6.15180234663816e-07   1.4631866487686482e-05
-7.856690979084376e-06   6.15180234663816e-07   1.4631866487686482e-05
-7.856690979084376e-06   6.15180234663816e-07   1.4631866487686482e-05
-7.856690979084376e-06   6.15180234663816e-07   1.4631866487686482e-05
-6.461456019836562e-06   -2.0168954098108882e-06   1.537801269974829e-05
-6.461456019836562e-06   -2.0168954098108882e-06   1.537801269974829e-05
-6.461456019836562e-06   -2.0168954098108882e-06   1.537801269974829e-05
-6.461456019836562e-06   -2.0168954098108882e-06   1.537801269974829e-05
-6.395799851965282e-06   1.7236186004355482e-07   1.3670211503934615e-05
-6.395799851965282e-06   1.7236186004355482e-07   1.3670211503934615e-05
-6.395799851965282e-06   1.7236186004355482e-07   1.3670211503934615e-05
-6.395799851965282e-06   1.7236186004355482e-07   1.3670211503934615e-05
-7.794151123520802e-06   -2.242041106570577e-06   1.7449438736495432e-05
-7.794151123520802e-06   -2.242041106570577e-06   1.7449438736495432e-05
-7.794151123520802e-06   -2.242041106570577e-06   1.7449438736495432e-05
-7.794151123520802e-06   -2.242041106570577e-06   1.7449438736495432e-05
-7.018022136412162e-06   -7.082283255310969e-07   1.5235602756023315e-05
-7.018022136412162e-06   -7.082283255310969e-07   1.5235602756023315e-05
-7.018022136412162e-06   -7.082283255310969e-07   1.5235602756023315e-05
-7.018022136412162e-06   -7.082283255310969e-07   1.5235602756023315e-05
-7.794151123520802e-06   1.7236186004355482e-07   1.5118853283902845e-05
-7.794151123520802e-06   1.7236186004355482e-07   1.5118853283902845e-05
-7.794151123520802e-06   1.7236186004355482e-07   1.5118853283902845e-05
-7.794151123520802e-06   1.7236186004355482e-07   1.5118853283902845e-05
-6.395799851965282e-06   -2.242041106570523e-06   1.600079695652704e-05
-6.395799851965282e-06   -2.242041106570523e-06   1.600079695652704e-05
-6.395799851965282e-06   -2.242041106570523e-06   1.600079695652704e-05
-6.395799851965282e-06   -2.242041106570523e-06   1.600079695652704e-05
-6.288430913218483e-06   -2.7399402524283e-07   1.4445787263871798e-05
-6.288430913218483e-06   -2.7399402524283e-07   1.4445787263871798e-05
-6.288430913218483e-06   -2.7399402524283e-07   1.4445787263871798e-05
-6.288430913218483e-06   -2.7399402524283e-07   1.4445787263871798e-05
-7.639245249044149e-06   -2.5374387066865313e-06   1.805521129911395e-05
-7.639245249044149e-06   -2.5374387066865313e-06   1.805521129911395e-05
-7.639245249044149e-06   -2.5374387066865313e-06   1.805521129911395e-05
-7.639245249044149e-06   -2.5374387066865313e-06   1.805521129911395e-05
-6.9071082907029905e-06   -9.84434231699415e-07   1.5903180350220055e-05
-6.9071082907029905e-06   -9.84434231699415e-07   1.5903180350220055e-05
-6.9071082907029905e-06   -9.84434231699415e-07   1.5903180350220055e-05
-6.9071082907029905e-06   -9.84434231699415e-07   1.5903180350220055e-05
-6.605031508811533e-06   1.8648063990344289e-06   3.2887167774038693e-06
-6.605031508811533e-06   1.8648063990344289e-06   3.2887167774038693e-06
-6.605031508811533e-06   1.8648063990344289e-06   3.2887167774038693e-06
-6.605031508811533e-06   1.8648063990344289e-06   3.2887167774038693e-06
-3.811047774341823e-06   -1.9358968180431145e-07   6.710318686350091e-06
-3.811047774341823e-06   -1.9358968180431145e-07   6.710318686350091e-06
-3.811047774341823e-06   -1.9358968180431145e-07   6.710318686350091e-06
-3.811047774341823e-06   -1.9358968180431145e-07   6.710318686350091e-06
-4.026172185380393e-06   1.4989821873490896e-06   3.3184166446965924e-06
-4.026172185380393e-06   1.4989821873490896e-06   3.3184166446965924e-06
-4.026172185380393e-06   1.4989821873490896e-06   3.3184166446965924e-06
-4.026172185380393e-06   1.4989821873490896e-06   3.3184166446965924e-06
-6.461456019836562e-06   -2.6956413464113496e-07   8.438350828651221e-06
-6.461456019836562e-06   -2.6956413464113496e-07   8.438350828651221e-06
-6.461456019836562e-06   -2.6956413464113496e-07   8.438350828651221e-06
-6.461456019836562e-06   -2.6956413464113496e-07   8.438350828651221e-06
-5.046242208907721e-06   9.58422965413033e-07   5.342868883737614e-06
-5.046242208907721e-06   9.58422965413033e-07   5.342868883737614e-06
-5.046242208907721e-06   9.58422965413033e-07   5.342868883737614e-06
-5.046242208907721e-06   9.58422965413033e-07   5.342868883737614e-06
-6.461456019836562e-06   1.498982187349198e-06   4.379544437890543e-06
-6.461456019836562e-06   1.498982187349198e-06   4.379544437890543e-06
-6.461456019836562e-06   1.498982187349198e-06   4.379544437890543e-06
-6.461456019836562e-06   1.498982187349198e-06   4.379544437890543e-06
-4.0261721853805015e-06   -2.6956413464118917e-07   7.377223035456891e-06
-4.0261721853805015e-06   -2.6956413464118917e-07   7.377223035456891e-06
-4.0261721853805015e-06   -2.6956413464118917e-07   7.377223035456891e-06
-4.0261721853805015e-06   -2.6956413464118917e-07   7.377223035456891e-06
-4.202522553793772e-06   1.2597287268342836e-06   4.31890176778079e-06
-4.202522553793772e-06   1.2597287268342836e-06   4.31890176778079e-06
-4.202522553793772e-06   1.2597287268342836e-06   4.31890176778079e-06
-4.202522553793772e-06   1.2597287268342836e-06   4.31890176778079e-06
-6.395799851965282e-06   -3.7252915045566e-07   8.953718657773611e-06
-6.395799851965282e-06   -3.7252915045566e-07   8.953718657773611e-06
-6.395799851965282e-06   -3.7252915045566e-07   8.953718657773611e-06
-6.395799851965282e-06   -3.7252915045566e-07   8.953718657773611e-06
-5.133429511702944e-06   7.772649677993118e-07   6.159891619716366e-06
-5.133429511702944e-06   7.772649677993118e-07   6.159891619716366e-06
-5.133429511702944e-06   7.772649677993118e-07   6.159891619716366e-06
-5.133429511702944e-06   7.772649677993118e-07   6.159891619716366e-06
-6.395799851965282e-06   1.259728726834392e-06   5.298256494154789e-06
-6.395799851965282e-06   1.259728726834392e-06   5.298256494154789e-06
-6.395799851965282e-06   1.259728726834392e-06   5.298256494154789e-06
-6.395799851965282e-06   1.259728726834392e-06   5.298256494154789e-06
-4.202522553793772e-06   -3.7252915045566e-07   7.97436393139972e-06
-4.202522553793772e-06   -3.7252915045566e-07   7.97436393139972e-06
-4.202522553793772e-06   -3.7252915045566e-07   7.97436393139972e-06
-4.202522553793772e-06   -3.7252915045566e-07   7.97436393139972e-06
-4.639403091218791e-06   7.791002873992758e-07   6.107217560082567e-06
-4.639403091218791e-06   7.791002873992758e-07   6.107217560082567e-06
-4.639403091218791e-06   7.791002873992758e-07   6.107217560082567e-06
-4.639403091218791e-06   7.791002873992758e-07   6.107217560082567e-06
-6.288430913218483e-06   -4.970837431386363e-07   9.621307681737966e-06
-6.288430913218483e-06   -4.970837431386363e-07   9.621307681737966e-06
-6.288430913218483e-06   -4.970837431386363e-07   9.621307681737966e-06
-6.288430913218483e-06   -4.970837431386363e-07   9.621307681737966e-06
-5.1436900266315245e-06   6.549058260552207e-07   7.022212462576803e-06
-5.1436900266315245e-06   6.549058260552207e-07   7.022212462576803e-06
-5.1436900266315245e-06   6.549058260552207e-07   7.022212462576803e-06
-5.1436900266315245e-06   6.549058260552207e-07   7.022212462576803e-06
-6.0988595114012146e-05   4.781163330090969e-06   2.6035824823543116e-05
-6.0988595114012146e-05   4.781163330090969e-06   2.6035824823543116e-05
-6.0988595114012146e-05   4.781163330090969e-06   2.6035824823543116e-05
-6.0988595114012146e-05   4.781163330090969e-06   2.6035824823543116e-05
-1.4349225814241412e-05   -2.968019292438326e-05   8.309129323714318e-05
-1.4349225814241412e-05   -2.968019292438326e-05   8.309129323714318e-05
-1.4349225814241412e-05   -2.968019292438326e-05   8.309129323714318e-05
-1.4349225814241412e-05   -2.968019292438326e-05   8.309129323714318e-05
-1.6834487238983537e-05   1.944177172342478e-06   1.43019044303735e-05
-1.6834487238983537e-05   1.944177172342478e-06   1.43019044303735e-05
-1.6834487238983537e-05   1.944177172342478e-06   1.43019044303735e-05
-1.6834487238983537e-05   1.944177172342478e-06   1.43019044303735e-05
-5.562328257362994e-05   -2.3050472471476894e-05   9.394668644107564e-05
-5.562328257362994e-05   -2.3050472471476894e-05   9.394668644107564e-05
-5.562328257362994e-05   -2.3050472471476894e-05   9.394668644107564e-05
-5.562328257362994e-05   -2.3050472471476894e-05   9.394668644107564e-05
-3.708962017910848e-05   -1.1476488402506165e-05   5.611285867549075e-05
-3.708962017910848e-05   -1.1476488402506165e-05   5.611285867549075e-05
-3.708962017910848e-05   -1.1476488402506165e-05   5.611285867549075e-05
-3.708962017910848e-05   -1.1476488402506165e-05   5.611285867549075e-05
-5.5623282573629845e-05   1.944177172342478e-06   2.9298694216665087e-05
-5.5623282573629845e-05   1.944177172342478e-06   2.9298694216665087e-05
-5.5623282573629845e-05   1.944177172342478e-06   2.9298694216665087e-05
-5.5623282573629845e-05   1.944177172342478e-06   2.9298694216665087e-05
-1.6834487238983564e-05   -2.3050472471476894e-05   7.894989665478402e-05
-1.6834487238983564e-05   -2.3050472471476894e-05   7.894989665478402e-05
-1.6834487238983564e-05   -2.3050472471476894e-05   7.894989665478402e-05
-1.6834487238983564e-05   -2.3050472471476894e-05   7.894989665478402e-05
-1.7211229576906674e-05   1.3976918656644641e-06   1.5715402905921403e-05
-1.7211229576906674e-05   1.3976918656644641e-06   1.5715402905921403e-05
-1.7211229576906674e-05   1.3976918656644641e-06   1.5715402905921403e-05
-1.7211229576906674e-05   1.3976918656644641e-06   1.5715402905921403e-05
-5.248124340835908e-05   -1.9853446787538025e-05   8.724944248359676e-05
-5.248124340835908e-05   -1.9853446787538025e-05   8.724944248359676e-05
-5.248124340835908e-05   -1.9853446787538025e-05   8.724944248359676e-05
-5.248124340835908e-05   -1.9853446787538025e-05   8.724944248359676e-05
-3.59772045997655e-05   -1.0870840116346156e-05   5.435314713322573e-05
-3.59772045997655e-05   -1.0870840116346156e-05   5.435314713322573e-05
-3.59772045997655e-05   -1.0870840116346156e-05   5.435314713322573e-05
-3.59772045997655e-05   -1.0870840116346156e-05   5.435314713322573e-05
-5.2481243408358994e-05   1.3976918656644641e-06   2.8466086097842853e-05
-5.2481243408358994e-05   1.3976918656644641e-06   2.8466086097842853e-05
-5.2481243408358994e-05   1.3976918656644641e-06   2.8466086097842853e-05
-5.2481243408358994e-05   1.3976918656644641e-06   2.8466086097842853e-05
-1.72112295769067e-05   -1.9853446787538025e-05   7.449875929167529e-05
-1.72112295769067e-05   -1.9853446787538025e-05   7.449875929167529e-05
-1.72112295769067e-05   -1.9853446787538025e-05   7.449875929167529e-05
-1.72112295769067e-05   -1.9853446787538025e-05   7.449875929167529e-05
-1.884499104674464e-05   -9.247742790585321e-07   1.9683011892546363e-05
-1.884499104674464e-05   -9.247742790585321e-07   1.9683011892546363e-05
-1.884499104674464e-05   -9.247742790585321e-07   1.9683011892546363e-05
-1.884499104674464e-05   -9.247742790585321e-07   1.9683011892546363e-05
-4.845496655880573e-05   -1.560939509752658e-05   7.784374357039554e-05
-4.845496655880573e-05   -1.560939509752658e-05   7.784374357039554e-05
-4.845496655880573e-05   -1.560939509752658e-05   7.784374357039554e-05
-4.845496655880573e-05   -1.560939509752658e-05   7.784374357039554e-05
-3.460071264063777e-05   -1.0033893563649807e-05   5.140801945312294e-05
-3.460071264063777e-05   -1.0033893563649807e-05   5.140801945312294e-05
-3.460071264063777e-05   -1.0033893563649807e-05   5.140801945312294e-05
-3.460071264063777e-05   -1.0033893563649807e-05   5.140801945312294e-05
-1.4349225814241385e-05   -5.37551033230366e-06   1.4758582302602184e-05
-1.4349225814241385e-05   -5.37551033230366e-06   1.4758582302602184e-05
-1.4349225814241385e-05   -5.37551033230366e-06   1.4758582302602184e-05
-1.4349225814241385e-05   -5.37551033230366e-06   1.4758582302602184e-05
-5.001780296772889e-06   -9.167081577047138e-06   2.8062715418203645e-05
-5.001780296772889e-06   -9.167081577047138e-06   2.8062715418203645e-05
-5.001780296772889e-06   -9.167081577047138e-06   2.8062715418203645e-05
-5.001780296772889e-06   -9.167081577047138e-06   2.8062715418203645e-05
-5.5828929247647154e-06   -4.400264826894408e-06   1.319576482510616e-05
-5.5828929247647154e-06   -4.400264826894408e-06   1.319576482510616e-05
-5.5828929247647154e-06   -4.400264826894408e-06   1.319576482510616e-05
-5.5828929247647154e-06   -4.400264826894408e-06   1.319576482510616e-05
-1.6834487238983564e-05   -1.2168065319008827e-05   3.660910231073951e-05
-1.6834487238983564e-05   -1.2168065319008827e-05   3.660910231073951e-05
-1.6834487238983564e-05   -1.2168065319008827e-05   3.660910231073951e-05
-1.6834487238983564e-05   -1.2168065319008827e-05   3.660910231073951e-05
-9.897647534636405e-06   -6.3802683521419976e-06   2.157502462337411e-05
-9.897647534636405e-06   -6.3802683521419976e-06   2.157502462337411e-05
-9.897647534636405e-06   -6.3802683521419976e-06   2.157502462337411e-05
-9.897647534636405e-06   -6.3802683521419976e-06   2.157502462337411e-05
-1.6834487238983523e-05   -4.400264826894408e-06   1.7856445120374655e-05
-1.6834487238983523e-05   -4.400264826894408e-06   1.7856445120374655e-05
-1.6834487238983523e-05   -4.400264826894408e-06   1.7856445120374655e-05
-1.6834487238983523e-05   -4.400264826894408e-06   1.7856445120374655e-05
-5.5828929247647154e-06   -1.2168065319008827e-05   3.194842201547088e-05
-5.5828929247647154e-06   -1.2168065319008827e-05   3.194842201547088e-05
-5.5828929247647154e-06   -1.2168065319008827e-05   3.194842201547088e-05
-5.5828929247647154e-06   -1.2168065319008827e-05   3.194842201547088e-05
-6.080407822084692e-06   -4.500500815631046e-06   1.4836764439596643e-05
-6.080407822084692e-06   -4.500500815631046e-06   1.4836764439596643e-05
-6.080407822084692e-06   -4.500500815631046e-06   1.4836764439596643e-05
-6.080407822084692e-06   -4.500500815631046e-06   1.4836764439596643e-05
-1.72112295769067e-05   -1.1120767632734669e-05   3.7360294121228764e-05
-1.72112295769067e-05   -1.1120767632734669e-05   3.7360294121228764e-05
-1.72112295769067e-05   -1.1120767632734669e-05   3.7360294121228764e-05
-1.72112295769067e-05   -1.1120767632734669e-05   3.7360294121228764e-05
-1.1155701774850448e-05   -7.804966043254514e-06   2.527826683078037e-05
-1.1155701774850448e-05   -7.804966043254514e-06   2.527826683078037e-05
-1.1155701774850448e-05   -7.804966043254514e-06   2.527826683078037e-05
-1.1155701774850448e-05   -7.804966043254514e-06   2.527826683078037e-05
-1.7211229576906674e-05   -4.500500815631046e-06   1.8808924529858825e-05
-1.7211229576906674e-05   -4.500500815631046e-06   1.8808924529858825e-05
-1.7211229576906674e-05   -4.500500815631046e-06   1.8808924529858825e-05
-1.7211229576906674e-05   -4.500500815631046e-06   1.8808924529858825e-05
-6.080407822084692e-06   -1.1120767632734669e-05   3.3388134030966596e-05
-6.080407822084692e-06   -1.1120767632734669e-05   3.3388134030966596e-05
-6.080407822084692e-06   -1.1120767632734669e-05   3.3388134030966596e-05
-6.080407822084692e-06   -1.1120767632734669e-05   3.3388134030966596e-05
-6.888929965687715e-06   -4.542611031166323e-06   1.622636522634021e-05
-6.888929965687715e-06   -4.542611031166323e-06   1.622636522634021e-05
-6.888929965687715e-06   -4.542611031166323e-06   1.622636522634021e-05
-6.888929965687715e-06   -4.542611031166323e-06   1.622636522634021e-05
-1.8844991046744654e-05   -1.0461031722975084e-05   3.970418610985353e-05
-1.8844991046744654e-05   -1.0461031722975084e-05   3.970418610985353e-05
-1.8844991046744654e-05   -1.0461031722975084e-05   3.970418610985353e-05
-1.8844991046744654e-05   -1.0461031722975084e-05   3.970418610985353e-05
-1.1887409946900648e-05   -7.125549299654587e-06   2.6106928156121293e-05
-1.1887409946900648e-05   -7.125549299654587e-06   2.6106928156121293e-05
-1.1887409946900648e-05   -7.125549299654587e-06   2.6106928156121293e-05
-1.1887409946900648e-05   -7.125549299654587e-06   2.6106928156121293e-05
-5.001780296772889e-06   -4.199176875603334e-06   7.924282218845896e-06
-5.001780296772889e-06   -4.199176875603334e-06   7.924282218845896e-06
-5.001780296772889e-06   -4.199176875603334e-06   7.924282218845896e-06
-5.001780296772889e-06   -4.199176875603334e-06   7.924282218845896e-06
-2.788544879916998e-06   -2.5420481605345987e-06   1.2607285142646999e-05
-2.788544879916998e-06   -2.5420481605345987e-06   1.2607285142646999e-05
-2.788544879916998e-06   -2.5420481605345987e-06   1.2607285142646999e-05
-2.788544879916998e-06   -2.5420481605345987e-06   1.2607285142646999e-05
-2.677995890590021e-06   -4.124075570600765e-06   9.151940467468978e-06
-2.677995890590021e-06   -4.124075570600765e-06   9.151940467468978e-06
-2.677995890590021e-06   -4.124075570600765e-06   9.151940467468978e-06
-2.677995890590021e-06   -4.124075570600765e-06   9.151940467468978e-06
-5.5828929247647154e-06   -3.3336982472958356e-06   1.351920913044368e-05
-5.5828929247647154e-06   -3.3336982472958356e-06   1.351920913044368e-05
-5.5828929247647154e-06   -3.3336982472958356e-06   1.351920913044368e-05
-5.5828929247647154e-06   -3.3336982472958356e-06   1.351920913044368e-05
-3.7590842832278197e-06   -3.363032711620808e-06   1.0497128739810307e-05
-3.7590842832278197e-06   -3.363032711620808e-06   1.0497128739810307e-05
-3.7590842832278197e-06   -3.363032711620808e-06   1.0497128739810307e-05
-3.7590842832278197e-06   -3.363032711620808e-06   1.0497128739810307e-05
-5.582892924764688e-06   -4.124075570600765e-06   8.677714073486009e-06
-5.582892924764688e-06   -4.124075570600765e-06   8.677714073486009e-06
-5.582892924764688e-06   -4.124075570600765e-06   8.677714073486009e-06
-5.582892924764688e-06   -4.124075570600765e-06   8.677714073486009e-06
-2.677995890590021e-06   -3.3336982472958356e-06   1.3993435524426595e-05
-2.677995890590021e-06   -3.3336982472958356e-06   1.3993435524426595e-05
-2.677995890590021e-06   -3.3336982472958356e-06   1.3993435524426595e-05
-2.677995890590021e-06   -3.3336982472958356e-06   1.3993435524426595e-05
-2.680506354126673e-06   -4.250256547576336e-06   9.783889768175775e-06
-2.680506354126673e-06   -4.250256547576336e-06   9.783889768175775e-06
-2.680506354126673e-06   -4.250256547576336e-06   9.783889768175775e-06
-2.680506354126673e-06   -4.250256547576336e-06   9.783889768175775e-06
-6.080407822084692e-06   -4.288867497741282e-06   1.5473558784871244e-05
-6.080407822084692e-06   -4.288867497741282e-06   1.5473558784871244e-05
-6.080407822084692e-06   -4.288867497741282e-06   1.5473558784871244e-05
-6.080407822084692e-06   -4.288867497741282e-06   1.5473558784871244e-05
-3.983451088672646e-06   -3.677154510105555e-06   1.161160310326982e-05
-3.983451088672646e-06   -3.677154510105555e-06   1.161160310326982e-05
-3.983451088672646e-06   -3.677154510105555e-06   1.161160310326982e-05
-3.983451088672646e-06   -3.677154510105555e-06   1.161160310326982e-05
-6.080407822084692e-06   -4.250256547576336e-06   9.807056338274726e-06
-6.080407822084692e-06   -4.250256547576336e-06   9.807056338274726e-06
-6.080407822084692e-06   -4.250256547576336e-06   9.807056338274726e-06
-6.080407822084692e-06   -4.250256547576336e-06   9.807056338274726e-06
-2.680506354126673e-06   -4.288867497741282e-06   1.545039221477224e-05
-2.680506354126673e-06   -4.288867497741282e-06   1.545039221477224e-05
-2.680506354126673e-06   -4.288867497741282e-06   1.545039221477224e-05
-2.680506354126673e-06   -4.288867497741282e-06   1.545039221477224e-05
-2.7176399650333943e-06   -4.429427526788461e-06   1.0728727171960013e-05
-2.7176399650333943e-06   -4.429427526788461e-06   1.0728727171960013e-05
-2.7176399650333943e-06   -4.429427526788461e-06   1.0728727171960013e-05
-2.7176399650333943e-06   -4.429427526788461e-06   1.0728727171960013e-05
-6.888929965687742e-06   -5.196932647083283e-06   1.814138024522745e-05
-6.888929965687742e-06   -5.196932647083283e-06   1.814138024522745e-05
-6.888929965687742e-06   -5.196932647083283e-06   1.814138024522745e-05
-6.888929965687742e-06   -5.196932647083283e-06   1.814138024522745e-05
-4.238582133426881e-06   -4.017454565033928e-06   1.301644700889645e-05
-4.238582133426881e-06   -4.017454565033928e-06   1.301644700889645e-05
-4.238582133426881e-06   -4.017454565033928e-06   1.301644700889645e-05
-4.238582133426881e-06   -4.017454565033928e-06   1.301644700889645e-05
-2.788544879916998e-06   -1.7225713314603943e-06   2.2353753426696595e-06
-2.788544879916998e-06   -1.7225713314603943e-06   2.2353753426696595e-06
-2.788544879916998e-06   -1.7225713314603943e-06   2.2353753426696595e-06
-2.788544879916998e-06   -1.7225713314603943e-06   2.2353753426696595e-06
-2.066876664891617e-06   4.591959372172603e-07   4.747216062251844e-06
-2.066876664891617e-06   4.591959372172603e-07   4.747216062251844e-06
-2.066876664891617e-06   4.591959372172603e-07   4.747216062251844e-06
-2.066876664891617e-06   4.591959372172603e-07   4.747216062251844e-06
-1.670955937699498e-06   -2.0168954098108882e-06   3.7508846087453687e-06
-1.670955937699498e-06   -2.0168954098108882e-06   3.7508846087453687e-06
-1.670955937699498e-06   -2.0168954098108882e-06   3.7508846087453687e-06
-1.670955937699498e-06   -2.0168954098108882e-06   3.7508846087453687e-06
-2.677995890590021e-06   1.7710136540615584e-07   4.1128864650991515e-06
-2.677995890590021e-06   1.7710136540615584e-07   4.1128864650991515e-06
-2.677995890590021e-06   1.7710136540615584e-07   4.1128864650991515e-06
-2.677995890590021e-06   1.7710136540615584e-07   4.1128864650991515e-06
-2.1592275439455226e-06   -8.027058290802926e-07   3.836156870716621e-06
-2.1592275439455226e-06   -8.027058290802926e-07   3.836156870716621e-06
-2.1592275439455226e-06   -8.027058290802926e-07   3.836156870716621e-06
-2.1592275439455226e-06   -8.027058290802926e-07   3.836156870716621e-06
-2.677995890590021e-06   -2.0168954098108882e-06   2.4344865436151273e-06
-2.677995890590021e-06   -2.0168954098108882e-06   2.4344865436151273e-06
-2.677995890590021e-06   -2.0168954098108882e-06   2.4344865436151273e-06
-2.677995890590021e-06   -2.0168954098108882e-06   2.4344865436151273e-06
-1.670955937699498e-06   1.7710136540615584e-07   5.429284530229339e-06
-1.670955937699498e-06   1.7710136540615584e-07   5.429284530229339e-06
-1.670955937699498e-06   1.7710136540615584e-07   5.429284530229339e-06
-1.670955937699498e-06   1.7710136540615584e-07   5.429284530229339e-06
-1.4530992035727123e-06   -2.242041106570577e-06   4.1203643086439425e-06
-1.4530992035727123e-06   -2.242041106570577e-06   4.1203643086439425e-06
-1.4530992035727123e-06   -2.242041106570577e-06   4.1203643086439425e-06
-1.4530992035727123e-06   -2.242041106570577e-06   4.1203643086439425e-06
-2.680506354126673e-06   -2.717874687754472e-07   4.983890710223314e-06
-2.680506354126673e-06   -2.717874687754472e-07   4.983890710223314e-06
-2.680506354126673e-06   -2.717874687754472e-07   4.983890710223314e-06
-2.680506354126673e-06   -2.717874687754472e-07   4.983890710223314e-06
-1.95576611181482e-06   -1.0295185519626471e-06   4.230628956282596e-06
-1.95576611181482e-06   -1.0295185519626471e-06   4.230628956282596e-06
-1.95576611181482e-06   -1.0295185519626471e-06   4.230628956282596e-06
-1.95576611181482e-06   -1.0295185519626471e-06   4.230628956282596e-06
-2.680506354126727e-06   -2.242041106570577e-06   2.9382121259666314e-06
-2.680506354126727e-06   -2.242041106570577e-06   2.9382121259666314e-06
-2.680506354126727e-06   -2.242041106570577e-06   2.9382121259666314e-06
-2.680506354126727e-06   -2.242041106570577e-06   2.9382121259666314e-06
-1.4530992035727123e-06   -2.717874687754472e-07   6.166042892900381e-06
-1.4530992035727123e-06   -2.717874687754472e-07   6.166042892900381e-06
-1.4530992035727123e-06   -2.717874687754472e-07   6.166042892900381e-06
-1.4530992035727123e-06   -2.717874687754472e-07   6.166042892900381e-06
-1.1188457767573171e-06   -2.5374387066865313e-06   4.52123093939885e-06
-1.1188457767573171e-06   -2.5374387066865313e-06   4.52123093939885e-06
-1.1188457767573171e-06   -2.5374387066865313e-06   4.52123093939885e-06
-1.1188457767573171e-06   -2.5374387066865313e-06   4.52123093939885e-06
-2.7176399650333943e-06   -1.1958724665482443e-06   6.3809481757758535e-06
-2.7176399650333943e-06   -1.1958724665482443e-06   6.3809481757758535e-06
-2.7176399650333943e-06   -1.1958724665482443e-06   6.3809481757758535e-06
-2.7176399650333943e-06   -1.1958724665482443e-06   6.3809481757758535e-06
-1.7892618056402699e-06   -1.3772638393284473e-06   4.9424860671225e-06
-1.7892618056402699e-06   -1.3772638393284473e-06   4.9424860671225e-06
-1.7892618056402699e-06   -1.3772638393284473e-06   4.9424860671225e-06
-1.7892618056402699e-06   -1.3772638393284473e-06   4.9424860671225e-06
-2.066876664891617e-06   -1.9358968180425724e-07   -3.460182244950031e-06
-2.066876664891617e-06   -1.9358968180425724e-07   -3.460182244950031e-06
-2.066876664891617e-06   -1.9358968180425724e-07   -3.460182244950031e-06
-2.066876664891617e-06   -1.9358968180425724e-07   -3.460182244950031e-06
-3.803452612748852e-07   2.976064703393759e-07   -3.5457888096924583e-07
-3.803452612748852e-07   2.976064703393759e-07   -3.5457888096924583e-07
-3.803452612748852e-07   2.976064703393759e-07   -3.5457888096924583e-07
-3.803452612748852e-07   2.976064703393759e-07   -3.5457888096924583e-07
8.590902419677339e-09   -2.6956413464118917e-07   -2.717724796127475e-06
8.590902419677339e-09   -2.6956413464118917e-07   -2.717724796127475e-06
8.590902419677339e-09   -2.6956413464118917e-07   -2.717724796127475e-06
8.590902419677339e-09   -2.6956413464118917e-07   -2.717724796127475e-06
-1.670955937699498e-06   5.155233090660408e-07   -3.895325288200309e-07
-1.670955937699498e-06   5.155233090660408e-07   -3.895325288200309e-07
-1.670955937699498e-06   5.155233090660408e-07   -3.895325288200309e-07
-1.670955937699498e-06   5.155233090660408e-07   -3.895325288200309e-07
-9.391331930544986e-07   1.3711072084738262e-07   -1.382189550297409e-06
-9.391331930544986e-07   1.3711072084738262e-07   -1.382189550297409e-06
-9.391331930544986e-07   1.3711072084738262e-07   -1.382189550297409e-06
-9.391331930544986e-07   1.3711072084738262e-07   -1.382189550297409e-06
-1.670955937699498e-06   -2.6956413464113496e-07   -3.18877726235208e-06
-1.670955937699498e-06   -2.6956413464113496e-07   -3.18877726235208e-06
-1.670955937699498e-06   -2.6956413464113496e-07   -3.18877726235208e-06
-1.670955937699498e-06   -2.6956413464113496e-07   -3.18877726235208e-06
8.59090241978576e-09   5.155233090660408e-07   8.1519937404303e-08
8.59090241978576e-09   5.155233090660408e-07   8.1519937404303e-08
8.59090241978576e-09   5.155233090660408e-07   8.1519937404303e-08
8.59090241978576e-09   5.155233090660408e-07   8.1519937404303e-08
2.129517707062786e-07   -3.7252915045566e-07   -2.4373855208207696e-06
2.129517707062786e-07   -3.7252915045566e-07   -2.4373855208207696e-06
2.129517707062786e-07   -3.7252915045566e-07   -2.4373855208207696e-06
2.129517707062786e-07   -3.7252915045566e-07   -2.4373855208207696e-06
-1.4530992035727123e-06   4.4301829835868703e-07   -1.4996236631116804e-07
-1.4530992035727123e-06   4.4301829835868703e-07   -1.4996236631116804e-07
-1.4530992035727123e-06   4.4301829835868703e-07   -1.4996236631116804e-07
-1.4530992035727123e-06   4.4301829835868703e-07   -1.4996236631116804e-07
-6.514455765266618e-07   8.967840047830909e-08   -1.2740478059926732e-06
-6.514455765266618e-07   8.967840047830909e-08   -1.2740478059926732e-06
-6.514455765266618e-07   8.967840047830909e-08   -1.2740478059926732e-06
-6.514455765266618e-07   8.967840047830909e-08   -1.2740478059926732e-06
-1.4530992035727123e-06   -3.7252915045566e-07   -2.9267139901092965e-06
-1.4530992035727123e-06   -3.7252915045566e-07   -2.9267139901092965e-06
-1.4530992035727123e-06   -3.7252915045566e-07   -2.9267139901092965e-06
-1.4530992035727123e-06   -3.7252915045566e-07   -2.9267139901092965e-06
2.129517707062786e-07   4.4301829835868703e-07   3.393661029774944e-07
2.129517707062786e-07   4.4301829835868703e-07   3.393661029774944e-07
2.129517707062786e-07   4.4301829835868703e-07   3.393661029774944e-07
2.129517707062786e-07   4.4301829835868703e-07   3.393661029774944e-07
4.676672140119936e-07   -4.970837431386363e-07   -2.0265530920694557e-06
4.676672140119936e-07   -4.970837431386363e-07   -2.0265530920694557e-06
4.676672140119936e-07   -4.970837431386363e-07   -2.0265530920694557e-06
4.676672140119936e-07   -4.970837431386363e-07   -2.0265530920694557e-06
-1.1188457767573171e-06   3.8300421859720506e-07   8.958244883774166e-08
-1.1188457767573171e-06   3.8300421859720506e-07   8.958244883774166e-08
-1.1188457767573171e-06   3.8300421859720506e-07   8.958244883774166e-08
-1.1188457767573171e-06   3.8300421859720506e-07   8.958244883774166e-08
-3.90929287905756e-07   3.258678247326698e-08   -9.133612375739888e-07
-3.90929287905756e-07   3.258678247326698e-08   -9.133612375739888e-07
-3.90929287905756e-07   3.258678247326698e-08   -9.133612375739888e-07
-3.90929287905756e-07   3.258678247326698e-08   -9.133612375739888e-07
              </DataArray>   
             <DataArray type="Float64" NumberOfComponents="3" Name="Stress" format="ascii">   
-3.164314113412016   -0.791078528353004   -0.791078528353004
-3.164314113412016   -0.791078528353004   -0.791078528353004
-3.164314113412016   -0.791078528353004   -0.791078528353004
-3.164314113412016   -0.791078528353004   -0.791078528353004
-1.8311574830631312   -0.05802038219710376   -0.03671574003645399
-1.8311574830631312   -0.05802038219710376   -0.03671574003645399
-1.8311574830631312   -0.05802038219710376   -0.03671574003645399
-1.8311574830631312   -0.05802038219710376   -0.03671574003645399
-1.9737872631292326   -0.49344681578230815   -0.49344681578230815
-1.9737872631292326   -0.49344681578230815   -0.49344681578230815
-1.9737872631292326   -0.49344681578230815   -0.49344681578230815
-1.9737872631292326   -0.49344681578230815   -0.49344681578230815
-3.0497379718377173   -0.2504531055177679   -0.09578207696290841
-3.0497379718377173   -0.2504531055177679   -0.09578207696290841
-3.0497379718377173   -0.2504531055177679   -0.09578207696290841
-3.0497379718377173   -0.2504531055177679   -0.09578207696290841
-2.391894472241563   -0.3921392386038841   -0.006605025386140936
-2.391894472241563   -0.3921392386038841   -0.006605025386140936
-2.391894472241563   -0.3921392386038841   -0.006605025386140936
-2.391894472241563   -0.3921392386038841   -0.006605025386140936
-3.3116565948239858   -0.8279141487059964   -0.8279141487059964
-3.3116565948239858   -0.8279141487059964   -0.8279141487059964
-3.3116565948239858   -0.8279141487059964   -0.8279141487059964
-3.3116565948239858   -0.8279141487059964   -0.8279141487059964
-1.773983544086526   0.02189932346236345   -0.009774359813446501
-1.773983544086526   0.02189932346236345   -0.009774359813446501
-1.773983544086526   0.02189932346236345   -0.009774359813446501
-1.773983544086526   0.02189932346236345   -0.009774359813446501
-1.9793992674944954   -0.49484981687362384   -0.49484981687362384
-1.9793992674944954   -0.49484981687362384   -0.49484981687362384
-1.9793992674944954   -0.49484981687362384   -0.49484981687362384
-1.9793992674944954   -0.49484981687362384   -0.49484981687362384
-3.1522850192600953   -0.2528697364301351   -0.14035921707225885
-3.1522850192600953   -0.2528697364301351   -0.14035921707225885
-3.1522850192600953   -0.2528697364301351   -0.14035921707225885
-3.1522850192600953   -0.2528697364301351   -0.14035921707225885
-2.4811555670028844   -0.36922160090152484   -0.1316805438963352
-2.4811555670028844   -0.36922160090152484   -0.1316805438963352
-2.4811555670028844   -0.36922160090152484   -0.1316805438963352
-2.4811555670028844   -0.36922160090152484   -0.1316805438963352
-3.41515469839958   -0.853788674599895   -0.853788674599895
-3.41515469839958   -0.853788674599895   -0.853788674599895
-3.41515469839958   -0.853788674599895   -0.853788674599895
-3.41515469839958   -0.853788674599895   -0.853788674599895
-1.768869978736958   0.05372873091419422   0.009218079126246101
-1.768869978736958   0.05372873091419422   0.009218079126246101
-1.768869978736958   0.05372873091419422   0.009218079126246101
-1.768869978736958   0.05372873091419422   0.009218079126246101
-1.9784102272880475   -0.4946025568220119   -0.4946025568220119
-1.9784102272880475   -0.4946025568220119   -0.4946025568220119
-1.9784102272880475   -0.4946025568220119   -0.4946025568220119
-1.9784102272880475   -0.4946025568220119   -0.4946025568220119
-3.335468311704947   -0.2218277519081262   -0.08418576448406423
-3.335468311704947   -0.2218277519081262   -0.08418576448406423
-3.335468311704947   -0.2218277519081262   -0.08418576448406423
-3.335468311704947   -0.2218277519081262   -0.08418576448406423
-2.5474014209307074   -0.36348993722275413   -0.23799608463364044
-2.5474014209307074   -0.36348993722275413   -0.23799608463364044
-2.5474014209307074   -0.36348993722275413   -0.23799608463364044
-2.5474014209307074   -0.36348993722275413   -0.23799608463364044
-2.0135669540182475   -0.5033917385045619   -0.5033917385045619
-2.0135669540182475   -0.5033917385045619   -0.5033917385045619
-2.0135669540182475   -0.5033917385045619   -0.5033917385045619
-2.0135669540182475   -0.5033917385045619   -0.5033917385045619
-0.840056115015762   -0.05589939881093228   -0.018166587798458624
-0.840056115015762   -0.05589939881093228   -0.018166587798458624
-0.840056115015762   -0.05589939881093228   -0.018166587798458624
-0.840056115015762   -0.05589939881093228   -0.018166587798458624
-0.8819410450650624   -0.2204852612662656   -0.2204852612662656
-0.8819410450650624   -0.2204852612662656   -0.2204852612662656
-0.8819410450650624   -0.2204852612662656   -0.2204852612662656
-0.8819410450650624   -0.2204852612662656   -0.2204852612662656
-1.8332638876142537   -0.2156198412353873   -0.06865691275433483
-1.8332638876142537   -0.2156198412353873   -0.06865691275433483
-1.8332638876142537   -0.2156198412353873   -0.06865691275433483
-1.8332638876142537   -0.2156198412353873   -0.06865691275433483
-1.3520916366048699   -0.2561380626741183   0.010572877587203041
-1.3520916366048699   -0.2561380626741183   0.010572877587203041
-1.3520916366048699   -0.2561380626741183   0.010572877587203041
-1.3520916366048699   -0.2561380626741183   0.010572877587203041
-1.973787263129231   -0.49344681578230776   -0.49344681578230776
-1.973787263129231   -0.49344681578230776   -0.49344681578230776
-1.973787263129231   -0.49344681578230776   -0.49344681578230776
-1.973787263129231   -0.49344681578230776   -0.49344681578230776
-0.7926083832727958   0.006150999557942988   -0.0004582131291412106
-0.7926083832727958   0.006150999557942988   -0.0004582131291412106
-0.7926083832727958   0.006150999557942988   -0.0004582131291412106
-0.7926083832727958   0.006150999557942988   -0.0004582131291412106
-0.8623051077511347   -0.21557627693778367   -0.21557627693778367
-0.8623051077511347   -0.21557627693778367   -0.21557627693778367
-0.8623051077511347   -0.21557627693778367   -0.21557627693778367
-0.8623051077511347   -0.21557627693778367   -0.21557627693778367
-1.8286976873087046   -0.17591223305661566   -0.06027949976167805
-1.8286976873087046   -0.17591223305661566   -0.06027949976167805
-1.8286976873087046   -0.17591223305661566   -0.06027949976167805
-1.8286976873087046   -0.17591223305661566   -0.06027949976167805
-1.333313600974073   -0.21564415244737853   -0.06971601794217147
-1.333313600974073   -0.21564415244737853   -0.06971601794217147
-1.333313600974073   -0.21564415244737853   -0.06971601794217147
-1.333313600974073   -0.21564415244737853   -0.06971601794217147
-1.9793992674944954   -0.49484981687362384   -0.49484981687362384
-1.9793992674944954   -0.49484981687362384   -0.49484981687362384
-1.9793992674944954   -0.49484981687362384   -0.49484981687362384
-1.9793992674944954   -0.49484981687362384   -0.49484981687362384
-0.7611843435870743   0.05378049085749406   0.020670776087240265
-0.7611843435870743   0.05378049085749406   0.020670776087240265
-0.7611843435870743   0.05378049085749406   0.020670776087240265
-0.7611843435870743   0.05378049085749406   0.020670776087240265
-0.8444325775147752   -0.2111081443786938   -0.2111081443786938
-0.8444325775147752   -0.2111081443786938   -0.2111081443786938
-0.8444325775147752   -0.2111081443786938   -0.2111081443786938
-0.8444325775147752   -0.2111081443786938   -0.2111081443786938
-1.8153126524183505   -0.135750864585574   -0.03796637470998686
-1.8153126524183505   -0.135750864585574   -0.03796637470998686
-1.8153126524183505   -0.135750864585574   -0.03796637470998686
-1.8153126524183505   -0.135750864585574   -0.03796637470998686
-1.3399596606171351   -0.19084565299533052   -0.15533099881948836
-1.3399596606171351   -0.19084565299533052   -0.15533099881948836
-1.3399596606171351   -0.19084565299533052   -0.15533099881948836
-1.3399596606171351   -0.19084565299533052   -0.15533099881948836
-0.916936575215428   -0.229234143803857   -0.229234143803857
-0.916936575215428   -0.229234143803857   -0.229234143803857
-0.916936575215428   -0.229234143803857   -0.229234143803857
-0.916936575215428   -0.229234143803857   -0.229234143803857
0.10889658196215384   0.007137996014968978   0.0008905788196089306
0.10889658196215384   0.007137996014968978   0.0008905788196089306
0.10889658196215384   0.007137996014968978   0.0008905788196089306
0.10889658196215384   0.007137996014968978   0.0008905788196089306
0.14152853705661372   0.03538213426415343   0.03538213426415343
0.14152853705661372   0.03538213426415343   0.03538213426415343
0.14152853705661372   0.03538213426415343   0.03538213426415343
0.14152853705661372   0.03538213426415343   0.03538213426415343
-0.8290991469101838   -0.1433047644524847   -0.03345626730565308
-0.8290991469101838   -0.1433047644524847   -0.03345626730565308
-0.8290991469101838   -0.1433047644524847   -0.03345626730565308
-0.8290991469101838   -0.1433047644524847   -0.03345626730565308
-0.3548870021705658   -0.09002875665367738   0.06026183165817644
-0.3548870021705658   -0.09002875665367738   0.06026183165817644
-0.3548870021705658   -0.09002875665367738   0.06026183165817644
-0.3548870021705658   -0.09002875665367738   0.06026183165817644
-0.8819410450650624   -0.2204852612662656   -0.2204852612662656
-0.8819410450650624   -0.2204852612662656   -0.2204852612662656
-0.8819410450650624   -0.2204852612662656   -0.2204852612662656
-0.8819410450650624   -0.2204852612662656   -0.2204852612662656
0.14404521494132655   0.062237410807768304   0.021110247144101597
0.14404521494132655   0.062237410807768304   0.021110247144101597
0.14404521494132655   0.062237410807768304   0.021110247144101597
0.14404521494132655   0.062237410807768304   0.021110247144101597
0.15913608010199976   0.03978402002549994   0.03978402002549994
0.15913608010199976   0.03978402002549994   0.03978402002549994
0.15913608010199976   0.03978402002549994   0.03978402002549994
0.15913608010199976   0.03978402002549994   0.03978402002549994
-0.7998599490162128   -0.0964900283429594   -0.02243673185800524
-0.7998599490162128   -0.0964900283429594   -0.02243673185800524
-0.7998599490162128   -0.0964900283429594   -0.02243673185800524
-0.7998599490162128   -0.0964900283429594   -0.02243673185800524
-0.34050696782337175   -0.05565155110168388   -0.020572116848284663
-0.34050696782337175   -0.05565155110168388   -0.020572116848284663
-0.34050696782337175   -0.05565155110168388   -0.020572116848284663
-0.34050696782337175   -0.05565155110168388   -0.020572116848284663
-0.8623051077511347   -0.21557627693778367   -0.21557627693778367
-0.8623051077511347   -0.21557627693778367   -0.21557627693778367
-0.8623051077511347   -0.21557627693778367   -0.21557627693778367
-0.8623051077511347   -0.21557627693778367   -0.21557627693778367
0.1722688237797841   0.10955785356318758   0.03567390487673275
0.1722688237797841   0.10955785356318758   0.03567390487673275
0.1722688237797841   0.10955785356318758   0.03567390487673275
0.1722688237797841   0.10955785356318758   0.03567390487673275
0.18284224229732043   0.04571056057433011   0.04571056057433011
0.18284224229732043   0.04571056057433011   0.04571056057433011
0.18284224229732043   0.04571056057433011   0.04571056057433011
0.18284224229732043   0.04571056057433011   0.04571056057433011
-0.7680379346929358   -0.04065586195230256   0.0004127873041082711
-0.7680379346929358   -0.04065586195230256   0.0004127873041082711
-0.7680379346929358   -0.04065586195230256   0.0004127873041082711
-0.7680379346929358   -0.04065586195230256   0.0004127873041082711
-0.33039734930749637   -0.022510891032320623   -0.1006844082340826
-0.33039734930749637   -0.022510891032320623   -0.1006844082340826
-0.33039734930749637   -0.022510891032320623   -0.1006844082340826
-0.33039734930749637   -0.022510891032320623   -0.1006844082340826
0.11921207443915383   0.029803018609788456   0.029803018609788456
0.11921207443915383   0.029803018609788456   0.029803018609788456
0.11921207443915383   0.029803018609788456   0.029803018609788456
0.11921207443915383   0.029803018609788456   0.029803018609788456
1.147636592346745   0.10529172806487108   0.03535481552718159
1.147636592346745   0.10529172806487108   0.03535481552718159
1.147636592346745   0.10529172806487108   0.03535481552718159
1.147636592346745   0.10529172806487108   0.03535481552718159
1.2460325791906917   0.3115081447976729   0.3115081447976729
1.2460325791906917   0.3115081447976729   0.3115081447976729
1.2460325791906917   0.3115081447976729   0.3115081447976729
1.2460325791906917   0.3115081447976729   0.3115081447976729
0.10782974159036357   -0.08081610028766924   -0.016913608515276766
0.10782974159036357   -0.08081610028766924   -0.016913608515276766
0.10782974159036357   -0.08081610028766924   -0.016913608515276766
0.10782974159036357   -0.08081610028766924   -0.016913608515276766
0.6544349404943453   0.08147347210661059   0.11890075969796285
0.6544349404943453   0.08147347210661059   0.11890075969796285
0.6544349404943453   0.08147347210661059   0.11890075969796285
0.6544349404943453   0.08147347210661059   0.11890075969796285
0.1415285370566142   0.03538213426415355   0.03538213426415355
0.1415285370566142   0.03538213426415355   0.03538213426415355
0.1415285370566142   0.03538213426415355   0.03538213426415355
0.1415285370566142   0.03538213426415355   0.03538213426415355
1.161180998645491   0.1441571251669001   0.054601261702442505
1.161180998645491   0.1441571251669001   0.054601261702442505
1.161180998645491   0.1441571251669001   0.054601261702442505
1.161180998645491   0.1441571251669001   0.054601261702442505
1.240630282314241   0.31015757057856025   0.31015757057856025
1.240630282314241   0.31015757057856025   0.31015757057856025
1.240630282314241   0.31015757057856025   0.31015757057856025
1.240630282314241   0.31015757057856025   0.31015757057856025
0.13623260706320198   -0.03504130712492788   9.198198193744594e-05
0.13623260706320198   -0.03504130712492788   9.198198193744594e-05
0.13623260706320198   -0.03504130712492788   9.198198193744594e-05
0.13623260706320198   -0.03504130712492788   9.198198193744594e-05
0.6495383147426469   0.10690208595384973   0.03093214417496077
0.6495383147426469   0.10690208595384973   0.03093214417496077
0.6495383147426469   0.10690208595384973   0.03093214417496077
0.6495383147426469   0.10690208595384973   0.03093214417496077
0.15913608010199992   0.03978402002549998   0.03978402002549998
0.15913608010199992   0.03978402002549998   0.03978402002549998
0.15913608010199992   0.03978402002549998   0.03978402002549998
0.15913608010199992   0.03978402002549998   0.03978402002549998
1.1670652466764848   0.18467068082917437   0.06781928213916585
1.1670652466764848   0.18467068082917437   0.06781928213916585
1.1670652466764848   0.18467068082917437   0.06781928213916585
1.1670652466764848   0.18467068082917437   0.06781928213916585
1.2645944095366208   0.3161486023841552   0.3161486023841552
1.2645944095366208   0.3161486023841552   0.3161486023841552
1.2645944095366208   0.3161486023841552   0.3161486023841552
1.2645944095366208   0.3161486023841552   0.3161486023841552
0.17348482147151864   0.025523736097673277   0.019110280921976606
0.17348482147151864   0.025523736097673277   0.019110280921976606
0.17348482147151864   0.025523736097673277   0.019110280921976606
0.17348482147151864   0.025523736097673277   0.019110280921976606
0.6595531380768312   0.14500684143696568   -0.050634752739703706
0.6595531380768312   0.14500684143696568   -0.050634752739703706
0.6595531380768312   0.14500684143696568   -0.050634752739703706
0.6595531380768312   0.14500684143696568   -0.050634752739703706
1.2438969818092604   0.3109742454523151   0.3109742454523151
1.2438969818092604   0.3109742454523151   0.3109742454523151
1.2438969818092604   0.3109742454523151   0.3109742454523151
1.2438969818092604   0.3109742454523151   0.3109742454523151
2.579883825628549   0.19663383265108725   0.06736200700836648
2.579883825628549   0.19663383265108725   0.06736200700836648
2.579883825628549   0.19663383265108725   0.06736200700836648
2.579883825628549   0.19663383265108725   0.06736200700836648
2.636945732681846   0.6592364331704615   0.6592364331704615
2.636945732681846   0.6592364331704615   0.6592364331704615
2.636945732681846   0.6592364331704615   0.6592364331704615
2.636945732681846   0.6592364331704615   0.6592364331704615
1.1075770267314078   -0.06295502457684371   -0.006306448124228939
1.1075770267314078   -0.06295502457684371   -0.006306448124228939
1.1075770267314078   -0.06295502457684371   -0.006306448124228939
1.1075770267314078   -0.06295502457684371   -0.006306448124228939
1.840006088451961   0.26040260274610105   0.20773173190871258
1.840006088451961   0.26040260274610105   0.20773173190871258
1.840006088451961   0.26040260274610105   0.20773173190871258
1.840006088451961   0.26040260274610105   0.20773173190871258
1.2460325791906908   0.3115081447976727   0.3115081447976727
1.2460325791906908   0.3115081447976727   0.3115081447976727
1.2460325791906908   0.3115081447976727   0.3115081447976727
1.2460325791906908   0.3115081447976727   0.3115081447976727
2.443662533546638   0.22994561712002787   0.12211125354489476
2.443662533546638   0.22994561712002787   0.12211125354489476
2.443662533546638   0.22994561712002787   0.12211125354489476
2.443662533546638   0.22994561712002787   0.12211125354489476
2.558095184245619   0.6395237960614047   0.6395237960614047
2.558095184245619   0.6395237960614047   0.6395237960614047
2.558095184245619   0.6395237960614047   0.6395237960614047
2.558095184245619   0.6395237960614047   0.6395237960614047
1.111388999714134   -0.03475225727183856   0.008860985428423132
1.111388999714134   -0.03475225727183856   0.008860985428423132
1.111388999714134   -0.03475225727183856   0.008860985428423132
1.111388999714134   -0.03475225727183856   0.008860985428423132
1.7853602039748062   0.2679010680791042   0.09961248406323316
1.7853602039748062   0.2679010680791042   0.09961248406323316
1.7853602039748062   0.2679010680791042   0.09961248406323316
1.7853602039748062   0.2679010680791042   0.09961248406323316
1.240630282314241   0.31015757057856025   0.31015757057856025
1.240630282314241   0.31015757057856025   0.31015757057856025
1.240630282314241   0.31015757057856025   0.31015757057856025
1.240630282314241   0.31015757057856025   0.31015757057856025
2.3649232284189665   0.2306832949844677   0.08250451800511815
2.3649232284189665   0.2306832949844677   0.08250451800511815
2.3649232284189665   0.2306832949844677   0.08250451800511815
2.3649232284189665   0.2306832949844677   0.08250451800511815
2.440754831332266   0.6101887078330664   0.6101887078330664
2.440754831332266   0.6101887078330664   0.6101887078330664
2.440754831332266   0.6101887078330664   0.6101887078330664
2.440754831332266   0.6101887078330664   0.6101887078330664
1.1524505590427343   0.03634645321024796   0.03523149908863026
1.1524505590427343   0.03634645321024796   0.03523149908863026
1.1524505590427343   0.03634645321024796   0.03523149908863026
1.1524505590427343   0.03634645321024796   0.03523149908863026
1.7094887555658083   0.29045375263878787   -0.026126480514396817
1.7094887555658083   0.29045375263878787   -0.026126480514396817
1.7094887555658083   0.29045375263878787   -0.026126480514396817
1.7094887555658083   0.29045375263878787   -0.026126480514396817
-2.5014938962811097   -0.17911775519064155   0.02813380821383729
-2.5014938962811097   -0.17911775519064155   0.02813380821383729
-2.5014938962811097   -0.17911775519064155   0.02813380821383729
-2.5014938962811097   -0.17911775519064155   0.02813380821383729
-1.5922125482062977   -0.03670607849667884   -0.010287721384414278
-1.5922125482062977   -0.03670607849667884   -0.010287721384414278
-1.5922125482062977   -0.03670607849667884   -0.010287721384414278
-1.5922125482062977   -0.03670607849667884   -0.010287721384414278
-1.6030259179681958   0.06473817763865464   0.033462284949684784
-1.6030259179681958   0.06473817763865464   0.033462284949684784
-1.6030259179681958   0.06473817763865464   0.033462284949684784
-1.6030259179681958   0.06473817763865464   0.033462284949684784
-2.538750140074122   -0.17316223861013647   -0.030049916989747683
-2.538750140074122   -0.17316223861013647   -0.030049916989747683
-2.538750140074122   -0.17316223861013647   -0.030049916989747683
-2.538750140074122   -0.17316223861013647   -0.030049916989747683
-1.9778492878656078   -0.06753689644469146   -0.00782663713151098
-1.9778492878656078   -0.06753689644469146   -0.00782663713151098
-1.9778492878656078   -0.06753689644469146   -0.00782663713151098
-1.9778492878656078   -0.06753689644469146   -0.00782663713151098
-2.5203078326412323   -0.1230089883108142   0.012008369875377234
-2.5203078326412323   -0.1230089883108142   0.012008369875377234
-2.5203078326412323   -0.1230089883108142   0.012008369875377234
-2.5203078326412323   -0.1230089883108142   0.012008369875377234
-1.6241333498938633   0.011919802846558913   -0.019256499886528944
-1.6241333498938633   0.011919802846558913   -0.019256499886528944
-1.6241333498938633   0.011919802846558913   -0.019256499886528944
-1.6241333498938633   0.011919802846558913   -0.019256499886528944
-1.6049657936931283   0.09228730959610576   0.03810678749198032
-1.6049657936931283   0.09228730959610576   0.03810678749198032
-1.6049657936931283   0.09228730959610576   0.03810678749198032
-1.6049657936931283   0.09228730959610576   0.03810678749198032
-2.554180757754262   -0.15253642701238018   -0.03967202988162764
-2.554180757754262   -0.15253642701238018   -0.03967202988162764
-2.554180757754262   -0.15253642701238018   -0.03967202988162764
-2.554180757754262   -0.15253642701238018   -0.03967202988162764
-2.033427727904213   -0.04522448970398413   -0.01927706787808027
-2.033427727904213   -0.04522448970398413   -0.01927706787808027
-2.033427727904213   -0.04522448970398413   -0.01927706787808027
-2.033427727904213   -0.04522448970398413   -0.01927706787808027
-2.508339918451929   -0.0738414374421017   0.11083717705974327
-2.508339918451929   -0.0738414374421017   0.11083717705974327
-2.508339918451929   -0.0738414374421017   0.11083717705974327
-2.508339918451929   -0.0738414374421017   0.11083717705974327
-1.6317067327545727   0.0326922202667157   -0.036002818485837904
-1.6317067327545727   0.0326922202667157   -0.036002818485837904
-1.6317067327545727   0.0326922202667157   -0.036002818485837904
-1.6317067327545727   0.0326922202667157   -0.036002818485837904
-1.5758052072685282   0.16079070762852932   0.06924342876279807
-1.5758052072685282   0.16079070762852932   0.06924342876279807
-1.5758052072685282   0.16079070762852932   0.06924342876279807
-1.5758052072685282   0.16079070762852932   0.06924342876279807
-2.483653710934205   -0.12310322273319735   -0.0649071615452718
-2.483653710934205   -0.12310322273319735   -0.0649071615452718
-2.483653710934205   -0.12310322273319735   -0.0649071615452718
-2.483653710934205   -0.12310322273319735   -0.0649071615452718
-1.955707707037297   0.01821356026476878   0.0433343667226523
-1.955707707037297   0.01821356026476878   0.0433343667226523
-1.955707707037297   0.01821356026476878   0.0433343667226523
-1.955707707037297   0.01821356026476878   0.0433343667226523
-1.6317750494868921   -0.21630927450190002   -0.02849703178216545
-1.6317750494868921   -0.21630927450190002   -0.02849703178216545
-1.6317750494868921   -0.21630927450190002   -0.02849703178216545
-1.6317750494868921   -0.21630927450190002   -0.02849703178216545
-0.7517120161777013   -0.016692749010070007   0.007983095904449018
-0.7517120161777013   -0.016692749010070007   0.007983095904449018
-0.7517120161777013   -0.016692749010070007   0.007983095904449018
-0.7517120161777013   -0.016692749010070007   0.007983095904449018
-0.7627454159601191   0.01448991875133071   0.011373415525122554
-0.7627454159601191   0.01448991875133071   0.011373415525122554
-0.7627454159601191   0.01448991875133071   0.011373415525122554
-0.7627454159601191   0.01448991875133071   0.011373415525122554
-1.6641332675598426   -0.15833802984508932   -0.04899825552480534
-1.6641332675598426   -0.15833802984508932   -0.04899825552480534
-1.6641332675598426   -0.15833802984508932   -0.04899825552480534
-1.6641332675598426   -0.15833802984508932   -0.04899825552480534
-1.2025567578281267   -0.09763062046159701   -0.027559129403345282
-1.2025567578281267   -0.09763062046159701   -0.027559129403345282
-1.2025567578281267   -0.09763062046159701   -0.027559129403345282
-1.2025567578281267   -0.09763062046159701   -0.027559129403345282
-1.6625714552204816   -0.17304618078365486   -0.026481042889442474
-1.6625714552204816   -0.17304618078365486   -0.026481042889442474
-1.6625714552204816   -0.17304618078365486   -0.026481042889442474
-1.6625714552204816   -0.17304618078365486   -0.026481042889442474
-0.7613410216535618   0.0321642763358157   0.0007210294734315212
-0.7613410216535618   0.0321642763358157   0.0007210294734315212
-0.7613410216535618   0.0321642763358157   0.0007210294734315212
-0.7613410216535618   0.0321642763358157   0.0007210294734315212
-0.7599003698227829   0.05299350866953961   0.015451891383180538
-0.7599003698227829   0.05299350866953961   0.015451891383180538
-0.7599003698227829   0.05299350866953961   0.015451891383180538
-0.7599003698227829   0.05299350866953961   0.015451891383180538
-1.6648527296073188   -0.11604687173694439   -0.05299371074592188
-1.6648527296073188   -0.11604687173694439   -0.05299371074592188
-1.6648527296073188   -0.11604687173694439   -0.05299371074592188
-1.6648527296073188   -0.11604687173694439   -0.05299371074592188
-1.2002543644943302   -0.05433973814185908   -0.013101302309986622
-1.2002543644943302   -0.05433973814185908   -0.013101302309986622
-1.2002543644943302   -0.05433973814185908   -0.013101302309986622
-1.2002543644943302   -0.05433973814185908   -0.013101302309986622
-1.6583469220540903   -0.13090707416391872   -0.005604470552803914
-1.6583469220540903   -0.13090707416391872   -0.005604470552803914
-1.6583469220540903   -0.13090707416391872   -0.005604470552803914
-1.6583469220540903   -0.13090707416391872   -0.005604470552803914
-0.7608986568707885   0.07336123160173802   -0.00990726678903267
-0.7608986568707885   0.07336123160173802   -0.00990726678903267
-0.7608986568707885   0.07336123160173802   -0.00990726678903267
-0.7608986568707885   0.07336123160173802   -0.00990726678903267
-0.7472022305364651   0.09167366128955479   0.03104583278377389
-0.7472022305364651   0.09167366128955479   0.03104583278377389
-0.7472022305364651   0.09167366128955479   0.03104583278377389
-0.7472022305364651   0.09167366128955479   0.03104583278377389
-1.6470582631988882   -0.06718297886036151   -0.059048164400117176
-1.6470582631988882   -0.06718297886036151   -0.059048164400117176
-1.6470582631988882   -0.06718297886036151   -0.059048164400117176
-1.6470582631988882   -0.06718297886036151   -0.059048164400117176
-1.1952721557859305   -0.013373666093106473   0.0060018907508513075
-1.1952721557859305   -0.013373666093106473   0.0060018907508513075
-1.1952721557859305   -0.013373666093106473   0.0060018907508513075
-1.1952721557859305   -0.013373666093106473   0.0060018907508513075
-0.7926875731668909   -0.18006203198756388   -0.03352540606401069
-0.7926875731668909   -0.18006203198756388   -0.03352540606401069
-0.7926875731668909   -0.18006203198756388   -0.03352540606401069
-0.7926875731668909   -0.18006203198756388   -0.03352540606401069
0.08229046270558722   0.01870670129167653   0.0308807065599733
0.08229046270558722   0.01870670129167653   0.0308807065599733
0.08229046270558722   0.01870670129167653   0.0308807065599733
0.08229046270558722   0.01870670129167653   0.0308807065599733
0.07852257605785962   0.04540465550979777   0.0024691095377158464
0.07852257605785962   0.04540465550979777   0.0024691095377158464
0.07852257605785962   0.04540465550979777   0.0024691095377158464
0.07852257605785962   0.04540465550979777   0.0024691095377158464
-0.7960582603333596   -0.11929440372090044   -0.021406483868848712
-0.7960582603333596   -0.11929440372090044   -0.021406483868848712
-0.7960582603333596   -0.11929440372090044   -0.021406483868848712
-0.7960582603333596   -0.11929440372090044   -0.021406483868848712
-0.3604351760817643   -0.05969338760156667   -0.011398934587670204
-0.3604351760817643   -0.05969338760156667   -0.011398934587670204
-0.3604351760817643   -0.05969338760156667   -0.011398934587670204
-0.3604351760817643   -0.05969338760156667   -0.011398934587670204
-0.8015646525714244   -0.1372943182330143   -0.030938530547058755
-0.8015646525714244   -0.1372943182330143   -0.030938530547058755
-0.8015646525714244   -0.1372943182330143   -0.030938530547058755
-0.8015646525714244   -0.1372943182330143   -0.030938530547058755
0.08708990795406926   0.06646550968005617   0.024244914848505557
0.08708990795406926   0.06646550968005617   0.024244914848505557
0.08708990795406926   0.06646550968005617   0.024244914848505557
0.08708990795406926   0.06646550968005617   0.024244914848505557
0.08472554541054407   0.08778560742632428   0.0143559525616563
0.08472554541054407   0.08778560742632428   0.0143559525616563
0.08472554541054407   0.08778560742632428   0.0143559525616563
0.08472554541054407   0.08778560742632428   0.0143559525616563
-0.793494739733688   -0.07281990007670713   -0.0267065494250983
-0.793494739733688   -0.07281990007670713   -0.0267065494250983
-0.793494739733688   -0.07281990007670713   -0.0267065494250983
-0.793494739733688   -0.07281990007670713   -0.0267065494250983
-0.35480481811872855   -0.014652988244316927   0.004244908261047871
-0.35480481811872855   -0.014652988244316927   0.004244908261047871
-0.35480481811872855   -0.014652988244316927   0.004244908261047871
-0.35480481811872855   -0.014652988244316927   0.004244908261047871
-0.7956213735745188   -0.09432240885350947   -0.01583720985244969
-0.7956213735745188   -0.09432240885350947   -0.01583720985244969
-0.7956213735745188   -0.09432240885350947   -0.01583720985244969
-0.7956213735745188   -0.09432240885350947   -0.01583720985244969
0.0901456619870573   0.11258159893880901   0.016660543931737184
0.0901456619870573   0.11258159893880901   0.016660543931737184
0.0901456619870573   0.11258159893880901   0.016660543931737184
0.0901456619870573   0.11258159893880901   0.016660543931737184
0.08669011035925753   0.13493386238886707   0.02363336395776314
0.08669011035925753   0.13493386238886707   0.02363336395776314
0.08669011035925753   0.13493386238886707   0.02363336395776314
0.08669011035925753   0.13493386238886707   0.02363336395776314
-0.7831029669169676   -0.023136510592136728   -0.033647677237043795
-0.7831029669169676   -0.023136510592136728   -0.033647677237043795
-0.7831029669169676   -0.023136510592136728   -0.033647677237043795
-0.7831029669169676   -0.023136510592136728   -0.033647677237043795
-0.3459172561501355   0.032448934976907276   0.02137107422323958
-0.3459172561501355   0.032448934976907276   0.02137107422323958
-0.3459172561501355   0.032448934976907276   0.02137107422323958
-0.3459172561501355   0.032448934976907276   0.02137107422323958
0.03774139840424989   -0.13199154713339267   -0.04116636652164418
0.03774139840424989   -0.13199154713339267   -0.04116636652164418
0.03774139840424989   -0.13199154713339267   -0.04116636652164418
0.03774139840424989   -0.13199154713339267   -0.04116636652164418
0.9441803340468696   0.06517205220885466   0.05667198444980846
0.9441803340468696   0.06517205220885466   0.05667198444980846
0.9441803340468696   0.06517205220885466   0.05667198444980846
0.9441803340468696   0.06517205220885466   0.05667198444980846
0.9430481017320026   0.0877979664603818   -0.009061634916664542
0.9430481017320026   0.0877979664603818   -0.009061634916664542
0.9430481017320026   0.0877979664603818   -0.009061634916664542
0.9430481017320026   0.0877979664603818   -0.009061634916664542
0.05422173434068897   -0.07929672013916472   0.005666276600825016
0.05422173434068897   -0.07929672013916472   0.005666276600825016
0.05422173434068897   -0.07929672013916472   0.005666276600825016
0.05422173434068897   -0.07929672013916472   0.005666276600825016
0.48870090871096367   -0.011309020642402093   0.0010359695819910572
0.48870090871096367   -0.011309020642402093   0.0010359695819910572
0.48870090871096367   -0.011309020642402093   0.0010359695819910572
0.48870090871096367   -0.011309020642402093   0.0010359695819910572
0.043512690912506535   -0.09644326738002929   -0.030732393299221922
0.043512690912506535   -0.09644326738002929   -0.030732393299221922
0.043512690912506535   -0.09644326738002929   -0.030732393299221922
0.043512690912506535   -0.09644326738002929   -0.030732393299221922
0.9592583299621326   0.11044569850319254   0.049341774191167656
0.9592583299621326   0.11044569850319254   0.049341774191167656
0.9592583299621326   0.11044569850319254   0.049341774191167656
0.9592583299621326   0.11044569850319254   0.049341774191167656
0.950523147675825   0.12971464364191204   0.009581195203511913
0.950523147675825   0.12971464364191204   0.009581195203511913
0.950523147675825   0.12971464364191204   0.009581195203511913
0.950523147675825   0.12971464364191204   0.009581195203511913
0.05618898770020367   -0.037760714521202214   -0.0027805140425192394
0.05618898770020367   -0.037760714521202214   -0.0027805140425192394
0.05618898770020367   -0.037760714521202214   -0.0027805140425192394
0.05618898770020367   -0.037760714521202214   -0.0027805140425192394
0.4952555049545744   0.028757776338800722   0.02026238087045703
0.4952555049545744   0.028757776338800722   0.02026238087045703
0.4952555049545744   0.028757776338800722   0.02026238087045703
0.4952555049545744   0.028757776338800722   0.02026238087045703
0.04838646614610399   -0.05711641580964873   -0.022437420524570727
0.04838646614610399   -0.05711641580964873   -0.022437420524570727
0.04838646614610399   -0.05711641580964873   -0.022437420524570727
0.04838646614610399   -0.05711641580964873   -0.022437420524570727
0.9623065303386646   0.15305120603909572   0.045161546120509544
0.9623065303386646   0.15305120603909572   0.045161546120509544
0.9623065303386646   0.15305120603909572   0.045161546120509544
0.9623065303386646   0.15305120603909572   0.045161546120509544
0.9352894128520031   0.17809228544902267   0.020148436298239137
0.9352894128520031   0.17809228544902267   0.020148436298239137
0.9352894128520031   0.17809228544902267   0.020148436298239137
0.9352894128520031   0.17809228544902267   0.020148436298239137
0.055711014724297174   0.013678711233670955   -0.010006963061842454
0.055711014724297174   0.013678711233670955   -0.010006963061842454
0.055711014724297174   0.013678711233670955   -0.010006963061842454
0.055711014724297174   0.013678711233670955   -0.010006963061842454
0.5026099617202378   0.0745632212916673   0.03805991120988848
0.5026099617202378   0.0745632212916673   0.03805991120988848
0.5026099617202378   0.0745632212916673   0.03805991120988848
0.5026099617202378   0.0745632212916673   0.03805991120988848
0.8697777567858641   -0.17407796037366327   -0.07609088927270105
0.8697777567858641   -0.17407796037366327   -0.07609088927270105
0.8697777567858641   -0.17407796037366327   -0.07609088927270105
0.8697777567858641   -0.17407796037366327   -0.07609088927270105
1.7909667876804347   0.11829648141477195   0.055204329343098255
1.7909667876804347   0.11829648141477195   0.055204329343098255
1.7909667876804347   0.11829648141477195   0.055204329343098255
1.7909667876804347   0.11829648141477195   0.055204329343098255
1.8112565630800628   0.05615013532439922   -0.11446018496666933
1.8112565630800628   0.05615013532439922   -0.11446018496666933
1.8112565630800628   0.05615013532439922   -0.11446018496666933
1.8112565630800628   0.05615013532439922   -0.11446018496666933
0.9267591336134351   -0.03571820247540666   0.03300969342626929
0.9267591336134351   -0.03571820247540666   0.03300969342626929
0.9267591336134351   -0.03571820247540666   0.03300969342626929
0.9267591336134351   -0.03571820247540666   0.03300969342626929
1.282590979133936   -0.02239940410182467   -0.03208210972190245
1.282590979133936   -0.02239940410182467   -0.03208210972190245
1.282590979133936   -0.02239940410182467   -0.03208210972190245
1.282590979133936   -0.02239940410182467   -0.03208210972190245
0.894313288426313   -0.11444502467496942   -0.05049271030976664
0.894313288426313   -0.11444502467496942   -0.05049271030976664
0.894313288426313   -0.11444502467496942   -0.05049271030976664
0.894313288426313   -0.11444502467496942   -0.05049271030976664
1.8601480751844877   0.15132262444126726   0.0348248864385864
1.8601480751844877   0.15132262444126726   0.0348248864385864
1.8601480751844877   0.15132262444126726   0.0348248864385864
1.8601480751844877   0.15132262444126726   0.0348248864385864
1.8312461654124272   0.10226536466765118   -0.02590807057242349
1.8312461654124272   0.10226536466765118   -0.02590807057242349
1.8312461654124272   0.10226536466765118   -0.02590807057242349
1.8312461654124272   0.10226536466765118   -0.02590807057242349
0.9230650510171261   -0.015007185958011982   0.01701254150992506
0.9230650510171261   -0.015007185958011982   0.01701254150992506
0.9230650510171261   -0.015007185958011982   0.01701254150992506
0.9230650510171261   -0.015007185958011982   0.01701254150992506
1.3497651548256013   0.03371723200663068   0.02217825308927099
1.3497651548256013   0.03371723200663068   0.02217825308927099
1.3497651548256013   0.03371723200663068   0.02217825308927099
1.3497651548256013   0.03371723200663068   0.02217825308927099
0.8970349338790702   -0.0875202612935061   -0.040624968844852824
0.8970349338790702   -0.0875202612935061   -0.040624968844852824
0.8970349338790702   -0.0875202612935061   -0.040624968844852824
0.8970349338790702   -0.0875202612935061   -0.040624968844852824
1.855098902855177   0.17260106030784025   0.023019921001135556
1.855098902855177   0.17260106030784025   0.023019921001135556
1.855098902855177   0.17260106030784025   0.023019921001135556
1.855098902855177   0.17260106030784025   0.023019921001135556
1.8282235937500864   0.15652119453008537   -0.03966782901953501
1.8282235937500864   0.15652119453008537   -0.03966782901953501
1.8282235937500864   0.15652119453008537   -0.03966782901953501
1.8282235937500864   0.15652119453008537   -0.03966782901953501
0.9040773914050884   0.03272928115558152   0.009451333357091467
0.9040773914050884   0.03272928115558152   0.009451333357091467
0.9040773914050884   0.03272928115558152   0.009451333357091467
0.9040773914050884   0.03272928115558152   0.009451333357091467
1.3152797121139796   0.059102462328679856   0.01643892715980793
1.3152797121139796   0.059102462328679856   0.01643892715980793
1.3152797121139796   0.059102462328679856   0.01643892715980793
1.3152797121139796   0.059102462328679856   0.01643892715980793
-1.9665240816930554   -0.08927634628692582   0.10117247315110814
-1.9665240816930554   -0.08927634628692582   0.10117247315110814
-1.9665240816930554   -0.08927634628692582   0.10117247315110814
-1.9665240816930554   -0.08927634628692582   0.10117247315110814
-1.3059055857839867   -0.04957405895379205   -0.026325477892588343
-1.3059055857839867   -0.04957405895379205   -0.026325477892588343
-1.3059055857839867   -0.04957405895379205   -0.026325477892588343
-1.3059055857839867   -0.04957405895379205   -0.026325477892588343
-1.258849489311451   0.10580530849908887   0.08488716779370858
-1.258849489311451   0.10580530849908887   0.08488716779370858
-1.258849489311451   0.10580530849908887   0.08488716779370858
-1.258849489311451   0.10580530849908887   0.08488716779370858
-1.975591547443188   -0.14102939556121408   -0.041253728168019796
-1.975591547443188   -0.14102939556121408   -0.041253728168019796
-1.975591547443188   -0.14102939556121408   -0.041253728168019796
-1.975591547443188   -0.14102939556121408   -0.041253728168019796
-1.5606580147518143   -0.024131741466603795   -0.002850940411437436
-1.5606580147518143   -0.024131741466603795   -0.002850940411437436
-1.5606580147518143   -0.024131741466603795   -0.002850940411437436
-1.5606580147518143   -0.024131741466603795   -0.002850940411437436
-1.9206306974763963   -0.020853451226414244   0.11337457733113832
-1.9206306974763963   -0.020853451226414244   0.11337457733113832
-1.9206306974763963   -0.020853451226414244   0.11337457733113832
-1.9206306974763963   -0.020853451226414244   0.11337457733113832
-1.3051533820768082   -0.0057136786342739665   -0.035113308899714285
-1.3051533820768082   -0.0057136786342739665   -0.035113308899714285
-1.3051533820768082   -0.0057136786342739665   -0.035113308899714285
-1.3051533820768082   -0.0057136786342739665   -0.035113308899714285
-1.2537143116595015   0.13122910168864954   0.07868916752876
-1.2537143116595015   0.13122910168864954   0.07868916752876
-1.2537143116595015   0.13122910168864954   0.07868916752876
-1.2537143116595015   0.13122910168864954   0.07868916752876
-1.9450006477182786   -0.11798370738781727   -0.05648762628669177
-1.9450006477182786   -0.11798370738781727   -0.05648762628669177
-1.9450006477182786   -0.11798370738781727   -0.05648762628669177
-1.9450006477182786   -0.11798370738781727   -0.05648762628669177
-1.5639854586033028   0.005739062663176642   0.01804025460680103
-1.5639854586033028   0.005739062663176642   0.01804025460680103
-1.5639854586033028   0.005739062663176642   0.01804025460680103
-1.5639854586033028   0.005739062663176642   0.01804025460680103
-1.8938186578418057   0.003131768406673008   0.07830684730118188
-1.8938186578418057   0.003131768406673008   0.07830684730118188
-1.8938186578418057   0.003131768406673008   0.07830684730118188
-1.8938186578418057   0.003131768406673008   0.07830684730118188
-1.3020431377749315   0.012966789655206368   -0.04469265101493594
-1.3020431377749315   0.012966789655206368   -0.04469265101493594
-1.3020431377749315   0.012966789655206368   -0.04469265101493594
-1.3020431377749315   0.012966789655206368   -0.04469265101493594
-1.2549265290486271   0.14811104332643144   0.062436986867294
-1.2549265290486271   0.14811104332643144   0.062436986867294
-1.2549265290486271   0.14811104332643144   0.062436986867294
-1.2549265290486271   0.14811104332643144   0.062436986867294
-1.9052908045026629   -0.09349822538432151   -0.0720375163270241
-1.9052908045026629   -0.09349822538432151   -0.0720375163270241
-1.9052908045026629   -0.09349822538432151   -0.0720375163270241
-1.9052908045026629   -0.09349822538432151   -0.0720375163270241
-1.5190400239885655   0.03248732555650635   0.037514688878294136
-1.5190400239885655   0.03248732555650635   0.037514688878294136
-1.5190400239885655   0.03248732555650635   0.037514688878294136
-1.5190400239885655   0.03248732555650635   0.037514688878294136
-1.3098204651828007   -0.12417153730005939   0.028697603459609
-1.3098204651828007   -0.12417153730005939   0.028697603459609
-1.3098204651828007   -0.12417153730005939   0.028697603459609
-1.3098204651828007   -0.12417153730005939   0.028697603459609
-0.6613806050585256   -0.02389192646493582   0.001272023145364426
-0.6613806050585256   -0.02389192646493582   0.001272023145364426
-0.6613806050585256   -0.02389192646493582   0.001272023145364426
-0.6613806050585256   -0.02389192646493582   0.001272023145364426
-0.6426296897893095   0.06498954063625695   0.04613601911139319
-0.6426296897893095   0.06498954063625695   0.04613601911139319
-0.6426296897893095   0.06498954063625695   0.04613601911139319
-0.6426296897893095   0.06498954063625695   0.04613601911139319
-1.330649098478371   -0.12245516741758808   -0.04585040212422516
-1.330649098478371   -0.12245516741758808   -0.04585040212422516
-1.330649098478371   -0.12245516741758808   -0.04585040212422516
-1.330649098478371   -0.12245516741758808   -0.04585040212422516
-0.9826143182221531   -0.04821850984014103   -0.019898081717166873
-0.9826143182221531   -0.04821850984014103   -0.019898081717166873
-0.9826143182221531   -0.04821850984014103   -0.019898081717166873
-0.9826143182221531   -0.04821850984014103   -0.019898081717166873
-1.305688181662575   -0.07129129887769964   0.027790313414875492
-1.305688181662575   -0.07129129887769964   0.027790313414875492
-1.305688181662575   -0.07129129887769964   0.027790313414875492
-1.305688181662575   -0.07129129887769964   0.027790313414875492
-0.6625313307046645   0.018884947996812368   -0.007267592825929446
-0.6625313307046645   0.018884947996812368   -0.007267592825929446
-0.6625313307046645   0.018884947996812368   -0.007267592825929446
-0.6625313307046645   0.018884947996812368   -0.007267592825929446
-0.6405874626354852   0.10738823021727445   0.03991653205333859
-0.6405874626354852   0.10738823021727445   0.03991653205333859
-0.6405874626354852   0.10738823021727445   0.03991653205333859
-0.6405874626354852   0.10738823021727445   0.03991653205333859
-1.323101183135409   -0.0828799623146246   -0.05413612584750382
-1.323101183135409   -0.0828799623146246   -0.05413612584750382
-1.323101183135409   -0.0828799623146246   -0.05413612584750382
-1.323101183135409   -0.0828799623146246   -0.05413612584750382
-0.9718799325042249   -0.00531984598576421   -6.477518190571574e-05
-0.9718799325042249   -0.00531984598576421   -6.477518190571574e-05
-0.9718799325042249   -0.00531984598576421   -6.477518190571574e-05
-0.9718799325042249   -0.00531984598576421   -6.477518190571574e-05
-1.2976303782406933   -0.028280060043454236   0.018617996354903604
-1.2976303782406933   -0.028280060043454236   0.018617996354903604
-1.2976303782406933   -0.028280060043454236   0.018617996354903604
-1.2976303782406933   -0.028280060043454236   0.018617996354903604
-0.6619385697261482   0.05690802575016135   -0.016358798932850235
-0.6619385697261482   0.05690802575016135   -0.016358798932850235
-0.6619385697261482   0.05690802575016135   -0.016358798932850235
-0.6619385697261482   0.05690802575016135   -0.016358798932850235
-0.640390864061736   0.15194223222664582   0.02991049189775942
-0.640390864061736   0.15194223222664582   0.02991049189775942
-0.640390864061736   0.15194223222664582   0.02991049189775942
-0.640390864061736   0.15194223222664582   0.02991049189775942
-1.316722833112867   -0.04017628509493337   -0.05825720503255098
-1.316722833112867   -0.04017628509493337   -0.05825720503255098
-1.316722833112867   -0.04017628509493337   -0.05825720503255098
-1.316722833112867   -0.04017628509493337   -0.05825720503255098
-0.9725039816391472   0.034019983483156824   0.015093836932191934
-0.9725039816391472   0.034019983483156824   0.015093836932191934
-0.9725039816391472   0.034019983483156824   0.015093836932191934
-0.9725039816391472   0.034019983483156824   0.015093836932191934
-0.6860249947771868   -0.1419174182495414   -0.003924433663342353
-0.6860249947771868   -0.1419174182495414   -0.003924433663342353
-0.6860249947771868   -0.1419174182495414   -0.003924433663342353
-0.6860249947771868   -0.1419174182495414   -0.003924433663342353
-0.02283113562471454   0.007048155874450082   0.029296867194778007
-0.02283113562471454   0.007048155874450082   0.029296867194778007
-0.02283113562471454   0.007048155874450082   0.029296867194778007
-0.02283113562471454   0.007048155874450082   0.029296867194778007
-0.025333562971614418   0.04193202579006027   0.014000966324209723
-0.025333562971614418   0.04193202579006027   0.014000966324209723
-0.025333562971614418   0.04193202579006027   0.014000966324209723
-0.025333562971614418   0.04193202579006027   0.014000966324209723
-0.6864790993621167   -0.09096016474501617   -0.01716132337136988
-0.6864790993621167   -0.09096016474501617   -0.01716132337136988
-0.6864790993621167   -0.09096016474501617   -0.01716132337136988
-0.6864790993621167   -0.09096016474501617   -0.01716132337136988
-0.3562561904973628   -0.044483119562814984   -0.011135064432099375
-0.3562561904973628   -0.044483119562814984   -0.011135064432099375
-0.3562561904973628   -0.044483119562814984   -0.011135064432099375
-0.3562561904973628   -0.044483119562814984   -0.011135064432099375
-0.6857400786941211   -0.09486228964547053   -0.00956409513093761
-0.6857400786941211   -0.09486228964547053   -0.00956409513093761
-0.6857400786941211   -0.09486228964547053   -0.00956409513093761
-0.6857400786941211   -0.09486228964547053   -0.00956409513093761
-0.0223009079152275   0.04960582641489718   0.021490440981307677
-0.0223009079152275   0.04960582641489718   0.021490440981307677
-0.0223009079152275   0.04960582641489718   0.021490440981307677
-0.0223009079152275   0.04960582641489718   0.021490440981307677
-0.02219738160147132   0.08812474211982614   0.006719303425351434
-0.02219738160147132   0.08812474211982614   0.006719303425351434
-0.02219738160147132   0.08812474211982614   0.006719303425351434
-0.02219738160147132   0.08812474211982614   0.006719303425351434
-0.6847451569353606   -0.04833030129777276   -0.02515340793098569
-0.6847451569353606   -0.04833030129777276   -0.02515340793098569
-0.6847451569353606   -0.04833030129777276   -0.02515340793098569
-0.6847451569353606   -0.04833030129777276   -0.02515340793098569
-0.3527889518062677   -0.0017702981521624805   0.004889963892138749
-0.3527889518062677   -0.0017702981521624805   0.004889963892138749
-0.3527889518062677   -0.0017702981521624805   0.004889963892138749
-0.3527889518062677   -0.0017702981521624805   0.004889963892138749
-0.6837147456496135   -0.049324101612397614   -0.019007551187625163
-0.6837147456496135   -0.049324101612397614   -0.019007551187625163
-0.6837147456496135   -0.049324101612397614   -0.019007551187625163
-0.6837147456496135   -0.049324101612397614   -0.019007551187625163
-0.020113430201691495   0.09223290511997802   0.013030897424099035
-0.020113430201691495   0.09223290511997802   0.013030897424099035
-0.020113430201691495   0.09223290511997802   0.013030897424099035
-0.020113430201691495   0.09223290511997802   0.013030897424099035
-0.021524851114434154   0.13569861700053554   -0.0010501550762158016
-0.021524851114434154   0.13569861700053554   -0.0010501550762158016
-0.021524851114434154   0.13569861700053554   -0.0010501550762158016
-0.021524851114434154   0.13569861700053554   -0.0010501550762158016
-0.6844019588476306   -0.00497472324824319   -0.03322802655682762
-0.6844019588476306   -0.00497472324824319   -0.03322802655682762
-0.6844019588476306   -0.00497472324824319   -0.03322802655682762
-0.6844019588476306   -0.00497472324824319   -0.03322802655682762
-0.35009460149906574   0.04098307722028646   0.01958536186201778
-0.35009460149906574   0.04098307722028646   0.01958536186201778
-0.35009460149906574   0.04098307722028646   0.01958536186201778
-0.35009460149906574   0.04098307722028646   0.01958536186201778
-0.06797713852338921   -0.1553923645666565   -0.03399262685748859
-0.06797713852338921   -0.1553923645666565   -0.03399262685748859
-0.06797713852338921   -0.1553923645666565   -0.03399262685748859
-0.06797713852338921   -0.1553923645666565   -0.03399262685748859
0.6133106911953883   0.043266555373595555   0.05569646218964109
0.6133106911953883   0.043266555373595555   0.05569646218964109
0.6133106911953883   0.043266555373595555   0.05569646218964109
0.6133106911953883   0.043266555373595555   0.05569646218964109
0.5932493497830225   0.022985232354365212   -0.02195157637385885
0.5932493497830225   0.022985232354365212   -0.02195157637385885
0.5932493497830225   0.022985232354365212   -0.02195157637385885
0.5932493497830225   0.022985232354365212   -0.02195157637385885
-0.045506049496075535   -0.05690141146137594   0.011971970953340605
-0.045506049496075535   -0.05690141146137594   0.011971970953340605
-0.045506049496075535   -0.05690141146137594   0.011971970953340605
-0.045506049496075535   -0.05690141146137594   0.011971970953340605
0.2694001249510542   -0.035954235677317425   -0.006280555644807378
0.2694001249510542   -0.035954235677317425   -0.006280555644807378
0.2694001249510542   -0.035954235677317425   -0.006280555644807378
0.2694001249510542   -0.035954235677317425   -0.006280555644807378
-0.06772809349546137   -0.11335656093962723   -0.04268309956533725
-0.06772809349546137   -0.11335656093962723   -0.04268309956533725
-0.06772809349546137   -0.11335656093962723   -0.04268309956533725
-0.06772809349546137   -0.11335656093962723   -0.04268309956533725
0.6197610316875154   0.0837300197377236   0.04986204576524739
0.6197610316875154   0.0837300197377236   0.04986204576524739
0.6197610316875154   0.0837300197377236   0.04986204576524739
0.6197610316875154   0.0837300197377236   0.04986204576524739
0.6028427219135386   0.06595837261055121   -0.030838812597079414
0.6028427219135386   0.06595837261055121   -0.030838812597079414
0.6028427219135386   0.06595837261055121   -0.030838812597079414
0.6028427219135386   0.06595837261055121   -0.030838812597079414
-0.04421882902147056   -0.018707402526581304   0.003444210971763368
-0.04421882902147056   -0.018707402526581304   0.003444210971763368
-0.04421882902147056   -0.018707402526581304   0.003444210971763368
-0.04421882902147056   -0.018707402526581304   0.003444210971763368
0.2717668411586402   0.0026836717231720764   0.00964171730600029
0.2717668411586402   0.0026836717231720764   0.00964171730600029
0.2717668411586402   0.0026836717231720764   0.00964171730600029
0.2717668411586402   0.0026836717231720764   0.00964171730600029
-0.06583113343005628   -0.07189464888191649   -0.051430064715830635
-0.06583113343005628   -0.07189464888191649   -0.051430064715830635
-0.06583113343005628   -0.07189464888191649   -0.051430064715830635
-0.06583113343005628   -0.07189464888191649   -0.051430064715830635
0.6291296616991525   0.12382025434291573   0.04273400459862551
0.6291296616991525   0.12382025434291573   0.04273400459862551
0.6291296616991525   0.12382025434291573   0.04273400459862551
0.6291296616991525   0.12382025434291573   0.04273400459862551
0.6087540269029027   0.11985090325715424   -0.032189015123031545
0.6087540269029027   0.11985090325715424   -0.032189015123031545
0.6087540269029027   0.11985090325715424   -0.032189015123031545
0.6087540269029027   0.11985090325715424   -0.032189015123031545
-0.04428063301764207   0.025932230476139347   -0.005062678067858813
-0.04428063301764207   0.025932230476139347   -0.005062678067858813
-0.04428063301764207   0.025932230476139347   -0.005062678067858813
-0.04428063301764207   0.025932230476139347   -0.005062678067858813
0.2811582162046253   0.04577480779336833   0.02855256320788627
0.2811582162046253   0.04577480779336833   0.02855256320788627
0.2811582162046253   0.04577480779336833   0.02855256320788627
0.2811582162046253   0.04577480779336833   0.02855256320788627
0.5494266988721356   -0.15428649252175963   -0.06617045153126082
0.5494266988721356   -0.15428649252175963   -0.06617045153126082
0.5494266988721356   -0.15428649252175963   -0.06617045153126082
0.5494266988721356   -0.15428649252175963   -0.06617045153126082
1.2078773036458683   0.08974030661637616   0.06191851260748059
1.2078773036458683   0.08974030661637616   0.06191851260748059
1.2078773036458683   0.08974030661637616   0.06191851260748059
1.2078773036458683   0.08974030661637616   0.06191851260748059
1.1984587971449834   -0.0055953348580607964   -0.08807563201855739
1.1984587971449834   -0.0055953348580607964   -0.08807563201855739
1.1984587971449834   -0.0055953348580607964   -0.08807563201855739
1.1984587971449834   -0.0055953348580607964   -0.08807563201855739
0.5987706913094414   -0.012912322937605053   0.041552686550211604
0.5987706913094414   -0.012912322937605053   0.041552686550211604
0.5987706913094414   -0.012912322937605053   0.041552686550211604
0.5987706913094414   -0.012912322937605053   0.041552686550211604
0.845499011437157   -0.03007599814368267   -0.02772439729124377
0.845499011437157   -0.03007599814368267   -0.02772439729124377
0.845499011437157   -0.03007599814368267   -0.02772439729124377
0.845499011437157   -0.03007599814368267   -0.02772439729124377
0.5499720763784544   -0.13395674568010044   -0.0813959653622266
0.5499720763784544   -0.13395674568010044   -0.0813959653622266
0.5499720763784544   -0.13395674568010044   -0.0813959653622266
0.5499720763784544   -0.13395674568010044   -0.0813959653622266
1.2507637799718643   0.11895545578032857   0.048898491477457035
1.2507637799718643   0.11895545578032857   0.048898491477457035
1.2507637799718643   0.11895545578032857   0.048898491477457035
1.2507637799718643   0.11895545578032857   0.048898491477457035
1.227815959311444   0.01891591153542868   -0.11812287931718926
1.227815959311444   0.01891591153542868   -0.11812287931718926
1.227815959311444   0.01891591153542868   -0.11812287931718926
1.227815959311444   0.01891591153542868   -0.11812287931718926
0.6031667134923496   0.005785283107390821   0.030954234800147674
0.6031667134923496   0.005785283107390821   0.030954234800147674
0.6031667134923496   0.005785283107390821   0.030954234800147674
0.6031667134923496   0.005785283107390821   0.030954234800147674
0.8837351544119619   -0.0035812970549941037   -0.008466766265935913
0.8837351544119619   -0.0035812970549941037   -0.008466766265935913
0.8837351544119619   -0.0035812970549941037   -0.008466766265935913
0.8837351544119619   -0.0035812970549941037   -0.008466766265935913
0.5562062594513631   -0.10949500252719122   -0.08856774977020812
0.5562062594513631   -0.10949500252719122   -0.08856774977020812
0.5562062594513631   -0.10949500252719122   -0.08856774977020812
0.5562062594513631   -0.10949500252719122   -0.08856774977020812
1.2825210079681064   0.14194079178568794   0.03237748371587643
1.2825210079681064   0.14194079178568794   0.03237748371587643
1.2825210079681064   0.14194079178568794   0.03237748371587643
1.2825210079681064   0.14194079178568794   0.03237748371587643
1.2744326024606112   0.08269098590354043   -0.11109535395863673
1.2744326024606112   0.08269098590354043   -0.11109535395863673
1.2744326024606112   0.08269098590354043   -0.11109535395863673
1.2744326024606112   0.08269098590354043   -0.11109535395863673
0.6051628619604877   0.04710789136645836   0.022598172055601076
0.6051628619604877   0.04710789136645836   0.022598172055601076
0.6051628619604877   0.04710789136645836   0.022598172055601076
0.6051628619604877   0.04710789136645836   0.022598172055601076
0.890240978382668   0.026721679473465987   0.012835264142117109
0.890240978382668   0.026721679473465987   0.012835264142117109
0.890240978382668   0.026721679473465987   0.012835264142117109
0.890240978382668   0.026721679473465987   0.012835264142117109
-1.405947012409635   -0.04598024698980971   0.09168500855297165
-1.405947012409635   -0.04598024698980971   0.09168500855297165
-1.405947012409635   -0.04598024698980971   0.09168500855297165
-1.405947012409635   -0.04598024698980971   0.09168500855297165
-0.9835159333761587   -0.06565136742407193   -0.03463924308501044
-0.9835159333761587   -0.06565136742407193   -0.03463924308501044
-0.9835159333761587   -0.06565136742407193   -0.03463924308501044
-0.9835159333761587   -0.06565136742407193   -0.03463924308501044
-0.9257496137570904   0.09282691923991587   0.07818591215153249
-0.9257496137570904   0.09282691923991587   0.07818591215153249
-0.9257496137570904   0.09282691923991587   0.07818591215153249
-0.9257496137570904   0.09282691923991587   0.07818591215153249
-1.4060585373800167   -0.11572600884384052   -0.05066669157246099
-1.4060585373800167   -0.11572600884384052   -0.05066669157246099
-1.4060585373800167   -0.11572600884384052   -0.05066669157246099
-1.4060585373800167   -0.11572600884384052   -0.05066669157246099
-1.131953078617266   -0.018050962858075476   -0.002458179233252124
-1.131953078617266   -0.018050962858075476   -0.002458179233252124
-1.131953078617266   -0.018050962858075476   -0.002458179233252124
-1.131953078617266   -0.018050962858075476   -0.002458179233252124
-1.3535197458031865   0.009079968244966874   0.08722128922288348
-1.3535197458031865   0.009079968244966874   0.08722128922288348
-1.3535197458031865   0.009079968244966874   0.08722128922288348
-1.3535197458031865   0.009079968244966874   0.08722128922288348
-0.9740147703600697   -0.027705422875039104   -0.042607528748401104
-0.9740147703600697   -0.027705422875039104   -0.042607528748401104
-0.9740147703600697   -0.027705422875039104   -0.042607528748401104
-0.9740147703600697   -0.027705422875039104   -0.042607528748401104
-0.9170328471372777   0.11212300494659758   0.06607813480436614
-0.9170328471372777   0.11212300494659758   0.06607813480436614
-0.9170328471372777   0.11212300494659758   0.06607813480436614
-0.9170328471372777   0.11212300494659758   0.06607813480436614
-1.372805911578586   -0.09421802791544995   -0.06405698947317273
-1.372805911578586   -0.09421802791544995   -0.06405698947317273
-1.372805911578586   -0.09421802791544995   -0.06405698947317273
-1.372805911578586   -0.09421802791544995   -0.06405698947317273
-1.1240594171005132   0.00740250272198395   0.011903789139046134
-1.1240594171005132   0.00740250272198395   0.011903789139046134
-1.1240594171005132   0.00740250272198395   0.011903789139046134
-1.1240594171005132   0.00740250272198395   0.011903789139046134
-1.320713720927748   0.03217365866728633   0.0700122771982804
-1.320713720927748   0.03217365866728633   0.0700122771982804
-1.320713720927748   0.03217365866728633   0.0700122771982804
-1.320713720927748   0.03217365866728633   0.0700122771982804
-0.9652606728996875   -0.01040431674770742   -0.052533672313373955
-0.9652606728996875   -0.01040431674770742   -0.052533672313373955
-0.9652606728996875   -0.01040431674770742   -0.052533672313373955
-0.9652606728996875   -0.01040431674770742   -0.052533672313373955
-0.912205465829823   0.13089859448360747   0.056861244339765624
-0.912205465829823   0.13089859448360747   0.056861244339765624
-0.912205465829823   0.13089859448360747   0.056861244339765624
-0.912205465829823   0.13089859448360747   0.056861244339765624
-1.3282611253514063   -0.06578918807204173   -0.07669804294338248
-1.3282611253514063   -0.06578918807204173   -0.07669804294338248
-1.3282611253514063   -0.06578918807204173   -0.07669804294338248
-1.3282611253514063   -0.06578918807204173   -0.07669804294338248
-1.081892599208254   0.031244524536705953   0.03206141387961181
-1.081892599208254   0.031244524536705953   0.03206141387961181
-1.081892599208254   0.031244524536705953   0.03206141387961181
-1.081892599208254   0.031244524536705953   0.03206141387961181
-0.9724808344790821   -0.07949116681905194   0.03437605079534056
-0.9724808344790821   -0.07949116681905194   0.03437605079534056
-0.9724808344790821   -0.07949116681905194   0.03437605079534056
-0.9724808344790821   -0.07949116681905194   0.03437605079534056
-0.563745290113983   -0.04254211774257956   -0.0055899954489768665
-0.563745290113983   -0.04254211774257956   -0.0055899954489768665
-0.563745290113983   -0.04254211774257956   -0.0055899954489768665
-0.563745290113983   -0.04254211774257956   -0.0055899954489768665
-0.5351050409772701   0.05425502995666426   0.04215652724593553
-0.5351050409772701   0.05425502995666426   0.04215652724593553
-0.5351050409772701   0.05425502995666426   0.04215652724593553
-0.5351050409772701   0.05425502995666426   0.04215652724593553
-0.9870982607285517   -0.09458747366265237   -0.04114292980320512
-0.9870982607285517   -0.09458747366265237   -0.04114292980320512
-0.9870982607285517   -0.09458747366265237   -0.04114292980320512
-0.9870982607285517   -0.09458747366265237   -0.04114292980320512
-0.7615267294070521   -0.037144913196571455   -0.015532347466453232
-0.7615267294070521   -0.037144913196571455   -0.015532347466453232
-0.7615267294070521   -0.037144913196571455   -0.015532347466453232
-0.7615267294070521   -0.037144913196571455   -0.015532347466453232
-0.9610844122766892   -0.03375365166143107   0.028092490454878084
-0.9610844122766892   -0.03375365166143107   0.028092490454878084
-0.9610844122766892   -0.03375365166143107   0.028092490454878084
-0.9610844122766892   -0.03375365166143107   0.028092490454878084
-0.5577823695542036   -0.0032422721696268864   -0.013732813512440885
-0.5577823695542036   -0.0032422721696268864   -0.013732813512440885
-0.5577823695542036   -0.0032422721696268864   -0.013732813512440885
-0.5577823695542036   -0.0032422721696268864   -0.013732813512440885
-0.5282984197641374   0.09382105779343042   0.0345662113214996
-0.5282984197641374   0.09382105779343042   0.0345662113214996
-0.5282984197641374   0.09382105779343042   0.0345662113214996
-0.5282984197641374   0.09382105779343042   0.0345662113214996
-0.9738165910065897   -0.05724230941074926   -0.048475270184847125
-0.9738165910065897   -0.05724230941074926   -0.048475270184847125
-0.9738165910065897   -0.05724230941074926   -0.048475270184847125
-0.9738165910065897   -0.05724230941074926   -0.048475270184847125
-0.7469048208653862   0.0017520002684684177   0.001177152709755408
-0.7469048208653862   0.0017520002684684177   0.001177152709755408
-0.7469048208653862   0.0017520002684684177   0.001177152709755408
-0.7469048208653862   0.0017520002684684177   0.001177152709755408
-0.9458339395163653   0.008533205958158402   0.025662471897367346
-0.9458339395163653   0.008533205958158402   0.025662471897367346
-0.9458339395163653   0.008533205958158402   0.025662471897367346
-0.9458339395163653   0.008533205958158402   0.025662471897367346
-0.5521376642354562   0.03218894944342898   -0.02299790268508925
-0.5521376642354562   0.03218894944342898   -0.02299790268508925
-0.5521376642354562   0.03218894944342898   -0.02299790268508925
-0.5521376642354562   0.03218894944342898   -0.02299790268508925
-0.5217221730552172   0.13597485726392455   0.027497846704088613
-0.5217221730552172   0.13597485726392455   0.027497846704088613
-0.5217221730552172   0.13597485726392455   0.027497846704088613
-0.5217221730552172   0.13597485726392455   0.027497846704088613
-0.9638732279580313   -0.017003043201803403   -0.05357592861586194
-0.9638732279580313   -0.017003043201803403   -0.05357592861586194
-0.9638732279580313   -0.017003043201803403   -0.05357592861586194
-0.9638732279580313   -0.017003043201803403   -0.05357592861586194
-0.7412429725229639   0.03834558994663015   0.01708637294790384
-0.7412429725229639   0.03834558994663015   0.01708637294790384
-0.7412429725229639   0.03834558994663015   0.01708637294790384
-0.7412429725229639   0.03834558994663015   0.01708637294790384
-0.5756649808033857   -0.10910341660662899   0.0013728499680537615
-0.5756649808033857   -0.10910341660662899   0.0013728499680537615
-0.5756649808033857   -0.10910341660662899   0.0013728499680537615
-0.5756649808033857   -0.10910341660662899   0.0013728499680537615
-0.14832222574899787   -0.012696738421250261   0.023474481107774104
-0.14832222574899787   -0.012696738421250261   0.023474481107774104
-0.14832222574899787   -0.012696738421250261   0.023474481107774104
-0.14832222574899787   -0.012696738421250261   0.023474481107774104
-0.14467440312078014   0.022434120501729257   0.008005406621020728
-0.14467440312078014   0.022434120501729257   0.008005406621020728
-0.14467440312078014   0.022434120501729257   0.008005406621020728
-0.14467440312078014   0.022434120501729257   0.008005406621020728
-0.5693498310222525   -0.06384159411683255   -0.010970798905481347
-0.5693498310222525   -0.06384159411683255   -0.010970798905481347
-0.5693498310222525   -0.06384159411683255   -0.010970798905481347
-0.5693498310222525   -0.06384159411683255   -0.010970798905481347
-0.36011502821867225   -0.03905960523832851   -0.011037182254130844
-0.36011502821867225   -0.03905960523832851   -0.011037182254130844
-0.36011502821867225   -0.03905960523832851   -0.011037182254130844
-0.36011502821867225   -0.03905960523832851   -0.011037182254130844
-0.5684221683760657   -0.0649594415265067   -0.005214638264873499
-0.5684221683760657   -0.0649594415265067   -0.005214638264873499
-0.5684221683760657   -0.0649594415265067   -0.005214638264873499
-0.5684221683760657   -0.0649594415265067   -0.005214638264873499
-0.14225716872047295   0.026896864957897337   0.015628834166388578
-0.14225716872047295   0.026896864957897337   0.015628834166388578
-0.14225716872047295   0.026896864957897337   0.015628834166388578
-0.14225716872047295   0.026896864957897337   0.015628834166388578
-0.13645557664226546   0.06677704660169528   0.0020937512732593228
-0.13645557664226546   0.06677704660169528   0.0020937512732593228
-0.13645557664226546   0.06677704660169528   0.0020937512732593228
-0.13645557664226546   0.06677704660169528   0.0020937512732593228
-0.5625365109789555   -0.023973332996412425   -0.01882985396274837
-0.5625365109789555   -0.023973332996412425   -0.01882985396274837
-0.5625365109789555   -0.023973332996412425   -0.01882985396274837
-0.5625365109789555   -0.023973332996412425   -0.01882985396274837
-0.35133685365679446   0.0007918737293041295   0.004709563135460681
-0.35133685365679446   0.0007918737293041295   0.004709563135460681
-0.35133685365679446   0.0007918737293041295   0.004709563135460681
-0.35133685365679446   0.0007918737293041295   0.004709563135460681
-0.560446325780737   -0.020758588061889682   -0.011593672906178593
-0.560446325780737   -0.020758588061889682   -0.011593672906178593
-0.560446325780737   -0.020758588061889682   -0.011593672906178593
-0.560446325780737   -0.020758588061889682   -0.011593672906178593
-0.1354574505643963   0.06665061294325783   0.007210815321043687
-0.1354574505643963   0.06665061294325783   0.007210815321043687
-0.1354574505643963   0.06665061294325783   0.007210815321043687
-0.1354574505643963   0.06665061294325783   0.007210815321043687
-0.12908378483138055   0.11176308954292237   -0.004857136617249909
-0.12908378483138055   0.11176308954292237   -0.004857136617249909
-0.12908378483138055   0.11176308954292237   -0.004857136617249909
-0.12908378483138055   0.11176308954292237   -0.004857136617249909
-0.556554709000621   0.016357604806499865   -0.027047580565508038
-0.556554709000621   0.016357604806499865   -0.027047580565508038
-0.556554709000621   0.016357604806499865   -0.027047580565508038
-0.556554709000621   0.016357604806499865   -0.027047580565508038
-0.3433220506330029   0.040834339697990094   0.019879977230915575
-0.3433220506330029   0.040834339697990094   0.019879977230915575
-0.3433220506330029   0.040834339697990094   0.019879977230915575
-0.3433220506330029   0.040834339697990094   0.019879977230915575
-0.18333125258438498   -0.1333788367653057   -0.030888554725107233
-0.18333125258438498   -0.1333788367653057   -0.030888554725107233
-0.18333125258438498   -0.1333788367653057   -0.030888554725107233
-0.18333125258438498   -0.1333788367653057   -0.030888554725107233
0.2616393426126701   0.02077438225128802   0.050907245356237286
0.2616393426126701   0.02077438225128802   0.050907245356237286
0.2616393426126701   0.02077438225128802   0.050907245356237286
0.2616393426126701   0.02077438225128802   0.050907245356237286
0.24344219993059465   -0.007179442910750393   -0.02836643572018644
0.24344219993059465   -0.007179442910750393   -0.02836643572018644
0.24344219993059465   -0.007179442910750393   -0.02836643572018644
0.24344219993059465   -0.007179442910750393   -0.02836643572018644
-0.15318862321403579   -0.030976768868786815   0.01884519552525844
-0.15318862321403579   -0.030976768868786815   0.01884519552525844
-0.15318862321403579   -0.030976768868786815   0.01884519552525844
-0.15318862321403579   -0.030976768868786815   0.01884519552525844
0.04048495224031133   -0.036644988069611154   -0.007854854511749785
0.04048495224031133   -0.036644988069611154   -0.007854854511749785
0.04048495224031133   -0.036644988069611154   -0.007854854511749785
0.04048495224031133   -0.036644988069611154   -0.007854854511749785
-0.1770039924035488   -0.09319756507646451   -0.03801085421462892
-0.1770039924035488   -0.09319756507646451   -0.03801085421462892
-0.1770039924035488   -0.09319756507646451   -0.03801085421462892
-0.1770039924035488   -0.09319756507646451   -0.03801085421462892
0.2712384525887802   0.05902223676559926   0.04441314789438815
0.2712384525887802   0.05902223676559926   0.04441314789438815
0.2712384525887802   0.05902223676559926   0.04441314789438815
0.2712384525887802   0.05902223676559926   0.04441314789438815
0.25872978073892633   0.03476607870493997   -0.03213699263102716
0.25872978073892633   0.03476607870493997   -0.03213699263102716
0.25872978073892633   0.03476607870493997   -0.03213699263102716
0.25872978073892633   0.03476607870493997   -0.03213699263102716
-0.14725725458072753   0.0046774701499059795   0.010184938032739389
-0.14725725458072753   0.0046774701499059795   0.010184938032739389
-0.14725725458072753   0.0046774701499059795   0.010184938032739389
-0.14725725458072753   0.0046774701499059795   0.010184938032739389
0.04861396650792957   -0.0005146568164064932   0.008162604836023754
0.04861396650792957   -0.0005146568164064932   0.008162604836023754
0.04861396650792957   -0.0005146568164064932   0.008162604836023754
0.04861396650792957   -0.0005146568164064932   0.008162604836023754
-0.17024011704034   -0.053842402623159494   -0.04620950149225817
-0.17024011704034   -0.053842402623159494   -0.04620950149225817
-0.17024011704034   -0.053842402623159494   -0.04620950149225817
-0.17024011704034   -0.053842402623159494   -0.04620950149225817
0.2851648934882988   0.09673820176776211   0.038066448053009086
0.2851648934882988   0.09673820176776211   0.038066448053009086
0.2851648934882988   0.09673820176776211   0.038066448053009086
0.2851648934882988   0.09673820176776211   0.038066448053009086
0.2710385292719916   0.08258223332974989   -0.03713182608943983
0.2710385292719916   0.08258223332974989   -0.03713182608943983
0.2710385292719916   0.08258223332974989   -0.03713182608943983
0.2710385292719916   0.08258223332974989   -0.03713182608943983
-0.14091767614100148   0.04578987396707945   0.0019466224104869728
-0.14091767614100148   0.04578987396707945   0.0019466224104869728
-0.14091767614100148   0.04578987396707945   0.0019466224104869728
-0.14091767614100148   0.04578987396707945   0.0019466224104869728
0.06118044505317338   0.03879959985521331   0.02475280240096416
0.06118044505317338   0.03879959985521331   0.02475280240096416
0.06118044505317338   0.03879959985521331   0.02475280240096416
0.06118044505317338   0.03879959985521331   0.02475280240096416
0.2081595068350583   -0.134775387936157   -0.060942163344375036
0.2081595068350583   -0.134775387936157   -0.060942163344375036
0.2081595068350583   -0.134775387936157   -0.060942163344375036
0.2081595068350583   -0.134775387936157   -0.060942163344375036
0.6261596727280118   0.06171157325157599   0.06590336986283164
0.6261596727280118   0.06171157325157599   0.06590336986283164
0.6261596727280118   0.06171157325157599   0.06590336986283164
0.6261596727280118   0.06171157325157599   0.06590336986283164
0.6199350880317835   -0.033034978407188886   -0.08022498752004972
0.6199350880317835   -0.033034978407188886   -0.08022498752004972
0.6199350880317835   -0.033034978407188886   -0.08022498752004972
0.6199350880317835   -0.033034978407188886   -0.08022498752004972
0.2626144739495154   0.011140080241929515   0.04917541122173541
0.2626144739495154   0.011140080241929515   0.04917541122173541
0.2626144739495154   0.011140080241929515   0.04917541122173541
0.2626144739495154   0.011140080241929515   0.04917541122173541
0.4068462184542428   -0.027849347600176114   -0.021469862550268764
0.4068462184542428   -0.027849347600176114   -0.021469862550268764
0.4068462184542428   -0.027849347600176114   -0.021469862550268764
0.4068462184542428   -0.027849347600176114   -0.021469862550268764
0.21399787211049778   -0.1122757730281003   -0.07049174470332092
0.21399787211049778   -0.1122757730281003   -0.07049174470332092
0.21399787211049778   -0.1122757730281003   -0.07049174470332092
0.21399787211049778   -0.1122757730281003   -0.07049174470332092
0.6726104865627077   0.09443967155475223   0.05567735517264123
0.6726104865627077   0.09443967155475223   0.05567735517264123
0.6726104865627077   0.09443967155475223   0.05567735517264123
0.6726104865627077   0.09443967155475223   0.05567735517264123
0.6537272396415683   -0.00953483351221733   -0.09620687444711173
0.6537272396415683   -0.00953483351221733   -0.09620687444711173
0.6537272396415683   -0.00953483351221733   -0.09620687444711173
0.6537272396415683   -0.00953483351221733   -0.09620687444711173
0.2715427227662978   0.028353534694995533   0.038340261515770926
0.2715427227662978   0.028353534694995533   0.038340261515770926
0.2715427227662978   0.028353534694995533   0.038340261515770926
0.2715427227662978   0.028353534694995533   0.038340261515770926
0.44100173840284257   -0.004158316265920933   -0.0025947182482624342
0.44100173840284257   -0.004158316265920933   -0.0025947182482624342
0.44100173840284257   -0.004158316265920933   -0.0025947182482624342
0.44100173840284257   -0.004158316265920933   -0.0025947182482624342
0.22331138025991193   -0.0927243448027962   -0.081738571518365
0.22331138025991193   -0.0927243448027962   -0.081738571518365
0.22331138025991193   -0.0927243448027962   -0.081738571518365
0.22331138025991193   -0.0927243448027962   -0.081738571518365
0.7061871564988833   0.11577162033651091   0.04078625599074692
0.7061871564988833   0.11577162033651091   0.04078625599074692
0.7061871564988833   0.11577162033651091   0.04078625599074692
0.7061871564988833   0.11577162033651091   0.04078625599074692
0.7056038936453363   0.04208087894910599   -0.102977921715994
0.7056038936453363   0.04208087894910599   -0.102977921715994
0.7056038936453363   0.04208087894910599   -0.102977921715994
0.7056038936453363   0.04208087894910599   -0.102977921715994
0.2806803710721394   0.06319809418735158   0.030461522053695095
0.2806803710721394   0.06319809418735158   0.030461522053695095
0.2806803710721394   0.06319809418735158   0.030461522053695095
0.2806803710721394   0.06319809418735158   0.030461522053695095
0.45800412742937796   0.021960977716472   0.01364105218519784
0.45800412742937796   0.021960977716472   0.01364105218519784
0.45800412742937796   0.021960977716472   0.01364105218519784
0.45800412742937796   0.021960977716472   0.01364105218519784
-0.8431176701585036   -0.014198468161895933   0.08222699000822983
-0.8431176701585036   -0.014198468161895933   0.08222699000822983
-0.8431176701585036   -0.014198468161895933   0.08222699000822983
-0.8431176701585036   -0.014198468161895933   0.08222699000822983
-0.6573700034382917   -0.08339113476887156   -0.04070254980515457
-0.6573700034382917   -0.08339113476887156   -0.04070254980515457
-0.6573700034382917   -0.08339113476887156   -0.04070254980515457
-0.6573700034382917   -0.08339113476887156   -0.04070254980515457
-0.5950471917772351   0.07067349409908678   0.07031947753940909
-0.5950471917772351   0.07067349409908678   0.07031947753940909
-0.5950471917772351   0.07067349409908678   0.07031947753940909
-0.5950471917772351   0.07067349409908678   0.07031947753940909
-0.8395427912600348   -0.09144251314596132   -0.055392204322406685
-0.8395427912600348   -0.09144251314596132   -0.055392204322406685
-0.8395427912600348   -0.09144251314596132   -0.055392204322406685
-0.8395427912600348   -0.09144251314596132   -0.055392204322406685
-0.705672992958877   -0.01943669333816564   -0.010343640307187617
-0.705672992958877   -0.01943669333816564   -0.010343640307187617
-0.705672992958877   -0.01943669333816564   -0.010343640307187617
-0.705672992958877   -0.01943669333816564   -0.010343640307187617
-0.7877045988036552   0.033791138457189174   0.07856510635634126
-0.7877045988036552   0.033791138457189174   0.07856510635634126
-0.7877045988036552   0.033791138457189174   0.07856510635634126
-0.7877045988036552   0.033791138457189174   0.07856510635634126
-0.643286352961348   -0.0509611262317964   -0.04924170805026888
-0.643286352961348   -0.0509611262317964   -0.04924170805026888
-0.643286352961348   -0.0509611262317964   -0.04924170805026888
-0.643286352961348   -0.0509611262317964   -0.04924170805026888
-0.580269454767311   0.08899706784424155   0.059482032514009846
-0.580269454767311   0.08899706784424155   0.059482032514009846
-0.580269454767311   0.08899706784424155   0.059482032514009846
-0.580269454767311   0.08899706784424155   0.059482032514009846
-0.8010238928349321   -0.07067923166703408   -0.06921580199756565
-0.8010238928349321   -0.07067923166703408   -0.06921580199756565
-0.8010238928349321   -0.07067923166703408   -0.06921580199756565
-0.8010238928349321   -0.07067923166703408   -0.06921580199756565
-0.6855375830553722   0.004551259690174447   0.004959288569264489
-0.6855375830553722   0.004551259690174447   0.004959288569264489
-0.6855375830553722   0.004551259690174447   0.004959288569264489
-0.6855375830553722   0.004551259690174447   0.004959288569264489
-0.749142492325511   0.05602370633858392   0.0634882625439217
-0.749142492325511   0.05602370633858392   0.0634882625439217
-0.749142492325511   0.05602370633858392   0.0634882625439217
-0.749142492325511   0.05602370633858392   0.0634882625439217
-0.6287431600538664   -0.03429817493851017   -0.05959125113601188
-0.6287431600538664   -0.03429817493851017   -0.05959125113601188
-0.6287431600538664   -0.03429817493851017   -0.05959125113601188
-0.6287431600538664   -0.03429817493851017   -0.05959125113601188
-0.5682949495195604   0.11180387794316674   0.05130111130082936
-0.5682949495195604   0.11180387794316674   0.05130111130082936
-0.5682949495195604   0.11180387794316674   0.05130111130082936
-0.5682949495195604   0.11180387794316674   0.05130111130082936
-0.7492726065567606   -0.03744082317010275   -0.08010456571647825
-0.7492726065567606   -0.03744082317010275   -0.08010456571647825
-0.7492726065567606   -0.03744082317010275   -0.08010456571647825
-0.7492726065567606   -0.03744082317010275   -0.08010456571647825
-0.6448862182670436   0.028195733515636895   0.02395230769318419
-0.6448862182670436   0.028195733515636895   0.02395230769318419
-0.6448862182670436   0.028195733515636895   0.02395230769318419
-0.6448862182670436   0.028195733515636895   0.02395230769318419
-0.6343571971246932   -0.04779369221344157   0.03876403920740797
-0.6343571971246932   -0.04779369221344157   0.03876403920740797
-0.6343571971246932   -0.04779369221344157   0.03876403920740797
-0.6343571971246932   -0.04779369221344157   0.03876403920740797
-0.4654683892918584   -0.06322956158866258   -0.01205242760437539
-0.4654683892918584   -0.06322956158866258   -0.01205242760437539
-0.4654683892918584   -0.06322956158866258   -0.01205242760437539
-0.4654683892918584   -0.06322956158866258   -0.01205242760437539
-0.4307065002221594   0.032109064182133176   0.03594799891433041
-0.4307065002221594   0.032109064182133176   0.03594799891433041
-0.4307065002221594   0.032109064182133176   0.03594799891433041
-0.4307065002221594   0.032109064182133176   0.03594799891433041
-0.643706879489037   -0.06751147404914777   -0.034793992871358884
-0.643706879489037   -0.06751147404914777   -0.034793992871358884
-0.643706879489037   -0.06751147404914777   -0.034793992871358884
-0.643706879489037   -0.06751147404914777   -0.034793992871358884
-0.542052350269358   -0.033725191936290436   -0.01458484340354669
-0.542052350269358   -0.033725191936290436   -0.01458484340354669
-0.542052350269358   -0.033725191936290436   -0.01458484340354669
-0.542052350269358   -0.033725191936290436   -0.01458484340354669
-0.6178294083548372   -0.00590728289764357   0.032989171648124496
-0.6178294083548372   -0.00590728289764357   0.032989171648124496
-0.6178294083548372   -0.00590728289764357   0.032989171648124496
-0.6178294083548372   -0.00590728289764357   0.032989171648124496
-0.4536811135503831   -0.026592269163396853   -0.020223734381258258
-0.4536811135503831   -0.026592269163396853   -0.020223734381258258
-0.4536811135503831   -0.026592269163396853   -0.020223734381258258
-0.4536811135503831   -0.026592269163396853   -0.020223734381258258
-0.4179618638311364   0.06937462341096914   0.028754666748291746
-0.4179618638311364   0.06937462341096914   0.028754666748291746
-0.4179618638311364   0.06937462341096914   0.028754666748291746
-0.4179618638311364   0.06937462341096914   0.028754666748291746
-0.6246307769359308   -0.03167428573834265   -0.041653224746493966
-0.6246307769359308   -0.03167428573834265   -0.041653224746493966
-0.6246307769359308   -0.03167428573834265   -0.041653224746493966
-0.6246307769359308   -0.03167428573834265   -0.041653224746493966
-0.5236316440848653   0.0022152148051060166   0.0015125232323842802
-0.5236316440848653   0.0022152148051060166   0.0015125232323842802
-0.5236316440848653   0.0022152148051060166   0.0015125232323842802
-0.5236316440848653   0.0022152148051060166   0.0015125232323842802
-0.5972349196978349   0.033749528357578606   0.029902247348052975
-0.5972349196978349   0.033749528357578606   0.029902247348052975
-0.5972349196978349   0.033749528357578606   0.029902247348052975
-0.5972349196978349   0.033749528357578606   0.029902247348052975
-0.4420064596287161   0.00730207075556423   -0.029395759584205147
-0.4420064596287161   0.00730207075556423   -0.029395759584205147
-0.4420064596287161   0.00730207075556423   -0.029395759584205147
-0.4420064596287161   0.00730207075556423   -0.029395759584205147
-0.4052581425232833   0.10981583537713276   0.021903378844086087
-0.4052581425232833   0.10981583537713276   0.021903378844086087
-0.4052581425232833   0.10981583537713276   0.021903378844086087
-0.4052581425232833   0.10981583537713276   0.021903378844086087
-0.608877398274527   0.007459341051344132   -0.047266595582173124
-0.608877398274527   0.007459341051344132   -0.047266595582173124
-0.608877398274527   0.007459341051344132   -0.047266595582173124
-0.608877398274527   0.007459341051344132   -0.047266595582173124
-0.5103078739621201   0.03743819447674157   0.017254143784182177
-0.5103078739621201   0.03743819447674157   0.017254143784182177
-0.5103078739621201   0.03743819447674157   0.017254143784182177
-0.5103078739621201   0.03743819447674157   0.017254143784182177
-0.46491879699546385   -0.07934812869526328   0.006814100984190231
-0.46491879699546385   -0.07934812869526328   0.006814100984190231
-0.46491879699546385   -0.07934812869526328   0.006814100984190231
-0.46491879699546385   -0.07934812869526328   0.006814100984190231
-0.2761758950360083   -0.033323152865676664   0.01708782270338904
-0.2761758950360083   -0.033323152865676664   0.01708782270338904
-0.2761758950360083   -0.033323152865676664   0.01708782270338904
-0.2761758950360083   -0.033323152865676664   0.01708782270338904
-0.26668249043910325   -0.000672511508651899   0.0022072735522727024
-0.26668249043910325   -0.000672511508651899   0.0022072735522727024
-0.26668249043910325   -0.000672511508651899   0.0022072735522727024
-0.26668249043910325   -0.000672511508651899   0.0022072735522727024
-0.45236433321987096   -0.03620533151654078   -0.004026770375553537
-0.45236433321987096   -0.03620533151654078   -0.004026770375553537
-0.45236433321987096   -0.03620533151654078   -0.004026770375553537
-0.45236433321987096   -0.03620533151654078   -0.004026770375553537
-0.3656155032113289   -0.0356394714991639   -0.01061892196411254
-0.3656155032113289   -0.0356394714991639   -0.01061892196411254
-0.3656155032113289   -0.0356394714991639   -0.01061892196411254
-0.3656155032113289   -0.0356394714991639   -0.01061892196411254
-0.4518269457402133   -0.03804324181507511   0.0004980773212667489
-0.4518269457402133   -0.03804324181507511   0.0004980773212667489
-0.4518269457402133   -0.03804324181507511   0.0004980773212667489
-0.4518269457402133   -0.03804324181507511   0.0004980773212667489
-0.2643332585764179   0.004052018132225069   0.00922890322482268
-0.2643332585764179   0.004052018132225069   0.00922890322482268
-0.2643332585764179   0.004052018132225069   0.00922890322482268
-0.2643332585764179   0.004052018132225069   0.00922890322482268
-0.25284142370819307   0.04099810133931553   -0.0036677695548710497
-0.25284142370819307   0.04099810133931553   -0.0036677695548710497
-0.25284142370819307   0.04099810133931553   -0.0036677695548710497
-0.25284142370819307   0.04099810133931553   -0.0036677695548710497
-0.43959670852286514   0.001702888536407432   -0.011747821835793818
-0.43959670852286514   0.001702888536407432   -0.011747821835793818
-0.43959670852286514   0.001702888536407432   -0.011747821835793818
-0.43959670852286514   0.001702888536407432   -0.011747821835793818
-0.35101699924559737   0.0018284774257234099   0.004990283430228174
-0.35101699924559737   0.0018284774257234099   0.004990283430228174
-0.35101699924559737   0.0018284774257234099   0.004990283430228174
-0.35101699924559737   0.0018284774257234099   0.004990283430228174
-0.43807197421852884   0.0035010773272340368   -0.005922339104942772
-0.43807197421852884   0.0035010773272340368   -0.005922339104942772
-0.43807197421852884   0.0035010773272340368   -0.005922339104942772
-0.43807197421852884   0.0035010773272340368   -0.005922339104942772
-0.251755755579362   0.041810314981661274   0.0009483574469414703
-0.251755755579362   0.041810314981661274   0.0009483574469414703
-0.251755755579362   0.041810314981661274   0.0009483574469414703
-0.251755755579362   0.041810314981661274   0.0009483574469414703
-0.239768462734787   0.08305007107544886   -0.010371495486597014
-0.239768462734787   0.08305007107544886   -0.010371495486597014
-0.239768462734787   0.08305007107544886   -0.010371495486597014
-0.239768462734787   0.08305007107544886   -0.010371495486597014
-0.42762091646983347   0.03990367466000966   -0.019998330171539527
-0.42762091646983347   0.03990367466000966   -0.019998330171539527
-0.42762091646983347   0.03990367466000966   -0.019998330171539527
-0.42762091646983347   0.03990367466000966   -0.019998330171539527
-0.33720717279258366   0.039430877199408465   0.019971453055265733
-0.33720717279258366   0.039430877199408465   0.019971453055265733
-0.33720717279258366   0.039430877199408465   0.019971453055265733
-0.33720717279258366   0.039430877199408465   0.019971453055265733
-0.29938110483746305   -0.10671952678658012   -0.02554185238298566
-0.29938110483746305   -0.10671952678658012   -0.02554185238298566
-0.29938110483746305   -0.10671952678658012   -0.02554185238298566
-0.29938110483746305   -0.10671952678658012   -0.02554185238298566
-0.09215284703328469   -0.0015686004170322818   0.04480683027167043
-0.09215284703328469   -0.0015686004170322818   0.04480683027167043
-0.09215284703328469   -0.0015686004170322818   0.04480683027167043
-0.09215284703328469   -0.0015686004170322818   0.04480683027167043
-0.10483088740507555   -0.03164853774121173   -0.03287138464581102
-0.10483088740507555   -0.03164853774121173   -0.03287138464581102
-0.10483088740507555   -0.03164853774121173   -0.03287138464581102
-0.10483088740507555   -0.03164853774121173   -0.03287138464581102
-0.2626772006068346   -0.004075817464497686   0.025637028669459584
-0.2626772006068346   -0.004075817464497686   0.025637028669459584
-0.2626772006068346   -0.004075817464497686   0.025637028669459584
-0.2626772006068346   -0.004075817464497686   0.025637028669459584
-0.1897321295793902   -0.03443141535162027   -0.007662735135608583
-0.1897321295793902   -0.03443141535162027   -0.007662735135608583
-0.1897321295793902   -0.03443141535162027   -0.007662735135608583
-0.1897321295793902   -0.03443141535162027   -0.007662735135608583
-0.2870458221676202   -0.06797802257029094   -0.03230387402867776
-0.2870458221676202   -0.06797802257029094   -0.03230387402867776
-0.2870458221676202   -0.06797802257029094   -0.03230387402867776
-0.2870458221676202   -0.06797802257029094   -0.03230387402867776
-0.0772275484383608   0.03548838477051311   0.0380083876760398
-0.0772275484383608   0.03548838477051311   0.0380083876760398
-0.0772275484383608   0.03548838477051311   0.0380083876760398
-0.0772275484383608   0.03548838477051311   0.0380083876760398
-0.08459999064563074   0.007770976780473626   -0.03700479274951918
-0.08459999064563074   0.007770976780473626   -0.03700479274951918
-0.08459999064563074   0.007770976780473626   -0.03700479274951918
-0.08459999064563074   0.007770976780473626   -0.03700479274951918
-0.2508952772791072   0.029962473393361867   0.017098590536512172
-0.2508952772791072   0.029962473393361867   0.017098590536512172
-0.2508952772791072   0.029962473393361867   0.017098590536512172
-0.2508952772791072   0.029962473393361867   0.017098590536512172
-0.17420677138446536   0.00046160166767236777   0.008243431237905949
-0.17420677138446536   0.00046160166767236777   0.008243431237905949
-0.17420677138446536   0.00046160166767236777   0.008243431237905949
-0.17420677138446536   0.00046160166767236777   0.008243431237905949
-0.2744905122098753   -0.03082432593938786   -0.04009078478458203
-0.2744905122098753   -0.03082432593938786   -0.04009078478458203
-0.2744905122098753   -0.03082432593938786   -0.04009078478458203
-0.2744905122098753   -0.03082432593938786   -0.04009078478458203
-0.05799369683732991   0.07156883499075072   0.03222881808170977
-0.05799369683732991   0.07156883499075072   0.03222881808170977
-0.05799369683732991   0.07156883499075072   0.03222881808170977
-0.05799369683732991   0.07156883499075072   0.03222881808170977
-0.06748636324849046   0.051796378472813494   -0.04145216795333849
-0.06748636324849046   0.051796378472813494   -0.04145216795333849
-0.06748636324849046   0.051796378472813494   -0.04145216795333849
-0.06748636324849046   0.051796378472813494   -0.04145216795333849
-0.2388338656022593   0.06848407400455114   0.008867487246939212
-0.2388338656022593   0.06848407400455114   0.008867487246939212
-0.2388338656022593   0.06848407400455114   0.008867487246939212
-0.2388338656022593   0.06848407400455114   0.008867487246939212
-0.1581315009530877   0.0368423417228382   0.02415453931477603
-0.1581315009530877   0.0368423417228382   0.02415453931477603
-0.1581315009530877   0.0368423417228382   0.02415453931477603
-0.1581315009530877   0.0368423417228382   0.02415453931477603
-0.13485514080555389   -0.11477225935753785   -0.055500979649171917
-0.13485514080555389   -0.11477225935753785   -0.055500979649171917
-0.13485514080555389   -0.11477225935753785   -0.055500979649171917
-0.13485514080555389   -0.11477225935753785   -0.055500979649171917
0.046993076098758586   0.03400850359987035   0.0682976807848436
0.046993076098758586   0.03400850359987035   0.0682976807848436
0.046993076098758586   0.03400850359987035   0.0682976807848436
0.046993076098758586   0.03400850359987035   0.0682976807848436
0.047360262083061655   -0.05644334349896148   -0.07348749561626586
0.047360262083061655   -0.05644334349896148   -0.07348749561626586
0.047360262083061655   -0.05644334349896148   -0.07348749561626586
0.047360262083061655   -0.05644334349896148   -0.07348749561626586
-0.07366727783399679   0.03540038439453111   0.055897741073839914
-0.07366727783399679   0.03540038439453111   0.055897741073839914
-0.07366727783399679   0.03540038439453111   0.055897741073839914
-0.07366727783399679   0.03540038439453111   0.055897741073839914
-0.030080268969549594   -0.024339496490459737   -0.013006843628899924
-0.030080268969549594   -0.024339496490459737   -0.013006843628899924
-0.030080268969549594   -0.024339496490459737   -0.013006843628899924
-0.030080268969549594   -0.024339496490459737   -0.013006843628899924
-0.12237902735541413   -0.08845485557595581   -0.06380576656276175
-0.12237902735541413   -0.08845485557595581   -0.06380576656276175
-0.12237902735541413   -0.08845485557595581   -0.06380576656276175
-0.12237902735541413   -0.08845485557595581   -0.06380576656276175
0.09953063113374101   0.07087051600078204   0.060050490137387405
0.09953063113374101   0.07087051600078204   0.060050490137387405
0.09953063113374101   0.07087051600078204   0.060050490137387405
0.09953063113374101   0.07087051600078204   0.060050490137387405
0.08607997345913844   -0.03386500398061995   -0.08728968255514706
0.08607997345913844   -0.03386500398061995   -0.08728968255514706
0.08607997345913844   -0.03386500398061995   -0.08728968255514706
0.08607997345913844   -0.03386500398061995   -0.08728968255514706
-0.059431235664066565   0.051783321384982116   0.044826637553793215
-0.059431235664066565   0.051783321384982116   0.044826637553793215
-0.059431235664066565   0.051783321384982116   0.044826637553793215
-0.059431235664066565   0.051783321384982116   0.044826637553793215
0.0017731385128013414   -0.0011130783548686009   0.00423463664736166
0.0017731385128013414   -0.0011130783548686009   0.00423463664736166
0.0017731385128013414   -0.0011130783548686009   0.00423463664736166
0.0017731385128013414   -0.0011130783548686009   0.00423463664736166
-0.10748615082414106   -0.06987767974880489   -0.07378693711279229
-0.10748615082414106   -0.06987767974880489   -0.07378693711279229
-0.10748615082414106   -0.06987767974880489   -0.07378693711279229
-0.10748615082414106   -0.06987767974880489   -0.07378693711279229
0.1375960619473657   0.09125717048131984   0.045168585424049564
0.1375960619473657   0.09125717048131984   0.045168585424049564
0.1375960619473657   0.09125717048131984   0.045168585424049564
0.1375960619473657   0.09125717048131984   0.045168585424049564
0.14032507827990018   0.010340244243851313   -0.09347243487158237
0.14032507827990018   0.010340244243851313   -0.09347243487158237
0.14032507827990018   0.010340244243851313   -0.09347243487158237
0.14032507827990018   0.010340244243851313   -0.09347243487158237
-0.04613041661730472   0.08069686378986747   0.03642707988553816
-0.04613041661730472   0.08069686378986747   0.03642707988553816
-0.04613041661730472   0.08069686378986747   0.03642707988553816
-0.04613041661730472   0.08069686378986747   0.03642707988553816
0.03044671194597579   0.02329768645696703   0.021081616287039067
0.03044671194597579   0.02329768645696703   0.021081616287039067
0.03044671194597579   0.02329768645696703   0.021081616287039067
0.03044671194597579   0.02329768645696703   0.021081616287039067
-0.27977353553060963   0.015873644441906143   0.07802487834105186
-0.27977353553060963   0.015873644441906143   0.07802487834105186
-0.27977353553060963   0.015873644441906143   0.07802487834105186
-0.27977353553060963   0.015873644441906143   0.07802487834105186
-0.3320326364214565   -0.1017448896426285   -0.04601054380288576
-0.3320326364214565   -0.1017448896426285   -0.04601054380288576
-0.3320326364214565   -0.1017448896426285   -0.04601054380288576
-0.3320326364214565   -0.1017448896426285   -0.04601054380288576
-0.26508586831152864   0.04730605535731444   0.06389371524543525
-0.26508586831152864   0.04730605535731444   0.06389371524543525
-0.26508586831152864   0.04730605535731444   0.06389371524543525
-0.26508586831152864   0.04730605535731444   0.06389371524543525
-0.27166482336186554   -0.06698577302881611   -0.05927884309699245
-0.27166482336186554   -0.06698577302881611   -0.05927884309699245
-0.27166482336186554   -0.06698577302881611   -0.05927884309699245
-0.27166482336186554   -0.06698577302881611   -0.05927884309699245
-0.2798621576655164   -0.021529942984379852   -0.021316343620595833
-0.2798621576655164   -0.021529942984379852   -0.021316343620595833
-0.2798621576655164   -0.021529942984379852   -0.021316343620595833
-0.2798621576655164   -0.021529942984379852   -0.021316343620595833
-0.22027174768706903   0.058025240735627155   0.07267552151253923
-0.22027174768706903   0.058025240735627155   0.07267552151253923
-0.22027174768706903   0.058025240735627155   0.07267552151253923
-0.22027174768706903   0.058025240735627155   0.07267552151253923
-0.31326210185460973   -0.07448811627541405   -0.055193280837237936
-0.31326210185460973   -0.07448811627541405   -0.055193280837237936
-0.31326210185460973   -0.07448811627541405   -0.055193280837237936
-0.31326210185460973   -0.07448811627541405   -0.055193280837237936
-0.2444051489094515   0.06524273866549506   0.05377530573956869
-0.2444051489094515   0.06524273866549506   0.05377530573956869
-0.2444051489094515   0.06524273866549506   0.05377530573956869
-0.2444051489094515   0.06524273866549506   0.05377530573956869
-0.22740416944129666   -0.046714991237113326   -0.07385133841616681
-0.22740416944129666   -0.046714991237113326   -0.07385133841616681
-0.22740416944129666   -0.046714991237113326   -0.07385133841616681
-0.22740416944129666   -0.046714991237113326   -0.07385133841616681
-0.24720880617820154   0.001390638195848476   -0.004411241250002111
-0.24720880617820154   0.001390638195848476   -0.004411241250002111
-0.24720880617820154   0.001390638195848476   -0.004411241250002111
-0.24720880617820154   0.001390638195848476   -0.004411241250002111
-0.17571021847616378   0.07983945719892849   0.05806396797344814
-0.17571021847616378   0.07983945719892849   0.05806396797344814
-0.17571021847616378   0.07983945719892849   0.05806396797344814
-0.17571021847616378   0.07983945719892849   0.05806396797344814
-0.29306424703906897   -0.05827685693503194   -0.06600058930798759
-0.29306424703906897   -0.05827685693503194   -0.06600058930798759
-0.29306424703906897   -0.05827685693503194   -0.06600058930798759
-0.29306424703906897   -0.05827685693503194   -0.06600058930798759
-0.22548100421136913   0.09262768067323883   0.046446351154838146
-0.22548100421136913   0.09262768067323883   0.046446351154838146
-0.22548100421136913   0.09262768067323883   0.046446351154838146
-0.22548100421136913   0.09262768067323883   0.046446351154838146
-0.1683263743860913   -0.008181976758594937   -0.08319826651058823
-0.1683263743860913   -0.008181976758594937   -0.08319826651058823
-0.1683263743860913   -0.008181976758594937   -0.08319826651058823
-0.1683263743860913   -0.008181976758594937   -0.08319826651058823
-0.20793993640924602   0.02533090541859289   0.01369332125226495
-0.20793993640924602   0.02533090541859289   0.01369332125226495
-0.20793993640924602   0.02533090541859289   0.01369332125226495
-0.20793993640924602   0.02533090541859289   0.01369332125226495
-0.2972783109173747   -0.018314851314927237   0.04433104538981769
-0.2972783109173747   -0.018314851314927237   0.04433104538981769
-0.2972783109173747   -0.018314851314927237   0.04433104538981769
-0.2972783109173747   -0.018314851314927237   0.04433104538981769
-0.36864823611435504   -0.08298980416880045   -0.017977157352510542
-0.36864823611435504   -0.08298980416880045   -0.017977157352510542
-0.36864823611435504   -0.08298980416880045   -0.017977157352510542
-0.36864823611435504   -0.08298980416880045   -0.017977157352510542
-0.32859870286866305   0.008398379425831312   0.029647097883162467
-0.32859870286866305   0.008398379425831312   0.029647097883162467
-0.32859870286866305   0.008398379425831312   0.029647097883162467
-0.32859870286866305   0.008398379425831312   0.029647097883162467
-0.30062555152421083   -0.039265413804785466   -0.027233231655868023
-0.30062555152421083   -0.039265413804785466   -0.027233231655868023
-0.30062555152421083   -0.039265413804785466   -0.027233231655868023
-0.30062555152421083   -0.039265413804785466   -0.027233231655868023
-0.32401225154158764   -0.03051371666569659   -0.015016898773711825
-0.32401225154158764   -0.03051371666569659   -0.015016898773711825
-0.32401225154158764   -0.03051371666569659   -0.015016898773711825
-0.32401225154158764   -0.03051371666569659   -0.015016898773711825
-0.2754185559769508   0.02084354640222419   0.03869278587341467
-0.2754185559769508   0.02084354640222419   0.03869278587341467
-0.2754185559769508   0.02084354640222419   0.03869278587341467
-0.2754185559769508   0.02084354640222419   0.03869278587341467
-0.35128661302047903   -0.04919149538573601   -0.026202578064352458
-0.35128661302047903   -0.04919149538573601   -0.026202578064352458
-0.35128661302047903   -0.04919149538573601   -0.026202578064352458
-0.35128661302047903   -0.04919149538573601   -0.026202578064352458
-0.3101300964722231   0.04408070820532117   0.02262106450811734
-0.3101300964722231   0.04408070820532117   0.02262106450811734
-0.3101300964722231   0.04408070820532117   0.02262106450811734
-0.3101300964722231   0.04408070820532117   0.02262106450811734
-0.2759420902256608   -0.00486250576634073   -0.033804156409634245
-0.2759420902256608   -0.00486250576634073   -0.033804156409634245
-0.2759420902256608   -0.00486250576634073   -0.033804156409634245
-0.2759420902256608   -0.00486250576634073   -0.033804156409634245
-0.3019571538419319   0.0027930715478656776   0.0005898321207270275
-0.3019571538419319   0.0027930715478656776   0.0005898321207270275
-0.3019571538419319   0.0027930715478656776   0.0005898321207270275
-0.3019571538419319   0.0027930715478656776   0.0005898321207270275
-0.2495098613059029   0.05864953235126924   0.03484495007153747
-0.2495098613059029   0.05864953235126924   0.03484495007153747
-0.2495098613059029   0.05864953235126924   0.03484495007153747
-0.2495098613059029   0.05864953235126924   0.03484495007153747
-0.33387736193051204   -0.016746366450822087   -0.035288188127189764
-0.33387736193051204   -0.016746366450822087   -0.035288188127189764
-0.33387736193051204   -0.016746366450822087   -0.035288188127189764
-0.33387736193051204   -0.016746366450822087   -0.035288188127189764
-0.29157258663201524   0.08356223194696409   0.015943047253415
-0.29157258663201524   0.08356223194696409   0.015943047253415
-0.29157258663201524   0.08356223194696409   0.015943047253415
-0.29157258663201524   0.08356223194696409   0.015943047253415
-0.254633774595123   0.03330775278458556   -0.03999757287527414
-0.254633774595123   0.03330775278458556   -0.03999757287527414
-0.254633774595123   0.03330775278458556   -0.03999757287527414
-0.254633774595123   0.03330775278458556   -0.03999757287527414
-0.2811066971195893   0.03717567222111562   0.01646937783048389
-0.2811066971195893   0.03717567222111562   0.01646937783048389
-0.2811066971195893   0.03717567222111562   0.01646937783048389
-0.2811066971195893   0.03717567222111562   0.01646937783048389
-0.35601048640771843   -0.050219398565263876   0.012441185577132346
-0.35601048640771843   -0.050219398565263876   0.012441185577132346
-0.35601048640771843   -0.050219398565263876   0.012441185577132346
-0.35601048640771843   -0.050219398565263876   0.012441185577132346
-0.40516773189697214   -0.0523487483720508   0.01087938630146837
-0.40516773189697214   -0.0523487483720508   0.01087938630146837
-0.40516773189697214   -0.0523487483720508   0.01087938630146837
-0.40516773189697214   -0.0523487483720508   0.01087938630146837
-0.39035828391213095   -0.0237662213329397   -0.003837268765288093
-0.39035828391213095   -0.0237662213329397   -0.003837268765288093
-0.39035828391213095   -0.0237662213329397   -0.003837268765288093
-0.39035828391213095   -0.0237662213329397   -0.003837268765288093
-0.3369244049562867   -0.007123835701656686   0.0035408025725318752
-0.3369244049562867   -0.007123835701656686   0.0035408025725318752
-0.3369244049562867   -0.007123835701656686   0.0035408025725318752
-0.3369244049562867   -0.007123835701656686   0.0035408025725318752
-0.37267323889019943   -0.031472849257663985   -0.009960002956030365
-0.37267323889019943   -0.031472849257663985   -0.009960002956030365
-0.37267323889019943   -0.031472849257663985   -0.009960002956030365
-0.37267323889019943   -0.031472849257663985   -0.009960002956030365
-0.3372020449882771   -0.011134805377440472   0.006163572088354214
-0.3372020449882771   -0.011134805377440472   0.006163572088354214
-0.3372020449882771   -0.011134805377440472   0.006163572088354214
-0.3372020449882771   -0.011134805377440472   0.006163572088354214
-0.3877061518579858   -0.01738075963500227   0.0030379298075030696
-0.3877061518579858   -0.01738075963500227   0.0030379298075030696
-0.3877061518579858   -0.01738075963500227   0.0030379298075030696
-0.3877061518579858   -0.01738075963500227   0.0030379298075030696
-0.3709604147734411   0.015831588880464334   -0.00974061386493336
-0.3709604147734411   0.015831588880464334   -0.00974061386493336
-0.3709604147734411   0.015831588880464334   -0.00974061386493336
-0.3709604147734411   0.015831588880464334   -0.00974061386493336
-0.31851816035621394   0.028810034789863853   -0.004048581496379468
-0.31851816035621394   0.028810034789863853   -0.004048581496379468
-0.31851816035621394   0.028810034789863853   -0.004048581496379468
-0.31851816035621394   0.028810034789863853   -0.004048581496379468
-0.35241054132979055   0.003927472398342208   0.0054466865271293255
-0.35241054132979055   0.003927472398342208   0.0054466865271293255
-0.35241054132979055   0.003927472398342208   0.0054466865271293255
-0.35241054132979055   0.003927472398342208   0.0054466865271293255
-0.31787913646140786   0.02832273489113807   -0.00036616212362872505
-0.31787913646140786   0.02832273489113807   -0.00036616212362872505
-0.31787913646140786   0.02832273489113807   -0.00036616212362872505
-0.31787913646140786   0.02832273489113807   -0.00036616212362872505
-0.3695285929764284   0.018389734471013122   -0.005139650470418644
-0.3695285929764284   0.018389734471013122   -0.005139650470418644
-0.3695285929764284   0.018389734471013122   -0.005139650470418644
-0.3695285929764284   0.018389734471013122   -0.005139650470418644
-0.3523867937836139   0.0556689402015761   -0.016406125149926724
-0.3523867937836139   0.0556689402015761   -0.016406125149926724
-0.3523867937836139   0.0556689402015761   -0.016406125149926724
-0.3523867937836139   0.0556689402015761   -0.016406125149926724
-0.30097133976863105   0.06489101993495922   -0.012379506417657303
-0.30097133976863105   0.06489101993495922   -0.012379506417657303
-0.30097133976863105   0.06489101993495922   -0.012379506417657303
-0.30097133976863105   0.06489101993495922   -0.012379506417657303
-0.33308283646957204   0.03939215628797907   0.02013268652236894
-0.33308283646957204   0.03939215628797907   0.02013268652236894
-0.33308283646957204   0.03939215628797907   0.02013268652236894
-0.33308283646957204   0.03939215628797907   0.02013268652236894
-0.41683533408677964   -0.07952328207166404   -0.020284090947962703
-0.41683533408677964   -0.07952328207166404   -0.020284090947962703
-0.41683533408677964   -0.07952328207166404   -0.020284090947962703
-0.41683533408677964   -0.07952328207166404   -0.020284090947962703
-0.4447716298026461   -0.022340966508556048   0.03846189930696929
-0.4447716298026461   -0.022340966508556048   0.03846189930696929
-0.4447716298026461   -0.022340966508556048   0.03846189930696929
-0.4447716298026461   -0.022340966508556048   0.03846189930696929
-0.45190243923801793   -0.05459806723104191   -0.03774898153207814
-0.45190243923801793   -0.05459806723104191   -0.03774898153207814
-0.45190243923801793   -0.05459806723104191   -0.03774898153207814
-0.45190243923801793   -0.05459806723104191   -0.03774898153207814
-0.37358099333328243   0.023847065922831936   0.032435896873182865
-0.37358099333328243   0.023847065922831936   0.032435896873182865
-0.37358099333328243   0.023847065922831936   0.032435896873182865
-0.37358099333328243   0.023847065922831936   0.032435896873182865
-0.42002432377764665   -0.031005145234386612   -0.006257593453597854
-0.42002432377764665   -0.031005145234386612   -0.006257593453597854
-0.42002432377764665   -0.031005145234386612   -0.006257593453597854
-0.42002432377764665   -0.031005145234386612   -0.006257593453597854
-0.39853693759258335   -0.04172876857969837   -0.026767989920795106
-0.39853693759258335   -0.04172876857969837   -0.026767989920795106
-0.39853693759258335   -0.04172876857969837   -0.026767989920795106
-0.39853693759258335   -0.04172876857969837   -0.026767989920795106
-0.4244566102839023   0.013467651966302466   0.031414444041155426
-0.4244566102839023   0.013467651966302466   0.031414444041155426
-0.4244566102839023   0.013467651966302466   0.031414444041155426
-0.4244566102839023   0.013467651966302466   0.031414444041155426
-0.42649533239638754   -0.017047734324302205   -0.04235239293452784
-0.42649533239638754   -0.017047734324302205   -0.04235239293452784
-0.42649533239638754   -0.017047734324302205   -0.04235239293452784
-0.42649533239638754   -0.017047734324302205   -0.04235239293452784
-0.3561101083619484   0.05625768053273339   0.024084826540257676
-0.3561101083619484   0.05625768053273339   0.024084826540257676
-0.3561101083619484   0.05625768053273339   0.024084826540257676
-0.3561101083619484   0.05625768053273339   0.024084826540257676
-0.3970118439372972   0.0030818297835746578   0.00964408996872922
-0.3970118439372972   0.0030818297835746578   0.00964408996872922
-0.3970118439372972   0.0030818297835746578   0.00964408996872922
-0.3970118439372972   0.0030818297835746578   0.00964408996872922
-0.3802931063327296   -0.006209422567379205   -0.03436306021354016
-0.3802931063327296   -0.006209422567379205   -0.03436306021354016
-0.3802931063327296   -0.006209422567379205   -0.03436306021354016
-0.3802931063327296   -0.006209422567379205   -0.03436306021354016
-0.3997959825877421   0.04793572061366938   0.026160901170731304
-0.3997959825877421   0.04793572061366938   0.026160901170731304
-0.3997959825877421   0.04793572061366938   0.026160901170731304
-0.3997959825877421   0.04793572061366938   0.026160901170731304
-0.40425996933164376   0.024330953256485183   -0.04647201276400611
-0.40425996933164376   0.024330953256485183   -0.04647201276400611
-0.40425996933164376   0.024330953256485183   -0.04647201276400611
-0.40425996933164376   0.024330953256485183   -0.04647201276400611
-0.3385909616756346   0.09239337224667377   0.015848603344872245
-0.3385909616756346   0.09239337224667377   0.015848603344872245
-0.3385909616756346   0.09239337224667377   0.015848603344872245
-0.3385909616756346   0.09239337224667377   0.015848603344872245
-0.3774531517524947   0.03691844669934437   0.024852585097001997
-0.3774531517524947   0.03691844669934437   0.024852585097001997
-0.3774531517524947   0.03691844669934437   0.024852585097001997
-0.3774531517524947   0.03691844669934437   0.024852585097001997
-0.47707827596234065   -0.09462313547444294   -0.05078916252562366
-0.47707827596234065   -0.09462313547444294   -0.05078916252562366
-0.47707827596234065   -0.09462313547444294   -0.05078916252562366
-0.47707827596234065   -0.09462313547444294   -0.05078916252562366
-0.527223875822936   0.007396378735094744   0.069158808155086
-0.527223875822936   0.007396378735094744   0.069158808155086
-0.527223875822936   0.007396378735094744   0.069158808155086
-0.527223875822936   0.007396378735094744   0.069158808155086
-0.5200673947850332   -0.07858584378418947   -0.06763328286872669
-0.5200673947850332   -0.07858584378418947   -0.06763328286872669
-0.5200673947850332   -0.07858584378418947   -0.06763328286872669
-0.5200673947850332   -0.07858584378418947   -0.06763328286872669
-0.40910577824807537   0.059644161055828426   0.06199209513076034
-0.40910577824807537   0.059644161055828426   0.06199209513076034
-0.40910577824807537   0.059644161055828426   0.06199209513076034
-0.40910577824807537   0.059644161055828426   0.06199209513076034
-0.4640078574624651   -0.020294168372931076   -0.003129308933698227
-0.4640078574624651   -0.020294168372931076   -0.003129308933698227
-0.4640078574624651   -0.020294168372931076   -0.003129308933698227
-0.4640078574624651   -0.020294168372931076   -0.003129308933698227
-0.4578948904959432   -0.06423878946931444   -0.058070515583441416
-0.4578948904959432   -0.06423878946931444   -0.058070515583441416
-0.4578948904959432   -0.06423878946931444   -0.058070515583441416
-0.4578948904959432   -0.06423878946931444   -0.058070515583441416
-0.46864604402029963   0.04792934525781742   0.06295828191292957
-0.46864604402029963   0.04792934525781742   0.06295828191292957
-0.46864604402029963   0.04792934525781742   0.06295828191292957
-0.46864604402029963   0.04792934525781742   0.06295828191292957
-0.4762166655427352   -0.056660111021996855   -0.08060509460246362
-0.4762166655427352   -0.056660111021996855   -0.08060509460246362
-0.4762166655427352   -0.056660111021996855   -0.08060509460246362
-0.4762166655427352   -0.056660111021996855   -0.08060509460246362
-0.38944987926230823   0.07508739879946108   0.050739739612105206
-0.38944987926230823   0.07508739879946108   0.050739739612105206
-0.38944987926230823   0.07508739879946108   0.050739739612105206
-0.38944987926230823   0.07508739879946108   0.050739739612105206
-0.43429638552698513   0.002615608774189093   0.012132970213176088
-0.43429638552698513   0.002615608774189093   0.012132970213176088
-0.43429638552698513   0.002615608774189093   0.012132970213176088
-0.43429638552698513   0.002615608774189093   0.012132970213176088
-0.43728977675567066   -0.046190153462617616   -0.06718219559263204
-0.43728977675567066   -0.046190153462617616   -0.06718219559263204
-0.43728977675567066   -0.046190153462617616   -0.06718219559263204
-0.43728977675567066   -0.046190153462617616   -0.06718219559263204
-0.4256184971049634   0.06737571218448543   0.04834992437991294
-0.4256184971049634   0.06737571218448543   0.04834992437991294
-0.4256184971049634   0.06737571218448543   0.04834992437991294
-0.4256184971049634   0.06737571218448543   0.04834992437991294
-0.4186834128973448   -0.018715521011964345   -0.08808184784355014
-0.4186834128973448   -0.018715521011964345   -0.08808184784355014
-0.4186834128973448   -0.018715521011964345   -0.08808184784355014
-0.4186834128973448   -0.018715521011964345   -0.08808184784355014
-0.3718436748089747   0.09814682875172413   0.04179358435409652
-0.3718436748089747   0.09814682875172413   0.04179358435409652
-0.3718436748089747   0.09814682875172413   0.04179358435409652
-0.3718436748089747   0.09814682875172413   0.04179358435409652
-0.3937148398467228   0.025514897665089617   0.02979402482734701
-0.3937148398467228   0.025514897665089617   0.02979402482734701
-0.3937148398467228   0.025514897665089617   0.02979402482734701
-0.3937148398467228   0.025514897665089617   0.02979402482734701
0.2886165255841787   0.04668954976945597   0.07551249125187083
0.2886165255841787   0.04668954976945597   0.07551249125187083
0.2886165255841787   0.04668954976945597   0.07551249125187083
0.2886165255841787   0.04668954976945597   0.07551249125187083
-0.007165882981780405   -0.12138377224907013   -0.049895494416460545
-0.007165882981780405   -0.12138377224907013   -0.049895494416460545
-0.007165882981780405   -0.12138377224907013   -0.049895494416460545
-0.007165882981780405   -0.12138377224907013   -0.049895494416460545
0.06428467257587081   0.023729452044948682   0.05834778633409513
0.06428467257587081   0.023729452044948682   0.05834778633409513
0.06428467257587081   0.023729452044948682   0.05834778633409513
0.06428467257587081   0.023729452044948682   0.05834778633409513
0.3011977976315338   -0.04261865219776803   -0.06243698376814316
0.3011977976315338   -0.04261865219776803   -0.06243698376814316
0.3011977976315338   -0.04261865219776803   -0.06243698376814316
0.3011977976315338   -0.04261865219776803   -0.06243698376814316
0.14726207158863322   -0.02361964720614891   -0.035952473500658846
0.14726207158863322   -0.02361964720614891   -0.035952473500658846
0.14726207158863322   -0.02361964720614891   -0.035952473500658846
0.14726207158863322   -0.02361964720614891   -0.035952473500658846
0.3525030981337042   0.08333146099890368   0.06813940554603676
0.3525030981337042   0.08333146099890368   0.06813940554603676
0.3525030981337042   0.08333146099890368   0.06813940554603676
0.3525030981337042   0.08333146099890368   0.06813940554603676
0.016129931996429012   -0.09907010122899963   -0.059626363289165596
0.016129931996429012   -0.09907010122899963   -0.059626363289165596
0.016129931996429012   -0.09907010122899963   -0.059626363289165596
0.016129931996429012   -0.09907010122899963   -0.059626363289165596
0.09037436401617428   0.041351364850015164   0.048701908562004716
0.09037436401617428   0.041351364850015164   0.048701908562004716
0.09037436401617428   0.041351364850015164   0.048701908562004716
0.09037436401617428   0.041351364850015164   0.048701908562004716
0.35109718815606633   -0.02271034609099054   -0.07812543143493263
0.35109718815606633   -0.02271034609099054   -0.07812543143493263
0.35109718815606633   -0.02271034609099054   -0.07812543143493263
0.35109718815606633   -0.02271034609099054   -0.07812543143493263
0.19228513691459062   -0.0016428039249031523   -0.01688148391830381
0.19228513691459062   -0.0016428039249031523   -0.01688148391830381
0.19228513691459062   -0.0016428039249031523   -0.01688148391830381
0.19228513691459062   -0.0016428039249031523   -0.01688148391830381
0.40297135797159245   0.10486449686586617   0.053670574685841514
0.40297135797159245   0.10486449686586617   0.053670574685841514
0.40297135797159245   0.10486449686586617   0.053670574685841514
0.40297135797159245   0.10486449686586617   0.053670574685841514
0.0415843568068688   -0.0831393155006202   -0.07075744713388352
0.0415843568068688   -0.0831393155006202   -0.07075744713388352
0.0415843568068688   -0.0831393155006202   -0.07075744713388352
0.0415843568068688   -0.0831393155006202   -0.07075744713388352
0.1156967553431227   0.07369135312547613   0.04214525318055312
0.1156967553431227   0.07369135312547613   0.04214525318055312
0.1156967553431227   0.07369135312547613   0.04214525318055312
0.1156967553431227   0.07369135312547613   0.04214525318055312
0.41732971726868884   0.02185299203366864   -0.08616443748830797
0.41732971726868884   0.02185299203366864   -0.08616443748830797
0.41732971726868884   0.02185299203366864   -0.08616443748830797
0.41732971726868884   0.02185299203366864   -0.08616443748830797
0.2301088492462309   0.022977241466104713   0.0011587603174245727
0.2301088492462309   0.022977241466104713   0.0011587603174245727
0.2301088492462309   0.022977241466104713   0.0011587603174245727
0.2301088492462309   0.022977241466104713   0.0011587603174245727
0.03984447703883524   0.012548897183207692   0.051223636254339816
0.03984447703883524   0.012548897183207692   0.051223636254339816
0.03984447703883524   0.012548897183207692   0.051223636254339816
0.03984447703883524   0.012548897183207692   0.051223636254339816
-0.27480000571130325   -0.10304192439927339   -0.022886648997394423
-0.27480000571130325   -0.10304192439927339   -0.022886648997394423
-0.27480000571130325   -0.10304192439927339   -0.022886648997394423
-0.27480000571130325   -0.10304192439927339   -0.022886648997394423
-0.22969079889512883   -0.014947248711225533   0.023422841182849687
-0.22969079889512883   -0.014947248711225533   0.023422841182849687
-0.22969079889512883   -0.014947248711225533   0.023422841182849687
-0.22969079889512883   -0.014947248711225533   0.023422841182849687
0.0418495371801892   -0.011902318887592401   -0.018196119711771847
0.0418495371801892   -0.011902318887592401   -0.018196119711771847
0.0418495371801892   -0.011902318887592401   -0.018196119711771847
0.0418495371801892   -0.011902318887592401   -0.018196119711771847
-0.10796138545165336   -0.026696713490974116   -0.017291369508875745
-0.10796138545165336   -0.026696713490974116   -0.017291369508875745
-0.10796138545165336   -0.026696713490974116   -0.017291369508875745
-0.10796138545165336   -0.026696713490974116   -0.017291369508875745
0.06670555700562456   0.04873648861493079   0.0454451719128779
0.06670555700562456   0.04873648861493079   0.0454451719128779
0.06670555700562456   0.04873648861493079   0.0454451719128779
0.06670555700562456   0.04873648861493079   0.0454451719128779
-0.252254966231722   -0.07329420372490715   -0.031051040486434416
-0.252254966231722   -0.07329420372490715   -0.031051040486434416
-0.252254966231722   -0.07329420372490715   -0.031051040486434416
-0.252254966231722   -0.07329420372490715   -0.031051040486434416
-0.20589854148560804   0.019218439924531726   0.01655702330467529
-0.20589854148560804   0.019218439924531726   0.01655702330467529
-0.20589854148560804   0.019218439924531726   0.01655702330467529
-0.20589854148560804   0.019218439924531726   0.01655702330467529
0.07154690725921173   0.020537448015013532   -0.024621458387806414
0.07154690725921173   0.020537448015013532   -0.024621458387806414
0.07154690725921173   0.020537448015013532   -0.024621458387806414
0.07154690725921173   0.020537448015013532   -0.024621458387806414
-0.08274496984280799   0.003455721374465686   -0.0020922649341042652
-0.08274496984280799   0.003455721374465686   -0.0020922649341042652
-0.08274496984280799   0.003455721374465686   -0.0020922649341042652
-0.08274496984280799   0.003455721374465686   -0.0020922649341042652
0.09744700343962023   0.08471619862874355   0.04070027190050611
0.09744700343962023   0.08471619862874355   0.04070027190050611
0.09744700343962023   0.08471619862874355   0.04070027190050611
0.09744700343962023   0.08471619862874355   0.04070027190050611
-0.22959377800270483   -0.042755451025886564   -0.03994526833039035
-0.22959377800270483   -0.042755451025886564   -0.03994526833039035
-0.22959377800270483   -0.042755451025886564   -0.03994526833039035
-0.22959377800270483   -0.042755451025886564   -0.03994526833039035
-0.18196610174951194   0.05784319725895576   0.010011976650965822
-0.18196610174951194   0.05784319725895576   0.010011976650965822
-0.18196610174951194   0.05784319725895576   0.010011976650965822
-0.18196610174951194   0.05784319725895576   0.010011976650965822
0.09770218432646534   0.05730814146048873   -0.03144439023774241
0.09770218432646534   0.05730814146048873   -0.03144439023774241
0.09770218432646534   0.05730814146048873   -0.03144439023774241
0.09770218432646534   0.05730814146048873   -0.03144439023774241
-0.05487126997650707   0.03673335135280138   0.014106748428783773
-0.05487126997650707   0.03673335135280138   0.014106748428783773
-0.05487126997650707   0.03673335135280138   0.014106748428783773
-0.05487126997650707   0.03673335135280138   0.014106748428783773
-0.24988827574353256   -0.01978559926102071   0.018415675703209903
-0.24988827574353256   -0.01978559926102071   0.018415675703209903
-0.24988827574353256   -0.01978559926102071   0.018415675703209903
-0.24988827574353256   -0.01978559926102071   0.018415675703209903
-0.5375954857023189   -0.07314960787995944   0.004763389587306193
-0.5375954857023189   -0.07314960787995944   0.004763389587306193
-0.5375954857023189   -0.07314960787995944   0.004763389587306193
-0.5375954857023189   -0.07314960787995944   0.004763389587306193
-0.5167513328646696   -0.045823852751429014   -0.010132354767946775
-0.5167513328646696   -0.045823852751429014   -0.010132354767946775
-0.5167513328646696   -0.045823852751429014   -0.010132354767946775
-0.5167513328646696   -0.045823852751429014   -0.010132354767946775
-0.2252820335959104   0.019078407218484417   0.011441011749235702
-0.2252820335959104   0.019078407218484417   0.011441011749235702
-0.2252820335959104   0.019078407218484417   0.011441011749235702
-0.2252820335959104   0.019078407218484417   0.011441011749235702
-0.3829384749945051   -0.02746867522874708   -0.010058546057851706
-0.3829384749945051   -0.02746867522874708   -0.010058546057851706
-0.3829384749945051   -0.02746867522874708   -0.010058546057851706
-0.3829384749945051   -0.02746867522874708   -0.010058546057851706
-0.22558270587939802   0.016866295924392566   0.012149761625889464
-0.22558270587939802   0.016866295924392566   0.012149761625889464
-0.22558270587939802   0.016866295924392566   0.012149761625889464
-0.22558270587939802   0.016866295924392566   0.012149761625889464
-0.5144863072716809   -0.04164738814783597   -0.0029836914065957884
-0.5144863072716809   -0.04164738814783597   -0.0029836914065957884
-0.5144863072716809   -0.04164738814783597   -0.0029836914065957884
-0.5144863072716809   -0.04164738814783597   -0.0029836914065957884
-0.49173626772615286   -0.008210686117368776   -0.015934078662603657
-0.49173626772615286   -0.008210686117368776   -0.015934078662603657
-0.49173626772615286   -0.008210686117368776   -0.015934078662603657
-0.49173626772615286   -0.008210686117368776   -0.015934078662603657
-0.20172483524081575   0.0524418066637034   0.004202187789468941
-0.20172483524081575   0.0524418066637034   0.004202187789468941
-0.20172483524081575   0.0524418066637034   0.004202187789468941
-0.20172483524081575   0.0524418066637034   0.004202187789468941
-0.3571131263376149   0.005573439450426987   0.005250782566462907
-0.3571131263376149   0.005573439450426987   0.005250782566462907
-0.3571131263376149   0.005573439450426987   0.005250782566462907
-0.3571131263376149   0.005573439450426987   0.005250782566462907
-0.20112627661565036   0.05418790446087694   0.0054488831181223815
-0.20112627661565036   0.05418790446087694   0.0054488831181223815
-0.20112627661565036   0.05418790446087694   0.0054488831181223815
-0.20112627661565036   0.05418790446087694   0.0054488831181223815
-0.4907661407876306   -0.008388098350855161   -0.010906031736509041
-0.4907661407876306   -0.008388098350855161   -0.010906031736509041
-0.4907661407876306   -0.008388098350855161   -0.010906031736509041
-0.4907661407876306   -0.008388098350855161   -0.010906031736509041
-0.4677315437177026   0.02950337804802204   -0.022557511903271682
-0.4677315437177026   0.02950337804802204   -0.022557511903271682
-0.4677315437177026   0.02950337804802204   -0.022557511903271682
-0.4677315437177026   0.02950337804802204   -0.022557511903271682
-0.1791826926288675   0.0859034838029914   -0.004131264289847288
-0.1791826926288675   0.0859034838029914   -0.004131264289847288
-0.1791826926288675   0.0859034838029914   -0.004131264289847288
-0.1791826926288675   0.0859034838029914   -0.004131264289847288
-0.3326319914585422   0.03852363272694065   0.01956068221221671
-0.3326319914585422   0.03852363272694065   0.01956068221221671
-0.3326319914585422   0.03852363272694065   0.01956068221221671
-0.3326319914585422   0.03852363272694065   0.01956068221221671
-0.5373248072859161   -0.05162545592393733   -0.015407370286697739
-0.5373248072859161   -0.05162545592393733   -0.015407370286697739
-0.5373248072859161   -0.05162545592393733   -0.015407370286697739
-0.5373248072859161   -0.05162545592393733   -0.015407370286697739
-0.7975780366647397   -0.04505839828759754   0.03191762565886107
-0.7975780366647397   -0.04505839828759754   0.03191762565886107
-0.7975780366647397   -0.04505839828759754   0.03191762565886107
-0.7975780366647397   -0.04505839828759754   0.03191762565886107
-0.79776034030307   -0.07605157577504475   -0.04287796464641319
-0.79776034030307   -0.07605157577504475   -0.04287796464641319
-0.79776034030307   -0.07605157577504475   -0.04287796464641319
-0.79776034030307   -0.07605157577504475   -0.04287796464641319
-0.4880300813709535   0.04861971493302848   0.03903033501617685
-0.4880300813709535   0.04861971493302848   0.03903033501617685
-0.4880300813709535   0.04861971493302848   0.03903033501617685
-0.4880300813709535   0.04861971493302848   0.03903033501617685
-0.6515134151054633   -0.027832069385582914   -0.0042279459221064575
-0.6515134151054633   -0.027832069385582914   -0.0042279459221064575
-0.6515134151054633   -0.027832069385582914   -0.0042279459221064575
-0.6515134151054633   -0.027832069385582914   -0.0042279459221064575
-0.5128080467006176   -0.01477789955423972   -0.021461877144870807
-0.5128080467006176   -0.01477789955423972   -0.021461877144870807
-0.5128080467006176   -0.01477789955423972   -0.021461877144870807
-0.5128080467006176   -0.01477789955423972   -0.021461877144870807
-0.7713605567416244   -0.011032143055983351   0.024101520441757923
-0.7713605567416244   -0.011032143055983351   0.024101520441757923
-0.7713605567416244   -0.011032143055983351   0.024101520441757923
-0.7713605567416244   -0.011032143055983351   0.024101520441757923
-0.7664368713194083   -0.04016631779026186   -0.047708402117258644
-0.7664368713194083   -0.04016631779026186   -0.047708402117258644
-0.7664368713194083   -0.04016631779026186   -0.047708402117258644
-0.7664368713194083   -0.04016631779026186   -0.047708402117258644
-0.464897714341449   0.07898708111210798   0.031060921031439384
-0.464897714341449   0.07898708111210798   0.031060921031439384
-0.464897714341449   0.07898708111210798   0.031060921031439384
-0.464897714341449   0.07898708111210798   0.031060921031439384
-0.6205589648072781   0.005473027635373023   0.011543236358926054
-0.6205589648072781   0.005473027635373023   0.011543236358926054
-0.6205589648072781   0.005473027635373023   0.011543236358926054
-0.6205589648072781   0.005473027635373023   0.011543236358926054
-0.4888551113758045   0.01911993168022015   -0.02885891470845245
-0.4888551113758045   0.01911993168022015   -0.02885891470845245
-0.4888551113758045   0.01911993168022015   -0.02885891470845245
-0.4888551113758045   0.01911993168022015   -0.02885891470845245
-0.7406551073965314   0.02152519853014706   0.01950890117671722
-0.7406551073965314   0.02152519853014706   0.01950890117671722
-0.7406551073965314   0.02152519853014706   0.01950890117671722
-0.7406551073965314   0.02152519853014706   0.01950890117671722
-0.7384121527983974   -0.0010109187975833045   -0.05135166075365029
-0.7384121527983974   -0.0010109187975833045   -0.05135166075365029
-0.7384121527983974   -0.0010109187975833045   -0.05135166075365029
-0.7384121527983974   -0.0010109187975833045   -0.05135166075365029
-0.44200533312317386   0.1125443080423671   0.023032611075026757
-0.44200533312317386   0.1125443080423671   0.023032611075026757
-0.44200533312317386   0.1125443080423671   0.023032611075026757
-0.44200533312317386   0.1125443080423671   0.023032611075026757
-0.597356888196182   0.036550135686546026   0.025682933690718016
-0.597356888196182   0.036550135686546026   0.025682933690718016
-0.597356888196182   0.036550135686546026   0.025682933690718016
-0.597356888196182   0.036550135686546026   0.025682933690718016
-0.8191404771439155   -0.07417441513753437   -0.046778559887080226
-0.8191404771439155   -0.07417441513753437   -0.046778559887080226
-0.8191404771439155   -0.07417441513753437   -0.046778559887080226
-0.8191404771439155   -0.07417441513753437   -0.046778559887080226
-1.0938528103776708   -0.019153469892692926   0.06906730991461671
-1.0938528103776708   -0.019153469892692926   0.06906730991461671
-1.0938528103776708   -0.019153469892692926   0.06906730991461671
-1.0938528103776708   -0.019153469892692926   0.06906730991461671
-1.0785039912347634   -0.09911374864845915   -0.062399240403989496
-1.0785039912347634   -0.09911374864845915   -0.062399240403989496
-1.0785039912347634   -0.09911374864845915   -0.062399240403989496
-1.0785039912347634   -0.09911374864845915   -0.062399240403989496
-0.7439289926928365   0.08214006959912265   0.06808712803058575
-0.7439289926928365   0.08214006959912265   0.06808712803058575
-0.7439289926928365   0.08214006959912265   0.06808712803058575
-0.7439289926928365   0.08214006959912265   0.06808712803058575
-0.8936069256145294   -0.015844372201673507   0.0073838863269725385
-0.8936069256145294   -0.015844372201673507   0.0073838863269725385
-0.8936069256145294   -0.015844372201673507   0.0073838863269725385
-0.8936069256145294   -0.015844372201673507   0.0073838863269725385
-0.7925607209697635   -0.040026279388038266   -0.052905164366884964
-0.7925607209697635   -0.040026279388038266   -0.052905164366884964
-0.7925607209697635   -0.040026279388038266   -0.052905164366884964
-0.7925607209697635   -0.040026279388038266   -0.052905164366884964
-1.028401840010278   0.02452302328625766   0.06447474378370213
-1.028401840010278   0.02452302328625766   0.06447474378370213
-1.028401840010278   0.02452302328625766   0.06447474378370213
-1.028401840010278   0.02452302328625766   0.06447474378370213
-1.0289815749068048   -0.07781856970317319   -0.07425840725656957
-1.0289815749068048   -0.07781856970317319   -0.07425840725656957
-1.0289815749068048   -0.07781856970317319   -0.07425840725656957
-1.0289815749068048   -0.07781856970317319   -0.07425840725656957
-0.7184085900854454   0.09614028656508272   0.05612639969720615
-0.7184085900854454   0.09614028656508272   0.05612639969720615
-0.7184085900854454   0.09614028656508272   0.05612639969720615
-0.7184085900854454   0.09614028656508272   0.05612639969720615
-0.8654722735654486   0.006497520540608981   0.020125956590844228
-0.8654722735654486   0.006497520540608981   0.020125956590844228
-0.8654722735654486   0.006497520540608981   0.020125956590844228
-0.8654722735654486   0.006497520540608981   0.020125956590844228
-0.7655792580712693   -0.02250312968176435   -0.06108352398506087
-0.7655792580712693   -0.02250312968176435   -0.06108352398506087
-0.7655792580712693   -0.02250312968176435   -0.06108352398506087
-0.7655792580712693   -0.02250312968176435   -0.06108352398506087
-0.9800110296580399   0.04262472380661386   0.05015102547745609
-0.9800110296580399   0.04262472380661386   0.05015102547745609
-0.9800110296580399   0.04262472380661386   0.05015102547745609
-0.9800110296580399   0.04262472380661386   0.05015102547745609
-0.9679955025332347   -0.046002476554654725   -0.08280111445356858
-0.9679955025332347   -0.046002476554654725   -0.08280111445356858
-0.9679955025332347   -0.046002476554654725   -0.08280111445356858
-0.9679955025332347   -0.046002476554654725   -0.08280111445356858
-0.6959746983257005   0.11307062460616465   0.046754068206086935
-0.6959746983257005   0.11307062460616465   0.046754068206086935
-0.6959746983257005   0.11307062460616465   0.046754068206086935
-0.6959746983257005   0.11307062460616465   0.046754068206086935
-0.8129276659252177   0.027435802974728973   0.03806231367900559
-0.8129276659252177   0.027435802974728973   0.03806231367900559
-0.8129276659252177   0.027435802974728973   0.03806231367900559
-0.8129276659252177   0.027435802974728973   0.03806231367900559
0.8691952989360042   0.07896334625441008   0.07547891618318654
0.8691952989360042   0.07896334625441008   0.07547891618318654
0.8691952989360042   0.07896334625441008   0.07547891618318654
0.8691952989360042   0.07896334625441008   0.07547891618318654
0.31843609901257924   -0.1446484872620592   -0.0496868395007208
0.31843609901257924   -0.1446484872620592   -0.0496868395007208
0.31843609901257924   -0.1446484872620592   -0.0496868395007208
0.31843609901257924   -0.1446484872620592   -0.0496868395007208
0.3933436657589663   -0.0008390081899505158   0.05431536814351194
0.3933436657589663   -0.0008390081899505158   0.05431536814351194
0.3933436657589663   -0.0008390081899505158   0.05431536814351194
0.3933436657589663   -0.0008390081899505158   0.05431536814351194
0.8850432185223474   -0.020185599502046764   -0.06342872301868771
0.8850432185223474   -0.020185599502046764   -0.06342872301868771
0.8850432185223474   -0.020185599502046764   -0.06342872301868771
0.8850432185223474   -0.020185599502046764   -0.06342872301868771
0.5785824540896294   -0.02621197030904697   -0.05589910049451701
0.5785824540896294   -0.02621197030904697   -0.05589910049451701
0.5785824540896294   -0.02621197030904697   -0.05589910049451701
0.5785824540896294   -0.02621197030904697   -0.05589910049451701
0.9369140881354411   0.11013333980465624   0.06560668574007093
0.9369140881354411   0.11013333980465624   0.06560668574007093
0.9369140881354411   0.11013333980465624   0.06560668574007093
0.9369140881354411   0.11013333980465624   0.06560668574007093
0.3451413238684221   -0.12748941977411415   -0.06004592972503794
0.3451413238684221   -0.12748941977411415   -0.06004592972503794
0.3451413238684221   -0.12748941977411415   -0.06004592972503794
0.3451413238684221   -0.12748941977411415   -0.06004592972503794
0.42293132422695084   0.016240785927833998   0.04479609258830551
0.42293132422695084   0.016240785927833998   0.04479609258830551
0.42293132422695084   0.016240785927833998   0.04479609258830551
0.42293132422695084   0.016240785927833998   0.04479609258830551
0.938943771843775   -0.0007707695962428096   -0.07991816196430043
0.938943771843775   -0.0007707695962428096   -0.07991816196430043
0.938943771843775   -0.0007707695962428096   -0.07991816196430043
0.938943771843775   -0.0007707695962428096   -0.07991816196430043
0.6348515483954509   -0.0052365418668466335   -0.03384684604431756
0.6348515483954509   -0.0052365418668466335   -0.03384684604431756
0.6348515483954509   -0.0052365418668466335   -0.03384684604431756
0.6348515483954509   -0.0052365418668466335   -0.03384684604431756
0.9913945988443196   0.1310727191850662   0.050492484257097694
0.9913945988443196   0.1310727191850662   0.050492484257097694
0.9913945988443196   0.1310727191850662   0.050492484257097694
0.9913945988443196   0.1310727191850662   0.050492484257097694
0.3743864657291118   -0.11169673435077145   -0.0699906796222804
0.3743864657291118   -0.11169673435077145   -0.0699906796222804
0.3743864657291118   -0.11169673435077145   -0.0699906796222804
0.3743864657291118   -0.11169673435077145   -0.0699906796222804
0.45247724643516846   0.053880400148964835   0.03882507392169343
0.45247724643516846   0.053880400148964835   0.03882507392169343
0.45247724643516846   0.053880400148964835   0.03882507392169343
0.45247724643516846   0.053880400148964835   0.03882507392169343
1.0097159404248732   0.04986512133131532   -0.08621498008709527
1.0097159404248732   0.04986512133131532   -0.08621498008709527
1.0097159404248732   0.04986512133131532   -0.08621498008709527
1.0097159404248732   0.04986512133131532   -0.08621498008709527
0.6696150061772452   0.02027325336623803   -0.014761452136476526
0.6696150061772452   0.02027325336623803   -0.014761452136476526
0.6696150061772452   0.02027325336623803   -0.014761452136476526
0.6696150061772452   0.02027325336623803   -0.014761452136476526
0.37820069462019973   0.04419422976797484   0.06029342150734371
0.37820069462019973   0.04419422976797484   0.06029342150734371
0.37820069462019973   0.04419422976797484   0.06029342150734371
0.37820069462019973   0.04419422976797484   0.06029342150734371
-0.18409420245121735   -0.13495814332174672   -0.026022742836963163
-0.18409420245121735   -0.13495814332174672   -0.026022742836963163
-0.18409420245121735   -0.13495814332174672   -0.026022742836963163
-0.18409420245121735   -0.13495814332174672   -0.026022742836963163
-0.13255629346150738   -0.039489755632388865   0.018272527205942413
-0.13255629346150738   -0.039489755632388865   0.018272527205942413
-0.13255629346150738   -0.039489755632388865   0.018272527205942413
-0.13255629346150738   -0.039489755632388865   0.018272527205942413
0.381250076314673   0.0010022994333240137   -0.007993886701225406
0.381250076314673   0.0010022994333240137   -0.007993886701225406
0.381250076314673   0.0010022994333240137   -0.007993886701225406
0.381250076314673   0.0010022994333240137   -0.007993886701225406
0.10572564284705138   -0.028561650855284823   -0.023829747453103213
0.10572564284705138   -0.028561650855284823   -0.023829747453103213
0.10572564284705138   -0.028561650855284823   -0.023829747453103213
0.10572564284705138   -0.028561650855284823   -0.023829747453103213
0.4085895120136349   0.07585501522236063   0.053850576004547644
0.4085895120136349   0.07585501522236063   0.053850576004547644
0.4085895120136349   0.07585501522236063   0.053850576004547644
0.4085895120136349   0.07585501522236063   0.053850576004547644
-0.15768836449257345   -0.11213510675352963   -0.03474247682824716
-0.15768836449257345   -0.11213510675352963   -0.03474247682824716
-0.15768836449257345   -0.11213510675352963   -0.03474247682824716
-0.15768836449257345   -0.11213510675352963   -0.03474247682824716
-0.10498995498474081   -0.007534866931903167   0.01155382912156262
-0.10498995498474081   -0.007534866931903167   0.01155382912156262
-0.10498995498474081   -0.007534866931903167   0.01155382912156262
-0.10498995498474081   -0.007534866931903167   0.01155382912156262
0.4136792843174649   0.029680943874266993   -0.01490426490555314
0.4136792843174649   0.029680943874266993   -0.01490426490555314
0.4136792843174649   0.029680943874266993   -0.01490426490555314
0.4136792843174649   0.029680943874266993   -0.01490426490555314
0.13236371092138544   -0.003307273730722173   -0.009478002011110924
0.13236371092138544   -0.003307273730722173   -0.009478002011110924
0.13236371092138544   -0.003307273730722173   -0.009478002011110924
0.13236371092138544   -0.003307273730722173   -0.009478002011110924
0.4421115824834697   0.10913525724764433   0.04780291255108959
0.4421115824834697   0.10913525724764433   0.04780291255108959
0.4421115824834697   0.10913525724764433   0.04780291255108959
0.4421115824834697   0.10913525724764433   0.04780291255108959
-0.13120951827160116   -0.08477644542613673   -0.04230240881850566
-0.13120951827160116   -0.08477644542613673   -0.04230240881850566
-0.13120951827160116   -0.08477644542613673   -0.04230240881850566
-0.13120951827160116   -0.08477644542613673   -0.04230240881850566
-0.07777219392372454   0.029475178745953998   0.004865174439773816
-0.07777219392372454   0.029475178745953998   0.004865174439773816
-0.07777219392372454   0.029475178745953998   0.004865174439773816
-0.07777219392372454   0.029475178745953998   0.004865174439773816
0.4424453129531299   0.06382114163982316   -0.021275334979357862
0.4424453129531299   0.06382114163982316   -0.021275334979357862
0.4424453129531299   0.06382114163982316   -0.021275334979357862
0.4424453129531299   0.06382114163982316   -0.021275334979357862
0.16525069835414935   0.027655381999885653   0.007274849404021828
0.16525069835414935   0.027655381999885653   0.007274849404021828
0.16525069835414935   0.027655381999885653   0.007274849404021828
0.16525069835414935   0.027655381999885653   0.007274849404021828
-0.1448593201417047   0.009569710327060717   0.025623815061792874
-0.1448593201417047   0.009569710327060717   0.025623815061792874
-0.1448593201417047   0.009569710327060717   0.025623815061792874
-0.1448593201417047   0.009569710327060717   0.025623815061792874
-0.6766448296956985   -0.11914510239832349   -0.003426923317562891
-0.6766448296956985   -0.11914510239832349   -0.003426923317562891
-0.6766448296956985   -0.11914510239832349   -0.003426923317562891
-0.6766448296956985   -0.11914510239832349   -0.003426923317562891
-0.643949258798425   -0.07012367589901072   -0.0159021786357253
-0.643949258798425   -0.07012367589901072   -0.0159021786357253
-0.643949258798425   -0.07012367589901072   -0.0159021786357253
-0.643949258798425   -0.07012367589901072   -0.0159021786357253
-0.12137075435942682   0.017664076365176723   0.017046390718779635
-0.12137075435942682   0.017664076365176723   0.017046390718779635
-0.12137075435942682   0.017664076365176723   0.017046390718779635
-0.12137075435942682   0.017664076365176723   0.017046390718779635
-0.397404864606159   -0.036639917787133554   -0.014874367363460471
-0.397404864606159   -0.036639917787133554   -0.014874367363460471
-0.397404864606159   -0.036639917787133554   -0.014874367363460471
-0.397404864606159   -0.036639917787133554   -0.014874367363460471
-0.11592944055893378   0.04253677557776409   0.019380260508657474
-0.11592944055893378   0.04253677557776409   0.019380260508657474
-0.11592944055893378   0.04253677557776409   0.019380260508657474
-0.11592944055893378   0.04253677557776409   0.019380260508657474
-0.6479184140146199   -0.0935242165273   -0.012347414088410778
-0.6479184140146199   -0.0935242165273   -0.012347414088410778
-0.6479184140146199   -0.0935242165273   -0.012347414088410778
-0.6479184140146199   -0.0935242165273   -0.012347414088410778
-0.6135685539649199   -0.03506407006473593   -0.02148347712862358
-0.6135685539649199   -0.03506407006473593   -0.02148347712862358
-0.6135685539649199   -0.03506407006473593   -0.02148347712862358
-0.6135685539649199   -0.03506407006473593   -0.02148347712862358
-0.09453881068896458   0.04663352365446667   0.009641160014073877
-0.09453881068896458   0.04663352365446667   0.009641160014073877
-0.09453881068896458   0.04663352365446667   0.009641160014073877
-0.09453881068896458   0.04663352365446667   0.009641160014073877
-0.36676389853258506   -0.007304930660689546   -0.0002292912717203298
-0.36676389853258506   -0.007304930660689546   -0.0002292912717203298
-0.36676389853258506   -0.007304930660689546   -0.0002292912717203298
-0.36676389853258506   -0.007304930660689546   -0.0002292912717203298
-0.08797335446149725   0.07681004851904064   0.012291916286836603
-0.08797335446149725   0.07681004851904064   0.012291916286836603
-0.08797335446149725   0.07681004851904064   0.012291916286836603
-0.08797335446149725   0.07681004851904064   0.012291916286836603
-0.6187661487680762   -0.0638727335049989   -0.01866278770414236
-0.6187661487680762   -0.0638727335049989   -0.01866278770414236
-0.6187661487680762   -0.0638727335049989   -0.01866278770414236
-0.6187661487680762   -0.0638727335049989   -0.01866278770414236
-0.5852896460041037   -0.00012320482918010134   -0.028157754075468652
-0.5852896460041037   -0.00012320482918010134   -0.028157754075468652
-0.5852896460041037   -0.00012320482918010134   -0.028157754075468652
-0.5852896460041037   -0.00012320482918010134   -0.028157754075468652
-0.06892480578713422   0.07622289258755685   0.002354401281126444
-0.06892480578713422   0.07622289258755685   0.002354401281126444
-0.06892480578713422   0.07622289258755685   0.002354401281126444
-0.06892480578713422   0.07622289258755685   0.002354401281126444
-0.33861489649746596   0.021919183144846574   0.01370748246017051
-0.33861489649746596   0.021919183144846574   0.01370748246017051
-0.33861489649746596   0.021919183144846574   0.01370748246017051
-0.33861489649746596   0.021919183144846574   0.01370748246017051
-0.6593154461090969   -0.02581202238734652   -0.010113085395526838
-0.6593154461090969   -0.02581202238734652   -0.010113085395526838
-0.6593154461090969   -0.02581202238734652   -0.010113085395526838
-0.6593154461090969   -0.02581202238734652   -0.010113085395526838
-1.1578938377593735   -0.09649933867938257   0.022390654458258538
-1.1578938377593735   -0.09649933867938257   0.022390654458258538
-1.1578938377593735   -0.09649933867938257   0.022390654458258538
-1.1578938377593735   -0.09649933867938257   0.022390654458258538
-1.1419544320681605   -0.09954210100261357   -0.04785439396482628
-1.1419544320681605   -0.09954210100261357   -0.04785439396482628
-1.1419544320681605   -0.09954210100261357   -0.04785439396482628
-1.1419544320681605   -0.09954210100261357   -0.04785439396482628
-0.6092045556363103   0.04483959108488558   0.04285807019095659
-0.6092045556363103   0.04483959108488558   0.04285807019095659
-0.6092045556363103   0.04483959108488558   0.04285807019095659
-0.6092045556363103   0.04483959108488558   0.04285807019095659
-0.8859199941548693   -0.03867125343642286   -0.005182696799769987
-0.8859199941548693   -0.03867125343642286   -0.005182696799769987
-0.8859199941548693   -0.03867125343642286   -0.005182696799769987
-0.8859199941548693   -0.03867125343642286   -0.005182696799769987
-0.6278648999123955   0.00977156016715669   -0.015375620271740165
-0.6278648999123955   0.00977156016715669   -0.015375620271740165
-0.6278648999123955   0.00977156016715669   -0.015375620271740165
-0.6278648999123955   0.00977156016715669   -0.015375620271740165
-1.1232246413671838   -0.06440462365999142   0.01065708219744508
-1.1232246413671838   -0.06440462365999142   0.01065708219744508
-1.1232246413671838   -0.06440462365999142   0.01065708219744508
-1.1232246413671838   -0.06440462365999142   0.01065708219744508
-1.1022642930847777   -0.06528435258956336   -0.0529296687335887
-1.1022642930847777   -0.06528435258956336   -0.0529296687335887
-1.1022642930847777   -0.06528435258956336   -0.0529296687335887
-1.1022642930847777   -0.06528435258956336   -0.0529296687335887
-0.5809156502248919   0.07246582460982626   0.034251146896960086
-0.5809156502248919   0.07246582460982626   0.034251146896960086
-0.5809156502248919   0.07246582460982626   0.034251146896960086
-0.5809156502248919   0.07246582460982626   0.034251146896960086
-0.8455529761584435   -0.006245149588680887   0.009500931133872403
-0.8455529761584435   -0.006245149588680887   0.009500931133872403
-0.8455529761584435   -0.006245149588680887   0.009500931133872403
-0.8455529761584435   -0.006245149588680887   0.009500931133872403
-0.5984324783999156   0.04157875851704973   -0.022445927885385075
-0.5984324783999156   0.04157875851704973   -0.022445927885385075
-0.5984324783999156   0.04157875851704973   -0.022445927885385075
-0.5984324783999156   0.04157875851704973   -0.022445927885385075
-1.0838271247298483   -0.03347694631687165   0.007448766768365436
-1.0838271247298483   -0.03347694631687165   0.007448766768365436
-1.0838271247298483   -0.03347694631687165   0.007448766768365436
-1.0838271247298483   -0.03347694631687165   0.007448766768365436
-1.066773234516194   -0.028145570043636686   -0.05564887796197206
-1.066773234516194   -0.028145570043636686   -0.05564887796197206
-1.066773234516194   -0.028145570043636686   -0.05564887796197206
-1.066773234516194   -0.028145570043636686   -0.05564887796197206
-0.5535168808707606   0.1028510451547931   0.027731821607279175
-0.5535168808707606   0.1028510451547931   0.027731821607279175
-0.5535168808707606   0.1028510451547931   0.027731821607279175
-0.5535168808707606   0.1028510451547931   0.027731821607279175
-0.8182183555938698   0.02148258149366042   0.022170013787077843
-0.8182183555938698   0.02148258149366042   0.022170013787077843
-0.8182183555938698   0.02148258149366042   0.022170013787077843
-0.8182183555938698   0.02148258149366042   0.022170013787077843
-1.1627888502253716   -0.05539240762947781   -0.04319133892163753
-1.1627888502253716   -0.05539240762947781   -0.04319133892163753
-1.1627888502253716   -0.05539240762947781   -0.04319133892163753
-1.1627888502253716   -0.05539240762947781   -0.04319133892163753
-1.657132872422477   -0.059738255511164684   0.07485498597664195
-1.657132872422477   -0.059738255511164684   0.07485498597664195
-1.657132872422477   -0.059738255511164684   0.07485498597664195
-1.657132872422477   -0.059738255511164684   0.07485498597664195
-1.6251747148099511   -0.11916643315528916   -0.05719966362435861
-1.6251747148099511   -0.11916643315528916   -0.05719966362435861
-1.6251747148099511   -0.11916643315528916   -0.05719966362435861
-1.6251747148099511   -0.11916643315528916   -0.05719966362435861
-1.0787126406777408   0.09273808364516425   0.07607437833949444
-1.0787126406777408   0.09273808364516425   0.07607437833949444
-1.0787126406777408   0.09273808364516425   0.07607437833949444
-1.0787126406777408   0.09273808364516425   0.07607437833949444
-1.319707891600553   -0.016316134815381078   0.015259783431385343
-1.319707891600553   -0.016316134815381078   0.015259783431385343
-1.319707891600553   -0.016316134815381078   0.015259783431385343
-1.319707891600553   -0.016316134815381078   0.015259783431385343
-1.1255588970460662   -0.017405917374194307   -0.04801290248276958
-1.1255588970460662   -0.017405917374194307   -0.04801290248276958
-1.1255588970460662   -0.017405917374194307   -0.04801290248276958
-1.1255588970460662   -0.017405917374194307   -0.04801290248276958
-1.5775612071776652   -0.008255180871971357   0.06995662225374084
-1.5775612071776652   -0.008255180871971357   0.06995662225374084
-1.5775612071776652   -0.008255180871971357   0.06995662225374084
-1.5775612071776652   -0.008255180871971357   0.06995662225374084
-1.565141368377602   -0.09790323160644399   -0.06735841286830148
-1.565141368377602   -0.09790323160644399   -0.06735841286830148
-1.565141368377602   -0.09790323160644399   -0.06735841286830148
-1.565141368377602   -0.09790323160644399   -0.06735841286830148
-1.0453957838553372   0.10585395532686398   0.06027456949718549
-1.0453957838553372   0.10585395532686398   0.06027456949718549
-1.0453957838553372   0.10585395532686398   0.06027456949718549
-1.0453957838553372   0.10585395532686398   0.06027456949718549
-1.2886713952112019   0.006890530369254966   0.02748946802130775
-1.2886713952112019   0.006890530369254966   0.02748946802130775
-1.2886713952112019   0.006890530369254966   0.02748946802130775
-1.2886713952112019   0.006890530369254966   0.02748946802130775
-1.089598429913293   -0.00024991869422302804   -0.05463478677150606
-1.089598429913293   -0.00024991869422302804   -0.05463478677150606
-1.089598429913293   -0.00024991869422302804   -0.05463478677150606
-1.089598429913293   -0.00024991869422302804   -0.05463478677150606
-1.520175157561827   0.008964207172448113   0.05060520243165728
-1.520175157561827   0.008964207172448113   0.05060520243165728
-1.520175157561827   0.008964207172448113   0.05060520243165728
-1.520175157561827   0.008964207172448113   0.05060520243165728
-1.4995431206524348   -0.07234368853848827   -0.07674907519044333
-1.4995431206524348   -0.07234368853848827   -0.07674907519044333
-1.4995431206524348   -0.07234368853848827   -0.07674907519044333
-1.4995431206524348   -0.07234368853848827   -0.07674907519044333
-1.0161067759205362   0.11820801598256525   0.05132982899011525
-1.0161067759205362   0.11820801598256525   0.05132982899011525
-1.0161067759205362   0.11820801598256525   0.05132982899011525
-1.0161067759205362   0.11820801598256525   0.05132982899011525
-1.2225183483668518   0.02619076447885832   0.045954540776168215
-1.2225183483668518   0.02619076447885832   0.045954540776168215
-1.2225183483668518   0.02619076447885832   0.045954540776168215
-1.2225183483668518   0.02619076447885832   0.045954540776168215
1.4600116952483813   0.10908793576107403   0.07741967937914324
1.4600116952483813   0.10908793576107403   0.07741967937914324
1.4600116952483813   0.10908793576107403   0.07741967937914324
1.4600116952483813   0.10908793576107403   0.07741967937914324
0.644150207485714   -0.1720833851485233   -0.03554570533716822
0.644150207485714   -0.1720833851485233   -0.03554570533716822
0.644150207485714   -0.1720833851485233   -0.03554570533716822
0.644150207485714   -0.1720833851485233   -0.03554570533716822
0.7183646962924414   -0.030197754023705975   0.05318902660292229
0.7183646962924414   -0.030197754023705975   0.05318902660292229
0.7183646962924414   -0.030197754023705975   0.05318902660292229
0.7183646962924414   -0.030197754023705975   0.05318902660292229
1.4761861498686197   -0.0028487087855238458   -0.055735648676365435
1.4761861498686197   -0.0028487087855238458   -0.055735648676365435
1.4761861498686197   -0.0028487087855238458   -0.055735648676365435
1.4761861498686197   -0.0028487087855238458   -0.055735648676365435
1.0117252199182192   -0.030730467370498976   -0.07918519080337066
1.0117252199182192   -0.030730467370498976   -0.07918519080337066
1.0117252199182192   -0.030730467370498976   -0.07918519080337066
1.0117252199182192   -0.030730467370498976   -0.07918519080337066
1.5276530067853935   0.13397674014891062   0.06477318697305315
1.5276530067853935   0.13397674014891062   0.06477318697305315
1.5276530067853935   0.13397674014891062   0.06477318697305315
1.5276530067853935   0.13397674014891062   0.06477318697305315
0.6718389535148739   -0.16208208881893563   -0.04755535248967849
0.6718389535148739   -0.16208208881893563   -0.04755535248967849
0.6718389535148739   -0.16208208881893563   -0.04755535248967849
0.6718389535148739   -0.16208208881893563   -0.04755535248967849
0.7474130000669097   -0.01449170173422859   0.043007949122635926
0.7474130000669097   -0.01449170173422859   0.043007949122635926
0.7474130000669097   -0.01449170173422859   0.043007949122635926
0.7474130000669097   -0.01449170173422859   0.043007949122635926
1.5269099244036606   0.014472211602249041   -0.06965641376116517
1.5269099244036606   0.014472211602249041   -0.06965641376116517
1.5269099244036606   0.014472211602249041   -0.06965641376116517
1.5269099244036606   0.014472211602249041   -0.06965641376116517
1.0753962565026167   -0.012213344065617804   -0.05385355337494712
1.0753962565026167   -0.012213344065617804   -0.05385355337494712
1.0753962565026167   -0.012213344065617804   -0.05385355337494712
1.0753962565026167   -0.012213344065617804   -0.05385355337494712
1.5780777709253624   0.15264222391904445   0.04801280653054837
1.5780777709253624   0.15264222391904445   0.04801280653054837
1.5780777709253624   0.15264222391904445   0.04801280653054837
1.5780777709253624   0.15264222391904445   0.04801280653054837
0.7005712515638995   -0.14833561603233242   -0.05735687909431127
0.7005712515638995   -0.14833561603233242   -0.05735687909431127
0.7005712515638995   -0.14833561603233242   -0.05735687909431127
0.7005712515638995   -0.14833561603233242   -0.05735687909431127
0.773724059350668   0.027451019092010753   0.0377063897905873
0.773724059350668   0.027451019092010753   0.0377063897905873
0.773724059350668   0.027451019092010753   0.0377063897905873
0.773724059350668   0.027451019092010753   0.0377063897905873
1.589302918966567   0.06514700337193485   -0.0729502013342651
1.589302918966567   0.06514700337193485   -0.0729502013342651
1.589302918966567   0.06514700337193485   -0.0729502013342651
1.589302918966567   0.06514700337193485   -0.0729502013342651
1.0992565552402616   0.012706408875740788   -0.03631056660550162
1.0992565552402616   0.012706408875740788   -0.03631056660550162
1.0992565552402616   0.012706408875740788   -0.03631056660550162
1.0992565552402616   0.012706408875740788   -0.03631056660550162
0.7125902739490214   0.06374795740988494   0.07082328442095646
0.7125902739490214   0.06374795740988494   0.07082328442095646
0.7125902739490214   0.06374795740988494   0.07082328442095646
0.7125902739490214   0.06374795740988494   0.07082328442095646
-0.08785532363344017   -0.21208574884853923   -0.02023317320336185
-0.08785532363344017   -0.21208574884853923   -0.02023317320336185
-0.08785532363344017   -0.21208574884853923   -0.02023317320336185
-0.08785532363344017   -0.21208574884853923   -0.02023317320336185
-0.023910926810461294   -0.07482293297953155   0.01804095435963109
-0.023910926810461294   -0.07482293297953155   0.01804095435963109
-0.023910926810461294   -0.07482293297953155   0.01804095435963109
-0.023910926810461294   -0.07482293297953155   0.01804095435963109
0.7065964538263112   -0.039341800593409165   0.0034918608419740316
0.7065964538263112   -0.039341800593409165   0.0034918608419740316
0.7065964538263112   -0.039341800593409165   0.0034918608419740316
0.7065964538263112   -0.039341800593409165   0.0034918608419740316
0.3179995872333647   -0.05918264233419479   -0.037766848911611826
0.3179995872333647   -0.05918264233419479   -0.037766848911611826
0.3179995872333647   -0.05918264233419479   -0.037766848911611826
0.3179995872333647   -0.05918264233419479   -0.037766848911611826
0.7438445883536455   0.08766510479867644   0.06272562808656411
0.7438445883536455   0.08766510479867644   0.06272562808656411
0.7438445883536455   0.08766510479867644   0.06272562808656411
0.7438445883536455   0.08766510479867644   0.06272562808656411
-0.05855784233359232   -0.19922861936741315   -0.03078793686814243
-0.05855784233359232   -0.19922861936741315   -0.03078793686814243
-0.05855784233359232   -0.19922861936741315   -0.03078793686814243
-0.05855784233359232   -0.19922861936741315   -0.03078793686814243
0.0057117896530836515   -0.046727903132479945   0.011018994725093434
0.0057117896530836515   -0.046727903132479945   0.011018994725093434
0.0057117896530836515   -0.046727903132479945   0.011018994725093434
0.0057117896530836515   -0.046727903132479945   0.011018994725093434
0.7369272994936533   -0.0181591582897829   -0.0057530971880920614
0.7369272994936533   -0.0181591582897829   -0.0057530971880920614
0.7369272994936533   -0.0181591582897829   -0.0057530971880920614
0.7369272994936533   -0.0181591582897829   -0.0057530971880920614
0.34374078953033727   -0.04193523152366721   -0.024486932082544256
0.34374078953033727   -0.04193523152366721   -0.024486932082544256
0.34374078953033727   -0.04193523152366721   -0.024486932082544256
0.34374078953033727   -0.04193523152366721   -0.024486932082544256
0.7761767545696804   0.1163569124052273   0.05597810749703306
0.7761767545696804   0.1163569124052273   0.05597810749703306
0.7761767545696804   0.1163569124052273   0.05597810749703306
0.7761767545696804   0.1163569124052273   0.05597810749703306
-0.031992748139687804   -0.17969905654423454   -0.04453254082700924
-0.031992748139687804   -0.17969905654423454   -0.04453254082700924
-0.031992748139687804   -0.17969905654423454   -0.04453254082700924
-0.031992748139687804   -0.17969905654423454   -0.04453254082700924
0.028963148231365355   -0.013836189161661636   0.003920175734982662
0.028963148231365355   -0.013836189161661636   0.003920175734982662
0.028963148231365355   -0.013836189161661636   0.003920175734982662
0.028963148231365355   -0.013836189161661636   0.003920175734982662
0.7596415990989209   0.008850661670578741   -0.014105554046723985
0.7596415990989209   0.008850661670578741   -0.014105554046723985
0.7596415990989209   0.008850661670578741   -0.014105554046723985
0.7596415990989209   0.008850661670578741   -0.014105554046723985
0.3752437495668394   -0.016141927617419158   -0.010246828184134495
0.3752437495668394   -0.016141927617419158   -0.010246828184134495
0.3752437495668394   -0.016141927617419158   -0.010246828184134495
0.3752437495668394   -0.016141927617419158   -0.010246828184134495
-0.030808106213967054   0.01774254997552357   0.03517461506994096
-0.030808106213967054   0.01774254997552357   0.03517461506994096
-0.030808106213967054   0.01774254997552357   0.03517461506994096
-0.030808106213967054   0.01774254997552357   0.03517461506994096
-0.8142216597917258   -0.26622896503547044   -0.016287824509571065
-0.8142216597917258   -0.26622896503547044   -0.016287824509571065
-0.8142216597917258   -0.26622896503547044   -0.016287824509571065
-0.8142216597917258   -0.26622896503547044   -0.016287824509571065
-0.7495058080828175   -0.11479815856908515   -0.017129730229139023
-0.7495058080828175   -0.11479815856908515   -0.017129730229139023
-0.7495058080828175   -0.11479815856908515   -0.017129730229139023
-0.7495058080828175   -0.11479815856908515   -0.017129730229139023
-0.027739190242880928   -0.09177541585538038   0.01585212007338177
-0.027739190242880928   -0.09177541585538038   0.01585212007338177
-0.027739190242880928   -0.09177541585538038   0.01585212007338177
-0.027739190242880928   -0.09177541585538038   0.01585212007338177
-0.4074188279403923   -0.1076678418046166   -0.03374501697341466
-0.4074188279403923   -0.1076678418046166   -0.03374501697341466
-0.4074188279403923   -0.1076678418046166   -0.03374501697341466
-0.4074188279403923   -0.1076678418046166   -0.03374501697341466
0.0020925117134318882   0.04466207852992136   0.028573135469644108
0.0020925117134318882   0.04466207852992136   0.028573135469644108
0.0020925117134318882   0.04466207852992136   0.028573135469644108
0.0020925117134318882   0.04466207852992136   0.028573135469644108
-0.7774600171981609   -0.24935816011340722   -0.022340774261533903
-0.7774600171981609   -0.24935816011340722   -0.022340774261533903
-0.7774600171981609   -0.24935816011340722   -0.022340774261533903
-0.7774600171981609   -0.24935816011340722   -0.022340774261533903
-0.7127662381967468   -0.08360689684768728   -0.023333514988913607
-0.7127662381967468   -0.08360689684768728   -0.023333514988913607
-0.7127662381967468   -0.08360689684768728   -0.023333514988913607
-0.7127662381967468   -0.08360689684768728   -0.023333514988913607
-0.00013923858850158066   -0.07142129780805917   0.006457248192746512
-0.00013923858850158066   -0.07142129780805917   0.006457248192746512
-0.00013923858850158066   -0.07142129780805917   0.006457248192746512
-0.00013923858850158066   -0.07142129780805917   0.006457248192746512
-0.37175370340612157   -0.0852476505865001   -0.01874846670919877
-0.37175370340612157   -0.0852476505865001   -0.01874846670919877
-0.37175370340612157   -0.0852476505865001   -0.01874846670919877
-0.37175370340612157   -0.0852476505865001   -0.01874846670919877
0.032200589735758484   0.0745001584481617   0.022234933557825954
0.032200589735758484   0.0745001584481617   0.022234933557825954
0.032200589735758484   0.0745001584481617   0.022234933557825954
0.032200589735758484   0.0745001584481617   0.022234933557825954
-0.7451234900569773   -0.22954577663987757   -0.0391808944978697
-0.7451234900569773   -0.22954577663987757   -0.0391808944978697
-0.7451234900569773   -0.22954577663987757   -0.0391808944978697
-0.7451234900569773   -0.22954577663987757   -0.0391808944978697
-0.6868050331859364   -0.05387837158934562   -0.030271692204583738
-0.6868050331859364   -0.05387837158934562   -0.030271692204583738
-0.6868050331859364   -0.05387837158934562   -0.030271692204583738
-0.6868050331859364   -0.05387837158934562   -0.030271692204583738
0.017987145600067905   -0.05516606317746252   -0.009629963405703693
0.017987145600067905   -0.05516606317746252   -0.009629963405703693
0.017987145600067905   -0.05516606317746252   -0.009629963405703693
0.017987145600067905   -0.05516606317746252   -0.009629963405703693
-0.34559301811520776   -0.0643420254762961   -0.009366566993719547
-0.34559301811520776   -0.0643420254762961   -0.009366566993719547
-0.34559301811520776   -0.0643420254762961   -0.009366566993719547
-0.34559301811520776   -0.0643420254762961   -0.009366566993719547
-0.7623724573468872   -0.0221061241272672   -0.0011646531935893684
-0.7623724573468872   -0.0221061241272672   -0.0011646531935893684
-0.7623724573468872   -0.0221061241272672   -0.0011646531935893684
-0.7623724573468872   -0.0221061241272672   -0.0011646531935893684
-1.543886243176134   -0.286228018775087   -0.013113632327184401
-1.543886243176134   -0.286228018775087   -0.013113632327184401
-1.543886243176134   -0.286228018775087   -0.013113632327184401
-1.543886243176134   -0.286228018775087   -0.013113632327184401
-1.474355899260107   -0.14696111427007016   -0.05099411296002567
-1.474355899260107   -0.14696111427007016   -0.05099411296002567
-1.474355899260107   -0.14696111427007016   -0.05099411296002567
-1.474355899260107   -0.14696111427007016   -0.05099411296002567
-0.7354588918436392   -0.09533652474123427   0.03364321713889422
-0.7354588918436392   -0.09533652474123427   0.03364321713889422
-0.7354588918436392   -0.09533652474123427   0.03364321713889422
-0.7354588918436392   -0.09533652474123427   0.03364321713889422
-1.1191213141774727   -0.12940412387572275   -0.023789009248045636
-1.1191213141774727   -0.12940412387572275   -0.023789009248045636
-1.1191213141774727   -0.12940412387572275   -0.023789009248045636
-1.1191213141774727   -0.12940412387572275   -0.023789009248045636
-0.7217863669718765   0.012571231775729802   -0.005901915019256125
-0.7217863669718765   0.012571231775729802   -0.005901915019256125
-0.7217863669718765   0.012571231775729802   -0.005901915019256125
-0.7217863669718765   0.012571231775729802   -0.005901915019256125
-1.488632052297947   -0.2554724989531096   -0.013863493466174227
-1.488632052297947   -0.2554724989531096   -0.013863493466174227
-1.488632052297947   -0.2554724989531096   -0.013863493466174227
-1.488632052297947   -0.2554724989531096   -0.013863493466174227
-1.4218464667773587   -0.11438316636517204   -0.05906299142562603
-1.4218464667773587   -0.11438316636517204   -0.05906299142562603
-1.4218464667773587   -0.11438316636517204   -0.05906299142562603
-1.4218464667773587   -0.11438316636517204   -0.05906299142562603
-0.6997733442229901   -0.0708701119366609   0.028894169968849533
-0.6997733442229901   -0.0708701119366609   0.028894169968849533
-0.6997733442229901   -0.0708701119366609   0.028894169968849533
-0.6997733442229901   -0.0708701119366609   0.028894169968849533
-1.065172498636809   -0.0981488824410964   -0.00783472855192182
-1.065172498636809   -0.0981488824410964   -0.00783472855192182
-1.065172498636809   -0.0981488824410964   -0.00783472855192182
-1.065172498636809   -0.0981488824410964   -0.00783472855192182
-0.6849580303588352   0.04268937056187397   -0.010588743208919574
-0.6849580303588352   0.04268937056187397   -0.010588743208919574
-0.6849580303588352   0.04268937056187397   -0.010588743208919574
-0.6849580303588352   0.04268937056187397   -0.010588743208919574
-1.4391996360509491   -0.23048050427313183   -0.02973149988560722
-1.4391996360509491   -0.23048050427313183   -0.02973149988560722
-1.4391996360509491   -0.23048050427313183   -0.02973149988560722
-1.4391996360509491   -0.23048050427313183   -0.02973149988560722
-1.3792297866610979   -0.08002622457878378   -0.060941621270267685
-1.3792297866610979   -0.08002622457878378   -0.060941621270267685
-1.3792297866610979   -0.08002622457878378   -0.060941621270267685
-1.3792297866610979   -0.08002622457878378   -0.060941621270267685
-0.6792710167088487   -0.05531561409018029   0.00883563268169546
-0.6792710167088487   -0.05531561409018029   0.00883563268169546
-0.6792710167088487   -0.05531561409018029   0.00883563268169546
-0.6792710167088487   -0.05531561409018029   0.00883563268169546
-1.0353733340464633   -0.07909205200510708   -0.002631669283643119
-1.0353733340464633   -0.07909205200510708   -0.002631669283643119
-1.0353733340464633   -0.07909205200510708   -0.002631669283643119
-1.0353733340464633   -0.07909205200510708   -0.002631669283643119
-1.5016902889718575   -0.05107759336044554   -0.03728428672044315
-1.5016902889718575   -0.05107759336044554   -0.03728428672044315
-1.5016902889718575   -0.05107759336044554   -0.03728428672044315
-1.5016902889718575   -0.05107759336044554   -0.03728428672044315
-2.264334210011907   -0.19340231169289995   0.08574941691935749
-2.264334210011907   -0.19340231169289995   0.08574941691935749
-2.264334210011907   -0.19340231169289995   0.08574941691935749
-2.264334210011907   -0.19340231169289995   0.08574941691935749
-2.186450512903389   -0.15399640069929765   -0.04986017115716705
-2.186450512903389   -0.15399640069929765   -0.04986017115716705
-2.186450512903389   -0.15399640069929765   -0.04986017115716705
-2.186450512903389   -0.15399640069929765   -0.04986017115716705
-1.4109267135685188   0.040389019898730394   0.07880168132910131
-1.4109267135685188   0.040389019898730394   0.07880168132910131
-1.4109267135685188   0.040389019898730394   0.07880168132910131
-1.4109267135685188   0.040389019898730394   0.07880168132910131
-1.7585066145762693   -0.06072936966425052   0.008343803145495862
-1.7585066145762693   -0.06072936966425052   0.008343803145495862
-1.7585066145762693   -0.06072936966425052   0.008343803145495862
-1.7585066145762693   -0.06072936966425052   0.008343803145495862
-1.4437807622057375   -0.0037552705999855385   -0.0413242713582576
-1.4437807622057375   -0.0037552705999855385   -0.0413242713582576
-1.4437807622057375   -0.0037552705999855385   -0.0413242713582576
-1.4437807622057375   -0.0037552705999855385   -0.0413242713582576
-2.148297176005516   -0.10455282193992455   0.091462934572824
-2.148297176005516   -0.10455282193992455   0.091462934572824
-2.148297176005516   -0.10455282193992455   0.091462934572824
-2.148297176005516   -0.10455282193992455   0.091462934572824
-2.1029103940308076   -0.12957949624601883   -0.05937807819169638
-2.1029103940308076   -0.12957949624601883   -0.05937807819169638
-2.1029103940308076   -0.12957949624601883   -0.05937807819169638
-2.1029103940308076   -0.12957949624601883   -0.05937807819169638
-1.3589901902173527   0.06472987189055535   0.07610535311867683
-1.3589901902173527   0.06472987189055535   0.07610535311867683
-1.3589901902173527   0.06472987189055535   0.07610535311867683
-1.3589901902173527   0.06472987189055535   0.07610535311867683
-1.7091264375250568   -0.024498144023776536   0.035004802553014316
-1.7091264375250568   -0.024498144023776536   0.035004802553014316
-1.7091264375250568   -0.024498144023776536   0.035004802553014316
-1.7091264375250568   -0.024498144023776536   0.035004802553014316
-1.393011433805721   0.015351427375692062   -0.044622420308290195
-1.393011433805721   0.015351427375692062   -0.044622420308290195
-1.393011433805721   0.015351427375692062   -0.044622420308290195
-1.393011433805721   0.015351427375692062   -0.044622420308290195
-2.067821662294801   -0.07913356358350815   0.06561964782580804
-2.067821662294801   -0.07913356358350815   0.06561964782580804
-2.067821662294801   -0.07913356358350815   0.06561964782580804
-2.067821662294801   -0.07913356358350815   0.06561964782580804
-2.0165199377291314   -0.10649156373378693   -0.07175490778305059
-2.0165199377291314   -0.10649156373378693   -0.07175490778305059
-2.0165199377291314   -0.10649156373378693   -0.07175490778305059
-2.0165199377291314   -0.10649156373378693   -0.07175490778305059
-1.3204791149967892   0.09389733941053502   0.05888817306195815
-1.3204791149967892   0.09389733941053502   0.05888817306195815
-1.3204791149967892   0.09389733941053502   0.05888817306195815
-1.3204791149967892   0.09389733941053502   0.05888817306195815
-1.616274585260924   0.006482563272040942   0.0616927931307409
-1.616274585260924   0.006482563272040942   0.0616927931307409
-1.616274585260924   0.006482563272040942   0.0616927931307409
-1.616274585260924   0.006482563272040942   0.0616927931307409
1.9943316949889096   0.11953613941719682   0.0723704299882367
1.9943316949889096   0.11953613941719682   0.0723704299882367
1.9943316949889096   0.11953613941719682   0.0723704299882367
1.9943316949889096   0.11953613941719682   0.0723704299882367
0.9508568837608112   -0.17816577919924728   0.016266730277079658
0.9508568837608112   -0.17816577919924728   0.016266730277079658
0.9508568837608112   -0.17816577919924728   0.016266730277079658
0.9508568837608112   -0.17816577919924728   0.016266730277079658
1.003394811774154   -0.07512069599907428   0.05569575335040958
1.003394811774154   -0.07512069599907428   0.05569575335040958
1.003394811774154   -0.07512069599907428   0.05569575335040958
1.003394811774154   -0.07512069599907428   0.05569575335040958
2.0048841201482848   0.016882480201855288   -0.016041535212894115
2.0048841201482848   0.016882480201855288   -0.016041535212894115
2.0048841201482848   0.016882480201855288   -0.016041535212894115
2.0048841201482848   0.016882480201855288   -0.016041535212894115
1.402225287590642   -0.03831527352489705   -0.09322788245651067
1.402225287590642   -0.03831527352489705   -0.09322788245651067
1.402225287590642   -0.03831527352489705   -0.09322788245651067
1.402225287590642   -0.03831527352489705   -0.09322788245651067
2.042775576282121   0.1330632928033882   0.057234932854754755
2.042775576282121   0.1330632928033882   0.057234932854754755
2.042775576282121   0.1330632928033882   0.057234932854754755
2.042775576282121   0.1330632928033882   0.057234932854754755
0.9746002485165534   -0.1822046157243715   0.018806856787703358
0.9746002485165534   -0.1822046157243715   0.018806856787703358
0.9746002485165534   -0.1822046157243715   0.018806856787703358
0.9746002485165534   -0.1822046157243715   0.018806856787703358
1.0233125718548217   -0.0638383524654855   0.0423881184490011
1.0233125718548217   -0.0638383524654855   0.0423881184490011
1.0233125718548217   -0.0638383524654855   0.0423881184490011
1.0233125718548217   -0.0638383524654855   0.0423881184490011
2.040062319819869   0.02960531675971989   -0.004839328203349785
2.040062319819869   0.02960531675971989   -0.004839328203349785
2.040062319819869   0.02960531675971989   -0.004839328203349785
2.040062319819869   0.02960531675971989   -0.004839328203349785
1.4601152544430471   -0.030310698771674194   -0.06367456695816089
1.4601152544430471   -0.030310698771674194   -0.06367456695816089
1.4601152544430471   -0.030310698771674194   -0.06367456695816089
1.4601152544430471   -0.030310698771674194   -0.06367456695816089
2.072116058918379   0.14537638172267459   0.03965830232624444
2.072116058918379   0.14537638172267459   0.03965830232624444
2.072116058918379   0.14537638172267459   0.03965830232624444
2.072116058918379   0.14537638172267459   0.03965830232624444
0.9975870174798932   -0.17328123270485893   0.023203226813732186
0.9975870174798932   -0.17328123270485893   0.023203226813732186
0.9975870174798932   -0.17328123270485893   0.023203226813732186
0.9975870174798932   -0.17328123270485893   0.023203226813732186
1.052618114053408   -0.01984999377275473   0.03874961785550679
1.052618114053408   -0.01984999377275473   0.03874961785550679
1.052618114053408   -0.01984999377275473   0.03874961785550679
1.052618114053408   -0.01984999377275473   0.03874961785550679
2.0766376896823053   0.058730267154281035   -0.0007204097294206263
2.0766376896823053   0.058730267154281035   -0.0007204097294206263
2.0766376896823053   0.058730267154281035   -0.0007204097294206263
2.0766376896823053   0.058730267154281035   -0.0007204097294206263
1.4673475827357056   -0.014007330585551592   -0.04757669515995827
1.4673475827357056   -0.014007330585551592   -0.04757669515995827
1.4673475827357056   -0.014007330585551592   -0.04757669515995827
1.4673475827357056   -0.014007330585551592   -0.04757669515995827
1.0034776819153315   0.025390396059978643   0.07581454579045568
1.0034776819153315   0.025390396059978643   0.07581454579045568
1.0034776819153315   0.025390396059978643   0.07581454579045568
1.0034776819153315   0.025390396059978643   0.07581454579045568
0.05311963575290682   -0.35505179148131255   0.03651463717664363
0.05311963575290682   -0.35505179148131255   0.03651463717664363
0.05311963575290682   -0.35505179148131255   0.03651463717664363
0.05311963575290682   -0.35505179148131255   0.03651463717664363
0.12161117067490401   -0.15023101490258586   0.03403107244749766
0.12161117067490401   -0.15023101490258586   0.03403107244749766
0.12161117067490401   -0.15023101490258586   0.03403107244749766
0.12161117067490401   -0.15023101490258586   0.03403107244749766
0.9777162699616697   -0.17090784589016253   0.023090194179068296
0.9777162699616697   -0.17090784589016253   0.023090194179068296
0.9777162699616697   -0.17090784589016253   0.023090194179068296
0.9777162699616697   -0.17090784589016253   0.023090194179068296
0.5214640628112229   -0.15925648193660658   -0.059653006813978796
0.5214640628112229   -0.15925648193660658   -0.059653006813978796
0.5214640628112229   -0.15925648193660658   -0.059653006813978796
0.5214640628112229   -0.15925648193660658   -0.059653006813978796
1.027292503405448   0.03675978354632095   0.06330373196148767
1.027292503405448   0.03675978354632095   0.06330373196148767
1.027292503405448   0.03675978354632095   0.06330373196148767
1.027292503405448   0.03675978354632095   0.06330373196148767
0.0851227653844133   -0.34481081618577986   0.04616884727823811
0.0851227653844133   -0.34481081618577986   0.04616884727823811
0.0851227653844133   -0.34481081618577986   0.04616884727823811
0.0851227653844133   -0.34481081618577986   0.04616884727823811
0.149157340951076   -0.12962746440440123   0.02467533078139362
0.149157340951076   -0.12962746440440123   0.02467533078139362
0.149157340951076   -0.12962746440440123   0.02467533078139362
0.149157340951076   -0.12962746440440123   0.02467533078139362
1.001290206119055   -0.16012319512366294   0.028561132428344613
1.001290206119055   -0.16012319512366294   0.028561132428344613
1.001290206119055   -0.16012319512366294   0.028561132428344613
1.001290206119055   -0.16012319512366294   0.028561132428344613
0.544921143848325   -0.1513742163875053   -0.029827046820815176
0.544921143848325   -0.1513742163875053   -0.029827046820815176
0.544921143848325   -0.1513742163875053   -0.029827046820815176
0.544921143848325   -0.1513742163875053   -0.029827046820815176
1.049503463800265   0.05617294929275368   0.05333127641797907
1.049503463800265   0.05617294929275368   0.05333127641797907
1.049503463800265   0.05617294929275368   0.05333127641797907
1.049503463800265   0.05617294929275368   0.05333127641797907
0.11353624208460529   -0.3333314500060777   0.050273822050720327
0.11353624208460529   -0.3333314500060777   0.050273822050720327
0.11353624208460529   -0.3333314500060777   0.050273822050720327
0.11353624208460529   -0.3333314500060777   0.050273822050720327
0.19143110015322964   -0.09869991591784424   0.01635205695685231
0.19143110015322964   -0.09869991591784424   0.01635205695685231
0.19143110015322964   -0.09869991591784424   0.01635205695685231
0.19143110015322964   -0.09869991591784424   0.01635205695685231
1.0270959365132684   -0.1437271006494349   0.03501583703149204
1.0270959365132684   -0.1437271006494349   0.03501583703149204
1.0270959365132684   -0.1437271006494349   0.03501583703149204
1.0270959365132684   -0.1437271006494349   0.03501583703149204
0.5860216432098717   -0.13227160334918092   0.0048794615256916585
0.5860216432098717   -0.13227160334918092   0.0048794615256916585
0.5860216432098717   -0.13227160334918092   0.0048794615256916585
0.5860216432098717   -0.13227160334918092   0.0048794615256916585
0.11303784432588143   -0.06775726799833855   0.04881115655854261
0.11303784432588143   -0.06775726799833855   0.04881115655854261
0.11303784432588143   -0.06775726799833855   0.04881115655854261
0.11303784432588143   -0.06775726799833855   0.04881115655854261
-0.852056715229329   -0.6099872947337812   0.05285824945886938
-0.852056715229329   -0.6099872947337812   0.05285824945886938
-0.852056715229329   -0.6099872947337812   0.05285824945886938
-0.852056715229329   -0.6099872947337812   0.05285824945886938
-0.7437541289772464   -0.23743597154670165   0.003564280351079318
-0.7437541289772464   -0.23743597154670165   0.003564280351079318
-0.7437541289772464   -0.23743597154670165   0.003564280351079318
-0.7437541289772464   -0.23743597154670165   0.003564280351079318
0.06005411419498358   -0.44408093001334314   0.02009570515865286
0.06005411419498358   -0.44408093001334314   0.02009570515865286
0.06005411419498358   -0.44408093001334314   0.02009570515865286
0.06005411419498358   -0.44408093001334314   0.02009570515865286
-0.3668433427377671   -0.3422536907429586   -0.07158201413423622
-0.3668433427377671   -0.3422536907429586   -0.07158201413423622
-0.3668433427377671   -0.3422536907429586   -0.07158201413423622
-0.3668433427377671   -0.3422536907429586   -0.07158201413423622
0.1418822195317436   -0.05332541462441466   0.03848071645352445
0.1418822195317436   -0.05332541462441466   0.03848071645352445
0.1418822195317436   -0.05332541462441466   0.03848071645352445
0.1418822195317436   -0.05332541462441466   0.03848071645352445
-0.8066479535184194   -0.6092572061400426   0.06091639223855855
-0.8066479535184194   -0.6092572061400426   0.06091639223855855
-0.8066479535184194   -0.6092572061400426   0.06091639223855855
-0.8066479535184194   -0.6092572061400426   0.06091639223855855
-0.7019802065657917   -0.2130787261088857   1.1074665842700226e-05
-0.7019802065657917   -0.2130787261088857   1.1074665842700226e-05
-0.7019802065657917   -0.2130787261088857   1.1074665842700226e-05
-0.7019802065657917   -0.2130787261088857   1.1074665842700226e-05
0.08909147092931644   -0.43433852946348095   0.029057045731679304
0.08909147092931644   -0.43433852946348095   0.029057045731679304
0.08909147092931644   -0.43433852946348095   0.029057045731679304
0.08909147092931644   -0.43433852946348095   0.029057045731679304
-0.3245392006684046   -0.3305939301339738   -0.026707528166509203
-0.3245392006684046   -0.3305939301339738   -0.026707528166509203
-0.3245392006684046   -0.3305939301339738   -0.026707528166509203
-0.3245392006684046   -0.3305939301339738   -0.026707528166509203
0.16825333085654837   -0.034107225313939074   0.02463504121829709
0.16825333085654837   -0.034107225313939074   0.02463504121829709
0.16825333085654837   -0.034107225313939074   0.02463504121829709
0.16825333085654837   -0.034107225313939074   0.02463504121829709
-0.7640460749628282   -0.5962140387282505   0.07281704530003721
-0.7640460749628282   -0.5962140387282505   0.07281704530003721
-0.7640460749628282   -0.5962140387282505   0.07281704530003721
-0.7640460749628282   -0.5962140387282505   0.07281704530003721
-0.6330473960347694   -0.18501904468372893   -0.007860329302198408
-0.6330473960347694   -0.18501904468372893   -0.007860329302198408
-0.6330473960347694   -0.18501904468372893   -0.007860329302198408
-0.6330473960347694   -0.18501904468372893   -0.007860329302198408
0.13442072316000442   -0.4070972934951114   0.039697549567993415
0.13442072316000442   -0.4070972934951114   0.039697549567993415
0.13442072316000442   -0.4070972934951114   0.039697549567993415
0.13442072316000442   -0.4070972934951114   0.039697549567993415
-0.26963248781373306   -0.3044512121043939   0.020275142764709222
-0.26963248781373306   -0.3044512121043939   0.020275142764709222
-0.26963248781373306   -0.3044512121043939   0.020275142764709222
-0.26963248781373306   -0.3044512121043939   0.020275142764709222
-0.7604303799766455   -0.12226132789336686   0.023263958881866442
-0.7604303799766455   -0.12226132789336686   0.023263958881866442
-0.7604303799766455   -0.12226132789336686   0.023263958881866442
-0.7604303799766455   -0.12226132789336686   0.023263958881866442
-1.8962603466159695   -0.9496837106037392   -0.04482897056851434
-1.8962603466159695   -0.9496837106037392   -0.04482897056851434
-1.8962603466159695   -0.9496837106037392   -0.04482897056851434
-1.8962603466159695   -0.9496837106037392   -0.04482897056851434
-1.7175096142351867   -0.30895193042095637   -0.052383088868168795
-1.7175096142351867   -0.30895193042095637   -0.052383088868168795
-1.7175096142351867   -0.30895193042095637   -0.052383088868168795
-1.7175096142351867   -0.30895193042095637   -0.052383088868168795
-0.8526398343769801   -0.7941994189753218   0.015899200781030298
-0.8526398343769801   -0.7941994189753218   0.015899200781030298
-0.8526398343769801   -0.7941994189753218   0.015899200781030298
-0.8526398343769801   -0.7941994189753218   0.015899200781030298
-1.3052305591534001   -0.5617181520234914   -0.0751827727977735
-1.3052305591534001   -0.5617181520234914   -0.0751827727977735
-1.3052305591534001   -0.5617181520234914   -0.0751827727977735
-1.3052305591534001   -0.5617181520234914   -0.0751827727977735
-0.7110749143199983   -0.09273624687180113   0.02226062896241908
-0.7110749143199983   -0.09273624687180113   0.02226062896241908
-0.7110749143199983   -0.09273624687180113   0.02226062896241908
-0.7110749143199983   -0.09273624687180113   0.02226062896241908
-1.8547897339347768   -1.006130302167085   -0.04160531561998998
-1.8547897339347768   -1.006130302167085   -0.04160531561998998
-1.8547897339347768   -1.006130302167085   -0.04160531561998998
-1.8547897339347768   -1.006130302167085   -0.04160531561998998
-1.6619088328278755   -0.2797509516746909   -0.05337454011647616
-1.6619088328278755   -0.2797509516746909   -0.05337454011647616
-1.6619088328278755   -0.2797509516746909   -0.05337454011647616
-1.6619088328278755   -0.2797509516746909   -0.05337454011647616
-0.8121466868099421   -0.7879734495600426   0.024073396896253235
-0.8121466868099421   -0.7879734495600426   0.024073396896253235
-0.8121466868099421   -0.7879734495600426   0.024073396896253235
-0.8121466868099421   -0.7879734495600426   0.024073396896253235
-1.2468992514026978   -0.5465465380935085   -0.05276954781833025
-1.2468992514026978   -0.5465465380935085   -0.05276954781833025
-1.2468992514026978   -0.5465465380935085   -0.05276954781833025
-1.2468992514026978   -0.5465465380935085   -0.05276954781833025
-0.6717800064869591   -0.06955300716082341   0.007486356111944759
-0.6717800064869591   -0.06955300716082341   0.007486356111944759
-0.6717800064869591   -0.06955300716082341   0.007486356111944759
-0.6717800064869591   -0.06955300716082341   0.007486356111944759
-1.8022023785268328   -0.9980982594498724   -0.03649496083606632
-1.8022023785268328   -0.9980982594498724   -0.03649496083606632
-1.8022023785268328   -0.9980982594498724   -0.03649496083606632
-1.8022023785268328   -0.9980982594498724   -0.03649496083606632
-1.5751820526827143   -0.2483659628049576   -0.060505074918325796
-1.5751820526827143   -0.2483659628049576   -0.060505074918325796
-1.5751820526827143   -0.2483659628049576   -0.060505074918325796
-1.5751820526827143   -0.2483659628049576   -0.060505074918325796
-0.7245414519577438   -0.7085920260395778   0.05824237243878863
-0.7245414519577438   -0.7085920260395778   0.05824237243878863
-0.7245414519577438   -0.7085920260395778   0.05824237243878863
-0.7245414519577438   -0.7085920260395778   0.05824237243878863
-1.1818160441077414   -0.49543304229626883   -0.029398564876646632
-1.1818160441077414   -0.49543304229626883   -0.029398564876646632
-1.1818160441077414   -0.49543304229626883   -0.029398564876646632
-1.1818160441077414   -0.49543304229626883   -0.029398564876646632
-1.720613159593724   -0.10421944517111648   -0.012057300889908265
-1.720613159593724   -0.10421944517111648   -0.012057300889908265
-1.720613159593724   -0.10421944517111648   -0.012057300889908265
-1.720613159593724   -0.10421944517111648   -0.012057300889908265
-3.036783705191095   -0.6011611021135428   0.03097819462338125
-3.036783705191095   -0.6011611021135428   0.03097819462338125
-3.036783705191095   -0.6011611021135428   0.03097819462338125
-3.036783705191095   -0.6011611021135428   0.03097819462338125
-2.917170791415951   -0.28942460348036525   -0.06402235771894443
-2.917170791415951   -0.28942460348036525   -0.06402235771894443
-2.917170791415951   -0.28942460348036525   -0.06402235771894443
-2.917170791415951   -0.28942460348036525   -0.06402235771894443
-1.6823918335094468   -0.3113563248616478   0.1256102092012077
-1.6823918335094468   -0.3113563248616478   0.1256102092012077
-1.6823918335094468   -0.3113563248616478   0.1256102092012077
-1.6823918335094468   -0.3113563248616478   0.1256102092012077
-2.2444724661846367   -0.34871719957731295   0.032179186732511585
-2.2444724661846367   -0.34871719957731295   0.032179186732511585
-2.2444724661846367   -0.34871719957731295   0.032179186732511585
-2.2444724661846367   -0.34871719957731295   0.032179186732511585
-1.6497774995496637   -0.023063635613018718   0.000389189751500596
-1.6497774995496637   -0.023063635613018718   0.000389189751500596
-1.6497774995496637   -0.023063635613018718   0.000389189751500596
-1.6497774995496637   -0.023063635613018718   0.000389189751500596
-2.9611833309764366   -0.5891154983296992   0.01560583932794013
-2.9611833309764366   -0.5891154983296992   0.01560583932794013
-2.9611833309764366   -0.5891154983296992   0.01560583932794013
-2.9611833309764366   -0.5891154983296992   0.01560583932794013
-2.8512626323324666   -0.2651975058511654   -0.0812590934748127
-2.8512626323324666   -0.2651975058511654   -0.0812590934748127
-2.8512626323324666   -0.2651975058511654   -0.0812590934748127
-2.8512626323324666   -0.2651975058511654   -0.0812590934748127
-1.6251545128550549   -0.2957514007970172   0.14639750886996877
-1.6251545128550549   -0.2957514007970172   0.14639750886996877
-1.6251545128550549   -0.2957514007970172   0.14639750886996877
-1.6251545128550549   -0.2957514007970172   0.14639750886996877
-2.20966630158657   -0.2871800237761022   0.030931084731096507
-2.20966630158657   -0.2871800237761022   0.030931084731096507
-2.20966630158657   -0.2871800237761022   0.030931084731096507
-2.20966630158657   -0.2871800237761022   0.030931084731096507
-1.5987843251080744   -0.0016255136247847468   -0.015877439567362914
-1.5987843251080744   -0.0016255136247847468   -0.015877439567362914
-1.5987843251080744   -0.0016255136247847468   -0.015877439567362914
-1.5987843251080744   -0.0016255136247847468   -0.015877439567362914
-2.8818233628972187   -0.5635139358411636   0.06425368369140061
-2.8818233628972187   -0.5635139358411636   0.06425368369140061
-2.8818233628972187   -0.5635139358411636   0.06425368369140061
-2.8818233628972187   -0.5635139358411636   0.06425368369140061
-2.7144011786444655   -0.21483189216341292   -0.09083592116010542
-2.7144011786444655   -0.21483189216341292   -0.09083592116010542
-2.7144011786444655   -0.21483189216341292   -0.09083592116010542
-2.7144011786444655   -0.21483189216341292   -0.09083592116010542
-1.5361295038313791   -0.27495629954966244   0.16134800608306682
-1.5361295038313791   -0.27495629954966244   0.16134800608306682
-1.5361295038313791   -0.27495629954966244   0.16134800608306682
-1.5361295038313791   -0.27495629954966244   0.16134800608306682
-2.077337999299223   -0.2195340434361403   0.06338296418455404
-2.077337999299223   -0.2195340434361403   0.06338296418455404
-2.077337999299223   -0.2195340434361403   0.06338296418455404
-2.077337999299223   -0.2195340434361403   0.06338296418455404
2.184391984446213   0.07144229500383459   0.030772000607087388
2.184391984446213   0.07144229500383459   0.030772000607087388
2.184391984446213   0.07144229500383459   0.030772000607087388
2.184391984446213   0.07144229500383459   0.030772000607087388
1.115563085175337   -0.058669186059239875   0.0227025798196496
1.115563085175337   -0.058669186059239875   0.0227025798196496
1.115563085175337   -0.058669186059239875   0.0227025798196496
1.115563085175337   -0.058669186059239875   0.0227025798196496
1.0719066205163275   -0.15758619373786553   0.04459259472045923
1.0719066205163275   -0.15758619373786553   0.04459259472045923
1.0719066205163275   -0.15758619373786553   0.04459259472045923
1.0719066205163275   -0.15758619373786553   0.04459259472045923
2.168526281895683   0.1221913989774972   0.01645143138086172
2.168526281895683   0.1221913989774972   0.01645143138086172
2.168526281895683   0.1221913989774972   0.01645143138086172
2.168526281895683   0.1221913989774972   0.01645143138086172
1.5479513515979506   -0.02201965639793252   -0.05714778191718155
1.5479513515979506   -0.02201965639793252   -0.05714778191718155
1.5479513515979506   -0.02201965639793252   -0.05714778191718155
1.5479513515979506   -0.02201965639793252   -0.05714778191718155
2.156536658608765   0.05513353143440347   0.023561182489366145
2.156536658608765   0.05513353143440347   0.023561182489366145
2.156536658608765   0.05513353143440347   0.023561182489366145
2.156536658608765   0.05513353143440347   0.023561182489366145
1.0803200829635182   -0.09410448703449853   0.023178200253047593
1.0803200829635182   -0.09410448703449853   0.023178200253047593
1.0803200829635182   -0.09410448703449853   0.023178200253047593
1.0803200829635182   -0.09410448703449853   0.023178200253047593
1.0440792094870244   -0.16124450545921332   0.03689467103482921
1.0440792094870244   -0.16124450545921332   0.03689467103482921
1.0440792094870244   -0.16124450545921332   0.03689467103482921
1.0440792094870244   -0.16124450545921332   0.03689467103482921
2.1430863224549723   0.11687817771553982   0.028432910968339803
2.1430863224549723   0.11687817771553982   0.028432910968339803
2.1430863224549723   0.11687817771553982   0.028432910968339803
2.1430863224549723   0.11687817771553982   0.028432910968339803
1.5432772992365185   -0.030378512999720164   -0.06619145322133378
1.5432772992365185   -0.030378512999720164   -0.06619145322133378
1.5432772992365185   -0.030378512999720164   -0.06619145322133378
1.5432772992365185   -0.030378512999720164   -0.06619145322133378
2.125239760059021   0.049020271490868184   0.007058005213239932
2.125239760059021   0.049020271490868184   0.007058005213239932
2.125239760059021   0.049020271490868184   0.007058005213239932
2.125239760059021   0.049020271490868184   0.007058005213239932
1.0555079942370438   -0.09980437688047594   0.032598466206189225
1.0555079942370438   -0.09980437688047594   0.032598466206189225
1.0555079942370438   -0.09980437688047594   0.032598466206189225
1.0555079942370438   -0.09980437688047594   0.032598466206189225
1.014713801936971   -0.14713902333299753   0.03185702557952082
1.014713801936971   -0.14713902333299753   0.03185702557952082
1.014713801936971   -0.14713902333299753   0.03185702557952082
1.014713801936971   -0.14713902333299753   0.03185702557952082
2.103875079407321   0.11814216256318338   0.040859555563389396
2.103875079407321   0.11814216256318338   0.040859555563389396
2.103875079407321   0.11814216256318338   0.040859555563389396
2.103875079407321   0.11814216256318338   0.040859555563389396
1.4852350941358599   -0.030633500597136598   -0.08940289152363136
1.4852350941358599   -0.030633500597136598   -0.08940289152363136
1.4852350941358599   -0.030633500597136598   -0.08940289152363136
1.4852350941358599   -0.030633500597136598   -0.08940289152363136
1.105493191386268   -0.14095268568913016   0.05463661050419444
1.105493191386268   -0.14095268568913016   0.05463661050419444
1.105493191386268   -0.14095268568913016   0.05463661050419444
1.105493191386268   -0.14095268568913016   0.05463661050419444
0.21524363355094472   -0.1316574443794416   0.0117650391302773
0.21524363355094472   -0.1316574443794416   0.0117650391302773
0.21524363355094472   -0.1316574443794416   0.0117650391302773
0.21524363355094472   -0.1316574443794416   0.0117650391302773
0.13996537127741704   -0.3313512874450678   0.058623885088794625
0.13996537127741704   -0.3313512874450678   0.058623885088794625
0.13996537127741704   -0.3313512874450678   0.058623885088794625
0.13996537127741704   -0.3313512874450678   0.058623885088794625
1.1115410330418363   0.04295538083778386   0.042223082772354155
1.1115410330418363   0.04295538083778386   0.042223082772354155
1.1115410330418363   0.04295538083778386   0.042223082772354155
1.1115410330418363   0.04295538083778386   0.042223082772354155
0.6331794727487491   -0.14081252124869634   -0.0024208959497566407
0.6331794727487491   -0.14081252124869634   -0.0024208959497566407
0.6331794727487491   -0.14081252124869634   -0.0024208959497566407
0.6331794727487491   -0.14081252124869634   -0.0024208959497566407
1.0742444313306099   -0.14706763453449012   0.04576308958849015
1.0742444313306099   -0.14706763453449012   0.04576308958849015
1.0742444313306099   -0.14706763453449012   0.04576308958849015
1.0742444313306099   -0.14706763453449012   0.04576308958849015
0.16784362561295144   -0.15074661944848683   0.017410488769885636
0.16784362561295144   -0.15074661944848683   0.017410488769885636
0.16784362561295144   -0.15074661944848683   0.017410488769885636
0.16784362561295144   -0.15074661944848683   0.017410488769885636
0.10625634159372095   -0.334344426419737   0.05248884047330822
0.10625634159372095   -0.334344426419737   0.05248884047330822
0.10625634159372095   -0.334344426419737   0.05248884047330822
0.10625634159372095   -0.334344426419737   0.05248884047330822
1.085877486373807   0.03460914305627008   0.050032406953259036
1.085877486373807   0.03460914305627008   0.050032406953259036
1.085877486373807   0.03460914305627008   0.050032406953259036
1.085877486373807   0.03460914305627008   0.050032406953259036
0.5874059334015852   -0.15009061982771082   -0.030384248811240702
0.5874059334015852   -0.15009061982771082   -0.030384248811240702
0.5874059334015852   -0.15009061982771082   -0.030384248811240702
0.5874059334015852   -0.15009061982771082   -0.030384248811240702
1.0466792534758866   -0.1491896125283177   0.037839998048239135
1.0466792534758866   -0.1491896125283177   0.037839998048239135
1.0466792534758866   -0.1491896125283177   0.037839998048239135
1.0466792534758866   -0.1491896125283177   0.037839998048239135
0.1352201390003953   -0.16078010632639622   0.023743507413339297
0.1352201390003953   -0.16078010632639622   0.023743507413339297
0.1352201390003953   -0.16078010632639622   0.023743507413339297
0.1352201390003953   -0.16078010632639622   0.023743507413339297
0.06853424511456314   -0.33422360812905094   0.041094991032117265
0.06853424511456314   -0.33422360812905094   0.041094991032117265
0.06853424511456314   -0.33422360812905094   0.041094991032117265
0.06853424511456314   -0.33422360812905094   0.041094991032117265
1.0567519941486943   0.03508401811710973   0.05982494518803568
1.0567519941486943   0.03508401811710973   0.05982494518803568
1.0567519941486943   0.03508401811710973   0.05982494518803568
1.0567519941486943   0.03508401811710973   0.05982494518803568
0.5594317884350257   -0.14897203996479436   -0.0541773457162152
0.5594317884350257   -0.14897203996479436   -0.0541773457162152
0.5594317884350257   -0.14897203996479436   -0.0541773457162152
0.5594317884350257   -0.14897203996479436   -0.0541773457162152
0.1676783125404858   -0.40679645094323724   0.04907744064177447
0.1676783125404858   -0.40679645094323724   0.04907744064177447
0.1676783125404858   -0.40679645094323724   0.04907744064177447
0.1676783125404858   -0.40679645094323724   0.04907744064177447
-0.6502364708501026   -0.2043738985390905   0.0007869792592389568
-0.6502364708501026   -0.2043738985390905   0.0007869792592389568
-0.6502364708501026   -0.2043738985390905   0.0007869792592389568
-0.6502364708501026   -0.2043738985390905   0.0007869792592389568
-0.7864268369572995   -0.6039582546495043   0.0671900331301307
-0.7864268369572995   -0.6039582546495043   0.0671900331301307
-0.7864268369572995   -0.6039582546495043   0.0671900331301307
-0.7864268369572995   -0.6039582546495043   0.0671900331301307
0.19289978005860026   -0.03473592979838154   0.026680571348020418
0.19289978005860026   -0.03473592979838154   0.026680571348020418
0.19289978005860026   -0.03473592979838154   0.026680571348020418
0.19289978005860026   -0.03473592979838154   0.026680571348020418
-0.26541123306176534   -0.30806790917571786   0.01157108028908628
-0.26541123306176534   -0.30806790917571786   0.01157108028908628
-0.26541123306176534   -0.30806790917571786   0.01157108028908628
-0.26541123306176534   -0.30806790917571786   0.01157108028908628
0.11556638070809125   -0.42995174065252717   0.035229385449625006
0.11556638070809125   -0.42995174065252717   0.035229385449625006
0.11556638070809125   -0.42995174065252717   0.035229385449625006
0.11556638070809125   -0.42995174065252717   0.035229385449625006
-0.7222680519809941   -0.2219170581695627   0.005942761531708904
-0.7222680519809941   -0.2219170581695627   0.005942761531708904
-0.7222680519809941   -0.2219170581695627   0.005942761531708904
-0.7222680519809941   -0.2219170581695627   0.005942761531708904
-0.8333908746153418   -0.613710997780546   0.054677049691073426
-0.8333908746153418   -0.613710997780546   0.054677049691073426
-0.8333908746153418   -0.613710997780546   0.054677049691073426
-0.8333908746153418   -0.613710997780546   0.054677049691073426
0.16131778189106227   -0.04400252364577273   0.03745413918605063
0.16131778189106227   -0.04400252364577273   0.03745413918605063
0.16131778189106227   -0.04400252364577273   0.03745413918605063
0.16131778189106227   -0.04400252364577273   0.03745413918605063
-0.32409134960616504   -0.32682792538770483   -0.027631252135758122
-0.32409134960616504   -0.32682792538770483   -0.027631252135758122
-0.32409134960616504   -0.32682792538770483   -0.027631252135758122
-0.32409134960616504   -0.32682792538770483   -0.027631252135758122
0.07965957388093356   -0.43750350243463876   0.022664077924272996
0.07965957388093356   -0.43750350243463876   0.022664077924272996
0.07965957388093356   -0.43750350243463876   0.022664077924272996
0.07965957388093356   -0.43750350243463876   0.022664077924272996
-0.7673950192733346   -0.23587237165979263   0.006817700280348074
-0.7673950192733346   -0.23587237165979263   0.006817700280348074
-0.7673950192733346   -0.23587237165979263   0.006817700280348074
-0.7673950192733346   -0.23587237165979263   0.006817700280348074
-0.8842744701029684   -0.6095552158935134   0.04610313083895658
-0.8842744701029684   -0.6095552158935134   0.04610313083895658
-0.8842744701029684   -0.6095552158935134   0.04610313083895658
-0.8842744701029684   -0.6095552158935134   0.04610313083895658
0.12617545987797196   -0.04917761344501895   0.044255070165129314
0.12617545987797196   -0.04917761344501895   0.044255070165129314
0.12617545987797196   -0.04917761344501895   0.044255070165129314
0.12617545987797196   -0.04917761344501895   0.044255070165129314
-0.371691018563011   -0.33397034374218976   -0.06677190440065196
-0.371691018563011   -0.33397034374218976   -0.06677190440065196
-0.371691018563011   -0.33397034374218976   -0.06677190440065196
-0.371691018563011   -0.33397034374218976   -0.06677190440065196
-0.7372986510255235   -0.697254284502781   0.05835646434583053
-0.7372986510255235   -0.697254284502781   0.05835646434583053
-0.7372986510255235   -0.697254284502781   0.05835646434583053
-0.7372986510255235   -0.697254284502781   0.05835646434583053
-1.634513776971596   -0.25447102360734736   -0.0378999176653005
-1.634513776971596   -0.25447102360734736   -0.0378999176653005
-1.634513776971596   -0.25447102360734736   -0.0378999176653005
-1.634513776971596   -0.25447102360734736   -0.0378999176653005
-1.8724901415799744   -1.0118509979794168   -0.05250838703645083
-1.8724901415799744   -1.0118509979794168   -0.05250838703645083
-1.8724901415799744   -1.0118509979794168   -0.05250838703645083
-1.8724901415799744   -1.0118509979794168   -0.05250838703645083
-0.6859324909780811   -0.057349205470625164   0.023052713847336342
-0.6859324909780811   -0.057349205470625164   0.023052713847336342
-0.6859324909780811   -0.057349205470625164   0.023052713847336342
-0.6859324909780811   -0.057349205470625164   0.023052713847336342
-1.220766382958651   -0.48565949192495433   -0.04192117579432329
-1.220766382958651   -0.48565949192495433   -0.04192117579432329
-1.220766382958651   -0.48565949192495433   -0.04192117579432329
-1.220766382958651   -0.48565949192495433   -0.04192117579432329
-0.8330685107498836   -0.789550260418806   0.019573669936512245
-0.8330685107498836   -0.789550260418806   0.019573669936512245
-0.8330685107498836   -0.789550260418806   0.019573669936512245
-0.8330685107498836   -0.789550260418806   0.019573669936512245
-1.7215730618226506   -0.2758688830457132   -0.03390510318353465
-1.7215730618226506   -0.2758688830457132   -0.03390510318353465
-1.7215730618226506   -0.2758688830457132   -0.03390510318353465
-1.7215730618226506   -0.2758688830457132   -0.03390510318353465
-1.9283401074605293   -1.0281715406747325   -0.06072363802666994
-1.9283401074605293   -1.0281715406747325   -0.06072363802666994
-1.9283401074605293   -1.0281715406747325   -0.06072363802666994
-1.9283401074605293   -1.0281715406747325   -0.06072363802666994
-0.729206861667499   -0.07254357881548888   0.03442969546522269
-0.729206861667499   -0.07254357881548888   0.03442969546522269
-0.729206861667499   -0.07254357881548888   0.03442969546522269
-0.729206861667499   -0.07254357881548888   0.03442969546522269
-1.2890047757445655   -0.5380418461089913   -0.05923941721437159
-1.2890047757445655   -0.5380418461089913   -0.05923941721437159
-1.2890047757445655   -0.5380418461089913   -0.05923941721437159
-1.2890047757445655   -0.5380418461089913   -0.05923941721437159
-0.8810627954246764   -0.8050417175745592   0.007648165438404353
-0.8810627954246764   -0.8050417175745592   0.007648165438404353
-0.8810627954246764   -0.8050417175745592   0.007648165438404353
-0.8810627954246764   -0.8050417175745592   0.007648165438404353
-1.7767010017181868   -0.29589022993051056   -0.034809420059197474
-1.7767010017181868   -0.29589022993051056   -0.034809420059197474
-1.7767010017181868   -0.29589022993051056   -0.034809420059197474
-1.7767010017181868   -0.29589022993051056   -0.034809420059197474
-1.9759895708769355   -0.9842257018691629   -0.06847788778994499
-1.9759895708769355   -0.9842257018691629   -0.06847788778994499
-1.9759895708769355   -0.9842257018691629   -0.06847788778994499
-1.9759895708769355   -0.9842257018691629   -0.06847788778994499
-0.7840091342621952   -0.09399563122103245   0.03187022537032723
-0.7840091342621952   -0.09399563122103245   0.03187022537032723
-0.7840091342621952   -0.09399563122103245   0.03187022537032723
-0.7840091342621952   -0.09399563122103245   0.03187022537032723
-1.3518268861505964   -0.5559215427486544   -0.07577006905021536
-1.3518268861505964   -0.5559215427486544   -0.07577006905021536
-1.3518268861505964   -0.5559215427486544   -0.07577006905021536
-1.3518268861505964   -0.5559215427486544   -0.07577006905021536
-1.6054995872202271   -0.2921332632893432   0.14483327077351105
-1.6054995872202271   -0.2921332632893432   0.14483327077351105
-1.6054995872202271   -0.2921332632893432   0.14483327077351105
-1.6054995872202271   -0.2921332632893432   0.14483327077351105
-2.8282661142031498   -0.21176580148851298   -0.05035262292727383
-2.8282661142031498   -0.21176580148851298   -0.05035262292727383
-2.8282661142031498   -0.21176580148851298   -0.05035262292727383
-2.8282661142031498   -0.21176580148851298   -0.05035262292727383
-3.001634679805356   -0.5923738457671079   0.039765450969815985
-3.001634679805356   -0.5923738457671079   0.039765450969815985
-3.001634679805356   -0.5923738457671079   0.039765450969815985
-3.001634679805356   -0.5923738457671079   0.039765450969815985
-1.6520291740589417   0.0237118707921547   0.014233581797130024
-1.6520291740589417   0.0237118707921547   0.014233581797130024
-1.6520291740589417   0.0237118707921547   0.014233581797130024
-1.6520291740589417   0.0237118707921547   0.014233581797130024
-2.1636627823256562   -0.2080964537607389   0.0435139989421865
-2.1636627823256562   -0.2080964537607389   0.0435139989421865
-2.1636627823256562   -0.2080964537607389   0.0435139989421865
-2.1636627823256562   -0.2080964537607389   0.0435139989421865
-1.696637324085224   -0.31362210360455983   0.1285268060624249
-1.696637324085224   -0.31362210360455983   0.1285268060624249
-1.696637324085224   -0.31362210360455983   0.1285268060624249
-1.696637324085224   -0.31362210360455983   0.1285268060624249
-2.9494186793005333   -0.24743202089185035   -0.044096371381303734
-2.9494186793005333   -0.24743202089185035   -0.044096371381303734
-2.9494186793005333   -0.24743202089185035   -0.044096371381303734
-2.9494186793005333   -0.24743202089185035   -0.044096371381303734
-3.0752793173217525   -0.6176394949160282   -0.012918157258388852
-3.0752793173217525   -0.6176394949160282   -0.012918157258388852
-3.0752793173217525   -0.6176394949160282   -0.012918157258388852
-3.0752793173217525   -0.6176394949160282   -0.012918157258388852
-1.704000220696953   0.0066841778880957214   0.02612007722836665
-1.704000220696953   0.0066841778880957214   0.02612007722836665
-1.704000220696953   0.0066841778880957214   0.02612007722836665
-1.704000220696953   0.0066841778880957214   0.02612007722836665
-2.2932902214279727   -0.2747651470353534   0.017948903328179222
-2.2932902214279727   -0.2747651470353534   0.017948903328179222
-2.2932902214279727   -0.2747651470353534   0.017948903328179222
-2.2932902214279727   -0.2747651470353534   0.017948903328179222
-1.7551886444782518   -0.32972108471138073   0.1065832209213482
-1.7551886444782518   -0.32972108471138073   0.1065832209213482
-1.7551886444782518   -0.32972108471138073   0.1065832209213482
-1.7551886444782518   -0.32972108471138073   0.1065832209213482
-3.0088359249422303   -0.2659792637183206   -0.03236142655843752
-3.0088359249422303   -0.2659792637183206   -0.03236142655843752
-3.0088359249422303   -0.2659792637183206   -0.03236142655843752
-3.0088359249422303   -0.2659792637183206   -0.03236142655843752
-3.1394314688996343   -0.6279159623417676   -0.00014834280920328347
-3.1394314688996343   -0.6279159623417676   -0.00014834280920328347
-3.1394314688996343   -0.6279159623417676   -0.00014834280920328347
-3.1394314688996343   -0.6279159623417676   -0.00014834280920328347
-1.7769642255455793   -0.0682440368031279   0.010667173800801386
-1.7769642255455793   -0.0682440368031279   0.010667173800801386
-1.7769642255455793   -0.0682440368031279   0.010667173800801386
-1.7769642255455793   -0.0682440368031279   0.010667173800801386
-2.3213465400963424   -0.3320350756288945   0.028342597352617002
-2.3213465400963424   -0.3320350756288945   0.028342597352617002
-2.3213465400963424   -0.3320350756288945   0.028342597352617002
-2.3213465400963424   -0.3320350756288945   0.028342597352617002
1.9124752586879359   0.08784721048761712   -0.0416276109586641
1.9124752586879359   0.08784721048761712   -0.0416276109586641
1.9124752586879359   0.08784721048761712   -0.0416276109586641
1.9124752586879359   0.08784721048761712   -0.0416276109586641
0.9628449867222029   -0.01925754681327191   0.02052043040638222
0.9628449867222029   -0.01925754681327191   0.02052043040638222
0.9628449867222029   -0.01925754681327191   0.02052043040638222
0.9628449867222029   -0.01925754681327191   0.02052043040638222
0.901461280087347   -0.1418632046433069   -0.036756584914761414
0.901461280087347   -0.1418632046433069   -0.036756584914761414
0.901461280087347   -0.1418632046433069   -0.036756584914761414
0.901461280087347   -0.1418632046433069   -0.036756584914761414
1.8902950246036128   0.1381244770434737   0.02400868611833988
1.8902950246036128   0.1381244770434737   0.02400868611833988
1.8902950246036128   0.1381244770434737   0.02400868611833988
1.8902950246036128   0.1381244770434737   0.02400868611833988
1.3425018327094045   0.003290631153928969   -0.05186180024637678
1.3425018327094045   0.003290631153928969   -0.05186180024637678
1.3425018327094045   0.003290631153928969   -0.05186180024637678
1.3425018327094045   0.003290631153928969   -0.05186180024637678
1.859197065317056   0.04863661894283011   -0.041993252213785026
1.859197065317056   0.04863661894283011   -0.041993252213785026
1.859197065317056   0.04863661894283011   -0.041993252213785026
1.859197065317056   0.04863661894283011   -0.041993252213785026
0.9308286097937124   -0.05410597612285353   0.022322835096604196
0.9308286097937124   -0.05410597612285353   0.022322835096604196
0.9308286097937124   -0.05410597612285353   0.022322835096604196
0.9308286097937124   -0.05410597612285353   0.022322835096604196
0.8684153555310296   -0.14981142440440287   -0.030344132707431054
0.8684153555310296   -0.14981142440440287   -0.030344132707431054
0.8684153555310296   -0.14981142440440287   -0.030344132707431054
0.8684153555310296   -0.14981142440440287   -0.030344132707431054
1.8443786819442525   0.12687046756229164   0.03506924761915281
1.8443786819442525   0.12687046756229164   0.03506924761915281
1.8443786819442525   0.12687046756229164   0.03506924761915281
1.8443786819442525   0.12687046756229164   0.03506924761915281
1.3243984747613426   -0.013476576668673468   -0.061951046644850766
1.3243984747613426   -0.013476576668673468   -0.061951046644850766
1.3243984747613426   -0.013476576668673468   -0.061951046644850766
1.3243984747613426   -0.013476576668673468   -0.061951046644850766
1.8130537205088946   0.03854004727798954   -0.03322513927333384
1.8130537205088946   0.03854004727798954   -0.03322513927333384
1.8130537205088946   0.03854004727798954   -0.03322513927333384
1.8130537205088946   0.03854004727798954   -0.03322513927333384
0.8973434348105958   -0.06387788627589236   0.028362725561889374
0.8973434348105958   -0.06387788627589236   0.028362725561889374
0.8973434348105958   -0.06387788627589236   0.028362725561889374
0.8973434348105958   -0.06387788627589236   0.028362725561889374
0.8364014156063104   -0.1476842459775719   -0.020798823339376646
0.8364014156063104   -0.1476842459775719   -0.020798823339376646
0.8364014156063104   -0.1476842459775719   -0.020798823339376646
0.8364014156063104   -0.1476842459775719   -0.020798823339376646
1.7875179819267704   0.11917524993424622   0.04560456795480711
1.7875179819267704   0.11917524993424622   0.04560456795480711
1.7875179819267704   0.11917524993424622   0.04560456795480711
1.7875179819267704   0.11917524993424622   0.04560456795480711
1.2587899745051943   -0.023526926325609543   -0.08139720450789324
1.2587899745051943   -0.023526926325609543   -0.08139720450789324
1.2587899745051943   -0.023526926325609543   -0.08139720450789324
1.2587899745051943   -0.023526926325609543   -0.08139720450789324
0.9679539614152983   0.01824430398257451   0.008563453076004326
0.9679539614152983   0.01824430398257451   0.008563453076004326
0.9679539614152983   0.01824430398257451   0.008563453076004326
0.9679539614152983   0.01824430398257451   0.008563453076004326
0.09356051232145451   -0.057912751517505814   -0.0021518731810877337
0.09356051232145451   -0.057912751517505814   -0.0021518731810877337
0.09356051232145451   -0.057912751517505814   -0.0021518731810877337
0.09356051232145451   -0.057912751517505814   -0.0021518731810877337
0.03571929610787921   -0.18772421979163323   -0.03535318344077412
0.03571929610787921   -0.18772421979163323   -0.03535318344077412
0.03571929610787921   -0.18772421979163323   -0.03535318344077412
0.03571929610787921   -0.18772421979163323   -0.03535318344077412
0.9691303491282239   0.11174711949672267   0.04797843614958538
0.9691303491282239   0.11174711949672267   0.04797843614958538
0.9691303491282239   0.11174711949672267   0.04797843614958538
0.9691303491282239   0.11174711949672267   0.04797843614958538
0.5071099856001694   -0.026442446670376846   -0.0201377358643592
0.5071099856001694   -0.026442446670376846   -0.0201377358643592
0.5071099856001694   -0.026442446670376846   -0.0201377358643592
0.5071099856001694   -0.026442446670376846   -0.0201377358643592
0.9407996085383432   0.0033140416016634033   0.01475781109524494
0.9407996085383432   0.0033140416016634033   0.01475781109524494
0.9407996085383432   0.0033140416016634033   0.01475781109524494
0.9407996085383432   0.0033140416016634033   0.01475781109524494
0.0651213513022611   -0.07821982729207214   0.0021527000315742506
0.0651213513022611   -0.07821982729207214   0.0021527000315742506
0.0651213513022611   -0.07821982729207214   0.0021527000315742506
0.0651213513022611   -0.07821982729207214   0.0021527000315742506
0.0038565646589240957   -0.1967177526912657   -0.024581150069475605
0.0038565646589240957   -0.1967177526912657   -0.024581150069475605
0.0038565646589240957   -0.1967177526912657   -0.024581150069475605
0.0038565646589240957   -0.1967177526912657   -0.024581150069475605
0.9341493189520547   0.09558840653370723   0.052925853459584796
0.9341493189520547   0.09558840653370723   0.052925853459584796
0.9341493189520547   0.09558840653370723   0.052925853459584796
0.9341493189520547   0.09558840653370723   0.052925853459584796
0.4704574252612266   -0.041308253962025226   -0.028513043102373993
0.4704574252612266   -0.041308253962025226   -0.028513043102373993
0.4704574252612266   -0.041308253962025226   -0.028513043102373993
0.4704574252612266   -0.041308253962025226   -0.028513043102373993
0.9074085485942527   -0.006774203541195178   0.021584611745487155
0.9074085485942527   -0.006774203541195178   0.021584611745487155
0.9074085485942527   -0.006774203541195178   0.021584611745487155
0.9074085485942527   -0.006774203541195178   0.021584611745487155
0.03044396207829546   -0.09450851555478207   0.006146599890897553
0.03044396207829546   -0.09450851555478207   0.006146599890897553
0.03044396207829546   -0.09450851555478207   0.006146599890897553
0.03044396207829546   -0.09450851555478207   0.006146599890897553
-0.03035439566795084   -0.19765137972378827   -0.016745654199809112
-0.03035439566795084   -0.19765137972378827   -0.016745654199809112
-0.03035439566795084   -0.19765137972378827   -0.016745654199809112
-0.03035439566795084   -0.19765137972378827   -0.016745654199809112
0.898856777503738   0.08529397401208015   0.05849976615811271
0.898856777503738   0.08529397401208015   0.05849976615811271
0.898856777503738   0.08529397401208015   0.05849976615811271
0.898856777503738   0.08529397401208015   0.05849976615811271
0.44175186809260436   -0.04726246404914361   -0.0357210678426996
0.44175186809260436   -0.04726246404914361   -0.0357210678426996
0.44175186809260436   -0.04726246404914361   -0.0357210678426996
0.44175186809260436   -0.04726246404914361   -0.0357210678426996
0.09523820836659774   -0.0548096562018114   0.0031335117289339465
0.09523820836659774   -0.0548096562018114   0.0031335117289339465
0.09523820836659774   -0.0548096562018114   0.0031335117289339465
0.09523820836659774   -0.0548096562018114   0.0031335117289339465
-0.746651504930718   -0.08632217168083185   -0.023501239616036926
-0.746651504930718   -0.08632217168083185   -0.023501239616036926
-0.746651504930718   -0.08632217168083185   -0.023501239616036926
-0.746651504930718   -0.08632217168083185   -0.023501239616036926
-0.8109547013606655   -0.2488951226863149   -0.04026091167231927
-0.8109547013606655   -0.2488951226863149   -0.04026091167231927
-0.8109547013606655   -0.2488951226863149   -0.04026091167231927
-0.8109547013606655   -0.2488951226863149   -0.04026091167231927
0.10219944232188469   0.08180405392926714   0.027519273908352886
0.10219944232188469   0.08180405392926714   0.027519273908352886
0.10219944232188469   0.08180405392926714   0.027519273908352886
0.10219944232188469   0.08180405392926714   0.027519273908352886
-0.341055285152897   -0.07336362038247946   -0.019998914004052026
-0.341055285152897   -0.07336362038247946   -0.019998914004052026
-0.341055285152897   -0.07336362038247946   -0.019998914004052026
-0.341055285152897   -0.07336362038247946   -0.019998914004052026
0.07129949846519931   -0.061189482229866206   0.016013090784059332
0.07129949846519931   -0.061189482229866206   0.016013090784059332
0.07129949846519931   -0.061189482229866206   0.016013090784059332
0.07129949846519931   -0.061189482229866206   0.016013090784059332
-0.7776927106397001   -0.10353953966291182   -0.01930654109089565
-0.7776927106397001   -0.10353953966291182   -0.01930654109089565
-0.7776927106397001   -0.10353953966291182   -0.01930654109089565
-0.7776927106397001   -0.10353953966291182   -0.01930654109089565
-0.848324545240886   -0.25874879375690774   -0.02663488423773771
-0.848324545240886   -0.25874879375690774   -0.02663488423773771
-0.848324545240886   -0.25874879375690774   -0.02663488423773771
-0.848324545240886   -0.25874879375690774   -0.02663488423773771
0.06724135958455874   0.06450367060081974   0.031121401266612152
0.06724135958455874   0.06450367060081974   0.031121401266612152
0.06724135958455874   0.06450367060081974   0.031121401266612152
0.06724135958455874   0.06450367060081974   0.031121401266612152
-0.37196664933774043   -0.08367554185798286   -0.023991886780412093
-0.37196664933774043   -0.08367554185798286   -0.023991886780412093
-0.37196664933774043   -0.08367554185798286   -0.023991886780412093
-0.37196664933774043   -0.08367554185798286   -0.023991886780412093
0.03821221496156489   -0.07168216259865817   0.02216151135112082
0.03821221496156489   -0.07168216259865817   0.02216151135112082
0.03821221496156489   -0.07168216259865817   0.02216151135112082
0.03821221496156489   -0.07168216259865817   0.02216151135112082
-0.8188018554267146   -0.12206941536626388   -0.015700813557532587
-0.8188018554267146   -0.12206941536626388   -0.015700813557532587
-0.8188018554267146   -0.12206941536626388   -0.015700813557532587
-0.8188018554267146   -0.12206941536626388   -0.015700813557532587
-0.8897940772450567   -0.26595839822818546   -0.023679316627674897
-0.8897940772450567   -0.26595839822818546   -0.023679316627674897
-0.8897940772450567   -0.26595839822818546   -0.023679316627674897
-0.8897940772450567   -0.26595839822818546   -0.023679316627674897
0.029429572492236586   0.04973115149391464   0.03479165538342512
0.029429572492236586   0.04973115149391464   0.03479165538342512
0.029429572492236586   0.04973115149391464   0.03479165538342512
0.029429572492236586   0.04973115149391464   0.03479165538342512
-0.41213114287623376   -0.09602199369856414   -0.03360569451210447
-0.41213114287623376   -0.09602199369856414   -0.03360569451210447
-0.41213114287623376   -0.09602199369856414   -0.03360569451210447
-0.41213114287623376   -0.09602199369856414   -0.03360569451210447
-0.7352851450634055   -0.0647030300705939   0.011711418110276168
-0.7352851450634055   -0.0647030300705939   0.011711418110276168
-0.7352851450634055   -0.0647030300705939   0.011711418110276168
-0.7352851450634055   -0.0647030300705939   0.011711418110276168
-1.566555399077755   -0.10101748933610882   -0.04144950153174978
-1.566555399077755   -0.10101748933610882   -0.04144950153174978
-1.566555399077755   -0.10101748933610882   -0.04144950153174978
-1.566555399077755   -0.10101748933610882   -0.04144950153174978
-1.6396645990675567   -0.2607430680526873   -0.04018449097356059
-1.6396645990675567   -0.2607430680526873   -0.04018449097356059
-1.6396645990675567   -0.2607430680526873   -0.04018449097356059
-1.6396645990675567   -0.2607430680526873   -0.04018449097356059
-0.7390818762483268   0.062442475622033755   0.0077656155810144345
-0.7390818762483268   0.062442475622033755   0.0077656155810144345
-0.7390818762483268   0.062442475622033755   0.0077656155810144345
-0.7390818762483268   0.062442475622033755   0.0077656155810144345
-1.160499084501463   -0.08678694607758525   -0.016824407947863135
-1.160499084501463   -0.08678694607758525   -0.016824407947863135
-1.160499084501463   -0.08678694607758525   -0.016824407947863135
-1.160499084501463   -0.08678694607758525   -0.016824407947863135
-0.7618020678995567   -0.07151019752917248   0.028117330476075203
-0.7618020678995567   -0.07151019752917248   0.028117330476075203
-0.7618020678995567   -0.07151019752917248   0.028117330476075203
-0.7618020678995567   -0.07151019752917248   0.028117330476075203
-1.6123091472924618   -0.12215513477763859   -0.04199516537315081
-1.6123091472924618   -0.12215513477763859   -0.04199516537315081
-1.6123091472924618   -0.12215513477763859   -0.04199516537315081
-1.6123091472924618   -0.12215513477763859   -0.04199516537315081
-1.6913742160758005   -0.27750135445333146   -0.02819182831568835
-1.6913742160758005   -0.27750135445333146   -0.02819182831568835
-1.6913742160758005   -0.27750135445333146   -0.02819182831568835
-1.6913742160758005   -0.27750135445333146   -0.02819182831568835
-0.7806474472538408   0.04349282701809484   0.00950898492247755
-0.7806474472538408   0.04349282701809484   0.00950898492247755
-0.7806474472538408   0.04349282701809484   0.00950898492247755
-0.7806474472538408   0.04349282701809484   0.00950898492247755
-1.1932203267020731   -0.09608284005805642   -0.01688436696111483
-1.1932203267020731   -0.09608284005805642   -0.01688436696111483
-1.1932203267020731   -0.09608284005805642   -0.01688436696111483
-1.1932203267020731   -0.09608284005805642   -0.01688436696111483
-0.8030856126877443   -0.08836922596531009   0.02918021073636189
-0.8030856126877443   -0.08836922596531009   0.02918021073636189
-0.8030856126877443   -0.08836922596531009   0.02918021073636189
-0.8030856126877443   -0.08836922596531009   0.02918021073636189
-1.6658303717223995   -0.14253362255041896   -0.03544033845159446
-1.6658303717223995   -0.14253362255041896   -0.03544033845159446
-1.6658303717223995   -0.14253362255041896   -0.03544033845159446
-1.6658303717223995   -0.14253362255041896   -0.03544033845159446
-1.7498948064154836   -0.2995842059669442   -0.030186976205942757
-1.7498948064154836   -0.2995842059669442   -0.030186976205942757
-1.7498948064154836   -0.2995842059669442   -0.030186976205942757
-1.7498948064154836   -0.2995842059669442   -0.030186976205942757
-0.8255666027285178   0.020116281392885516   0.011383376333936247
-0.8255666027285178   0.020116281392885516   0.011383376333936247
-0.8255666027285178   0.020116281392885516   0.011383376333936247
-0.8255666027285178   0.020116281392885516   0.011383376333936247
-1.251236169860938   -0.11870762316499195   -0.02742227015918594
-1.251236169860938   -0.11870762316499195   -0.02742227015918594
-1.251236169860938   -0.11870762316499195   -0.02742227015918594
-1.251236169860938   -0.11870762316499195   -0.02742227015918594
-1.5134425042301873   0.07157411813794196   0.05152336523203832
-1.5134425042301873   0.07157411813794196   0.05152336523203832
-1.5134425042301873   0.07157411813794196   0.05152336523203832
-1.5134425042301873   0.07157411813794196   0.05152336523203832
-2.346741923930054   -0.11693366938412525   -0.03162776016995404
-2.346741923930054   -0.11693366938412525   -0.03162776016995404
-2.346741923930054   -0.11693366938412525   -0.03162776016995404
-2.346741923930054   -0.11693366938412525   -0.03162776016995404
-2.4046069550749385   -0.11906659159507171   0.052919050877056645
-2.4046069550749385   -0.11906659159507171   0.052919050877056645
-2.4046069550749385   -0.11906659159507171   0.052919050877056645
-2.4046069550749385   -0.11906659159507171   0.052919050877056645
-1.5722857893409938   0.0486321427697709   -0.01266565316322081
-1.5722857893409938   0.0486321427697709   -0.01266565316322081
-1.5722857893409938   0.0486321427697709   -0.01266565316322081
-1.5722857893409938   0.0486321427697709   -0.01266565316322081
-1.86796731157809   0.001448095902759905   0.04739368786334616
-1.86796731157809   0.001448095902759905   0.04739368786334616
-1.86796731157809   0.001448095902759905   0.04739368786334616
-1.86796731157809   0.001448095902759905   0.04739368786334616
-1.5558505761151542   0.05310782097386213   0.06503473476187971
-1.5558505761151542   0.05310782097386213   0.06503473476187971
-1.5558505761151542   0.05310782097386213   0.06503473476187971
-1.5558505761151542   0.05310782097386213   0.06503473476187971
-2.419965167410836   -0.12246526890921133   -0.0204733334882901
-2.419965167410836   -0.12246526890921133   -0.0204733334882901
-2.419965167410836   -0.12246526890921133   -0.0204733334882901
-2.419965167410836   -0.12246526890921133   -0.0204733334882901
-2.4776701904946585   -0.1388811306307114   0.07196350443209826
-2.4776701904946585   -0.1388811306307114   0.07196350443209826
-2.4776701904946585   -0.1388811306307114   0.07196350443209826
-2.4776701904946585   -0.1388811306307114   0.07196350443209826
-1.6258489214306806   0.035171153084862516   -0.013237862628294378
-1.6258489214306806   0.035171153084862516   -0.013237862628294378
-1.6258489214306806   0.035171153084862516   -0.013237862628294378
-1.6258489214306806   0.035171153084862516   -0.013237862628294378
-1.962151683581418   -0.02175012540056609   0.025855770803901695
-1.962151683581418   -0.02175012540056609   0.025855770803901695
-1.962151683581418   -0.02175012540056609   0.025855770803901695
-1.962151683581418   -0.02175012540056609   0.025855770803901695
-1.6108259125654503   0.03292057585438901   0.06412775892833053
-1.6108259125654503   0.03292057585438901   0.06412775892833053
-1.6108259125654503   0.03292057585438901   0.06412775892833053
-1.6108259125654503   0.03292057585438901   0.06412775892833053
-2.4955222464314817   -0.1394596004718205   -0.01671830541090849
-2.4955222464314817   -0.1394596004718205   -0.01671830541090849
-2.4955222464314817   -0.1394596004718205   -0.01671830541090849
-2.4955222464314817   -0.1394596004718205   -0.01671830541090849
-2.5815201885151176   -0.21878036402402762   0.06254150066584106
-2.5815201885151176   -0.21878036402402762   0.06254150066584106
-2.5815201885151176   -0.21878036402402762   0.06254150066584106
-2.5815201885151176   -0.21878036402402762   0.06254150066584106
-1.687603830367464   -0.005856663551911778   -0.012459638380907481
-1.687603830367464   -0.005856663551911778   -0.012459638380907481
-1.687603830367464   -0.005856663551911778   -0.012459638380907481
-1.687603830367464   -0.005856663551911778   -0.012459638380907481
-2.00236533131999   -0.05094068930683837   0.006882643746058875
-2.00236533131999   -0.05094068930683837   0.006882643746058875
-2.00236533131999   -0.05094068930683837   0.006882643746058875
-2.00236533131999   -0.05094068930683837   0.006882643746058875
1.5489688578358878   0.08279880499939687   -0.05532168164402048
1.5489688578358878   0.08279880499939687   -0.05532168164402048
1.5489688578358878   0.08279880499939687   -0.05532168164402048
1.5489688578358878   0.08279880499939687   -0.05532168164402048
0.7680579198518367   -0.0006755667578730584   0.02007358024002273
0.7680579198518367   -0.0006755667578730584   0.02007358024002273
0.7680579198518367   -0.0006755667578730584   0.02007358024002273
0.7680579198518367   -0.0006755667578730584   0.02007358024002273
0.7018647955840642   -0.11450846424564809   -0.05072579130772033
0.7018647955840642   -0.11450846424564809   -0.05072579130772033
0.7018647955840642   -0.11450846424564809   -0.05072579130772033
0.7018647955840642   -0.11450846424564809   -0.05072579130772033
1.5197431339893914   0.12530444201712967   0.025171289014396074
1.5197431339893914   0.12530444201712967   0.025171289014396074
1.5197431339893914   0.12530444201712967   0.025171289014396074
1.5197431339893914   0.12530444201712967   0.025171289014396074
1.0759982941016575   0.009509217025341882   -0.03540877386832119
1.0759982941016575   0.009509217025341882   -0.03540877386832119
1.0759982941016575   0.009509217025341882   -0.03540877386832119
1.0759982941016575   0.009509217025341882   -0.03540877386832119
1.4874097510414617   0.042089540304794615   -0.05328072401290436
1.4874097510414617   0.042089540304794615   -0.05328072401290436
1.4874097510414617   0.042089540304794615   -0.05328072401290436
1.4874097510414617   0.042089540304794615   -0.05328072401290436
0.732810256742404   -0.03268148432290269   0.022174534561221697
0.732810256742404   -0.03268148432290269   0.022174534561221697
0.732810256742404   -0.03268148432290269   0.022174534561221697
0.732810256742404   -0.03268148432290269   0.022174534561221697
0.6687568607549123   -0.1240852188507669   -0.04408736325673851
0.6687568607549123   -0.1240852188507669   -0.04408736325673851
0.6687568607549123   -0.1240852188507669   -0.04408736325673851
0.6687568607549123   -0.1240852188507669   -0.04408736325673851
1.470218222364765   0.11214642834017838   0.03440180539176737
1.470218222364765   0.11214642834017838   0.03440180539176737
1.470218222364765   0.11214642834017838   0.03440180539176737
1.470218222364765   0.11214642834017838   0.03440180539176737
1.0500587378621717   -0.007739991831893417   -0.046544786108926504
1.0500587378621717   -0.007739991831893417   -0.046544786108926504
1.0500587378621717   -0.007739991831893417   -0.046544786108926504
1.0500587378621717   -0.007739991831893417   -0.046544786108926504
1.4385780849182495   0.03030500661094937   -0.04195746011155599
1.4385780849182495   0.03030500661094937   -0.04195746011155599
1.4385780849182495   0.03030500661094937   -0.04195746011155599
1.4385780849182495   0.03030500661094937   -0.04195746011155599
0.6991536166581507   -0.04348717866480159   0.02729837607348195
0.6991536166581507   -0.04348717866480159   0.02729837607348195
0.6991536166581507   -0.04348717866480159   0.02729837607348195
0.6991536166581507   -0.04348717866480159   0.02729837607348195
0.6385211273916247   -0.12694819405946828   -0.03601579747861966
0.6385211273916247   -0.12694819405946828   -0.03601579747861966
0.6385211273916247   -0.12694819405946828   -0.03601579747861966
0.6385211273916247   -0.12694819405946828   -0.03601579747861966
1.414386663524327   0.10059284320130615   0.04279901655396789
1.414386663524327   0.10059284320130615   0.04279901655396789
1.414386663524327   0.10059284320130615   0.04279901655396789
1.414386663524327   0.10059284320130615   0.04279901655396789
0.9897106064980629   -0.019626258428363852   -0.06322975247894046
0.9897106064980629   -0.019626258428363852   -0.06322975247894046
0.9897106064980629   -0.019626258428363852   -0.06322975247894046
0.9897106064980629   -0.019626258428363852   -0.06322975247894046
0.7812004810279533   0.08088981727712144   0.004221002085611006
0.7812004810279533   0.08088981727712144   0.004221002085611006
0.7812004810279533   0.08088981727712144   0.004221002085611006
0.7812004810279533   0.08088981727712144   0.004221002085611006
0.026958148079085455   -0.025515918465935573   -0.003157560926426984
0.026958148079085455   -0.025515918465935573   -0.003157560926426984
0.026958148079085455   -0.025515918465935573   -0.003157560926426984
0.026958148079085455   -0.025515918465935573   -0.003157560926426984
-0.02293411814864528   -0.10316157394050997   -0.03450056375970853
-0.02293411814864528   -0.10316157394050997   -0.03450056375970853
-0.02293411814864528   -0.10316157394050997   -0.03450056375970853
-0.02293411814864528   -0.10316157394050997   -0.03450056375970853
0.7661033405457177   0.11345057627042822   0.042507892984459186
0.7661033405457177   0.11345057627042822   0.042507892984459186
0.7661033405457177   0.11345057627042822   0.042507892984459186
0.7661033405457177   0.11345057627042822   0.042507892984459186
0.38179045448943305   0.016159043052947283   -0.004381759358039319
0.38179045448943305   0.016159043052947283   -0.004381759358039319
0.38179045448943305   0.016159043052947283   -0.004381759358039319
0.38179045448943305   0.016159043052947283   -0.004381759358039319
0.748597293772931   0.059775390228282016   0.008652845162675026
0.748597293772931   0.059775390228282016   0.008652845162675026
0.748597293772931   0.059775390228282016   0.008652845162675026
0.748597293772931   0.059775390228282016   0.008652845162675026
-0.0051181686813092445   -0.04917648520381389   0.0005940948402755695
-0.0051181686813092445   -0.04917648520381389   0.0005940948402755695
-0.0051181686813092445   -0.04917648520381389   0.0005940948402755695
-0.0051181686813092445   -0.04917648520381389   0.0005940948402755695
-0.054297426554243494   -0.11864951174555381   -0.02981699243042224
-0.054297426554243494   -0.11864951174555381   -0.02981699243042224
-0.054297426554243494   -0.11864951174555381   -0.02981699243042224
-0.054297426554243494   -0.11864951174555381   -0.02981699243042224
0.7305758095197382   0.09388184977945775   0.04704031193716063
0.7305758095197382   0.09388184977945775   0.04704031193716063
0.7305758095197382   0.09388184977945775   0.04704031193716063
0.7305758095197382   0.09388184977945775   0.04704031193716063
0.3434926254069596   -0.003121400475530403   -0.015339589030039326
0.3434926254069596   -0.003121400475530403   -0.015339589030039326
0.3434926254069596   -0.003121400475530403   -0.015339589030039326
0.3434926254069596   -0.003121400475530403   -0.015339589030039326
0.7137245823922137   0.04354291145467509   0.013123114624326464
0.7137245823922137   0.04354291145467509   0.013123114624326464
0.7137245823922137   0.04354291145467509   0.013123114624326464
0.7137245823922137   0.04354291145467509   0.013123114624326464
-0.037415646954320425   -0.06828002094838188   0.004222414772021187
-0.037415646954320425   -0.06828002094838188   0.004222414772021187
-0.037415646954320425   -0.06828002094838188   0.004222414772021187
-0.037415646954320425   -0.06828002094838188   0.004222414772021187
-0.08534482703736762   -0.12798769905418672   -0.023706994632115994
-0.08534482703736762   -0.12798769905418672   -0.023706994632115994
-0.08534482703736762   -0.12798769905418672   -0.023706994632115994
-0.08534482703736762   -0.12798769905418672   -0.023706994632115994
0.6967862982573158   0.07736626222007088   0.05099560057028946
0.6967862982573158   0.07736626222007088   0.05099560057028946
0.6967862982573158   0.07736626222007088   0.05099560057028946
0.6967862982573158   0.07736626222007088   0.05099560057028946
0.315155639821198   -0.015470622613287202   -0.02342183612441678
0.315155639821198   -0.015470622613287202   -0.02342183612441678
0.315155639821198   -0.015470622613287202   -0.02342183612441678
0.315155639821198   -0.015470622613287202   -0.02342183612441678
0.052555091032464876   0.08173470209159918   0.017576533282935333
0.052555091032464876   0.08173470209159918   0.017576533282935333
0.052555091032464876   0.08173470209159918   0.017576533282935333
0.052555091032464876   0.08173470209159918   0.017576533282935333
-0.6911173837087199   -0.0446868755391681   -0.02378487660100161
-0.6911173837087199   -0.0446868755391681   -0.02378487660100161
-0.6911173837087199   -0.0446868755391681   -0.02378487660100161
-0.6911173837087199   -0.0446868755391681   -0.02378487660100161
-0.7300429584201209   -0.09451177103788236   -0.021817450185327616
-0.7300429584201209   -0.09451177103788236   -0.021817450185327616
-0.7300429584201209   -0.09451177103788236   -0.021817450185327616
-0.7300429584201209   -0.09451177103788236   -0.021817450185327616
0.027295640341707512   0.09289461127688443   0.020592043474661044
0.027295640341707512   0.09289461127688443   0.020592043474661044
0.027295640341707512   0.09289461127688443   0.020592043474661044
0.027295640341707512   0.09289461127688443   0.020592043474661044
-0.33490805629632014   0.010437157913218906   0.0012670127354812745
-0.33490805629632014   0.010437157913218906   0.0012670127354812745
-0.33490805629632014   0.010437157913218906   0.0012670127354812745
-0.33490805629632014   0.010437157913218906   0.0012670127354812745
0.021951650966204855   0.06466998537604564   0.022096722497986554
0.021951650966204855   0.06466998537604564   0.022096722497986554
0.021951650966204855   0.06466998537604564   0.022096722497986554
0.021951650966204855   0.06466998537604564   0.022096722497986554
-0.7238441067221872   -0.06543228281461252   -0.019902679918928946
-0.7238441067221872   -0.06543228281461252   -0.019902679918928946
-0.7238441067221872   -0.06543228281461252   -0.019902679918928946
-0.7238441067221872   -0.06543228281461252   -0.019902679918928946
-0.7637021583079298   -0.1115306435097708   -0.018106651393913355
-0.7637021583079298   -0.1115306435097708   -0.018106651393913355
-0.7637021583079298   -0.1115306435097708   -0.018106651393913355
-0.7637021583079298   -0.1115306435097708   -0.018106651393913355
-0.005052405345967015   0.07276338109774931   0.02499522076765704
-0.005052405345967015   0.07276338109774931   0.02499522076765704
-0.005052405345967015   0.07276338109774931   0.02499522076765704
-0.005052405345967015   0.07276338109774931   0.02499522076765704
-0.36715457927058864   -0.006210837830142743   -0.006973138827669052
-0.36715457927058864   -0.006210837830142743   -0.006973138827669052
-0.36715457927058864   -0.006210837830142743   -0.006973138827669052
-0.36715457927058864   -0.006210837830142743   -0.006973138827669052
-0.009618298294277794   0.04824440516376064   0.026684731960091825
-0.009618298294277794   0.04824440516376064   0.026684731960091825
-0.009618298294277794   0.04824440516376064   0.026684731960091825
-0.009618298294277794   0.04824440516376064   0.026684731960091825
-0.7584010693229797   -0.08627647153914207   -0.01685537843978727
-0.7584010693229797   -0.08627647153914207   -0.01685537843978727
-0.7584010693229797   -0.08627647153914207   -0.01685537843978727
-0.7584010693229797   -0.08627647153914207   -0.01685537843978727
-0.7971352953532616   -0.12492799671436242   -0.01193921781246208
-0.7971352953532616   -0.12492799671436242   -0.01193921781246208
-0.7971352953532616   -0.12492799671436242   -0.01193921781246208
-0.7971352953532616   -0.12492799671436242   -0.01193921781246208
-0.038564347323972244   0.05379918832742246   0.02840851655325169
-0.038564347323972244   0.05379918832742246   0.02840851655325169
-0.038564347323972244   0.05379918832742246   0.02840851655325169
-0.038564347323972244   0.05379918832742246   0.02840851655325169
-0.4018507708449812   -0.023142518532867085   -0.015975360417139366
-0.4018507708449812   -0.023142518532867085   -0.015975360417139366
-0.4018507708449812   -0.023142518532867085   -0.015975360417139366
-0.4018507708449812   -0.023142518532867085   -0.015975360417139366
-0.6516708740640766   0.09666789599133402   0.032092900091724524
-0.6516708740640766   0.09666789599133402   0.032092900091724524
-0.6516708740640766   0.09666789599133402   0.032092900091724524
-0.6516708740640766   0.09666789599133402   0.032092900091724524
-1.385246390848833   -0.061472411916883296   -0.038990216121098695
-1.385246390848833   -0.061472411916883296   -0.038990216121098695
-1.385246390848833   -0.061472411916883296   -0.038990216121098695
-1.385246390848833   -0.061472411916883296   -0.038990216121098695
-1.4155994672249457   -0.075651176196144   -0.006185052533194145
-1.4155994672249457   -0.075651176196144   -0.006185052533194145
-1.4155994672249457   -0.075651176196144   -0.006185052533194145
-1.4155994672249457   -0.075651176196144   -0.006185052533194145
-0.6929613676616361   0.07024585904414085   -0.0011671264749226473
-0.6929613676616361   0.07024585904414085   -0.0011671264749226473
-0.6929613676616361   0.07024585904414085   -0.0011671264749226473
-0.6929613676616361   0.07024585904414085   -0.0011671264749226473
-1.0288856458940294   0.010637388048229363   0.007492849380089865
-1.0288856458940294   0.010637388048229363   0.007492849380089865
-1.0288856458940294   0.010637388048229363   0.007492849380089865
-1.0288856458940294   0.010637388048229363   0.007492849380089865
-0.6837396722157802   0.07916269606002282   0.03602451373847449
-0.6837396722157802   0.07916269606002282   0.03602451373847449
-0.6837396722157802   0.07916269606002282   0.03602451373847449
-0.6837396722157802   0.07916269606002282   0.03602451373847449
-1.4236571881603768   -0.0834040387016132   -0.03872079470489089
-1.4236571881603768   -0.0834040387016132   -0.03872079470489089
-1.4236571881603768   -0.0834040387016132   -0.03872079470489089
-1.4236571881603768   -0.0834040387016132   -0.03872079470489089
-1.4570534886493116   -0.09478414539925123   -0.005469835768843315
-1.4570534886493116   -0.09478414539925123   -0.005469835768843315
-1.4570534886493116   -0.09478414539925123   -0.005469835768843315
-1.4570534886493116   -0.09478414539925123   -0.005469835768843315
-0.7270164072616973   0.05103511982615874   0.002756340501323694
-0.7270164072616973   0.05103511982615874   0.002756340501323694
-0.7270164072616973   0.05103511982615874   0.002756340501323694
-0.7270164072616973   0.05103511982615874   0.002756340501323694
-1.0579274071429148   -0.004602090537951076   0.0007317555318435143
-1.0579274071429148   -0.004602090537951076   0.0007317555318435143
-1.0579274071429148   -0.004602090537951076   0.0007317555318435143
-1.0579274071429148   -0.004602090537951076   0.0007317555318435143
-0.7169180103398135   0.0626613386698304   0.041622106267066486
-0.7169180103398135   0.0626613386698304   0.041622106267066486
-0.7169180103398135   0.0626613386698304   0.041622106267066486
-0.7169180103398135   0.0626613386698304   0.041622106267066486
-1.4647916238120546   -0.10405010248378585   -0.03489455449804183
-1.4647916238120546   -0.10405010248378585   -0.03489455449804183
-1.4647916238120546   -0.10405010248378585   -0.03489455449804183
-1.4647916238120546   -0.10405010248378585   -0.03489455449804183
-1.4952264178073105   -0.11526554325140276   0.0041340681912261645
-1.4952264178073105   -0.11526554325140276   0.0041340681912261645
-1.4952264178073105   -0.11526554325140276   0.0041340681912261645
-1.4952264178073105   -0.11526554325140276   0.0041340681912261645
-0.7631055251579534   0.02818550979057144   0.005096126659160684
-0.7631055251579534   0.02818550979057144   0.005096126659160684
-0.7631055251579534   0.02818550979057144   0.005096126659160684
-0.7631055251579534   0.02818550979057144   0.005096126659160684
-1.1032095152673056   -0.02596589393379148   -0.008348955605757984
-1.1032095152673056   -0.02596589393379148   -0.008348955605757984
-1.1032095152673056   -0.02596589393379148   -0.008348955605757984
-1.1032095152673056   -0.02596589393379148   -0.008348955605757984
-1.336058365938342   0.10052007795924878   0.04495741855520431
-1.336058365938342   0.10052007795924878   0.04495741855520431
-1.336058365938342   0.10052007795924878   0.04495741855520431
-1.336058365938342   0.10052007795924878   0.04495741855520431
-2.0447156842109786   -0.09456164683758367   -0.036011903827471936
-2.0447156842109786   -0.09456164683758367   -0.036011903827471936
-2.0447156842109786   -0.09456164683758367   -0.036011903827471936
-2.0447156842109786   -0.09456164683758367   -0.036011903827471936
-2.0728708588598512   -0.04129698245540264   0.03827379022983034
-2.0728708588598512   -0.04129698245540264   0.03827379022983034
-2.0728708588598512   -0.04129698245540264   0.03827379022983034
-2.0728708588598512   -0.04129698245540264   0.03827379022983034
-1.3948856320981178   0.04196377407698293   -0.02023082717218165
-1.3948856320981178   0.04196377407698293   -0.02023082717218165
-1.3948856320981178   0.04196377407698293   -0.02023082717218165
-1.3948856320981178   0.04196377407698293   -0.02023082717218165
-1.6364877329879475   0.02095447029263786   0.03756360736025058
-1.6364877329879475   0.02095447029263786   0.03756360736025058
-1.6364877329879475   0.02095447029263786   0.03756360736025058
-1.6364877329879475   0.02095447029263786   0.03756360736025058
-1.3684468787791157   0.10226533184562486   0.05166138165417107
-1.3684468787791157   0.10226533184562486   0.05166138165417107
-1.3684468787791157   0.10226533184562486   0.05166138165417107
-1.3684468787791157   0.10226533184562486   0.05166138165417107
-2.097748694196503   -0.10003762224168194   -0.027374746667120572
-2.097748694196503   -0.10003762224168194   -0.027374746667120572
-2.097748694196503   -0.10003762224168194   -0.027374746667120572
-2.097748694196503   -0.10003762224168194   -0.027374746667120572
-2.1243539503324187   -0.051306132737478194   0.052880737161739994
-2.1243539503324187   -0.051306132737478194   0.052880737161739994
-2.1243539503324187   -0.051306132737478194   0.052880737161739994
-2.1243539503324187   -0.051306132737478194   0.052880737161739994
-1.4344198032502629   0.030922463174745285   -0.01800801734759605
-1.4344198032502629   0.030922463174745285   -0.01800801734759605
-1.4344198032502629   0.030922463174745285   -0.01800801734759605
-1.4344198032502629   0.030922463174745285   -0.01800801734759605
-1.707230900132777   0.010329996677575781   0.024099731576501165
-1.707230900132777   0.010329996677575781   0.024099731576501165
-1.707230900132777   0.010329996677575781   0.024099731576501165
-1.707230900132777   0.010329996677575781   0.024099731576501165
-1.4052193887119846   0.09477327988164058   0.0641432386369
-1.4052193887119846   0.09477327988164058   0.0641432386369
-1.4052193887119846   0.09477327988164058   0.0641432386369
-1.4052193887119846   0.09477327988164058   0.0641432386369
-2.152048119004864   -0.1136507035785343   -0.023245535359392888
-2.152048119004864   -0.1136507035785343   -0.023245535359392888
-2.152048119004864   -0.1136507035785343   -0.023245535359392888
-2.152048119004864   -0.1136507035785343   -0.023245535359392888
-2.1941796025856983   -0.09415777253005725   0.05261058894659991
-2.1941796025856983   -0.09415777253005725   0.05261058894659991
-2.1941796025856983   -0.09415777253005725   0.05261058894659991
-2.1941796025856983   -0.09415777253005725   0.05261058894659991
-1.476807582914333   -0.0021246456446247786   -0.016912654950664574
-1.476807582914333   -0.0021246456446247786   -0.016912654950664574
-1.476807582914333   -0.0021246456446247786   -0.016912654950664574
-1.476807582914333   -0.0021246456446247786   -0.016912654950664574
-1.7279403482985223   -0.004935131664709047   0.019616058833408945
-1.7279403482985223   -0.004935131664709047   0.019616058833408945
-1.7279403482985223   -0.004935131664709047   0.019616058833408945
-1.7279403482985223   -0.004935131664709047   0.019616058833408945
1.1733557130295584   0.065141519909862   -0.056138779599023664
1.1733557130295584   0.065141519909862   -0.056138779599023664
1.1733557130295584   0.065141519909862   -0.056138779599023664
1.1733557130295584   0.065141519909862   -0.056138779599023664
0.5581025502296828   0.011308986006874008   0.02143149125921052
0.5581025502296828   0.011308986006874008   0.02143149125921052
0.5581025502296828   0.011308986006874008   0.02143149125921052
0.5581025502296828   0.011308986006874008   0.02143149125921052
0.49571848662095813   -0.09519435819828313   -0.0532980646942346
0.49571848662095813   -0.09519435819828313   -0.0532980646942346
0.49571848662095813   -0.09519435819828313   -0.0532980646942346
0.49571848662095813   -0.09519435819828313   -0.0532980646942346
1.1478678214635556   0.10791103884943976   0.026497337266907013
1.1478678214635556   0.10791103884943976   0.026497337266907013
1.1478678214635556   0.10791103884943976   0.026497337266907013
1.1478678214635556   0.10791103884943976   0.026497337266907013
0.8001846010818268   0.010826165357438855   -0.02365876537048181
0.8001846010818268   0.010826165357438855   -0.02365876537048181
0.8001846010818268   0.010826165357438855   -0.02365876537048181
0.8001846010818268   0.010826165357438855   -0.02365876537048181
1.1161652826745234   0.02894479198791805   -0.05304910981673269
1.1161652826745234   0.02894479198791805   -0.05304910981673269
1.1161652826745234   0.02894479198791805   -0.05304910981673269
1.1161652826745234   0.02894479198791805   -0.05304910981673269
0.5267954369374439   -0.01685369980931893   0.023746028499225295
0.5267954369374439   -0.01685369980931893   0.023746028499225295
0.5267954369374439   -0.01685369980931893   0.023746028499225295
0.5267954369374439   -0.01685369980931893   0.023746028499225295
0.4665690983072771   -0.1045533725019972   -0.04544807476162258
0.4665690983072771   -0.1045533725019972   -0.04544807476162258
0.4665690983072771   -0.1045533725019972   -0.04544807476162258
0.4665690983072771   -0.1045533725019972   -0.04544807476162258
1.102544977766535   0.09453834215686077   0.034836205775647576
1.102544977766535   0.09453834215686077   0.034836205775647576
1.102544977766535   0.09453834215686077   0.034836205775647576
1.102544977766535   0.09453834215686077   0.034836205775647576
0.774054022947588   -0.005392048676894995   -0.03325458305477506
0.774054022947588   -0.005392048676894995   -0.03325458305477506
0.774054022947588   -0.005392048676894995   -0.03325458305477506
0.774054022947588   -0.005392048676894995   -0.03325458305477506
1.071584947421622   0.01704524292898904   -0.04247084672103616
1.071584947421622   0.01704524292898904   -0.04247084672103616
1.071584947421622   0.01704524292898904   -0.04247084672103616
1.071584947421622   0.01704524292898904   -0.04247084672103616
0.4967414655122891   -0.027847936414025665   0.028708325175461284
0.4967414655122891   -0.027847936414025665   0.028708325175461284
0.4967414655122891   -0.027847936414025665   0.028708325175461284
0.4967414655122891   -0.027847936414025665   0.028708325175461284
0.44029306357535686   -0.11035514568885914   -0.037847327947888317
0.44029306357535686   -0.11035514568885914   -0.037847327947888317
0.44029306357535686   -0.11035514568885914   -0.037847327947888317
0.44029306357535686   -0.11035514568885914   -0.037847327947888317
1.0514404547784817   0.08003358719653317   0.04137208873336264
1.0514404547784817   0.08003358719653317   0.04137208873336264
1.0514404547784817   0.08003358719653317   0.04137208873336264
1.0514404547784817   0.08003358719653317   0.04137208873336264
0.7225149674082424   -0.017660268841630827   -0.04743383184741116
0.7225149674082424   -0.017660268841630827   -0.04743383184741116
0.7225149674082424   -0.017660268841630827   -0.04743383184741116
0.7225149674082424   -0.017660268841630827   -0.04743383184741116
0.5673719146751723   0.0825131724477294   -0.0034258729541888824
0.5673719146751723   0.0825131724477294   -0.0034258729541888824
0.5673719146751723   0.0825131724477294   -0.0034258729541888824
0.5673719146751723   0.0825131724477294   -0.0034258729541888824
-0.03694090187233742   -0.007964457108310919   -0.0002571511353158547
-0.03694090187233742   -0.007964457108310919   -0.0002571511353158547
-0.03694090187233742   -0.007964457108310919   -0.0002571511353158547
-0.03694090187233742   -0.007964457108310919   -0.0002571511353158547
-0.08088650424984116   -0.07122253419310469   -0.03386781453764651
-0.08088650424984116   -0.07122253419310469   -0.03386781453764651
-0.08088650424984116   -0.07122253419310469   -0.03386781453764651
-0.08088650424984116   -0.07122253419310469   -0.03386781453764651
0.5525657762243842   0.09806807155652604   0.0376759535680812
0.5525657762243842   0.09806807155652604   0.0376759535680812
0.5525657762243842   0.09806807155652604   0.0376759535680812
0.5525657762243842   0.09806807155652604   0.0376759535680812
0.24666874862657828   0.024214759412029378   0.0017501709174124747
0.24666874862657828   0.024214759412029378   0.0017501709174124747
0.24666874862657828   0.024214759412029378   0.0017501709174124747
0.24666874862657828   0.024214759412029378   0.0017501709174124747
0.5376513873443256   0.05957751931511212   0.0015945614092093673
0.5376513873443256   0.05957751931511212   0.0015945614092093673
0.5376513873443256   0.05957751931511212   0.0015945614092093673
0.5376513873443256   0.05957751931511212   0.0015945614092093673
-0.06571612537835186   -0.032475991960248626   0.003237537586943882
-0.06571612537835186   -0.032475991960248626   0.003237537586943882
-0.06571612537835186   -0.032475991960248626   0.003237537586943882
-0.06571612537835186   -0.032475991960248626   0.003237537586943882
-0.10834416515824714   -0.08890975940254295   -0.02799775929485744
-0.10834416515824714   -0.08890975940254295   -0.02799775929485744
-0.10834416515824714   -0.08890975940254295   -0.02799775929485744
-0.10834416515824714   -0.08890975940254295   -0.02799775929485744
0.5201990097495105   0.07695885577003375   0.04118925417750914
0.5201990097495105   0.07695885577003375   0.04118925417750914
0.5201990097495105   0.07695885577003375   0.04118925417750914
0.5201990097495105   0.07695885577003375   0.04118925417750914
0.21284039045146458   0.0033449569168274573   -0.008728679232079043
0.21284039045146458   0.0033449569168274573   -0.008728679232079043
0.21284039045146458   0.0033449569168274573   -0.008728679232079043
0.21284039045146458   0.0033449569168274573   -0.008728679232079043
0.5057781291674673   0.04060249394085445   0.005441213096476494
0.5057781291674673   0.04060249394085445   0.005441213096476494
0.5057781291674673   0.04060249394085445   0.005441213096476494
0.5057781291674673   0.04060249394085445   0.005441213096476494
-0.0941317021854852   -0.05276181518265445   0.006916611349063809
-0.0941317021854852   -0.05276181518265445   0.006916611349063809
-0.0941317021854852   -0.05276181518265445   0.006916611349063809
-0.0941317021854852   -0.05276181518265445   0.006916611349063809
-0.13544434725618268   -0.10377547001710584   -0.022482415102095674
-0.13544434725618268   -0.10377547001710584   -0.022482415102095674
-0.13544434725618268   -0.10377547001710584   -0.022482415102095674
-0.13544434725618268   -0.10377547001710584   -0.022482415102095674
0.4903155278829073   0.05743093580717648   0.04447891209382537
0.4903155278829073   0.05743093580717648   0.04447891209382537
0.4903155278829073   0.05743093580717648   0.04447891209382537
0.4903155278829073   0.05743093580717648   0.04447891209382537
0.1868775542629358   -0.01248711737318891   -0.017462813024486178
0.1868775542629358   -0.01248711737318891   -0.017462813024486178
0.1868775542629358   -0.01248711737318891   -0.017462813024486178
0.1868775542629358   -0.01248711737318891   -0.017462813024486178
-0.012871875339092353   0.09845325528289851   0.01367026913970389
-0.012871875339092353   0.09845325528289851   0.01367026913970389
-0.012871875339092353   0.09845325528289851   0.01367026913970389
-0.012871875339092353   0.09845325528289851   0.01367026913970389
-0.6193045638617453   -0.026802090385738345   -0.020542356022081796
-0.6193045638617453   -0.026802090385738345   -0.020542356022081796
-0.6193045638617453   -0.026802090385738345   -0.020542356022081796
-0.6193045638617453   -0.026802090385738345   -0.020542356022081796
-0.6476283864757182   -0.04941514915713163   -0.016032731877993568
-0.6476283864757182   -0.04941514915713163   -0.016032731877993568
-0.6476283864757182   -0.04941514915713163   -0.016032731877993568
-0.6476283864757182   -0.04941514915713163   -0.016032731877993568
-0.0407446877108201   0.07920312570475642   0.016415608259601464
-0.0407446877108201   0.07920312570475642   0.016415608259601464
-0.0407446877108201   0.07920312570475642   0.016415608259601464
-0.0407446877108201   0.07920312570475642   0.016415608259601464
-0.32935550602877567   0.02553175793861555   0.0064618305553492406
-0.32935550602877567   0.02553175793861555   0.0064618305553492406
-0.32935550602877567   0.02553175793861555   0.0064618305553492406
-0.32935550602877567   0.02553175793861555   0.0064618305553492406
-0.04019545496773761   0.07912580254668106   0.019239095133089266
-0.04019545496773761   0.07912580254668106   0.019239095133089266
-0.04019545496773761   0.07912580254668106   0.019239095133089266
-0.04019545496773761   0.07912580254668106   0.019239095133089266
-0.647646992034031   -0.04880719881428648   -0.016733710012402207
-0.647646992034031   -0.04880719881428648   -0.016733710012402207
-0.647646992034031   -0.04880719881428648   -0.016733710012402207
-0.647646992034031   -0.04880719881428648   -0.016733710012402207
-0.6757527965616099   -0.06855763912884257   -0.010909489149659477
-0.6757527965616099   -0.06855763912884257   -0.010909489149659477
-0.6757527965616099   -0.06855763912884257   -0.010909489149659477
-0.6757527965616099   -0.06855763912884257   -0.010909489149659477
-0.06937024241092751   0.0574668187222661   0.020495276316931696
-0.06937024241092751   0.0574668187222661   0.020495276316931696
-0.06937024241092751   0.0574668187222661   0.020495276316931696
-0.06937024241092751   0.0574668187222661   0.020495276316931696
-0.3577693542564049   0.006650603288419779   -0.002042041087629929
-0.3577693542564049   0.006650603288419779   -0.002042041087629929
-0.3577693542564049   0.006650603288419779   -0.002042041087629929
-0.3577693542564049   0.006650603288419779   -0.002042041087629929
-0.0682539664747487   0.05986059971873328   0.023682875001358565
-0.0682539664747487   0.05986059971873328   0.023682875001358565
-0.0682539664747487   0.05986059971873328   0.023682875001358565
-0.0682539664747487   0.05986059971873328   0.023682875001358565
-0.6767126258529547   -0.0707949734804758   -0.013471301254750514
-0.6767126258529547   -0.0707949734804758   -0.013471301254750514
-0.6767126258529547   -0.0707949734804758   -0.013471301254750514
-0.6767126258529547   -0.0707949734804758   -0.013471301254750514
-0.7035474749671914   -0.08604688912919986   -0.005838743086640806
-0.7035474749671914   -0.08604688912919986   -0.005838743086640806
-0.7035474749671914   -0.08604688912919986   -0.005838743086640806
-0.7035474749671914   -0.08604688912919986   -0.005838743086640806
-0.098111595113362   0.03644406649573553   0.023961809099166446
-0.098111595113362   0.03644406649573553   0.023961809099166446
-0.098111595113362   0.03644406649573553   0.023961809099166446
-0.098111595113362   0.03644406649573553   0.023961809099166446
-0.3874837497968636   -0.01239023418998883   -0.011511483730702085
-0.3874837497968636   -0.01239023418998883   -0.011511483730702085
-0.3874837497968636   -0.01239023418998883   -0.011511483730702085
-0.3874837497968636   -0.01239023418998883   -0.011511483730702085
-0.5812755037764007   0.11306664960466889   0.02973420441423004
-0.5812755037764007   0.11306664960466889   0.02973420441423004
-0.5812755037764007   0.11306664960466889   0.02973420441423004
-0.5812755037764007   0.11306664960466889   0.02973420441423004
-1.1882737769516336   -0.0460400590172825   -0.03704740315275481
-1.1882737769516336   -0.0460400590172825   -0.03704740315275481
-1.1882737769516336   -0.0460400590172825   -0.03704740315275481
-1.1882737769516336   -0.0460400590172825   -0.03704740315275481
-1.2037558252664131   -0.030999095110497477   0.0034025603566624762
-1.2037558252664131   -0.030999095110497477   0.0034025603566624762
-1.2037558252664131   -0.030999095110497477   0.0034025603566624762
-1.2037558252664131   -0.030999095110497477   0.0034025603566624762
-0.6241194831579833   0.0568679644647791   -0.004771328911225892
-0.6241194831579833   0.0568679644647791   -0.004771328911225892
-0.6241194831579833   0.0568679644647791   -0.004771328911225892
-0.6241194831579833   0.0568679644647791   -0.004771328911225892
-0.8935187747281866   0.024365498003563246   0.010952128951752627
-0.8935187747281866   0.024365498003563246   0.010952128951752627
-0.8935187747281866   0.024365498003563246   0.010952128951752627
-0.8935187747281866   0.024365498003563246   0.010952128951752627
-0.608647523670806   0.09436111644597198   0.03509531654346421
-0.608647523670806   0.09436111644597198   0.03509531654346421
-0.608647523670806   0.09436111644597198   0.03509531654346421
-0.608647523670806   0.09436111644597198   0.03509531654346421
-1.2190827513000995   -0.06834721363821056   -0.035883951284057664
-1.2190827513000995   -0.06834721363821056   -0.035883951284057664
-1.2190827513000995   -0.06834721363821056   -0.035883951284057664
-1.2190827513000995   -0.06834721363821056   -0.035883951284057664
-1.236504573654849   -0.05034966079732159   0.005320603777073794
-1.236504573654849   -0.05034966079732159   0.005320603777073794
-1.236504573654849   -0.05034966079732159   0.005320603777073794
-1.236504573654849   -0.05034966079732159   0.005320603777073794
-0.6526365475747032   0.0367369150114282   -0.000622798355392952
-0.6526365475747032   0.0367369150114282   -0.000622798355392952
-0.6526365475747032   0.0367369150114282   -0.000622798355392952
-0.6526365475747032   0.0367369150114282   -0.000622798355392952
-0.917558234970216   0.007516631351256381   0.0030355237891735165
-0.917558234970216   0.007516631351256381   0.0030355237891735165
-0.917558234970216   0.007516631351256381   0.0030355237891735165
-0.917558234970216   0.007516631351256381   0.0030355237891735165
-0.6365195057535472   0.07660258098323916   0.040096744778575825
-0.6365195057535472   0.07660258098323916   0.040096744778575825
-0.6365195057535472   0.07660258098323916   0.040096744778575825
-0.6365195057535472   0.07660258098323916   0.040096744778575825
-1.2517914845281786   -0.08938519582130641   -0.03207841556559055
-1.2517914845281786   -0.08938519582130641   -0.03207841556559055
-1.2517914845281786   -0.08938519582130641   -0.03207841556559055
-1.2517914845281786   -0.08938519582130641   -0.03207841556559055
-1.2662126744702766   -0.07117593148990733   0.01139606956909018
-1.2662126744702766   -0.07117593148990733   0.01139606956909018
-1.2662126744702766   -0.07117593148990733   0.01139606956909018
-1.2662126744702766   -0.07117593148990733   0.01139606956909018
-0.6819519387959981   0.013710181489494627   0.0023818671506348824
-0.6819519387959981   0.013710181489494627   0.0023818671506348824
-0.6819519387959981   0.013710181489494627   0.0023818671506348824
-0.6819519387959981   0.013710181489494627   0.0023818671506348824
-0.9541452121313249   -0.01360295944280468   -0.007011554095773052
-0.9541452121313249   -0.01360295944280468   -0.007011554095773052
-0.9541452121313249   -0.01360295944280468   -0.007011554095773052
-0.9541452121313249   -0.01360295944280468   -0.007011554095773052
-1.1429688119078762   0.10139798416523432   0.042039378883515444
-1.1429688119078762   0.10139798416523432   0.042039378883515444
-1.1429688119078762   0.10139798416523432   0.042039378883515444
-1.1429688119078762   0.10139798416523432   0.042039378883515444
-1.7292184489546647   -0.07976908070115074   -0.04085906358021159
-1.7292184489546647   -0.07976908070115074   -0.04085906358021159
-1.7292184489546647   -0.07976908070115074   -0.04085906358021159
-1.7292184489546647   -0.07976908070115074   -0.04085906358021159
-1.7485009881550813   -0.016962977864287798   0.038750769178366715
-1.7485009881550813   -0.016962977864287798   0.038750769178366715
-1.7485009881550813   -0.016962977864287798   0.038750769178366715
-1.7485009881550813   -0.016962977864287798   0.038750769178366715
-1.1972966490270216   0.02861942683958113   -0.023920080396459306
-1.1972966490270216   0.02861942683958113   -0.023920080396459306
-1.1972966490270216   0.02861942683958113   -0.023920080396459306
-1.1972966490270216   0.02861942683958113   -0.023920080396459306
-1.3901617821331649   0.022826924263749326   0.03402499610925988
-1.3901617821331649   0.022826924263749326   0.03402499610925988
-1.3901617821331649   0.022826924263749326   0.03402499610925988
-1.3901617821331649   0.022826924263749326   0.03402499610925988
-1.1681298768511204   0.10122311002112033   0.049310097301507885
-1.1681298768511204   0.10122311002112033   0.049310097301507885
-1.1681298768511204   0.10122311002112033   0.049310097301507885
-1.1681298768511204   0.10122311002112033   0.049310097301507885
-1.7771738122182932   -0.08907271293314539   -0.032503616068820365
-1.7771738122182932   -0.08907271293314539   -0.032503616068820365
-1.7771738122182932   -0.08907271293314539   -0.032503616068820365
-1.7771738122182932   -0.08907271293314539   -0.032503616068820365
-1.7913684697031442   -0.027170731364944523   0.04847467640689759
-1.7913684697031442   -0.027170731364944523   0.04847467640689759
-1.7913684697031442   -0.027170731364944523   0.04847467640689759
-1.7913684697031442   -0.027170731364944523   0.04847467640689759
-1.228081882116762   0.01758227949161134   -0.0204978788214258
-1.228081882116762   0.01758227949161134   -0.0204978788214258
-1.228081882116762   0.01758227949161134   -0.0204978788214258
-1.228081882116762   0.01758227949161134   -0.0204978788214258
-1.449995234688249   0.011431823850205025   0.020668392118386905
-1.449995234688249   0.011431823850205025   0.020668392118386905
-1.449995234688249   0.011431823850205025   0.020668392118386905
-1.449995234688249   0.011431823850205025   0.020668392118386905
-1.1971425641521536   0.09361309380211003   0.05816789669111827
-1.1971425641521536   0.09361309380211003   0.05816789669111827
-1.1971425641521536   0.09361309380211003   0.05816789669111827
-1.1971425641521536   0.09361309380211003   0.05816789669111827
-1.8214941809998844   -0.10238793900756077   -0.02693667243416424
-1.8214941809998844   -0.10238793900756077   -0.02693667243416424
-1.8214941809998844   -0.10238793900756077   -0.02693667243416424
-1.8214941809998844   -0.10238793900756077   -0.02693667243416424
-1.847944389771937   -0.06344625602649268   0.04761609999759969
-1.847944389771937   -0.06344625602649268   0.04761609999759969
-1.847944389771937   -0.06344625602649268   0.04761609999759969
-1.847944389771937   -0.06344625602649268   0.04761609999759969
-1.2605855431675947   -0.013070014398496144   -0.018574191008911736
-1.2605855431675947   -0.013070014398496144   -0.018574191008911736
-1.2605855431675947   -0.013070014398496144   -0.018574191008911736
-1.2605855431675947   -0.013070014398496144   -0.018574191008911736
-1.4654865376181732   -0.0027316343192103076   0.016201931900684835
-1.4654865376181732   -0.0027316343192103076   0.016201931900684835
-1.4654865376181732   -0.0027316343192103076   0.016201931900684835
-1.4654865376181732   -0.0027316343192103076   0.016201931900684835
0.8052102039616685   0.045542645521622335   -0.054507864899033504
0.8052102039616685   0.045542645521622335   -0.054507864899033504
0.8052102039616685   0.045542645521622335   -0.054507864899033504
0.8052102039616685   0.045542645521622335   -0.054507864899033504
0.3439446889423464   0.022077801568621484   0.023411526724073352
0.3439446889423464   0.022077801568621484   0.023411526724073352
0.3439446889423464   0.022077801568621484   0.023411526724073352
0.3439446889423464   0.022077801568621484   0.023411526724073352
0.28774894876367096   -0.07957542540728325   -0.05081611131682331
0.28774894876367096   -0.07957542540728325   -0.05081611131682331
0.28774894876367096   -0.07957542540728325   -0.05081611131682331
0.28774894876367096   -0.07957542540728325   -0.05081611131682331
0.7862621962899814   0.09154777143592349   0.02844249740746386
0.7862621962899814   0.09154777143592349   0.02844249740746386
0.7862621962899814   0.09154777143592349   0.02844249740746386
0.7862621962899814   0.09154777143592349   0.02844249740746386
0.5263549245236494   0.011677314771507588   -0.014383054897666732
0.5263549245236494   0.011677314771507588   -0.014383054897666732
0.5263549245236494   0.011677314771507588   -0.014383054897666732
0.5263549245236494   0.011677314771507588   -0.014383054897666732
0.7548650330498717   0.013843253534906452   -0.05083880089207556
0.7548650330498717   0.013843253534906452   -0.05083880089207556
0.7548650330498717   0.013843253534906452   -0.05083880089207556
0.7548650330498717   0.013843253534906452   -0.05083880089207556
0.31855639513153533   -0.0024606243785119802   0.02610631949373257
0.31855639513153533   -0.0024606243785119802   0.02610631949373257
0.31855639513153533   -0.0024606243785119802   0.02610631949373257
0.31855639513153533   -0.0024606243785119802   0.02610631949373257
0.2638070131213844   -0.08882570332054524   -0.043246056966231884
0.2638070131213844   -0.08882570332054524   -0.043246056966231884
0.2638070131213844   -0.08882570332054524   -0.043246056966231884
0.2638070131213844   -0.08882570332054524   -0.043246056966231884
0.7468748242912087   0.07842351251935852   0.036646202244277074
0.7468748242912087   0.07842351251935852   0.036646202244277074
0.7468748242912087   0.07842351251935852   0.036646202244277074
0.7468748242912087   0.07842351251935852   0.036646202244277074
0.5015777955851607   -0.003573754446232119   -0.023450184898955097
0.5015777955851607   -0.003573754446232119   -0.023450184898955097
0.5015777955851607   -0.003573754446232119   -0.023450184898955097
0.5015777955851607   -0.003573754446232119   -0.023450184898955097
0.7159952530946433   0.0019962731862610272   -0.04132441440545948
0.7159952530946433   0.0019962731862610272   -0.04132441440545948
0.7159952530946433   0.0019962731862610272   -0.04132441440545948
0.7159952530946433   0.0019962731862610272   -0.04132441440545948
0.2938175266841081   -0.013267521621290232   0.031248329148134007
0.2938175266841081   -0.013267521621290232   0.031248329148134007
0.2938175266841081   -0.013267521621290232   0.031248329148134007
0.2938175266841081   -0.013267521621290232   0.031248329148134007
0.2424024556779244   -0.09725667528330431   -0.03604122456526738
0.2424024556779244   -0.09725667528330431   -0.03604122456526738
0.2424024556779244   -0.09725667528330431   -0.03604122456526738
0.2424024556779244   -0.09725667528330431   -0.03604122456526738
0.700900766495695   0.06114979525350027   0.041817941622893026
0.700900766495695   0.06114979525350027   0.041817941622893026
0.700900766495695   0.06114979525350027   0.041817941622893026
0.700900766495695   0.06114979525350027   0.041817941622893026
0.4597335964769483   -0.01609825154774422   -0.0358882278818168
0.4597335964769483   -0.01609825154774422   -0.0358882278818168
0.4597335964769483   -0.01609825154774422   -0.0358882278818168
0.4597335964769483   -0.01609825154774422   -0.0358882278818168
0.34622545295565377   0.06674906146349632   -0.009855913104270824
0.34622545295565377   0.06674906146349632   -0.009855913104270824
0.34622545295565377   0.06674906146349632   -0.009855913104270824
0.34622545295565377   0.06674906146349632   -0.009855913104270824
-0.10643387106272087   0.005830818941847057   0.003194821031875913
-0.10643387106272087   0.005830818941847057   0.003194821031875913
-0.10643387106272087   0.005830818941847057   0.003194821031875913
-0.10643387106272087   0.005830818941847057   0.003194821031875913
-0.14485133481694434   -0.05520813606861545   -0.03128797351629776
-0.14485133481694434   -0.05520813606861545   -0.03128797351629776
-0.14485133481694434   -0.05520813606861545   -0.03128797351629776
-0.14485133481694434   -0.05520813606861545   -0.03128797351629776
0.33659529751059286   0.08026176573875837   0.033578441271750026
0.33659529751059286   0.08026176573875837   0.033578441271750026
0.33659529751059286   0.08026176573875837   0.033578441271750026
0.33659529751059286   0.08026176573875837   0.033578441271750026
0.10551631089078102   0.02322366218247162   0.004043280947990558
0.10551631089078102   0.02322366218247162   0.004043280947990558
0.10551631089078102   0.02322366218247162   0.004043280947990558
0.10551631089078102   0.02322366218247162   0.004043280947990558
0.32141289752933366   0.04323995543728447   -0.005311748333076095
0.32141289752933366   0.04323995543728447   -0.005311748333076095
0.32141289752933366   0.04323995543728447   -0.005311748333076095
0.32141289752933366   0.04323995543728447   -0.005311748333076095
-0.12989256375433245   -0.01840995468579018   0.00670770041393264
-0.12989256375433245   -0.01840995468579018   0.00670770041393264
-0.12989256375433245   -0.01840995468579018   0.00670770041393264
-0.12989256375433245   -0.01840995468579018   0.00670770041393264
-0.16712062507824102   -0.07380474460751586   -0.0253091128824874
-0.16712062507824102   -0.07380474460751586   -0.0253091128824874
-0.16712062507824102   -0.07380474460751586   -0.0253091128824874
-0.16712062507824102   -0.07380474460751586   -0.0253091128824874
0.3092847796040866   0.05881079238565945   0.03650627974107712
0.3092847796040866   0.05881079238565945   0.03650627974107712
0.3092847796040866   0.05881079238565945   0.03650627974107712
0.3092847796040866   0.05881079238565945   0.03650627974107712
0.07806127774531689   0.0022038176211017155   -0.006054226646944506
0.07806127774531689   0.0022038176211017155   -0.006054226646944506
0.07806127774531689   0.0022038176211017155   -0.006054226646944506
0.07806127774531689   0.0022038176211017155   -0.006054226646944506
0.29458230084872206   0.023298832353630047   -0.001494154003720969
0.29458230084872206   0.023298832353630047   -0.001494154003720969
0.29458230084872206   0.023298832353630047   -0.001494154003720969
0.29458230084872206   0.023298832353630047   -0.001494154003720969
-0.15298492542157813   -0.038859563674188906   0.010424204467500121
-0.15298492542157813   -0.038859563674188906   0.010424204467500121
-0.15298492542157813   -0.038859563674188906   0.010424204467500121
-0.15298492542157813   -0.038859563674188906   0.010424204467500121
-0.18909496230287187   -0.091303833517001   -0.01978444434128284
-0.18909496230287187   -0.091303833517001   -0.01978444434128284
-0.18909496230287187   -0.091303833517001   -0.01978444434128284
-0.18909496230287187   -0.091303833517001   -0.01978444434128284
0.2846393412424364   0.03818360965827989   0.039702918315713695
0.2846393412424364   0.03818360965827989   0.039702918315713695
0.2846393412424364   0.03818360965827989   0.039702918315713695
0.2846393412424364   0.03818360965827989   0.039702918315713695
0.056006860734670795   -0.015258521664167884   -0.014977780283792711
0.056006860734670795   -0.015258521664167884   -0.014977780283792711
0.056006860734670795   -0.015258521664167884   -0.014977780283792711
0.056006860734670795   -0.015258521664167884   -0.014977780283792711
-0.08974021721611683   0.08476502665762695   0.007728882549116221
-0.08974021721611683   0.08476502665762695   0.007728882549116221
-0.08974021721611683   0.08476502665762695   0.007728882549116221
-0.08974021721611683   0.08476502665762695   0.007728882549116221
-0.5501431618908688   -0.013826371863242218   -0.016720747867607175
-0.5501431618908688   -0.013826371863242218   -0.016720747867607175
-0.5501431618908688   -0.013826371863242218   -0.016720747867607175
-0.5501431618908688   -0.013826371863242218   -0.016720747867607175
-0.5721106435598637   -0.03281439363946258   -0.01230603261244995
-0.5721106435598637   -0.03281439363946258   -0.01230603261244995
-0.5721106435598637   -0.03281439363946258   -0.01230603261244995
-0.5721106435598637   -0.03281439363946258   -0.01230603261244995
-0.11270909353298865   0.061201236737840475   0.013013860097021043
-0.11270909353298865   0.061201236737840475   0.013013860097021043
-0.11270909353298865   0.061201236737840475   0.013013860097021043
-0.11270909353298865   0.061201236737840475   0.013013860097021043
-0.33036991532202026   0.024447837110339668   0.006527325625086618
-0.33036991532202026   0.024447837110339668   0.006527325625086618
-0.33036991532202026   0.024447837110339668   0.006527325625086618
-0.33036991532202026   0.024447837110339668   0.006527325625086618
-0.11201765248616186   0.06433322625963969   0.013339075809359547
-0.11201765248616186   0.06433322625963969   0.013339075809359547
-0.11201765248616186   0.06433322625963969   0.013339075809359547
-0.11201765248616186   0.06433322625963969   0.013339075809359547
-0.5728639376823754   -0.03600823623695121   -0.012878660627519932
-0.5728639376823754   -0.03600823623695121   -0.012878660627519932
-0.5728639376823754   -0.03600823623695121   -0.012878660627519932
-0.5728639376823754   -0.03600823623695121   -0.012878660627519932
-0.5946093308700947   -0.05307604357948452   -0.006979946732654171
-0.5946093308700947   -0.05307604357948452   -0.006979946732654171
-0.5946093308700947   -0.05307604357948452   -0.006979946732654171
-0.5946093308700947   -0.05307604357948452   -0.006979946732654171
-0.13607723089792073   0.03912529624101785   0.016977817170576594
-0.13607723089792073   0.03912529624101785   0.016977817170576594
-0.13607723089792073   0.03912529624101785   0.016977817170576594
-0.13607723089792073   0.03912529624101785   0.016977817170576594
-0.3535016810796324   0.004723994683167712   -0.002155131548098512
-0.3535016810796324   0.004723994683167712   -0.002155131548098512
-0.3535016810796324   0.004723994683167712   -0.002155131548098512
-0.3535016810796324   0.004723994683167712   -0.002155131548098512
-0.13490396876589014   0.04387908583519788   0.018090338236553285
-0.13490396876589014   0.04387908583519788   0.018090338236553285
-0.13490396876589014   0.04387908583519788   0.018090338236553285
-0.13490396876589014   0.04387908583519788   0.018090338236553285
-0.5961408170138843   -0.058188057185423026   -0.009525363845664173
-0.5961408170138843   -0.058188057185423026   -0.009525363845664173
-0.5961408170138843   -0.058188057185423026   -0.009525363845664173
-0.5961408170138843   -0.058188057185423026   -0.009525363845664173
-0.6167300258476679   -0.07243243623174837   -0.0018022738039472734
-0.6167300258476679   -0.07243243623174837   -0.0018022738039472734
-0.6167300258476679   -0.07243243623174837   -0.0018022738039472734
-0.6167300258476679   -0.07243243623174837   -0.0018022738039472734
-0.15924679778390805   0.017674001672216645   0.02047854306431486
-0.15924679778390805   0.017674001672216645   0.02047854306431486
-0.15924679778390805   0.017674001672216645   0.02047854306431486
-0.15924679778390805   0.017674001672216645   0.02047854306431486
-0.37758542626274283   -0.015022189001066583   -0.011565920542732335
-0.37758542626274283   -0.015022189001066583   -0.011565920542732335
-0.37758542626274283   -0.015022189001066583   -0.011565920542732335
-0.37758542626274283   -0.015022189001066583   -0.011565920542732335
-0.5190088333188293   0.10020609580474912   0.024918427324598903
-0.5190088333188293   0.10020609580474912   0.024918427324598903
-0.5190088333188293   0.10020609580474912   0.024918427324598903
-0.5190088333188293   0.10020609580474912   0.024918427324598903
-0.9859612694528803   -0.033375106038414926   -0.03404731496778611
-0.9859612694528803   -0.033375106038414926   -0.03404731496778611
-0.9859612694528803   -0.033375106038414926   -0.03404731496778611
-0.9859612694528803   -0.033375106038414926   -0.03404731496778611
-0.994219323604737   -0.014586914560739794   0.008054116407933437
-0.994219323604737   -0.014586914560739794   0.008054116407933437
-0.994219323604737   -0.014586914560739794   0.008054116407933437
-0.994219323604737   -0.014586914560739794   0.008054116407933437
-0.5565639313835495   0.039877301685951605   -0.007264167056304553
-0.5565639313835495   0.039877301685951605   -0.007264167056304553
-0.5565639313835495   0.039877301685951605   -0.007264167056304553
-0.5565639313835495   0.039877301685951605   -0.007264167056304553
-0.7594105447812742   0.02325631528729885   0.009480979233959845
-0.7594105447812742   0.02325631528729885   0.009480979233959845
-0.7594105447812742   0.02325631528729885   0.009480979233959845
-0.7594105447812742   0.02325631528729885   0.009480979233959845
-0.5408730495005671   0.08057085482285126   0.03049668922171886
-0.5408730495005671   0.08057085482285126   0.03049668922171886
-0.5408730495005671   0.08057085482285126   0.03049668922171886
-0.5408730495005671   0.08057085482285126   0.03049668922171886
-1.0105944813212386   -0.055964743531159516   -0.032443843204170854
-1.0105944813212386   -0.055964743531159516   -0.032443843204170854
-1.0105944813212386   -0.055964743531159516   -0.032443843204170854
-1.0105944813212386   -0.055964743531159516   -0.032443843204170854
-1.0207397537235534   -0.034654529536963075   0.010523185051501037
-1.0207397537235534   -0.034654529536963075   0.010523185051501037
-1.0207397537235534   -0.034654529536963075   0.010523185051501037
-1.0207397537235534   -0.034654529536963075   0.010523185051501037
-0.5793030011478032   0.019533736977102534   -0.0030580786777951174
-0.5793030011478032   0.019533736977102534   -0.0030580786777951174
-0.5793030011478032   0.019533736977102534   -0.0030580786777951174
-0.5793030011478032   0.019533736977102534   -0.0030580786777951174
-0.7788923593759636   0.00536688428369525   0.0007750336139647623
-0.7788923593759636   0.00536688428369525   0.0007750336139647623
-0.7788923593759636   0.00536688428369525   0.0007750336139647623
-0.7788923593759636   0.00536688428369525   0.0007750336139647623
-0.5630482023392441   0.06194089516501662   0.03580875717709008
-0.5630482023392441   0.06194089516501662   0.03580875717709008
-0.5630482023392441   0.06194089516501662   0.03580875717709008
-0.5630482023392441   0.06194089516501662   0.03580875717709008
-1.0370535742606237   -0.07712070945338256   -0.028579737717430616
-1.0370535742606237   -0.07712070945338256   -0.028579737717430616
-1.0370535742606237   -0.07712070945338256   -0.028579737717430616
-1.0370535742606237   -0.07712070945338256   -0.028579737717430616
-1.0443559338757764   -0.056031087719539324   0.016079516185243316
-1.0443559338757764   -0.056031087719539324   0.016079516185243316
-1.0443559338757764   -0.056031087719539324   0.016079516185243316
-1.0443559338757764   -0.056031087719539324   0.016079516185243316
-0.6024390843555132   -0.0030271639150206975   0.000247161340090514
-0.6024390843555132   -0.0030271639150206975   0.000247161340090514
-0.6024390843555132   -0.0030271639150206975   0.000247161340090514
-0.6024390843555132   -0.0030271639150206975   0.000247161340090514
-0.8081128194212789   -0.015389393017323977   -0.009326552966623533
-0.8081128194212789   -0.015389393017323977   -0.009326552966623533
-0.8081128194212789   -0.015389393017323977   -0.009326552966623533
-0.8081128194212789   -0.015389393017323977   -0.009326552966623533
-0.9460681542110332   0.09286785167017703   0.03917530353285717
-0.9460681542110332   0.09286785167017703   0.03917530353285717
-0.9460681542110332   0.09286785167017703   0.03917530353285717
-0.9460681542110332   0.09286785167017703   0.03917530353285717
-1.39581327632524   -0.06425026881167922   -0.04424507035754545
-1.39581327632524   -0.06425026881167922   -0.04424507035754545
-1.39581327632524   -0.06425026881167922   -0.04424507035754545
-1.39581327632524   -0.06425026881167922   -0.04424507035754545
-1.4093175361512622   -0.0012351536269119001   0.038827904395316234
-1.4093175361512622   -0.0012351536269119001   0.038827904395316234
-1.4093175361512622   -0.0012351536269119001   0.038827904395316234
-1.4093175361512622   -0.0012351536269119001   0.038827904395316234
-0.9955133695309686   0.013566404993117592   -0.02656943277709766
-0.9955133695309686   0.013566404993117592   -0.02656943277709766
-0.9955133695309686   0.013566404993117592   -0.02656943277709766
-0.9955133695309686   0.013566404993117592   -0.02656943277709766
-1.134469231551913   0.021567840068007493   0.028705666067632127
-1.134469231551913   0.021567840068007493   0.028705666067632127
-1.134469231551913   0.021567840068007493   0.028705666067632127
-1.134469231551913   0.021567840068007493   0.028705666067632127
-0.9658850670746709   0.08892788017403871   0.04621060432347791
-0.9658850670746709   0.08892788017403871   0.04621060432347791
-0.9658850670746709   0.08892788017403871   0.04621060432347791
-0.9658850670746709   0.08892788017403871   0.04621060432347791
-1.4395296519137752   -0.07718044211404582   -0.03628738593010802
-1.4395296519137752   -0.07718044211404582   -0.03628738593010802
-1.4395296519137752   -0.07718044211404582   -0.03628738593010802
-1.4395296519137752   -0.07718044211404582   -0.03628738593010802
-1.4467820165806866   -0.012271160945635629   0.0489350534562025
-1.4467820165806866   -0.012271160945635629   0.0489350534562025
-1.4467820165806866   -0.012271160945635629   0.0489350534562025
-1.4467820165806866   -0.012271160945635629   0.0489350534562025
-1.0199597713012252   0.0024104334334174304   -0.022641865807252755
-1.0199597713012252   0.0024104334334174304   -0.022641865807252755
-1.0199597713012252   0.0024104334334174304   -0.022641865807252755
-1.0199597713012252   0.0024104334334174304   -0.022641865807252755
-1.1849709079030821   0.00888048086041937   0.015016995004698386
-1.1849709079030821   0.00888048086041937   0.015016995004698386
-1.1849709079030821   0.00888048086041937   0.015016995004698386
-1.1849709079030821   0.00888048086041937   0.015016995004698386
-0.9889441075339691   0.08039898955412256   0.05444789690833714
-0.9889441075339691   0.08039898955412256   0.05444789690833714
-0.9889441075339691   0.08039898955412256   0.05444789690833714
-0.9889441075339691   0.08039898955412256   0.05444789690833714
-1.4782195639136413   -0.09068160063204714   -0.029842243522159535
-1.4782195639136413   -0.09068160063204714   -0.029842243522159535
-1.4782195639136413   -0.09068160063204714   -0.029842243522159535
-1.4782195639136413   -0.09068160063204714   -0.029842243522159535
-1.4969018102299814   -0.04679849135929742   0.049099691249468655
-1.4969018102299814   -0.04679849135929742   0.049099691249468655
-1.4969018102299814   -0.04679849135929742   0.049099691249468655
-1.4969018102299814   -0.04679849135929742   0.049099691249468655
-1.0455370918868092   -0.025837551864576064   -0.0200198097249068
-1.0455370918868092   -0.025837551864576064   -0.0200198097249068
-1.0455370918868092   -0.025837551864576064   -0.0200198097249068
-1.0455370918868092   -0.025837551864576064   -0.0200198097249068
-1.199293447185607   -0.005589429351234354   0.00849911468761691
-1.199293447185607   -0.005589429351234354   0.00849911468761691
-1.199293447185607   -0.005589429351234354   0.00849911468761691
-1.199293447185607   -0.005589429351234354   0.00849911468761691
0.44254552224864785   0.02645165057028081   -0.053320061573931384
0.44254552224864785   0.02645165057028081   -0.053320061573931384
0.44254552224864785   0.02645165057028081   -0.053320061573931384
0.44254552224864785   0.02645165057028081   -0.053320061573931384
0.1285422869107815   0.03206259053966505   0.025515722554474807
0.1285422869107815   0.03206259053966505   0.025515722554474807
0.1285422869107815   0.03206259053966505   0.025515722554474807
0.1285422869107815   0.03206259053966505   0.025515722554474807
0.07890208307861771   -0.0650158975420014   -0.04701573427079696
0.07890208307861771   -0.0650158975420014   -0.04701573427079696
0.07890208307861771   -0.0650158975420014   -0.04701573427079696
0.07890208307861771   -0.0650158975420014   -0.04701573427079696
0.4303170759909595   0.07553579801228269   0.030700797148704488
0.4303170759909595   0.07553579801228269   0.030700797148704488
0.4303170759909595   0.07553579801228269   0.030700797148704488
0.4303170759909595   0.07553579801228269   0.030700797148704488
0.25429584339968847   0.012594320938999648   -0.005887086898569729
0.25429584339968847   0.012594320938999648   -0.005887086898569729
0.25429584339968847   0.012594320938999648   -0.005887086898569729
0.25429584339968847   0.012594320938999648   -0.005887086898569729
0.3990201098371243   -0.0013656603814823365   -0.048882575226708185
0.3990201098371243   -0.0013656603814823365   -0.048882575226708185
0.3990201098371243   -0.0013656603814823365   -0.048882575226708185
0.3990201098371243   -0.0013656603814823365   -0.048882575226708185
0.10922226475501091   0.010908776374321427   0.028660500194846686
0.10922226475501091   0.010908776374321427   0.028660500194846686
0.10922226475501091   0.010908776374321427   0.028660500194846686
0.10922226475501091   0.010908776374321427   0.028660500194846686
0.06016085215620877   -0.07423401583502397   -0.03992746739263532
0.06016085215620877   -0.07423401583502397   -0.03992746739263532
0.06016085215620877   -0.07423401583502397   -0.03992746739263532
0.06016085215620877   -0.07423401583502397   -0.03992746739263532
0.3966298053631908   0.0628151013757169   0.0394341781287453
0.3966298053631908   0.0628151013757169   0.0394341781287453
0.3966298053631908   0.0628151013757169   0.0394341781287453
0.3966298053631908   0.0628151013757169   0.0394341781287453
0.23076330427482397   -0.0018022047582940334   -0.015231111922396881
0.23076330427482397   -0.0018022047582940334   -0.015231111922396881
0.23076330427482397   -0.0018022047582940334   -0.015231111922396881
0.23076330427482397   -0.0018022047582940334   -0.015231111922396881
0.3655130373151422   -0.013204164559889306   -0.04013039617589545
0.3655130373151422   -0.013204164559889306   -0.04013039617589545
0.3655130373151422   -0.013204164559889306   -0.04013039617589545
0.3655130373151422   -0.013204164559889306   -0.04013039617589545
0.08996995432572927   0.0004775842220537986   0.03440644339789135
0.08996995432572927   0.0004775842220537986   0.03440644339789135
0.08996995432572927   0.0004775842220537986   0.03440644339789135
0.08996995432572927   0.0004775842220537986   0.03440644339789135
0.04340248162496946   -0.08536425536782352   -0.03325402661300038
0.04340248162496946   -0.08536425536782352   -0.03325402661300038
0.04340248162496946   -0.08536425536782352   -0.03325402661300038
0.04340248162496946   -0.08536425536782352   -0.03325402661300038
0.35491819005850367   0.04245783231364157   0.043777337120633183
0.35491819005850367   0.04245783231364157   0.043777337120633183
0.35491819005850367   0.04245783231364157   0.043777337120633183
0.35491819005850367   0.04245783231364157   0.043777337120633183
0.19826404203721076   -0.014628072991105613   -0.026649936597832827
0.19826404203721076   -0.014628072991105613   -0.026649936597832827
0.19826404203721076   -0.014628072991105613   -0.026649936597832827
0.19826404203721076   -0.014628072991105613   -0.026649936597832827
0.12355337631603093   0.04809671352941611   -0.015462953409030623
0.12355337631603093   0.04809671352941611   -0.015462953409030623
0.12355337631603093   0.04809671352941611   -0.015462953409030623
0.12355337631603093   0.04809671352941611   -0.015462953409030623
-0.1801007140366724   0.015528467377415783   0.006204697368505631
-0.1801007140366724   0.015528467377415783   0.006204697368505631
-0.1801007140366724   0.015528467377415783   0.006204697368505631
-0.1801007140366724   0.015528467377415783   0.006204697368505631
-0.21207558229554188   -0.04167503695566271   -0.027434692394189865
-0.21207558229554188   -0.04167503695566271   -0.027434692394189865
-0.21207558229554188   -0.04167503695566271   -0.027434692394189865
-0.21207558229554188   -0.04167503695566271   -0.027434692394189865
0.11907842587242554   0.059699708264474724   0.029150373891766508
0.11907842587242554   0.059699708264474724   0.029150373891766508
0.11907842587242554   0.059699708264474724   0.029150373891766508
0.11907842587242554   0.059699708264474724   0.029150373891766508
-0.0384438729477172   0.019551676989539336   0.004952519910039407
-0.0384438729477172   0.019551676989539336   0.004952519910039407
-0.0384438729477172   0.019551676989539336   0.004952519910039407
-0.0384438729477172   0.019551676989539336   0.004952519910039407
0.10398550585836858   0.024751012975962307   -0.01136553089000592
0.10398550585836858   0.024751012975962307   -0.01136553089000592
0.10398550585836858   0.024751012975962307   -0.01136553089000592
0.10398550585836858   0.024751012975962307   -0.01136553089000592
-0.19781526186558596   -0.007558941251246239   0.009750814051173224
-0.19781526186558596   -0.007558941251246239   0.009750814051173224
-0.19781526186558596   -0.007558941251246239   0.009750814051173224
-0.19781526186558596   -0.007558941251246239   0.009750814051173224
-0.2288412677885492   -0.060412169721076756   -0.021482483399968028
-0.2288412677885492   -0.060412169721076756   -0.021482483399968028
-0.2288412677885492   -0.060412169721076756   -0.021482483399968028
-0.2288412677885492   -0.060412169721076756   -0.021482483399968028
0.09708109183379751   0.03865767068712137   0.03178204447316495
0.09708109183379751   0.03865767068712137   0.03178204447316495
0.09708109183379751   0.03865767068712137   0.03178204447316495
0.09708109183379751   0.03865767068712137   0.03178204447316495
-0.05915750549297769   -0.0006559616367981681   -0.004730413575665065
-0.05915750549297769   -0.0006559616367981681   -0.004730413575665065
-0.05915750549297769   -0.0006559616367981681   -0.004730413575665065
-0.05915750549297769   -0.0006559616367981681   -0.004730413575665065
0.08243430662754436   0.004650499723282742   -0.007444710594264142
0.08243430662754436   0.004650499723282742   -0.007444710594264142
0.08243430662754436   0.004650499723282742   -0.007444710594264142
0.08243430662754436   0.004650499723282742   -0.007444710594264142
-0.2152721165150896   -0.027482632690036445   0.013433735936293668
-0.2152721165150896   -0.027482632690036445   0.013433735936293668
-0.2152721165150896   -0.027482632690036445   0.013433735936293668
-0.2152721165150896   -0.027482632690036445   0.013433735936293668
-0.24547903913171387   -0.07900124082044879   -0.016102953703779392
-0.24547903913171387   -0.07900124082044879   -0.016102953703779392
-0.24547903913171387   -0.07900124082044879   -0.016102953703779392
-0.24547903913171387   -0.07900124082044879   -0.016102953703779392
0.0778212398375438   0.017995271188503612   0.035480237893545166
0.0778212398375438   0.017995271188503612   0.035480237893545166
0.0778212398375438   0.017995271188503612   0.035480237893545166
0.0778212398375438   0.017995271188503612   0.035480237893545166
-0.07708631635272696   -0.018753649295294248   -0.013875454358338743
-0.07708631635272696   -0.018753649295294248   -0.013875454358338743
-0.07708631635272696   -0.018753649295294248   -0.013875454358338743
-0.07708631635272696   -0.018753649295294248   -0.013875454358338743
-0.1708132073330342   0.06584825689555718   0.002322441368555271
-0.1708132073330342   0.06584825689555718   0.002322441368555271
-0.1708132073330342   0.06584825689555718   0.002322441368555271
-0.1708132073330342   0.06584825689555718   0.002322441368555271
-0.4846450189341396   -0.005765163448342478   -0.013316793176760076
-0.4846450189341396   -0.005765163448342478   -0.013316793176760076
-0.4846450189341396   -0.005765163448342478   -0.013316793176760076
-0.4846450189341396   -0.005765163448342478   -0.013316793176760076
-0.49974513627544254   -0.02039991406711368   -0.007955851185295845
-0.49974513627544254   -0.02039991406711368   -0.007955851185295845
-0.49974513627544254   -0.02039991406711368   -0.007955851185295845
-0.49974513627544254   -0.02039991406711368   -0.007955851185295845
-0.18854019638623146   0.039296743977987575   0.00927045621870818
-0.18854019638623146   0.039296743977987575   0.00927045621870818
-0.18854019638623146   0.039296743977987575   0.00927045621870818
-0.18854019638623146   0.039296743977987575   0.00927045621870818
-0.3351396053797733   0.019330262830697192   0.005135148031353693
-0.3351396053797733   0.019330262830697192   0.005135148031353693
-0.3351396053797733   0.019330262830697192   0.005135148031353693
-0.3351396053797733   0.019330262830697192   0.005135148031353693
-0.18764057171535953   0.045187694826811606   0.00787762872424758
-0.18764057171535953   0.045187694826811606   0.00787762872424758
-0.18764057171535953   0.045187694826811606   0.00787762872424758
-0.18764057171535953   0.045187694826811606   0.00787762872424758
-0.5013738508469103   -0.027019954816533714   -0.009479383293219262
-0.5013738508469103   -0.027019954816533714   -0.009479383293219262
-0.5013738508469103   -0.027019954816533714   -0.009479383293219262
-0.5013738508469103   -0.027019954816533714   -0.009479383293219262
-0.5164377951931652   -0.040854934404795734   -0.0025627717632468044
-0.5164377951931652   -0.040854934404795734   -0.0025627717632468044
-0.5164377951931652   -0.040854934404795734   -0.0025627717632468044
-0.5164377951931652   -0.040854934404795734   -0.0025627717632468044
-0.2062372214969583   0.017956139968134985   0.013169438368774808
-0.2062372214969583   0.017956139968134985   0.013169438368774808
-0.2062372214969583   0.017956139968134985   0.013169438368774808
-0.2062372214969583   0.017956139968134985   0.013169438368774808
-0.3525557692569732   -9.698531818302936e-05   -0.003545896194935158
-0.3525557692569732   -9.698531818302936e-05   -0.003545896194935158
-0.3525557692569732   -9.698531818302936e-05   -0.003545896194935158
-0.3525557692569732   -9.698531818302936e-05   -0.003545896194935158
-0.20503085205117344   0.024475411407849673   0.012682014157988392
-0.20503085205117344   0.024475411407849673   0.012682014157988392
-0.20503085205117344   0.024475411407849673   0.012682014157988392
-0.20503085205117344   0.024475411407849673   0.012682014157988392
-0.5186806500815335   -0.04841069128709373   -0.0062212893227935676
-0.5186806500815335   -0.04841069128709373   -0.0062212893227935676
-0.5186806500815335   -0.04841069128709373   -0.0062212893227935676
-0.5186806500815335   -0.04841069128709373   -0.0062212893227935676
-0.5328103117724089   -0.060602854177503544   0.0026577778042148077
-0.5328103117724089   -0.060602854177503544   0.0026577778042148077
-0.5328103117724089   -0.060602854177503544   0.0026577778042148077
-0.5328103117724089   -0.060602854177503544   0.0026577778042148077
-0.223630931533071   -0.0026017966680953325   0.016738140137085418
-0.223630931533071   -0.0026017966680953325   0.016738140137085418
-0.223630931533071   -0.0026017966680953325   0.016738140137085418
-0.223630931533071   -0.0026017966680953325   0.016738140137085418
-0.3708802917164933   -0.019570728403894996   -0.012971223100631115
-0.3708802917164933   -0.019570728403894996   -0.012971223100631115
-0.3708802917164933   -0.019570728403894996   -0.012971223100631115
-0.3708802917164933   -0.019570728403894996   -0.012971223100631115
-0.4601707613076509   0.08270860407138038   0.020580727435960927
-0.4601707613076509   0.08270860407138038   0.020580727435960927
-0.4601707613076509   0.08270860407138038   0.020580727435960927
-0.4601707613076509   0.08270860407138038   0.020580727435960927
-0.7825208623071506   -0.02323916714071325   -0.03039245979444203
-0.7825208623071506   -0.02323916714071325   -0.03039245979444203
-0.7825208623071506   -0.02323916714071325   -0.03039245979444203
-0.7825208623071506   -0.02323916714071325   -0.03039245979444203
-0.7840156067380034   -0.001621700226149797   0.012692498737642298
-0.7840156067380034   -0.001621700226149797   0.012692498737642298
-0.7840156067380034   -0.001621700226149797   0.012692498737642298
-0.7840156067380034   -0.001621700226149797   0.012692498737642298
-0.4919511917177007   0.020199127150079696   -0.009585169613788046
-0.4919511917177007   0.020199127150079696   -0.009585169613788046
-0.4919511917177007   0.020199127150079696   -0.009585169613788046
-0.4919511917177007   0.020199127150079696   -0.009585169613788046
-0.6264581897590225   0.019474682875702504   0.0067620129775685794
-0.6264581897590225   0.019474682875702504   0.0067620129775685794
-0.6264581897590225   0.019474682875702504   0.0067620129775685794
-0.6264581897590225   0.019474682875702504   0.0067620129775685794
-0.47632145482488186   0.06260929900752069   0.02615334299287316
-0.47632145482488186   0.06260929900752069   0.02615334299287316
-0.47632145482488186   0.06260929900752069   0.02615334299287316
-0.47632145482488186   0.06260929900752069   0.02615334299287316
-0.8010453154213385   -0.045431843874105676   -0.028645901031077177
-0.8010453154213385   -0.045431843874105676   -0.028645901031077177
-0.8010453154213385   -0.045431843874105676   -0.028645901031077177
-0.8010453154213385   -0.045431843874105676   -0.028645901031077177
-0.8045655621277316   -0.02178768918247037   0.015597351504268789
-0.8045655621277316   -0.02178768918247037   0.015597351504268789
-0.8045655621277316   -0.02178768918247037   0.015597351504268789
-0.8045655621277316   -0.02178768918247037   0.015597351504268789
-0.5087315886354703   0.0005502220900408111   -0.005436895469616346
-0.5087315886354703   0.0005502220900408111   -0.005436895469616346
-0.5087315886354703   0.0005502220900408111   -0.005436895469616346
-0.5087315886354703   0.0005502220900408111   -0.005436895469616346
-0.6412601489848325   0.0013689059225041877   -0.002339483481159428
-0.6412601489848325   0.0013689059225041877   -0.002339483481159428
-0.6412601489848325   0.0013689059225041877   -0.002339483481159428
-0.6412601489848325   0.0013689059225041877   -0.002339483481159428
-0.4926862921949465   0.043780546889869265   0.031559261933181856
-0.4926862921949465   0.043780546889869265   0.031559261933181856
-0.4926862921949465   0.043780546889869265   0.031559261933181856
-0.4926862921949465   0.043780546889869265   0.031559261933181856
-0.821483630092831   -0.06589078550687576   -0.02488989199683853
-0.821483630092831   -0.06589078550687576   -0.02488989199683853
-0.821483630092831   -0.06589078550687576   -0.02488989199683853
-0.821483630092831   -0.06589078550687576   -0.02488989199683853
-0.8223176068392635   -0.04280623036279066   0.021230351584960193
-0.8223176068392635   -0.04280623036279066   0.021230351584960193
-0.8223176068392635   -0.04280623036279066   0.021230351584960193
-0.8223176068392635   -0.04280623036279066   0.021230351584960193
-0.5257218375878732   -0.02046276406998239   -0.002039941380639246
-0.5257218375878732   -0.02046276406998239   -0.002039941380639246
-0.5257218375878732   -0.02046276406998239   -0.002039941380639246
-0.5257218375878732   -0.02046276406998239   -0.002039941380639246
-0.6632728624932964   -0.0183575619098231   -0.012258308493556948
-0.6632728624932964   -0.0183575619098231   -0.012258308493556948
-0.6632728624932964   -0.0183575619098231   -0.012258308493556948
-0.6632728624932964   -0.0183575619098231   -0.012258308493556948
-0.7482213297292053   0.08140861814162192   0.03645741781295625
-0.7482213297292053   0.08140861814162192   0.03645741781295625
-0.7482213297292053   0.08140861814162192   0.03645741781295625
-0.7482213297292053   0.08140861814162192   0.03645741781295625
-1.053003141873036   -0.04845369932273516   -0.046143262244103846
-1.053003141873036   -0.04845369932273516   -0.046143262244103846
-1.053003141873036   -0.04845369932273516   -0.046143262244103846
-1.053003141873036   -0.04845369932273516   -0.046143262244103846
-1.0607187555780349   0.01350415817705225   0.038324719189641844
-1.0607187555780349   0.01350415817705225   0.038324719189641844
-1.0607187555780349   0.01350415817705225   0.038324719189641844
-1.0607187555780349   0.01350415817705225   0.038324719189641844
-0.7923462792906195   -0.0023940454071754713   -0.028188518844428273
-0.7923462792906195   -0.0023940454071754713   -0.028188518844428273
-0.7923462792906195   -0.0023940454071754713   -0.028188518844428273
-0.7923462792906195   -0.0023940454071754713   -0.028188518844428273
-0.8743104375170004   0.01952943482432179   0.02116828025069762
-0.8743104375170004   0.01952943482432179   0.02116828025069762
-0.8743104375170004   0.01952943482432179   0.02116828025069762
-0.8743104375170004   0.01952943482432179   0.02116828025069762
-0.7627966940389337   0.07404724920692562   0.04311811279990755
-0.7627966940389337   0.07404724920692562   0.04311811279990755
-0.7627966940389337   0.07404724920692562   0.04311811279990755
-0.7627966940389337   0.07404724920692562   0.04311811279990755
-1.0917582602818805   -0.06442705588920741   -0.038941590263326914
-1.0917582602818805   -0.06442705588920741   -0.038941590263326914
-1.0917582602818805   -0.06442705588920741   -0.038941590263326914
-1.0917582602818805   -0.06442705588920741   -0.038941590263326914
-1.0927226391942857   0.002175264607891303   0.04894515795817699
-1.0927226391942857   0.002175264607891303   0.04894515795817699
-1.0927226391942857   0.002175264607891303   0.04894515795817699
-1.0927226391942857   0.002175264607891303   0.04894515795817699
-0.8108370016404503   -0.013358054784776557   -0.024189480457033882
-0.8108370016404503   -0.013358054784776557   -0.024189480457033882
-0.8108370016404503   -0.013358054784776557   -0.024189480457033882
-0.8108370016404503   -0.013358054784776557   -0.024189480457033882
-0.9152125179946523   0.006130500643200226   0.007626222305057932
-0.9152125179946523   0.006130500643200226   0.007626222305057932
-0.9152125179946523   0.006130500643200226   0.007626222305057932
-0.9152125179946523   0.006130500643200226   0.007626222305057932
-0.7800344718021875   0.06518074107048141   0.05128437287902942
-0.7800344718021875   0.06518074107048141   0.05128437287902942
-0.7800344718021875   0.06518074107048141   0.05128437287902942
-0.7800344718021875   0.06518074107048141   0.05128437287902942
-1.12493529871841   -0.07777366093322688   -0.032169214121325826
-1.12493529871841   -0.07777366093322688   -0.032169214121325826
-1.12493529871841   -0.07777366093322688   -0.032169214121325826
-1.12493529871841   -0.07777366093322688   -0.032169214121325826
-1.1369814541682046   -0.03001471110959636   0.05053875633141795
-1.1369814541682046   -0.03001471110959636   0.05053875633141795
-1.1369814541682046   -0.03001471110959636   0.05053875633141795
-1.1369814541682046   -0.03001471110959636   0.05053875633141795
-0.8299174325263833   -0.03848042652605871   -0.021094580687385574
-0.8299174325263833   -0.03848042652605871   -0.021094580687385574
-0.8299174325263833   -0.03848042652605871   -0.021094580687385574
-0.8299174325263833   -0.03848042652605871   -0.021094580687385574
-0.9285517666674278   -0.008118827664733597   -0.00042972652563188357
-0.9285517666674278   -0.008118827664733597   -0.00042972652563188357
-0.9285517666674278   -0.008118827664733597   -0.00042972652563188357
-0.9285517666674278   -0.008118827664733597   -0.00042972652563188357
0.07976017069423436   0.0065619521696262985   -0.053205353079171805
0.07976017069423436   0.0065619521696262985   -0.053205353079171805
0.07976017069423436   0.0065619521696262985   -0.053205353079171805
0.07976017069423436   0.0065619521696262985   -0.053205353079171805
-0.08663335143985276   0.039893056921664595   0.027209255677279394
-0.08663335143985276   0.039893056921664595   0.027209255677279394
-0.08663335143985276   0.039893056921664595   0.027209255677279394
-0.08663335143985276   0.039893056921664595   0.027209255677279394
-0.12999314421755867   -0.051236647723944664   -0.04285121132391421
-0.12999314421755867   -0.051236647723944664   -0.04285121132391421
-0.12999314421755867   -0.051236647723944664   -0.04285121132391421
-0.12999314421755867   -0.051236647723944664   -0.04285121132391421
0.07319055771903737   0.05638238659040616   0.03340814056292514
0.07319055771903737   0.05638238659040616   0.03340814056292514
0.07319055771903737   0.05638238659040616   0.03340814056292514
0.07319055771903737   0.05638238659040616   0.03340814056292514
-0.017737961275312852   0.012373751931013342   0.004622215690809054
-0.017737961275312852   0.012373751931013342   0.004622215690809054
-0.017737961275312852   0.012373751931013342   0.004622215690809054
-0.017737961275312852   0.012373751931013342   0.004622215690809054
0.04216867481077727   -0.017748182609240416   -0.04757070477872887
0.04216867481077727   -0.017748182609240416   -0.04757070477872887
0.04216867481077727   -0.017748182609240416   -0.04757070477872887
0.04216867481077727   -0.017748182609240416   -0.04757070477872887
-0.10080415838459489   0.021061024400405588   0.030796045716554518
-0.10080415838459489   0.021061024400405588   0.030796045716554518
-0.10080415838459489   0.021061024400405588   0.030796045716554518
-0.10080415838459489   0.021061024400405588   0.030796045716554518
-0.14428178932121888   -0.060519235797881855   -0.03632591305483878
-0.14428178932121888   -0.060519235797881855   -0.03632591305483878
-0.14428178932121888   -0.060519235797881855   -0.03632591305483878
-0.14428178932121888   -0.060519235797881855   -0.03632591305483878
0.04377794800070032   0.043775592323842386   0.045822690885506646
0.04377794800070032   0.043775592323842386   0.045822690885506646
0.04377794800070032   0.043775592323842386   0.045822690885506646
0.04377794800070032   0.043775592323842386   0.045822690885506646
-0.040940997523157774   -0.0015340029797116933   -0.006099157276438333
-0.040940997523157774   -0.0015340029797116933   -0.006099157276438333
-0.040940997523157774   -0.0015340029797116933   -0.006099157276438333
-0.040940997523157774   -0.0015340029797116933   -0.006099157276438333
0.012038222988572751   -0.029841765912672832   -0.039258575938615974
0.012038222988572751   -0.029841765912672832   -0.039258575938615974
0.012038222988572751   -0.029841765912672832   -0.039258575938615974
0.012038222988572751   -0.029841765912672832   -0.039258575938615974
-0.11508590891145593   0.010554277836273607   0.038579975359819024
-0.11508590891145593   0.010554277836273607   0.038579975359819024
-0.11508590891145593   0.010554277836273607   0.038579975359819024
-0.11508590891145593   0.010554277836273607   0.038579975359819024
-0.15736877120096976   -0.0747774907007891   -0.030112316692016087
-0.15736877120096976   -0.0747774907007891   -0.030112316692016087
-0.15736877120096976   -0.0747774907007891   -0.030112316692016087
-0.15736877120096976   -0.0747774907007891   -0.030112316692016087
0.002930358889790175   0.017356593601698212   0.052244859052996015
0.002930358889790175   0.017356593601698212   0.052244859052996015
0.002930358889790175   0.017356593601698212   0.052244859052996015
0.002930358889790175   0.017356593601698212   0.052244859052996015
-0.06587838754654954   -0.015532786829904553   -0.01846531233541519
-0.06587838754654954   -0.015532786829904553   -0.01846531233541519
-0.06587838754654954   -0.015532786829904553   -0.01846531233541519
-0.06587838754654954   -0.015532786829904553   -0.01846531233541519
-0.09903134390642519   0.026269893319150396   -0.021157543053068502
-0.09903134390642519   0.026269893319150396   -0.021157543053068502
-0.09903134390642519   0.026269893319150396   -0.021157543053068502
-0.09903134390642519   0.026269893319150396   -0.021157543053068502
-0.25481682405376344   0.010721172736498571   0.007097841544605167
-0.25481682405376344   0.010721172736498571   0.007097841544605167
-0.25481682405376344   0.010721172736498571   0.007097841544605167
-0.25481682405376344   0.010721172736498571   0.007097841544605167
-0.27719023399260256   -0.029841540110955113   -0.022287208120354576
-0.27719023399260256   -0.029841540110955113   -0.022287208120354576
-0.27719023399260256   -0.029841540110955113   -0.022287208120354576
-0.27719023399260256   -0.029841540110955113   -0.022287208120354576
-0.10181941713753706   0.025489454332366254   0.021291322019882868
-0.10181941713753706   0.025489454332366254   0.021291322019882868
-0.10181941713753706   0.025489454332366254   0.021291322019882868
-0.10181941713753706   0.025489454332366254   0.021291322019882868
-0.1828417855324806   0.0076395611845274936   0.0040734746944895844
-0.1828417855324806   0.0076395611845274936   0.0040734746944895844
-0.1828417855324806   0.0076395611845274936   0.0040734746944895844
-0.1828417855324806   0.0076395611845274936   0.0040734746944895844
-0.11389279148648064   0.0037984757798721173   -0.017384571172340338
-0.11389279148648064   0.0037984757798721173   -0.017384571172340338
-0.11389279148648064   0.0037984757798721173   -0.017384571172340338
-0.11389279148648064   0.0037984757798721173   -0.017384571172340338
-0.26662227773133096   -0.009655979646133545   0.010367012721177744
-0.26662227773133096   -0.009655979646133545   0.010367012721177744
-0.26662227773133096   -0.009655979646133545   0.010367012721177744
-0.26662227773133096   -0.009655979646133545   0.010367012721177744
-0.2883152857841914   -0.04806822315371788   -0.01645104711304238
-0.2883152857841914   -0.04806822315371788   -0.01645104711304238
-0.2883152857841914   -0.04806822315371788   -0.01645104711304238
-0.2883152857841914   -0.04806822315371788   -0.01645104711304238
-0.11904199909516902   0.005347941319307211   0.024005860958220014
-0.11904199909516902   0.005347941319307211   0.024005860958220014
-0.11904199909516902   0.005347941319307211   0.024005860958220014
-0.11904199909516902   0.005347941319307211   0.024005860958220014
-0.1968954658394331   -0.010654132913028747   -0.005105752744223242
-0.1968954658394331   -0.010654132913028747   -0.005105752744223242
-0.1968954658394331   -0.010654132913028747   -0.005105752744223242
-0.1968954658394331   -0.010654132913028747   -0.005105752744223242
-0.13068029419128913   -0.01584879171095786   -0.012988881492113897
-0.13068029419128913   -0.01584879171095786   -0.012988881492113897
-0.13068029419128913   -0.01584879171095786   -0.012988881492113897
-0.13068029419128913   -0.01584879171095786   -0.012988881492113897
-0.27829312633781766   -0.028487625773204007   0.014079152738312548
-0.27829312633781766   -0.028487625773204007   0.014079152738312548
-0.27829312633781766   -0.028487625773204007   0.014079152738312548
-0.27829312633781766   -0.028487625773204007   0.014079152738312548
-0.2995136735949401   -0.06682434256773948   -0.011282917455217038
-0.2995136735949401   -0.06682434256773948   -0.011282917455217038
-0.2995136735949401   -0.06682434256773948   -0.011282917455217038
-0.2995136735949401   -0.06682434256773948   -0.011282917455217038
-0.1334459471298354   -0.015060665988351844   0.029784978951218045
-0.1334459471298354   -0.015060665988351844   0.029784978951218045
-0.1334459471298354   -0.015060665988351844   0.029784978951218045
-0.1334459471298354   -0.015060665988351844   0.029784978951218045
-0.2109325779655808   -0.028747553305810206   -0.014440903417548764
-0.2109325779655808   -0.028747553305810206   -0.014440903417548764
-0.2109325779655808   -0.028747553305810206   -0.014440903417548764
-0.2109325779655808   -0.028747553305810206   -0.014440903417548764
-0.25016004499048405   0.04334647657936738   -0.002243566981866372
-0.25016004499048405   0.04334647657936738   -0.002243566981866372
-0.25016004499048405   0.04334647657936738   -0.002243566981866372
-0.25016004499048405   0.04334647657936738   -0.002243566981866372
-0.4214695989295664   -0.014445861528031692   -0.011914295492671298
-0.4214695989295664   -0.014445861528031692   -0.011914295492671298
-0.4214695989295664   -0.014445861528031692   -0.011914295492671298
-0.4214695989295664   -0.014445861528031692   -0.011914295492671298
-0.4259020065789209   -0.010534105111980746   -0.0025219790384439916
-0.4259020065789209   -0.010534105111980746   -0.0025219790384439916
-0.4259020065789209   -0.010534105111980746   -0.0025219790384439916
-0.4259020065789209   -0.010534105111980746   -0.0025219790384439916
-0.26561556635463934   0.002458942851143203   0.0032856471073589126
-0.26561556635463934   0.002458942851143203   0.0032856471073589126
-0.26561556635463934   0.002458942851143203   0.0032856471073589126
-0.26561556635463934   0.002458942851143203   0.0032856471073589126
-0.3400741088763385   0.00487346718917199   0.001392307750379098
-0.3400741088763385   0.00487346718917199   0.001392307750379098
-0.3400741088763385   0.00487346718917199   0.001392307750379098
-0.3400741088763385   0.00487346718917199   0.001392307750379098
-0.26141155297203544   0.023517760659491266   0.003246896212030642
-0.26141155297203544   0.023517760659491266   0.003246896212030642
-0.26141155297203544   0.023517760659491266   0.003246896212030642
-0.26141155297203544   0.023517760659491266   0.003246896212030642
-0.43155436653551604   -0.03304126949432003   -0.008276614439080541
-0.43155436653551604   -0.03304126949432003   -0.008276614439080541
-0.43155436653551604   -0.03304126949432003   -0.008276614439080541
-0.43155436653551604   -0.03304126949432003   -0.008276614439080541
-0.43633369325206733   -0.030115118977948482   0.002909615393466576
-0.43633369325206733   -0.030115118977948482   0.002909615393466576
-0.43633369325206733   -0.030115118977948482   0.002909615393466576
-0.43633369325206733   -0.030115118977948482   0.002909615393466576
-0.27741319999531266   -0.016790721266645575   0.006781879944279
-0.27741319999531266   -0.016790721266645575   0.006781879944279
-0.27741319999531266   -0.016790721266645575   0.006781879944279
-0.27741319999531266   -0.016790721266645575   0.006781879944279
-0.3513821396546598   -0.0129348554956005   -0.007037986775423881
-0.3513821396546598   -0.0129348554956005   -0.007037986775423881
-0.3513821396546598   -0.0129348554956005   -0.007037986775423881
-0.3513821396546598   -0.0129348554956005   -0.007037986775423881
-0.27308092904229464   0.003570011228219677   0.008082502214503885
-0.27308092904229464   0.003570011228219677   0.008082502214503885
-0.27308092904229464   0.003570011228219677   0.008082502214503885
-0.27308092904229464   0.003570011228219677   0.008082502214503885
-0.44241208385267733   -0.05222197112040568   -0.005375485467126146
-0.44241208385267733   -0.05222197112040568   -0.005375485467126146
-0.44241208385267733   -0.05222197112040568   -0.005375485467126146
-0.44241208385267733   -0.05222197112040568   -0.005375485467126146
-0.4464932674790565   -0.0488981529100953   0.008118694873101706
-0.4464932674790565   -0.0488981529100953   0.008118694873101706
-0.4464932674790565   -0.0488981529100953   0.008118694873101706
-0.4464932674790565   -0.0488981529100953   0.008118694873101706
-0.2887430793736166   -0.0349508135017804   0.01069652458543748
-0.2887430793736166   -0.0349508135017804   0.01069652458543748
-0.2887430793736166   -0.0349508135017804   0.01069652458543748
-0.2887430793736166   -0.0349508135017804   0.01069652458543748
-0.36355048552899555   -0.030853614008353458   -0.016198423018507043
-0.36355048552899555   -0.030853614008353458   -0.016198423018507043
-0.36355048552899555   -0.030853614008353458   -0.016198423018507043
-0.36355048552899555   -0.030853614008353458   -0.016198423018507043
-0.4001893137562149   0.06276157358131354   0.017279695264756263
-0.4001893137562149   0.06276157358131354   0.017279695264756263
-0.4001893137562149   0.06276157358131354   0.017279695264756263
-0.4001893137562149   0.06276157358131354   0.017279695264756263
-0.5815525003549539   -0.024031599506833506   -0.0267259522057084
-0.5815525003549539   -0.024031599506833506   -0.0267259522057084
-0.5815525003549539   -0.024031599506833506   -0.0267259522057084
-0.5815525003549539   -0.024031599506833506   -0.0267259522057084
-0.5737528297381845   0.009330864060672406   0.017875152959628694
-0.5737528297381845   0.009330864060672406   0.017875152959628694
-0.5737528297381845   0.009330864060672406   0.017875152959628694
-0.5737528297381845   0.009330864060672406   0.017875152959628694
-0.4273550551892068   -0.008432593969050786   -0.011888733232803376
-0.4273550551892068   -0.008432593969050786   -0.011888733232803376
-0.4273550551892068   -0.008432593969050786   -0.011888733232803376
-0.4273550551892068   -0.008432593969050786   -0.011888733232803376
-0.4939953879646907   0.009976214051022433   0.0023821920803777583
-0.4939953879646907   0.009976214051022433   0.0023821920803777583
-0.4939953879646907   0.009976214051022433   0.0023821920803777583
-0.4939953879646907   0.009976214051022433   0.0023821920803777583
-0.4101270504831935   0.04303727382115098   0.022781422507061243
-0.4101270504831935   0.04303727382115098   0.022781422507061243
-0.4101270504831935   0.04303727382115098   0.022781422507061243
-0.4101270504831935   0.04303727382115098   0.022781422507061243
-0.593095896278827   -0.04425406556416607   -0.025255250118759624
-0.593095896278827   -0.04425406556416607   -0.025255250118759624
-0.593095896278827   -0.04425406556416607   -0.025255250118759624
-0.593095896278827   -0.04425406556416607   -0.025255250118759624
-0.5877333333033051   -0.009939765537638284   0.021114911059822963
-0.5877333333033051   -0.009939765537638284   0.021114911059822963
-0.5877333333033051   -0.009939765537638284   0.021114911059822963
-0.5877333333033051   -0.009939765537638284   0.021114911059822963
-0.4376964757384923   -0.025935528029829014   -0.008083887986777588
-0.4376964757384923   -0.025935528029829014   -0.008083887986777588
-0.4376964757384923   -0.025935528029829014   -0.008083887986777588
-0.4376964757384923   -0.025935528029829014   -0.008083887986777588
-0.5034917087877874   -0.007184267487373608   -0.006756279694255761
-0.5034917087877874   -0.007184267487373608   -0.006756279694255761
-0.5034917087877874   -0.007184267487373608   -0.006756279694255761
-0.5034917087877874   -0.007184267487373608   -0.006756279694255761
-0.42027485341074994   0.024955572794435874   0.028133122827669246
-0.42027485341074994   0.024955572794435874   0.028133122827669246
-0.42027485341074994   0.024955572794435874   0.028133122827669246
-0.42027485341074994   0.024955572794435874   0.028133122827669246
-0.6068251414810272   -0.06250105221188923   -0.021782843154543832
-0.6068251414810272   -0.06250105221188923   -0.021782843154543832
-0.6068251414810272   -0.06250105221188923   -0.021782843154543832
-0.6068251414810272   -0.06250105221188923   -0.021782843154543832
-0.5990980984241197   -0.029350993409841653   0.026895172756310953
-0.5990980984241197   -0.029350993409841653   0.026895172756310953
-0.5990980984241197   -0.029350993409841653   0.026895172756310953
-0.5990980984241197   -0.029350993409841653   0.026895172756310953
-0.44807589783068036   -0.04385729646372897   -0.004835313331391403
-0.44807589783068036   -0.04385729646372897   -0.004835313331391403
-0.44807589783068036   -0.04385729646372897   -0.004835313331391403
-0.44807589783068036   -0.04385729646372897   -0.004835313331391403
-0.5177869989537417   -0.024687412165671843   -0.016122301193069583
-0.5177869989537417   -0.024687412165671843   -0.016122301193069583
-0.5177869989537417   -0.024687412165671843   -0.016122301193069583
-0.5177869989537417   -0.024687412165671843   -0.016122301193069583
-0.5509635645705423   0.06801691169041138   0.03417021551910455
-0.5509635645705423   0.06801691169041138   0.03417021551910455
-0.5509635645705423   0.06801691169041138   0.03417021551910455
-0.5509635645705423   0.06801691169041138   0.03417021551910455
-0.7091482628141625   -0.03547327791981164   -0.044700347214407826
-0.7091482628141625   -0.03547327791981164   -0.044700347214407826
-0.7091482628141625   -0.03547327791981164   -0.044700347214407826
-0.7091482628141625   -0.03547327791981164   -0.044700347214407826
-0.7097067825815456   0.02730511208257619   0.03766777189525608
-0.7097067825815456   0.02730511208257619   0.03766777189525608
-0.7097067825815456   0.02730511208257619   0.03766777189525608
-0.7097067825815456   0.02730511208257619   0.03766777189525608
-0.5886682085134244   -0.020023419099897355   -0.027347457756015457
-0.5886682085134244   -0.020023419099897355   -0.027347457756015457
-0.5886682085134244   -0.020023419099897355   -0.027347457756015457
-0.5886682085134244   -0.020023419099897355   -0.027347457756015457
-0.6137422268397789   0.016137484052879292   0.011873367882217399
-0.6137422268397789   0.016137484052879292   0.011873367882217399
-0.6137422268397789   0.016137484052879292   0.011873367882217399
-0.6137422268397789   0.016137484052879292   0.011873367882217399
-0.5595593576447543   0.05786309849031411   0.040310278997123625
-0.5595593576447543   0.05786309849031411   0.040310278997123625
-0.5595593576447543   0.05786309849031411   0.040310278997123625
-0.5595593576447543   0.05786309849031411   0.040310278997123625
-0.7410126541114924   -0.05277842616890549   -0.03877804750298817
-0.7410126541114924   -0.05277842616890549   -0.03877804750298817
-0.7410126541114924   -0.05277842616890549   -0.03877804750298817
-0.7410126541114924   -0.05277842616890549   -0.03877804750298817
-0.7351351734584568   0.016326973540488288   0.04853383298729698
-0.7351351734584568   0.016326973540488288   0.04853383298729698
-0.7351351734584568   0.016326973540488288   0.04853383298729698
-0.7351351734584568   0.016326973540488288   0.04853383298729698
-0.6007769327111971   -0.030085172687401712   -0.023957678829880785
-0.6007769327111971   -0.030085172687401712   -0.023957678829880785
-0.6007769327111971   -0.030085172687401712   -0.023957678829880785
-0.6007769327111971   -0.030085172687401712   -0.023957678829880785
-0.6440116207770391   0.002789341332838313   -0.000804776639540955
-0.6440116207770391   0.002789341332838313   -0.000804776639540955
-0.6440116207770391   0.002789341332838313   -0.000804776639540955
-0.6440116207770391   0.002789341332838313   -0.000804776639540955
-0.570455893575872   0.04922377645951201   0.04833856769983082
-0.570455893575872   0.04922377645951201   0.04833856769983082
-0.570455893575872   0.04922377645951201   0.04833856769983082
-0.570455893575872   0.04922377645951201   0.04833856769983082
-0.7676951136928721   -0.06522087670550937   -0.03271801793877464
-0.7676951136928721   -0.06522087670550937   -0.03271801793877464
-0.7676951136928721   -0.06522087670550937   -0.03271801793877464
-0.7676951136928721   -0.06522087670550937   -0.03271801793877464
-0.7727132381107497   -0.012556964029254852   0.051318537381000055
-0.7727132381107497   -0.012556964029254852   0.051318537381000055
-0.7727132381107497   -0.012556964029254852   0.051318537381000055
-0.7727132381107497   -0.012556964029254852   0.051318537381000055
-0.6129352628679035   -0.05094748823576323   -0.020694154636693884
-0.6129352628679035   -0.05094748823576323   -0.020694154636693884
-0.6129352628679035   -0.05094748823576323   -0.020694154636693884
-0.6129352628679035   -0.05094748823576323   -0.020694154636693884
-0.6556321913187809   -0.010434996216834247   -0.009803780236186235
-0.6556321913187809   -0.010434996216834247   -0.009803780236186235
-0.6556321913187809   -0.010434996216834247   -0.009803780236186235
-0.6556321913187809   -0.010434996216834247   -0.009803780236186235
-0.3004033934674182   -0.01960440418520188   -0.056508007829487575
-0.3004033934674182   -0.01960440418520188   -0.056508007829487575
-0.3004033934674182   -0.01960440418520188   -0.056508007829487575
-0.3004033934674182   -0.01960440418520188   -0.056508007829487575
-0.29750789169800207   0.043264939513680684   0.025418079743336673
-0.29750789169800207   0.043264939513680684   0.025418079743336673
-0.29750789169800207   0.043264939513680684   0.025418079743336673
-0.29750789169800207   0.043264939513680684   0.025418079743336673
-0.33479182897340776   -0.039558259482729986   -0.038312703110310514
-0.33479182897340776   -0.039558259482729986   -0.038312703110310514
-0.33479182897340776   -0.039558259482729986   -0.038312703110310514
-0.33479182897340776   -0.039558259482729986   -0.038312703110310514
-0.3066298400348664   0.022650419484550308   0.038185970122018596
-0.3066298400348664   0.022650419484550308   0.038185970122018596
-0.3066298400348664   0.022650419484550308   0.038185970122018596
-0.3066298400348664   0.022650419484550308   0.038185970122018596
-0.2942795172480282   0.0072990633789072334   0.025932088999361974
-0.2942795172480282   0.0072990633789072334   0.025932088999361974
-0.2942795172480282   0.0072990633789072334   0.025932088999361974
-0.2942795172480282   0.0072990633789072334   0.025932088999361974
-0.33661495613058834   -0.041731818722097955   -0.047357372149939084
-0.33661495613058834   -0.041731818722097955   -0.047357372149939084
-0.33661495613058834   -0.041731818722097955   -0.047357372149939084
-0.33661495613058834   -0.041731818722097955   -0.047357372149939084
-0.308529481553861   0.0211012100477386   0.03233956445695468
-0.308529481553861   0.0211012100477386   0.03233956445695468
-0.308529481553861   0.0211012100477386   0.03233956445695468
-0.308529481553861   0.0211012100477386   0.03233956445695468
-0.34601906426891704   -0.04983351705755676   -0.03242584375190239
-0.34601906426891704   -0.04983351705755676   -0.03242584375190239
-0.34601906426891704   -0.04983351705755676   -0.03242584375190239
-0.34601906426891704   -0.04983351705755676   -0.03242584375190239
-0.3355526250668774   0.008664150229545878   0.07099634217158697
-0.3355526250668774   0.008664150229545878   0.07099634217158697
-0.3355526250668774   0.008664150229545878   0.07099634217158697
-0.3355526250668774   0.008664150229545878   0.07099634217158697
-0.3209345748852292   -0.01035312975867609   0.01036965522729445
-0.3209345748852292   -0.01035312975867609   0.01036965522729445
-0.3209345748852292   -0.01035312975867609   0.01036965522729445
-0.3209345748852292   -0.01035312975867609   0.01036965522729445
-0.3699711003019755   -0.05552094355721594   -0.036910940217139865
-0.3699711003019755   -0.05552094355721594   -0.036910940217139865
-0.3699711003019755   -0.05552094355721594   -0.036910940217139865
-0.3699711003019755   -0.05552094355721594   -0.036910940217139865
-0.3204146306626547   0.005537535100369639   0.040225272121483094
-0.3204146306626547   0.005537535100369639   0.040225272121483094
-0.3204146306626547   0.005537535100369639   0.040225272121483094
-0.3204146306626547   0.005537535100369639   0.040225272121483094
-0.3552121455092108   -0.06982510895217957   -0.025521149317422585
-0.3552121455092108   -0.06982510895217957   -0.025521149317422585
-0.3552121455092108   -0.06982510895217957   -0.025521149317422585
-0.3552121455092108   -0.06982510895217957   -0.025521149317422585
-0.3805065182721817   -0.03755566739739882   0.06644023767553323
-0.3805065182721817   -0.03755566739739882   0.06644023767553323
-0.3805065182721817   -0.03755566739739882   0.06644023767553323
-0.3805065182721817   -0.03755566739739882   0.06644023767553323
-0.3440433549689161   -0.031219892484260575   -0.014290728266463514
-0.3440433549689161   -0.031219892484260575   -0.014290728266463514
-0.3440433549689161   -0.031219892484260575   -0.014290728266463514
-0.3440433549689161   -0.031219892484260575   -0.014290728266463514
-0.3189321384384369   -0.009340917781990837   -0.029097296663168515
-0.3189321384384369   -0.009340917781990837   -0.029097296663168515
-0.3189321384384369   -0.009340917781990837   -0.029097296663168515
-0.3189321384384369   -0.009340917781990837   -0.029097296663168515
-0.32339227164126283   -0.039738731216105896   -0.0016936147150536521
-0.32339227164126283   -0.039738731216105896   -0.0016936147150536521
-0.32339227164126283   -0.039738731216105896   -0.0016936147150536521
-0.32339227164126283   -0.039738731216105896   -0.0016936147150536521
-0.3257505363574694   -0.026460063550295745   -0.01452514817349479
-0.3257505363574694   -0.026460063550295745   -0.01452514817349479
-0.3257505363574694   -0.026460063550295745   -0.01452514817349479
-0.3257505363574694   -0.026460063550295745   -0.01452514817349479
-0.3301310651232935   -0.054006333748343   -0.0005608095941263473
-0.3301310651232935   -0.054006333748343   -0.0005608095941263473
-0.3301310651232935   -0.054006333748343   -0.0005608095941263473
-0.3301310651232935   -0.054006333748343   -0.0005608095941263473
-0.3217927671609273   -0.033793127447242735   -0.0011442692056059418
-0.3217927671609273   -0.033793127447242735   -0.0011442692056059418
-0.3217927671609273   -0.033793127447242735   -0.0011442692056059418
-0.3217927671609273   -0.033793127447242735   -0.0011442692056059418
-0.33014744443053184   -0.029470186254956447   -0.025178853623705234
-0.33014744443053184   -0.029470186254956447   -0.025178853623705234
-0.33014744443053184   -0.029470186254956447   -0.025178853623705234
-0.33014744443053184   -0.029470186254956447   -0.025178853623705234
-0.32781047578826733   -0.05307252978172444   0.0017876209039403364
-0.32781047578826733   -0.05307252978172444   0.0017876209039403364
-0.32781047578826733   -0.05307252978172444   0.0017876209039403364
-0.32781047578826733   -0.05307252978172444   0.0017876209039403364
-0.3312168125178699   -0.04376284710235169   -0.009373267727373666
-0.3312168125178699   -0.04376284710235169   -0.009373267727373666
-0.3312168125178699   -0.04376284710235169   -0.009373267727373666
-0.3312168125178699   -0.04376284710235169   -0.009373267727373666
-0.34210176132963965   -0.07006476050443614   0.007391914391363996
-0.34210176132963965   -0.07006476050443614   0.007391914391363996
-0.34210176132963965   -0.07006476050443614   0.007391914391363996
-0.34210176132963965   -0.07006476050443614   0.007391914391363996
-0.32919436577171546   -0.04777174406467595   -0.009157685979714347
-0.32919436577171546   -0.04777174406467595   -0.009157685979714347
-0.32919436577171546   -0.04777174406467595   -0.009157685979714347
-0.32919436577171546   -0.04777174406467595   -0.009157685979714347
-0.3428964716407079   -0.04796117076260602   -0.01868522690580729
-0.3428964716407079   -0.04796117076260602   -0.01868522690580729
-0.3428964716407079   -0.04796117076260602   -0.01868522690580729
-0.3428964716407079   -0.04796117076260602   -0.01868522690580729
-0.33307741854158096   -0.06852175317896178   0.006082608230677036
-0.33307741854158096   -0.06852175317896178   0.006082608230677036
-0.33307741854158096   -0.06852175317896178   0.006082608230677036
-0.33307741854158096   -0.06852175317896178   0.006082608230677036
-0.33612438481328233   -0.06240756674553409   -0.004271087151246314
-0.33612438481328233   -0.06240756674553409   -0.004271087151246314
-0.33612438481328233   -0.06240756674553409   -0.004271087151246314
-0.33612438481328233   -0.06240756674553409   -0.004271087151246314
-0.3512628758640467   -0.09045668842076184   0.014856778376978387
-0.3512628758640467   -0.09045668842076184   0.014856778376978387
-0.3512628758640467   -0.09045668842076184   0.014856778376978387
-0.3512628758640467   -0.09045668842076184   0.014856778376978387
-0.33937291486401966   -0.06465626092370841   -0.0193498685725858
-0.33937291486401966   -0.06465626092370841   -0.0193498685725858
-0.33937291486401966   -0.06465626092370841   -0.0193498685725858
-0.33937291486401966   -0.06465626092370841   -0.0193498685725858
-0.31452092240434876   0.00825967743852482   -0.0053352771851064434
-0.31452092240434876   0.00825967743852482   -0.0053352771851064434
-0.31452092240434876   0.00825967743852482   -0.0053352771851064434
-0.31452092240434876   0.00825967743852482   -0.0053352771851064434
-0.3559626298129827   -0.06758056205302268   -0.017064273804490007
-0.3559626298129827   -0.06758056205302268   -0.017064273804490007
-0.3559626298129827   -0.06758056205302268   -0.017064273804490007
-0.3559626298129827   -0.06758056205302268   -0.017064273804490007
-0.34143236571816854   -0.012463626824991136   0.004489598090216384
-0.34143236571816854   -0.012463626824991136   0.004489598090216384
-0.34143236571816854   -0.012463626824991136   0.004489598090216384
-0.34143236571816854   -0.012463626824991136   0.004489598090216384
-0.334268890478321   -0.07304649174067315   -0.010530490587378679
-0.334268890478321   -0.07304649174067315   -0.010530490587378679
-0.334268890478321   -0.07304649174067315   -0.010530490587378679
-0.334268890478321   -0.07304649174067315   -0.010530490587378679
-0.3363109468328393   -0.037354621685789645   -0.007610516770968056
-0.3363109468328393   -0.037354621685789645   -0.007610516770968056
-0.3363109468328393   -0.037354621685789645   -0.007610516770968056
-0.3363109468328393   -0.037354621685789645   -0.007610516770968056
-0.3193517736537709   -0.00895308972601204   -3.83084792858375e-05
-0.3193517736537709   -0.00895308972601204   -3.83084792858375e-05
-0.3193517736537709   -0.00895308972601204   -3.83084792858375e-05
-0.3193517736537709   -0.00895308972601204   -3.83084792858375e-05
-0.35823468334467895   -0.07844222964161321   -0.01354338722572099
-0.35823468334467895   -0.07844222964161321   -0.01354338722572099
-0.35823468334467895   -0.07844222964161321   -0.01354338722572099
-0.35823468334467895   -0.07844222964161321   -0.01354338722572099
-0.3453619108288151   -0.02981543052289924   0.009607044496543798
-0.3453619108288151   -0.02981543052289924   0.009607044496543798
-0.3453619108288151   -0.02981543052289924   0.009607044496543798
-0.3453619108288151   -0.02981543052289924   0.009607044496543798
-0.3393852347331401   -0.08672116748115917   -0.007257058424921251
-0.3393852347331401   -0.08672116748115917   -0.007257058424921251
-0.3393852347331401   -0.08672116748115917   -0.007257058424921251
-0.3393852347331401   -0.08672116748115917   -0.007257058424921251
-0.34048413652375886   -0.05057205784129261   -0.014482003383782575
-0.34048413652375886   -0.05057205784129261   -0.014482003383782575
-0.34048413652375886   -0.05057205784129261   -0.014482003383782575
-0.34048413652375886   -0.05057205784129261   -0.014482003383782575
-0.32488542008434085   -0.026614476504774345   0.005135323842694019
-0.32488542008434085   -0.026614476504774345   0.005135323842694019
-0.32488542008434085   -0.026614476504774345   0.005135323842694019
-0.32488542008434085   -0.026614476504774345   0.005135323842694019
-0.36196763482933136   -0.0920280308510055   -0.011208975177946275
-0.36196763482933136   -0.0920280308510055   -0.011208975177946275
-0.36196763482933136   -0.0920280308510055   -0.011208975177946275
-0.36196763482933136   -0.0920280308510055   -0.011208975177946275
-0.3485620696883357   -0.04613138975401368   0.014612633639020968
-0.3485620696883357   -0.04613138975401368   0.014612633639020968
-0.3485620696883357   -0.04613138975401368   0.014612633639020968
-0.3485620696883357   -0.04613138975401368   0.014612633639020968
-0.34319733312678546   -0.09983864284477381   -0.002204752619526169
-0.34319733312678546   -0.09983864284477381   -0.002204752619526169
-0.34319733312678546   -0.09983864284477381   -0.002204752619526169
-0.34319733312678546   -0.09983864284477381   -0.002204752619526169
-0.3454570321109723   -0.06439518953444041   -0.02203184567294848
-0.3454570321109723   -0.06439518953444041   -0.02203184567294848
-0.3454570321109723   -0.06439518953444041   -0.02203184567294848
-0.3454570321109723   -0.06439518953444041   -0.02203184567294848
-0.32867826748938156   0.03520319388293436   0.016573781877558695
-0.32867826748938156   0.03520319388293436   0.016573781877558695
-0.32867826748938156   0.03520319388293436   0.016573781877558695
-0.32867826748938156   0.03520319388293436   0.016573781877558695
-0.3885837319369083   -0.05042723533973196   -0.02378438952423753
-0.3885837319369083   -0.05042723533973196   -0.02378438952423753
-0.3885837319369083   -0.05042723533973196   -0.02378438952423753
-0.3885837319369083   -0.05042723533973196   -0.02378438952423753
-0.36763993138969187   0.010479951807459545   0.02295887185020262
-0.36763993138969187   0.010479951807459545   0.02295887185020262
-0.36763993138969187   0.010479951807459545   0.02295887185020262
-0.36763993138969187   0.010479951807459545   0.02295887185020262
-0.35397118740976596   -0.05626522023293299   -0.014402916959828925
-0.35397118740976596   -0.05626522023293299   -0.014402916959828925
-0.35397118740976596   -0.05626522023293299   -0.014402916959828925
-0.35397118740976596   -0.05626522023293299   -0.014402916959828925
-0.3596857944242429   -0.014874542037358857   -0.004545136625444882
-0.3596857944242429   -0.014874542037358857   -0.004545136625444882
-0.3596857944242429   -0.014874542037358857   -0.004545136625444882
-0.3596857944242429   -0.014874542037358857   -0.004545136625444882
-0.3320254342785029   0.017352668793639628   0.021707959669914022
-0.3320254342785029   0.017352668793639628   0.021707959669914022
-0.3320254342785029   0.017352668793639628   0.021707959669914022
-0.3320254342785029   0.017352668793639628   0.021707959669914022
-0.39208914685678564   -0.0656413995549438   -0.02316585412286329
-0.39208914685678564   -0.0656413995549438   -0.02316585412286329
-0.39208914685678564   -0.0656413995549438   -0.02316585412286329
-0.39208914685678564   -0.0656413995549438   -0.02316585412286329
-0.3744505971211129   -0.006463177233195991   0.026031987378977394
-0.3744505971211129   -0.006463177233195991   0.026031987378977394
-0.3744505971211129   -0.006463177233195991   0.026031987378977394
-0.3744505971211129   -0.006463177233195991   0.026031987378977394
-0.3573919718009444   -0.06889357658196515   -0.011465114305044377
-0.3573919718009444   -0.06889357658196515   -0.011465114305044377
-0.3573919718009444   -0.06889357658196515   -0.011465114305044377
-0.3573919718009444   -0.06889357658196515   -0.011465114305044377
-0.3631223825339182   -0.0292015868814278   -0.012604095420688957
-0.3631223825339182   -0.0292015868814278   -0.012604095420688957
-0.3631223825339182   -0.0292015868814278   -0.012604095420688957
-0.3631223825339182   -0.0292015868814278   -0.012604095420688957
-0.33569696229206736   0.0014203529902427486   0.02669600366712554
-0.33569696229206736   0.0014203529902427486   0.02669600366712554
-0.33569696229206736   0.0014203529902427486   0.02669600366712554
-0.33569696229206736   0.0014203529902427486   0.02669600366712554
-0.3983149529733709   -0.07894645314878612   -0.020806515966722672
-0.3983149529733709   -0.07894645314878612   -0.020806515966722672
-0.3983149529733709   -0.07894645314878612   -0.020806515966722672
-0.3983149529733709   -0.07894645314878612   -0.020806515966722672
-0.37895721331484294   -0.02271698573964881   0.0317475557731413
-0.37895721331484294   -0.02271698573964881   0.0317475557731413
-0.37895721331484294   -0.02271698573964881   0.0317475557731413
-0.37895721331484294   -0.02271698573964881   0.0317475557731413
-0.36033254078266663   -0.08157896782352901   -0.008792143763118026
-0.36033254078266663   -0.08157896782352901   -0.008792143763118026
-0.36033254078266663   -0.08157896782352901   -0.008792143763118026
-0.36033254078266663   -0.08157896782352901   -0.008792143763118026
-0.36913806855428766   -0.04270730502557629   -0.020413199671681093
-0.36913806855428766   -0.04270730502557629   -0.020413199671681093
-0.36913806855428766   -0.04270730502557629   -0.020413199671681093
-0.36913806855428766   -0.04270730502557629   -0.020413199671681093
-0.3570217544455295   0.050509788096144814   0.03308847449677213
-0.3570217544455295   0.050509788096144814   0.03308847449677213
-0.3570217544455295   0.050509788096144814   0.03308847449677213
-0.3570217544455295   0.050509788096144814   0.03308847449677213
-0.3817211811853725   -0.030462707427755566   -0.03446246141677696
-0.3817211811853725   -0.030462707427755566   -0.03446246141677696
-0.3817211811853725   -0.030462707427755566   -0.03446246141677696
-0.3817211811853725   -0.030462707427755566   -0.03446246141677696
-0.37316059861832346   0.03590204445007965   0.03677225009873804
-0.37316059861832346   0.03590204445007965   0.03677225009873804
-0.37316059861832346   0.03590204445007965   0.03677225009873804
-0.37316059861832346   0.03590204445007965   0.03677225009873804
-0.3863532735143956   -0.03906253016172348   -0.021065356804133285
-0.3863532735143956   -0.03906253016172348   -0.021065356804133285
-0.3863532735143956   -0.03906253016172348   -0.021065356804133285
-0.3863532735143956   -0.03906253016172348   -0.021065356804133285
-0.3618222350883819   0.009017958112212399   0.0014160864864673946
-0.3618222350883819   0.009017958112212399   0.0014160864864673946
-0.3618222350883819   0.009017958112212399   0.0014160864864673946
-0.3618222350883819   0.009017958112212399   0.0014160864864673946
-0.3588656466891837   0.039057195206827405   0.03825305195336772
-0.3588656466891837   0.039057195206827405   0.03825305195336772
-0.3588656466891837   0.039057195206827405   0.03825305195336772
-0.3588656466891837   0.039057195206827405   0.03825305195336772
-0.4026883452493426   -0.044257800724287345   -0.030706637881990358
-0.4026883452493426   -0.044257800724287345   -0.030706637881990358
-0.4026883452493426   -0.044257800724287345   -0.030706637881990358
-0.4026883452493426   -0.044257800724287345   -0.030706637881990358
-0.38959534677305907   0.02641135427698342   0.04734337005387608
-0.38959534677305907   0.02641135427698342   0.04734337005387608
-0.38959534677305907   0.02641135427698342   0.04734337005387608
-0.38959534677305907   0.02641135427698342   0.04734337005387608
-0.391507460686716   -0.04649522558698446   -0.01922028209525748
-0.391507460686716   -0.04649522558698446   -0.01922028209525748
-0.391507460686716   -0.04649522558698446   -0.01922028209525748
-0.391507460686716   -0.04649522558698446   -0.01922028209525748
-0.3795261905526836   -0.0024809228055265725   -0.008096696440392105
-0.3795261905526836   -0.0024809228055265725   -0.008096696440392105
-0.3795261905526836   -0.0024809228055265725   -0.008096696440392105
-0.3795261905526836   -0.0024809228055265725   -0.008096696440392105
-0.3629203587211698   0.0314347319213969   0.04578527022408489
-0.3629203587211698   0.0314347319213969   0.04578527022408489
-0.3629203587211698   0.0314347319213969   0.04578527022408489
-0.3629203587211698   0.0314347319213969   0.04578527022408489
-0.42084013005341836   -0.05417628454621479   -0.028292907524706763
-0.42084013005341836   -0.05417628454621479   -0.028292907524706763
-0.42084013005341836   -0.05417628454621479   -0.028292907524706763
-0.42084013005341836   -0.05417628454621479   -0.028292907524706763
-0.418573750194782   0.0021809700485300593   0.05058662411165109
-0.418573750194782   0.0021809700485300593   0.05058662411165109
-0.418573750194782   0.0021809700485300593   0.05058662411165109
-0.418573750194782   0.0021809700485300593   0.05058662411165109
-0.396210834970851   -0.06053428042506563   -0.01670325782147469
-0.396210834970851   -0.06053428042506563   -0.01670325782147469
-0.396210834970851   -0.06053428042506563   -0.01670325782147469
-0.396210834970851   -0.06053428042506563   -0.01670325782147469
-0.38792079533185264   -0.013062616264545843   -0.016675782454687094
-0.38792079533185264   -0.013062616264545843   -0.016675782454687094
-0.38792079533185264   -0.013062616264545843   -0.016675782454687094
-0.38792079533185264   -0.013062616264545843   -0.016675782454687094
-0.7662131615252346   -0.07001238126565229   -0.07226325432609568
-0.7662131615252346   -0.07001238126565229   -0.07226325432609568
-0.7662131615252346   -0.07001238126565229   -0.07226325432609568
-0.7662131615252346   -0.07001238126565229   -0.07226325432609568
-0.4859778573644635   0.041518963853509144   0.017038065424137085
-0.4859778573644635   0.041518963853509144   0.017038065424137085
-0.4859778573644635   0.041518963853509144   0.017038065424137085
-0.4859778573644635   0.041518963853509144   0.017038065424137085
-0.5103026438602594   -0.03216677814927313   -0.032227214221705554
-0.5103026438602594   -0.03216677814927313   -0.032227214221705554
-0.5103026438602594   -0.03216677814927313   -0.032227214221705554
-0.5103026438602594   -0.03216677814927313   -0.032227214221705554
-0.8145597549611532   -0.0916902208409352   0.08100758087001664
-0.8145597549611532   -0.0916902208409352   0.08100758087001664
-0.8145597549611532   -0.0916902208409352   0.08100758087001664
-0.8145597549611532   -0.0916902208409352   0.08100758087001664
-0.5922897884919529   -0.02251929244336781   0.07854975432042656
-0.5922897884919529   -0.02251929244336781   0.07854975432042656
-0.5922897884919529   -0.02251929244336781   0.07854975432042656
-0.5922897884919529   -0.02251929244336781   0.07854975432042656
-0.8436054659060315   -0.10297011554429175   -0.05294107915101133
-0.8436054659060315   -0.10297011554429175   -0.05294107915101133
-0.8436054659060315   -0.10297011554429175   -0.05294107915101133
-0.8436054659060315   -0.10297011554429175   -0.05294107915101133
-0.5016829370957219   -0.04131288762625877   0.02001742907796747
-0.5016829370957219   -0.04131288762625877   0.02001742907796747
-0.5016829370957219   -0.04131288762625877   0.02001742907796747
-0.5016829370957219   -0.04131288762625877   0.02001742907796747
-0.5180991791862881   -0.046670158796322234   -0.02312864883834276
-0.5180991791862881   -0.046670158796322234   -0.02312864883834276
-0.5180991791862881   -0.046670158796322234   -0.02312864883834276
-0.5180991791862881   -0.046670158796322234   -0.02312864883834276
-0.8404400624562592   -0.1281285686995754   0.002023819966868184
-0.8404400624562592   -0.1281285686995754   0.002023819966868184
-0.8404400624562592   -0.1281285686995754   0.002023819966868184
-0.8404400624562592   -0.1281285686995754   0.002023819966868184
-0.6557024885600032   -0.07731383051256625   0.01814149916836735
-0.6557024885600032   -0.07731383051256625   0.01814149916836735
-0.6557024885600032   -0.07731383051256625   0.01814149916836735
-0.6557024885600032   -0.07731383051256625   0.01814149916836735
-0.8470134358946729   -0.11635133629607049   -0.042620279628699256
-0.8470134358946729   -0.11635133629607049   -0.042620279628699256
-0.8470134358946729   -0.11635133629607049   -0.042620279628699256
-0.8470134358946729   -0.11635133629607049   -0.042620279628699256
-0.5177168566140592   -0.06463844206601163   -0.0032487527075129533
-0.5177168566140592   -0.06463844206601163   -0.0032487527075129533
-0.5177168566140592   -0.06463844206601163   -0.0032487527075129533
-0.5177168566140592   -0.06463844206601163   -0.0032487527075129533
-0.5184159823453877   -0.08179386332726471   -0.016841277900590198
-0.5184159823453877   -0.08179386332726471   -0.016841277900590198
-0.5184159823453877   -0.08179386332726471   -0.016841277900590198
-0.5184159823453877   -0.08179386332726471   -0.016841277900590198
-0.8604960446106895   -0.19569481638163272   0.012877523189300511
-0.8604960446106895   -0.19569481638163272   0.012877523189300511
-0.8604960446106895   -0.19569481638163272   0.012877523189300511
-0.8604960446106895   -0.19569481638163272   0.012877523189300511
-0.654956783927306   -0.10628639520350638   0.0013522355975867217
-0.654956783927306   -0.10628639520350638   0.0013522355975867217
-0.654956783927306   -0.10628639520350638   0.0013522355975867217
-0.654956783927306   -0.10628639520350638   0.0013522355975867217
-0.5247810935123934   -0.08897466911643417   -0.04648448234556442
-0.5247810935123934   -0.08897466911643417   -0.04648448234556442
-0.5247810935123934   -0.08897466911643417   -0.04648448234556442
-0.5247810935123934   -0.08897466911643417   -0.04648448234556442
-0.3605227823803894   -0.23296730551958703   -0.043679033196577746
-0.3605227823803894   -0.23296730551958703   -0.043679033196577746
-0.3605227823803894   -0.23296730551958703   -0.043679033196577746
-0.3605227823803894   -0.23296730551958703   -0.043679033196577746
-0.316669659373336   -0.05175224987830476   -0.002751795993908013
-0.316669659373336   -0.05175224987830476   -0.002751795993908013
-0.316669659373336   -0.05175224987830476   -0.002751795993908013
-0.316669659373336   -0.05175224987830476   -0.002751795993908013
-0.5578591755608441   -0.24711221657338409   -0.05506443430051768
-0.5578591755608441   -0.24711221657338409   -0.05506443430051768
-0.5578591755608441   -0.24711221657338409   -0.05506443430051768
-0.5578591755608441   -0.24711221657338409   -0.05506443430051768
-0.4348524470316718   -0.16472431590792255   -0.012674793826014375
-0.4348524470316718   -0.16472431590792255   -0.012674793826014375
-0.4348524470316718   -0.16472431590792255   -0.012674793826014375
-0.4348524470316718   -0.16472431590792255   -0.012674793826014375
-0.5243717004419256   -0.09974179495758567   -0.03499748032172294
-0.5243717004419256   -0.09974179495758567   -0.03499748032172294
-0.5243717004419256   -0.09974179495758567   -0.03499748032172294
-0.5243717004419256   -0.09974179495758567   -0.03499748032172294
-0.3522832550775396   -0.20124879207938884   -0.03132323231384577
-0.3522832550775396   -0.20124879207938884   -0.03132323231384577
-0.3522832550775396   -0.20124879207938884   -0.03132323231384577
-0.3522832550775396   -0.20124879207938884   -0.03132323231384577
-0.3202210906325122   -0.06706563381770439   0.0005068771278952807
-0.3202210906325122   -0.06706563381770439   0.0005068771278952807
-0.3202210906325122   -0.06706563381770439   0.0005068771278952807
-0.3202210906325122   -0.06706563381770439   0.0005068771278952807
-0.5598070138048363   -0.2458276433240053   -0.03251033740340472
-0.5598070138048363   -0.2458276433240053   -0.03251033740340472
-0.5598070138048363   -0.2458276433240053   -0.03251033740340472
-0.5598070138048363   -0.2458276433240053   -0.03251033740340472
-0.4299891342876429   -0.15440645089390936   -0.013465575327920417
-0.4299891342876429   -0.15440645089390936   -0.013465575327920417
-0.4299891342876429   -0.15440645089390936   -0.013465575327920417
-0.4299891342876429   -0.15440645089390936   -0.013465575327920417
-0.5323554918111837   -0.11484163635903859   -0.026238734400104186
-0.5323554918111837   -0.11484163635903859   -0.026238734400104186
-0.5323554918111837   -0.11484163635903859   -0.026238734400104186
-0.5323554918111837   -0.11484163635903859   -0.026238734400104186
-0.3520723882429906   -0.20245141639949676   -0.023363828342707886
-0.3520723882429906   -0.20245141639949676   -0.023363828342707886
-0.3520723882429906   -0.20245141639949676   -0.023363828342707886
-0.3520723882429906   -0.20245141639949676   -0.023363828342707886
-0.32003791748778126   -0.08615008396401933   0.0051648422844255614
-0.32003791748778126   -0.08615008396401933   0.0051648422844255614
-0.32003791748778126   -0.08615008396401933   0.0051648422844255614
-0.32003791748778126   -0.08615008396401933   0.0051648422844255614
-0.5583581670979909   -0.24991394883315052   -0.04843211615772705
-0.5583581670979909   -0.24991394883315052   -0.04843211615772705
-0.5583581670979909   -0.24991394883315052   -0.04843211615772705
-0.5583581670979909   -0.24991394883315052   -0.04843211615772705
-0.4364164940322271   -0.16609596968248813   -0.025008547144839247
-0.4364164940322271   -0.16609596968248813   -0.025008547144839247
-0.4364164940322271   -0.16609596968248813   -0.025008547144839247
-0.4364164940322271   -0.16609596968248813   -0.025008547144839247
-0.3174490705615919   -0.057267126138565674   -0.00401065348361123
-0.3174490705615919   -0.057267126138565674   -0.00401065348361123
-0.3174490705615919   -0.057267126138565674   -0.00401065348361123
-0.3174490705615919   -0.057267126138565674   -0.00401065348361123
-0.2661903187017185   -0.17822824297902096   -0.03076736829551454
-0.2661903187017185   -0.17822824297902096   -0.03076736829551454
-0.2661903187017185   -0.17822824297902096   -0.03076736829551454
-0.2661903187017185   -0.17822824297902096   -0.03076736829551454
-0.22939435271977046   -0.047512903402641644   0.01226291334422845
-0.22939435271977046   -0.047512903402641644   0.01226291334422845
-0.22939435271977046   -0.047512903402641644   0.01226291334422845
-0.22939435271977046   -0.047512903402641644   0.01226291334422845
-0.3513243764055982   -0.19377645011318773   -0.03400118092033986
-0.3513243764055982   -0.19377645011318773   -0.03400118092033986
-0.3513243764055982   -0.19377645011318773   -0.03400118092033986
-0.3513243764055982   -0.19377645011318773   -0.03400118092033986
-0.2898057198820795   -0.12086522124342129   -0.014197000731903605
-0.2898057198820795   -0.12086522124342129   -0.014197000731903605
-0.2898057198820795   -0.12086522124342129   -0.014197000731903605
-0.2898057198820795   -0.12086522124342129   -0.014197000731903605
-0.31922160952921264   -0.06781974730307971   0.0005559506514801872
-0.31922160952921264   -0.06781974730307971   0.0005559506514801872
-0.31922160952921264   -0.06781974730307971   0.0005559506514801872
-0.31922160952921264   -0.06781974730307971   0.0005559506514801872
-0.263380548652028   -0.17535303526862156   -0.02982793445107918
-0.263380548652028   -0.17535303526862156   -0.02982793445107918
-0.263380548652028   -0.17535303526862156   -0.02982793445107918
-0.263380548652028   -0.17535303526862156   -0.02982793445107918
-0.2294162835168251   -0.06009814356174731   0.015889109955823055
-0.2294162835168251   -0.06009814356174731   0.015889109955823055
-0.2294162835168251   -0.06009814356174731   0.015889109955823055
-0.2294162835168251   -0.06009814356174731   0.015889109955823055
-0.35237123343251914   -0.1968486676007364   -0.030460803089111275
-0.35237123343251914   -0.1968486676007364   -0.030460803089111275
-0.35237123343251914   -0.1968486676007364   -0.030460803089111275
-0.35237123343251914   -0.1968486676007364   -0.030460803089111275
-0.28923706691360024   -0.12560655942141585   -0.01842171007437614
-0.28923706691360024   -0.12560655942141585   -0.01842171007437614
-0.28923706691360024   -0.12560655942141585   -0.01842171007437614
-0.28923706691360024   -0.12560655942141585   -0.01842171007437614
-0.32184100651471187   -0.08057714781054551   0.005918811709734202
-0.32184100651471187   -0.08057714781054551   0.005918811709734202
-0.32184100651471187   -0.08057714781054551   0.005918811709734202
-0.32184100651471187   -0.08057714781054551   0.005918811709734202
-0.2609814582535455   -0.1774046111708539   -0.02463029611867238
-0.2609814582535455   -0.1774046111708539   -0.02463029611867238
-0.2609814582535455   -0.1774046111708539   -0.02463029611867238
-0.2609814582535455   -0.1774046111708539   -0.02463029611867238
-0.22664739720255309   -0.07212038482552405   0.01983660155250567
-0.22664739720255309   -0.07212038482552405   0.01983660155250567
-0.22664739720255309   -0.07212038482552405   0.01983660155250567
-0.22664739720255309   -0.07212038482552405   0.01983660155250567
-0.34810426195271416   -0.19936420349959058   -0.021952760504671452
-0.34810426195271416   -0.19936420349959058   -0.021952760504671452
-0.34810426195271416   -0.19936420349959058   -0.021952760504671452
-0.34810426195271416   -0.19936420349959058   -0.021952760504671452
-0.28830513052847667   -0.1318440665376809   -0.021345730294646672
-0.28830513052847667   -0.1318440665376809   -0.021345730294646672
-0.28830513052847667   -0.1318440665376809   -0.021345730294646672
-0.28830513052847667   -0.1318440665376809   -0.021345730294646672
-0.22163167562945482   -0.00793368779669762   0.021731291883480587
-0.22163167562945482   -0.00793368779669762   0.021731291883480587
-0.22163167562945482   -0.00793368779669762   0.021731291883480587
-0.22163167562945482   -0.00793368779669762   0.021731291883480587
-0.2094692386245286   -0.09432455277532964   -0.018409681850481426
-0.2094692386245286   -0.09432455277532964   -0.018409681850481426
-0.2094692386245286   -0.09432455277532964   -0.018409681850481426
-0.2094692386245286   -0.09432455277532964   -0.018409681850481426
-0.18055817135372845   -0.01366749968509453   0.02517266972332584
-0.18055817135372845   -0.01366749968509453   0.02517266972332584
-0.18055817135372845   -0.01366749968509453   0.02517266972332584
-0.18055817135372845   -0.01366749968509453   0.02517266972332584
-0.24676089302482399   -0.10903904751612424   -0.01304364406755653
-0.24676089302482399   -0.10903904751612424   -0.01304364406755653
-0.24676089302482399   -0.10903904751612424   -0.01304364406755653
-0.24676089302482399   -0.10903904751612424   -0.01304364406755653
-0.2153220642829469   -0.055723160959224895   -0.0076992798149497586
-0.2153220642829469   -0.055723160959224895   -0.0076992798149497586
-0.2153220642829469   -0.055723160959224895   -0.0076992798149497586
-0.2153220642829469   -0.055723160959224895   -0.0076992798149497586
-0.2217155063388411   -0.021920543547946224   0.025064785394179973
-0.2217155063388411   -0.021920543547946224   0.025064785394179973
-0.2217155063388411   -0.021920543547946224   0.025064785394179973
-0.2217155063388411   -0.021920543547946224   0.025064785394179973
-0.20760611390995354   -0.10278855952351473   -0.020945983219379426
-0.20760611390995354   -0.10278855952351473   -0.020945983219379426
-0.20760611390995354   -0.10278855952351473   -0.020945983219379426
-0.20760611390995354   -0.10278855952351473   -0.020945983219379426
-0.18076290206770967   -0.025863755026167917   0.027054923740707094
-0.18076290206770967   -0.025863755026167917   0.027054923740707094
-0.18076290206770967   -0.025863755026167917   0.027054923740707094
-0.18076290206770967   -0.025863755026167917   0.027054923740707094
-0.2466191356015143   -0.11568187436843816   -0.014541419660939813
-0.2466191356015143   -0.11568187436843816   -0.014541419660939813
-0.2466191356015143   -0.11568187436843816   -0.014541419660939813
-0.2466191356015143   -0.11568187436843816   -0.014541419660939813
-0.21432716744092725   -0.06552119673431547   -0.01306450816799989
-0.21432716744092725   -0.06552119673431547   -0.01306450816799989
-0.21432716744092725   -0.06552119673431547   -0.01306450816799989
-0.21432716744092725   -0.06552119673431547   -0.01306450816799989
-0.22161941905144475   -0.033742487855718664   0.028517776576688414
-0.22161941905144475   -0.033742487855718664   0.028517776576688414
-0.22161941905144475   -0.033742487855718664   0.028517776576688414
-0.22161941905144475   -0.033742487855718664   0.028517776576688414
-0.20697509067471626   -0.10901561359582318   -0.020854160724670605
-0.20697509067471626   -0.10901561359582318   -0.020854160724670605
-0.20697509067471626   -0.10901561359582318   -0.020854160724670605
-0.20697509067471626   -0.10901561359582318   -0.020854160724670605
-0.17915517917583218   -0.037314709234406336   0.03135178757566094
-0.17915517917583218   -0.037314709234406336   0.03135178757566094
-0.17915517917583218   -0.037314709234406336   0.03135178757566094
-0.17915517917583218   -0.037314709234406336   0.03135178757566094
-0.24264587772911644   -0.12232827343851596   -0.009947912467319221
-0.24264587772911644   -0.12232827343851596   -0.009947912467319221
-0.24264587772911644   -0.12232827343851596   -0.009947912467319221
-0.24264587772911644   -0.12232827343851596   -0.009947912467319221
-0.21361706452780857   -0.07394066796964091   -0.016788831534928737
-0.21361706452780857   -0.07394066796964091   -0.016788831534928737
-0.21361706452780857   -0.07394066796964091   -0.016788831534928737
-0.21361706452780857   -0.07394066796964091   -0.016788831534928737
-0.1752493727149169   0.02449763794511705   0.03386745697713047
-0.1752493727149169   0.02449763794511705   0.03386745697713047
-0.1752493727149169   0.02449763794511705   0.03386745697713047
-0.1752493727149169   0.02449763794511705   0.03386745697713047
-0.116317024916423   -0.031005304900746683   -0.011316559612000341
-0.116317024916423   -0.031005304900746683   -0.011316559612000341
-0.116317024916423   -0.031005304900746683   -0.011316559612000341
-0.116317024916423   -0.031005304900746683   -0.011316559612000341
-0.10149088310478684   0.0288106741854168   0.033438274521974655
-0.10149088310478684   0.0288106741854168   0.033438274521974655
-0.10149088310478684   0.0288106741854168   0.033438274521974655
-0.10149088310478684   0.0288106741854168   0.033438274521974655
-0.19353233611843138   -0.047506885825905884   -0.005858767959377423
-0.19353233611843138   -0.047506885825905884   -0.005858767959377423
-0.19353233611843138   -0.047506885825905884   -0.005858767959377423
-0.19353233611843138   -0.047506885825905884   -0.005858767959377423
-0.14463957207865616   -0.0030295517175916963   -0.006125036115246494
-0.14463957207865616   -0.0030295517175916963   -0.006125036115246494
-0.14463957207865616   -0.0030295517175916963   -0.006125036115246494
-0.14463957207865616   -0.0030295517175916963   -0.006125036115246494
-0.172398713995565   0.015334953723899203   0.03696750310514946
-0.172398713995565   0.015334953723899203   0.03696750310514946
-0.172398713995565   0.015334953723899203   0.03696750310514946
-0.172398713995565   0.015334953723899203   0.03696750310514946
-0.12282572153780731   -0.034232381674538535   -0.010192861783157092
-0.12282572153780731   -0.034232381674538535   -0.010192861783157092
-0.12282572153780731   -0.034232381674538535   -0.010192861783157092
-0.12282572153780731   -0.034232381674538535   -0.010192861783157092
-0.10594239966869698   0.02287569303278133   0.04206924998555249
-0.10594239966869698   0.02287569303278133   0.04206924998555249
-0.10594239966869698   0.02287569303278133   0.04206924998555249
-0.10594239966869698   0.02287569303278133   0.04206924998555249
-0.1926150463147364   -0.05056624560413443   -0.007503306916459934
-0.1926150463147364   -0.05056624560413443   -0.007503306916459934
-0.1926150463147364   -0.05056624560413443   -0.007503306916459934
-0.1926150463147364   -0.05056624560413443   -0.007503306916459934
-0.1489058396806449   -0.009511961539050033   -0.00863696095820791
-0.1489058396806449   -0.009511961539050033   -0.00863696095820791
-0.1489058396806449   -0.009511961539050033   -0.00863696095820791
-0.1489058396806449   -0.009511961539050033   -0.00863696095820791
-0.1704745708375967   0.010068311479095645   0.04256451338600844
-0.1704745708375967   0.010068311479095645   0.04256451338600844
-0.1704745708375967   0.010068311479095645   0.04256451338600844
-0.1704745708375967   0.010068311479095645   0.04256451338600844
-0.12959863981450276   -0.03927462871911226   -0.014061628991582687
-0.12959863981450276   -0.03927462871911226   -0.014061628991582687
-0.12959863981450276   -0.03927462871911226   -0.014061628991582687
-0.12959863981450276   -0.03927462871911226   -0.014061628991582687
-0.12122819899926326   0.006558172346479475   0.0437763700646631
-0.12122819899926326   0.006558172346479475   0.0437763700646631
-0.12122819899926326   0.006558172346479475   0.0437763700646631
-0.12122819899926326   0.006558172346479475   0.0437763700646631
-0.18988163032714406   -0.053302359566094346   -0.006292817849210596
-0.18988163032714406   -0.053302359566094346   -0.006292817849210596
-0.18988163032714406   -0.053302359566094346   -0.006292817849210596
-0.18988163032714406   -0.053302359566094346   -0.006292817849210596
-0.150948237015332   -0.01419801815613626   -0.012711028152163024
-0.150948237015332   -0.01419801815613626   -0.012711028152163024
-0.150948237015332   -0.01419801815613626   -0.012711028152163024
-0.150948237015332   -0.01419801815613626   -0.012711028152163024
-1.807317907953935   -0.25624777131383636   -0.1504555598231191
-1.807317907953935   -0.25624777131383636   -0.1504555598231191
-1.807317907953935   -0.25624777131383636   -0.1504555598231191
-1.807317907953935   -0.25624777131383636   -0.1504555598231191
-0.6274256431876717   -0.9889809508685169   -0.11773181235468148
-0.6274256431876717   -0.9889809508685169   -0.11773181235468148
-0.6274256431876717   -0.9889809508685169   -0.11773181235468148
-0.6274256431876717   -0.9889809508685169   -0.11773181235468148
-0.48464274926369894   -0.04177924689659376   0.0006454448942695024
-0.48464274926369894   -0.04177924689659376   0.0006454448942695024
-0.48464274926369894   -0.04177924689659376   0.0006454448942695024
-0.48464274926369894   -0.04177924689659376   0.0006454448942695024
-1.9302455439660293   -1.1620701057235867   -0.6184631299379232
-1.9302455439660293   -1.1620701057235867   -0.6184631299379232
-1.9302455439660293   -1.1620701057235867   -0.6184631299379232
-1.9302455439660293   -1.1620701057235867   -0.6184631299379232
-1.182094086678373   -0.5780510622801684   -0.08423811576784676
-1.182094086678373   -0.5780510622801684   -0.08423811576784676
-1.182094086678373   -0.5780510622801684   -0.08423811576784676
-1.182094086678373   -0.5780510622801684   -0.08423811576784676
-1.6793882853221032   -0.32175569297958906   -0.20449124946230293
-1.6793882853221032   -0.32175569297958906   -0.20449124946230293
-1.6793882853221032   -0.32175569297958906   -0.20449124946230293
-1.6793882853221032   -0.32175569297958906   -0.20449124946230293
-0.6776315967083866   -0.8242252484413543   -0.18185279078440397
-0.6776315967083866   -0.8242252484413543   -0.18185279078440397
-0.6776315967083866   -0.8242252484413543   -0.18185279078440397
-0.6776315967083866   -0.8242252484413543   -0.18185279078440397
-0.49448330952365765   -0.055622912169688295   0.018595349683694515
-0.49448330952365765   -0.055622912169688295   0.018595349683694515
-0.49448330952365765   -0.055622912169688295   0.018595349683694515
-0.49448330952365765   -0.055622912169688295   0.018595349683694515
-1.8063136938648818   -1.0368414902238519   -0.5686310368177467
-1.8063136938648818   -1.0368414902238519   -0.5686310368177467
-1.8063136938648818   -1.0368414902238519   -0.5686310368177467
-1.8063136938648818   -1.0368414902238519   -0.5686310368177467
-1.113419522723212   -0.5213277603225726   0.04500459757333029
-1.113419522723212   -0.5213277603225726   0.04500459757333029
-1.113419522723212   -0.5213277603225726   0.04500459757333029
-1.113419522723212   -0.5213277603225726   0.04500459757333029
-1.5770017718444913   -0.3063568816321047   -0.15255603530755396
-1.5770017718444913   -0.3063568816321047   -0.15255603530755396
-1.5770017718444913   -0.3063568816321047   -0.15255603530755396
-1.5770017718444913   -0.3063568816321047   -0.15255603530755396
-0.6594861520203803   -0.7217984412377692   -0.14024333373183448
-0.6594861520203803   -0.7217984412377692   -0.14024333373183448
-0.6594861520203803   -0.7217984412377692   -0.14024333373183448
-0.6594861520203803   -0.7217984412377692   -0.14024333373183448
-0.5683893865445413   -0.1457709411066105   -0.029609758501729026
-0.5683893865445413   -0.1457709411066105   -0.029609758501729026
-0.5683893865445413   -0.1457709411066105   -0.029609758501729026
-0.5683893865445413   -0.1457709411066105   -0.029609758501729026
-1.6463466932546698   -0.8717386329595032   -0.5036170652428346
-1.6463466932546698   -0.8717386329595032   -0.5036170652428346
-1.6463466932546698   -0.8717386329595032   -0.5036170652428346
-1.6463466932546698   -0.8717386329595032   -0.5036170652428346
-1.0314026281795554   -0.45203514494725594   0.19102284269972342
-1.0314026281795554   -0.45203514494725594   0.19102284269972342
-1.0314026281795554   -0.45203514494725594   0.19102284269972342
-1.0314026281795554   -0.45203514494725594   0.19102284269972342
-0.46403596123610846   -0.2524058377870771   -0.03735851567830906
-0.46403596123610846   -0.2524058377870771   -0.03735851567830906
-0.46403596123610846   -0.2524058377870771   -0.03735851567830906
-0.46403596123610846   -0.2524058377870771   -0.03735851567830906
-0.21476456769564187   -0.3129962562221096   -0.053074670262735935
-0.21476456769564187   -0.3129962562221096   -0.053074670262735935
-0.21476456769564187   -0.3129962562221096   -0.053074670262735935
-0.21476456769564187   -0.3129962562221096   -0.053074670262735935
-0.1893033303614056   -0.1614130177199642   0.004875714767143449
-0.1893033303614056   -0.1614130177199642   0.004875714767143449
-0.1893033303614056   -0.1614130177199642   0.004875714767143449
-0.1893033303614056   -0.1614130177199642   0.004875714767143449
-0.5679085270900925   -0.457858743477355   0.00039605234306668013
-0.5679085270900925   -0.457858743477355   0.00039605234306668013
-0.5679085270900925   -0.457858743477355   0.00039605234306668013
-0.5679085270900925   -0.457858743477355   0.00039605234306668013
-0.304946043041824   -0.22199451732133088   0.09778142826326225
-0.304946043041824   -0.22199451732133088   0.09778142826326225
-0.304946043041824   -0.22199451732133088   0.09778142826326225
-0.304946043041824   -0.22199451732133088   0.09778142826326225
-0.5282152377865785   -0.23497482590147695   -0.024021418715247385
-0.5282152377865785   -0.23497482590147695   -0.024021418715247385
-0.5282152377865785   -0.23497482590147695   -0.024021418715247385
-0.5282152377865785   -0.23497482590147695   -0.024021418715247385
-0.24504908497469435   -0.400349400605618   -0.03491667541364652
-0.24504908497469435   -0.400349400605618   -0.03491667541364652
-0.24504908497469435   -0.400349400605618   -0.03491667541364652
-0.24504908497469435   -0.400349400605618   -0.03491667541364652
-0.20452310039577942   -0.16726362682691426   0.005025831673001156
-0.20452310039577942   -0.16726362682691426   0.005025831673001156
-0.20452310039577942   -0.16726362682691426   0.005025831673001156
-0.20452310039577942   -0.16726362682691426   0.005025831673001156
-0.5956973149629681   -0.4520639207795777   -0.09103366890296484
-0.5956973149629681   -0.4520639207795777   -0.09103366890296484
-0.5956973149629681   -0.4520639207795777   -0.09103366890296484
-0.5956973149629681   -0.4520639207795777   -0.09103366890296484
-0.36373079921079915   -0.2847092815406617   0.04458708662800435
-0.36373079921079915   -0.2847092815406617   0.04458708662800435
-0.36373079921079915   -0.2847092815406617   0.04458708662800435
-0.36373079921079915   -0.2847092815406617   0.04458708662800435
-0.5451258483776925   -0.24536449509094221   -0.04487576166522561
-0.5451258483776925   -0.24536449509094221   -0.04487576166522561
-0.5451258483776925   -0.24536449509094221   -0.04487576166522561
-0.5451258483776925   -0.24536449509094221   -0.04487576166522561
-0.2536001328316592   -0.3724686183661545   -0.035154338967157674
-0.2536001328316592   -0.3724686183661545   -0.035154338967157674
-0.2536001328316592   -0.3724686183661545   -0.035154338967157674
-0.2536001328316592   -0.3724686183661545   -0.035154338967157674
-0.22801161992001848   -0.17267759838088897   0.007403088925608224
-0.22801161992001848   -0.17267759838088897   0.007403088925608224
-0.22801161992001848   -0.17267759838088897   0.007403088925608224
-0.22801161992001848   -0.17267759838088897   0.007403088925608224
-0.6370240553699706   -0.43930234798440493   -0.07925169575107945
-0.6370240553699706   -0.43930234798440493   -0.07925169575107945
-0.6370240553699706   -0.43930234798440493   -0.07925169575107945
-0.6370240553699706   -0.43930234798440493   -0.07925169575107945
-0.3806507685894918   -0.2683502216586055   0.04716488619758829
-0.3806507685894918   -0.2683502216586055   0.04716488619758829
-0.3806507685894918   -0.2683502216586055   0.04716488619758829
-0.3806507685894918   -0.2683502216586055   0.04716488619758829
-0.16944979188634662   -0.1505217278704313   0.011024680432061958
-0.16944979188634662   -0.1505217278704313   0.011024680432061958
-0.16944979188634662   -0.1505217278704313   0.011024680432061958
-0.16944979188634662   -0.1505217278704313   0.011024680432061958
-0.1036720207605875   -0.09785880646181926   -0.025922196832863013
-0.1036720207605875   -0.09785880646181926   -0.025922196832863013
-0.1036720207605875   -0.09785880646181926   -0.025922196832863013
-0.1036720207605875   -0.09785880646181926   -0.025922196832863013
-0.10048448039504408   -0.13458785951529748   0.01110187605856501
-0.10048448039504408   -0.13458785951529748   0.01110187605856501
-0.10048448039504408   -0.13458785951529748   0.01110187605856501
-0.10048448039504408   -0.13458785951529748   0.01110187605856501
-0.18718045693361765   -0.1341369491233099   -0.01178598669057106
-0.18718045693361765   -0.1341369491233099   -0.01178598669057106
-0.18718045693361765   -0.1341369491233099   -0.01178598669057106
-0.18718045693361765   -0.1341369491233099   -0.01178598669057106
-0.11838146294300217   -0.10904124671260346   0.049044358074329164
-0.11838146294300217   -0.10904124671260346   0.049044358074329164
-0.11838146294300217   -0.10904124671260346   0.049044358074329164
-0.11838146294300217   -0.10904124671260346   0.049044358074329164
-0.18591990017050686   -0.15151612423480765   0.011895972236476857
-0.18591990017050686   -0.15151612423480765   0.011895972236476857
-0.18591990017050686   -0.15151612423480765   0.011895972236476857
-0.18591990017050686   -0.15151612423480765   0.011895972236476857
-0.1033783860345645   -0.11884203328020997   -0.01911347837412458
-0.1033783860345645   -0.11884203328020997   -0.01911347837412458
-0.1033783860345645   -0.11884203328020997   -0.01911347837412458
-0.1033783860345645   -0.11884203328020997   -0.01911347837412458
-0.10161022145847193   -0.13863016352065982   0.00987070533722443
-0.10161022145847193   -0.13863016352065982   0.00987070533722443
-0.10161022145847193   -0.13863016352065982   0.00987070533722443
-0.10161022145847193   -0.13863016352065982   0.00987070533722443
-0.19875391498434705   -0.15650342233524828   0.023111554238497034
-0.19875391498434705   -0.15650342233524828   0.023111554238497034
-0.19875391498434705   -0.15650342233524828   0.023111554238497034
-0.19875391498434705   -0.15650342233524828   0.023111554238497034
-0.12872257329050532   -0.1214990789792981   0.04154454157395095
-0.12872257329050532   -0.1214990789792981   0.04154454157395095
-0.12872257329050532   -0.1214990789792981   0.04154454157395095
-0.12872257329050532   -0.1214990789792981   0.04154454157395095
-0.20028985921405779   -0.15712879165690236   0.01605720241159754
-0.20028985921405779   -0.15712879165690236   0.01605720241159754
-0.20028985921405779   -0.15712879165690236   0.01605720241159754
-0.20028985921405779   -0.15712879165690236   0.01605720241159754
-0.10869265072860801   -0.14662316769885253   -0.017548436835263262
-0.10869265072860801   -0.14662316769885253   -0.017548436835263262
-0.10869265072860801   -0.14662316769885253   -0.017548436835263262
-0.10869265072860801   -0.14662316769885253   -0.017548436835263262
-0.10276186813435731   -0.14313152479908095   0.0138682391795198
-0.10276186813435731   -0.14313152479908095   0.0138682391795198
-0.10276186813435731   -0.14313152479908095   0.0138682391795198
-0.10276186813435731   -0.14313152479908095   0.0138682391795198
-0.2324557374321956   -0.19255280066844044   0.00505770365227802
-0.2324557374321956   -0.19255280066844044   0.00505770365227802
-0.2324557374321956   -0.19255280066844044   0.00505770365227802
-0.2324557374321956   -0.19255280066844044   0.00505770365227802
-0.14372935054616542   -0.13851442539156494   0.019627044540641493
-0.14372935054616542   -0.13851442539156494   0.019627044540641493
-0.14372935054616542   -0.13851442539156494   0.019627044540641493
-0.14372935054616542   -0.13851442539156494   0.019627044540641493
-0.08508214029063892   -0.059942930772870676   0.029111329827931354
-0.08508214029063892   -0.059942930772870676   0.029111329827931354
-0.08508214029063892   -0.059942930772870676   0.029111329827931354
-0.08508214029063892   -0.059942930772870676   0.029111329827931354
-0.05967775504318416   -0.0001045428434498074   -0.005821184290307212
-0.05967775504318416   -0.0001045428434498074   -0.005821184290307212
-0.05967775504318416   -0.0001045428434498074   -0.005821184290307212
-0.05967775504318416   -0.0001045428434498074   -0.005821184290307212
-0.05663368772659477   -0.06479209361055506   0.01806392016206016
-0.05663368772659477   -0.06479209361055506   0.01806392016206016
-0.05663368772659477   -0.06479209361055506   0.01806392016206016
-0.05663368772659477   -0.06479209361055506   0.01806392016206016
-0.07882033265616051   -0.011487622368917344   -0.0036776223933972533
-0.07882033265616051   -0.011487622368917344   -0.0036776223933972533
-0.07882033265616051   -0.011487622368917344   -0.0036776223933972533
-0.07882033265616051   -0.011487622368917344   -0.0036776223933972533
-0.06477486076500943   -0.032783556989437766   0.014439950632682021
-0.06477486076500943   -0.032783556989437766   0.014439950632682021
-0.06477486076500943   -0.032783556989437766   0.014439950632682021
-0.06477486076500943   -0.032783556989437766   0.014439950632682021
-0.08397458127205215   -0.06838362826701094   0.02744714042523811
-0.08397458127205215   -0.06838362826701094   0.02744714042523811
-0.08397458127205215   -0.06838362826701094   0.02744714042523811
-0.08397458127205215   -0.06838362826701094   0.02744714042523811
-0.05000020602222205   -0.0064168546239803835   -0.007143910302650917
-0.05000020602222205   -0.0064168546239803835   -0.007143910302650917
-0.05000020602222205   -0.0064168546239803835   -0.007143910302650917
-0.05000020602222205   -0.0064168546239803835   -0.007143910302650917
-0.051891011581406715   -0.07049689146043969   0.01665537085894495
-0.051891011581406715   -0.07049689146043969   0.01665537085894495
-0.051891011581406715   -0.07049689146043969   0.01665537085894495
-0.051891011581406715   -0.07049689146043969   0.01665537085894495
-0.07938730532351505   -0.02258168494398198   0.00493680743533093
-0.07938730532351505   -0.02258168494398198   0.00493680743533093
-0.07938730532351505   -0.02258168494398198   0.00493680743533093
-0.07938730532351505   -0.02258168494398198   0.00493680743533093
-0.059420512537539764   -0.03757650758435936   0.01721484971845754
-0.059420512537539764   -0.03757650758435936   0.01721484971845754
-0.059420512537539764   -0.03757650758435936   0.01721484971845754
-0.059420512537539764   -0.03757650758435936   0.01721484971845754
-0.08439893467691263   -0.07405846258871343   0.031355438313082185
-0.08439893467691263   -0.07405846258871343   0.031355438313082185
-0.08439893467691263   -0.07405846258871343   0.031355438313082185
-0.08439893467691263   -0.07405846258871343   0.031355438313082185
-0.04732915085938941   -0.019469882447087243   -0.011562334544321016
-0.04732915085938941   -0.019469882447087243   -0.011562334544321016
-0.04732915085938941   -0.019469882447087243   -0.011562334544321016
-0.04732915085938941   -0.019469882447087243   -0.011562334544321016
-0.04336635477742221   -0.07682150470825284   0.01830640823230218
-0.04336635477742221   -0.07682150470825284   0.01830640823230218
-0.04336635477742221   -0.07682150470825284   0.01830640823230218
-0.04336635477742221   -0.07682150470825284   0.01830640823230218
-0.08554591888746296   -0.04965756871485485   0.0064740293297653045
-0.08554591888746296   -0.04965756871485485   0.0064740293297653045
-0.08554591888746296   -0.04965756871485485   0.0064740293297653045
-0.08554591888746296   -0.04965756871485485   0.0064740293297653045
-0.057143425790310454   -0.047427140418123306   0.01489055696466923
-0.057143425790310454   -0.047427140418123306   0.01489055696466923
-0.057143425790310454   -0.047427140418123306   0.01489055696466923
-0.057143425790310454   -0.047427140418123306   0.01489055696466923
-0.05474998611980594   -0.010571634768662377   0.029284752251796463
-0.05474998611980594   -0.010571634768662377   0.029284752251796463
-0.05474998611980594   -0.010571634768662377   0.029284752251796463
-0.05474998611980594   -0.010571634768662377   0.029284752251796463
-0.009605459152291398   0.00638290251827826   -0.000591343809338991
-0.009605459152291398   0.00638290251827826   -0.000591343809338991
-0.009605459152291398   0.00638290251827826   -0.000591343809338991
-0.009605459152291398   0.00638290251827826   -0.000591343809338991
0.0031921476374987268   -0.0033676753198533752   0.018112800814962665
0.0031921476374987268   -0.0033676753198533752   0.018112800814962665
0.0031921476374987268   -0.0033676753198533752   0.018112800814962665
0.0031921476374987268   -0.0033676753198533752   0.018112800814962665
-0.046785452003887396   0.004779016898999891   -0.002266011733957919
-0.046785452003887396   0.004779016898999891   -0.002266011733957919
-0.046785452003887396   0.004779016898999891   -0.002266011733957919
-0.046785452003887396   0.004779016898999891   -0.002266011733957919
-0.027444048406356156   -0.0020626294368367897   -0.0022702657777324354
-0.027444048406356156   -0.0020626294368367897   -0.0022702657777324354
-0.027444048406356156   -0.0020626294368367897   -0.0022702657777324354
-0.027444048406356156   -0.0020626294368367897   -0.0022702657777324354
-0.04323553491405916   -0.010186044891932764   0.03044863550611594
-0.04323553491405916   -0.010186044891932764   0.03044863550611594
-0.04323553491405916   -0.010186044891932764   0.03044863550611594
-0.04323553491405916   -0.010186044891932764   0.03044863550611594
0.001277678174067876   0.01323283409747539   -0.008060055919535694
0.001277678174067876   0.01323283409747539   -0.008060055919535694
0.001277678174067876   0.01323283409747539   -0.008060055919535694
0.001277678174067876   0.01323283409747539   -0.008060055919535694
0.009661756762602069   -0.0041458349614669834   0.0223219432195389
0.009661756762602069   -0.0041458349614669834   0.0223219432195389
0.009661756762602069   -0.0041458349614669834   0.0223219432195389
0.009661756762602069   -0.0041458349614669834   0.0223219432195389
-0.04105941949285851   0.0036573515943569956   -0.0033409117531107333
-0.04105941949285851   0.0036573515943569956   -0.0033409117531107333
-0.04105941949285851   0.0036573515943569956   -0.0033409117531107333
-0.04105941949285851   0.0036573515943569956   -0.0033409117531107333
-0.017953018058574292   -0.00047484426754039813   0.002889303053191567
-0.017953018058574292   -0.00047484426754039813   0.002889303053191567
-0.017953018058574292   -0.00047484426754039813   0.002889303053191567
-0.017953018058574292   -0.00047484426754039813   0.002889303053191567
-0.03685817352024696   -0.011374729767569801   0.032697399471873834
-0.03685817352024696   -0.011374729767569801   0.032697399471873834
-0.03685817352024696   -0.011374729767569801   0.032697399471873834
-0.03685817352024696   -0.011374729767569801   0.032697399471873834
0.006933114154649727   0.012358849765119025   -0.007825954546808813
0.006933114154649727   0.012358849765119025   -0.007825954546808813
0.006933114154649727   0.012358849765119025   -0.007825954546808813
0.006933114154649727   0.012358849765119025   -0.007825954546808813
0.016273745391798496   -0.0064782980143371915   0.02167211419063257
0.016273745391798496   -0.0064782980143371915   0.02167211419063257
0.016273745391798496   -0.0064782980143371915   0.02167211419063257
0.016273745391798496   -0.0064782980143371915   0.02167211419063257
-0.03167134734045922   0.0037472817166515973   -0.0037873410077873056
-0.03167134734045922   0.0037472817166515973   -0.0037873410077873056
-0.03167134734045922   0.0037472817166515973   -0.0037873410077873056
-0.03167134734045922   0.0037472817166515973   -0.0037873410077873056
-0.009473729964482498   0.0005141906952894615   0.0074336537209625285
-0.009473729964482498   0.0005141906952894615   0.0074336537209625285
-0.009473729964482498   0.0005141906952894615   0.0074336537209625285
-0.009473729964482498   0.0005141906952894615   0.0074336537209625285
              </DataArray>   
             <DataArray type="Float64" NumberOfComponents="3" Name="Displacements" format="ascii">   
0.0   0.0   0.0
-0.005031594879983764   -0.003301399501342691   -0.0016855452601660982
0.0   0.0   0.0
0.0   0.0   0.0
-0.005031594879983764   -0.003301399501342691   -0.0016855452601660982
-0.00320178490921629   -0.0029668896825199207   -0.001238381773387358
0.0   0.0   0.0
-0.0031385309837743936   -0.003115758524123631   -0.0010374867009400122
0.0   0.0   0.0
0.0   0.0   0.0
-0.0031385309837743936   -0.003115758524123631   -0.0010374867009400122
0.0   0.0   0.0
0.0   0.0   0.0
-0.0031385309837743936   -0.003115758524123631   -0.0010374867009400122
-0.005265885044773115   -0.0035171552424017485   -0.0013532389359563288
-0.005031594879983764   -0.003301399501342691   -0.0016855452601660982
0.0   0.0   0.0
-0.0031385309837743936   -0.003115758524123631   -0.0010374867009400122
-0.005031594879983764   -0.003301399501342691   -0.0016855452601660982
0.0   0.0   0.0
0.0   0.0   0.0
-0.005265885044773115   -0.0035171552424017485   -0.0013532389359563288
0.0   0.0   0.0
0.0   0.0   0.0
-0.005265885044773115   -0.0035171552424017485   -0.0013532389359563288
-0.0031385309837743936   -0.003115758524123631   -0.0010374867009400122
0.0   0.0   0.0
-0.0031474546656272847   -0.0031920408509989525   -0.0008368727525823057
0.0   0.0   0.0
0.0   0.0   0.0
-0.0031474546656272847   -0.0031920408509989525   -0.0008368727525823057
0.0   0.0   0.0
0.0   0.0   0.0
-0.0031474546656272847   -0.0031920408509989525   -0.0008368727525823057
-0.005430458000988724   -0.003622068176973867   -0.0010348221314417307
-0.005265885044773115   -0.0035171552424017485   -0.0013532389359563288
0.0   0.0   0.0
-0.0031474546656272847   -0.0031920408509989525   -0.0008368727525823057
-0.005265885044773115   -0.0035171552424017485   -0.0013532389359563288
0.0   0.0   0.0
0.0   0.0   0.0
-0.005430458000988724   -0.003622068176973867   -0.0010348221314417307
0.0   0.0   0.0
0.0   0.0   0.0
-0.005430458000988724   -0.003622068176973867   -0.0010348221314417307
-0.0031474546656272847   -0.0031920408509989525   -0.0008368727525823057
0.0   0.0   0.0
-0.0031458819868537815   -0.003211630939044294   -0.0006294249736124598
0.0   0.0   0.0
0.0   0.0   0.0
-0.0031458819868537815   -0.003211630939044294   -0.0006294249736124598
0.0   0.0   0.0
0.0   0.0   0.0
-0.0031458819868537815   -0.003211630939044294   -0.0006294249736124598
-0.005784921569658145   -0.003701492843634057   -0.0006654031395462359
-0.005430458000988724   -0.003622068176973867   -0.0010348221314417307
0.0   0.0   0.0
-0.0031458819868537815   -0.003211630939044294   -0.0006294249736124598
-0.005430458000988724   -0.003622068176973867   -0.0010348221314417307
0.0   0.0   0.0
0.0   0.0   0.0
-0.00320178490921629   -0.0029668896825199207   -0.001238381773387358
0.0   0.0   0.0
0.0   0.0   0.0
-0.00320178490921629   -0.0029668896825199207   -0.001238381773387358
-0.0014580263563496185   -0.002844191652394219   -0.0009419076156022435
0.0   0.0   0.0
-0.001402379753637023   -0.0029410967020335283   -0.0008470757457748699
0.0   0.0   0.0
0.0   0.0   0.0
-0.001402379753637023   -0.0029410967020335283   -0.0008470757457748699
0.0   0.0   0.0
0.0   0.0   0.0
-0.001402379753637023   -0.0029410967020335283   -0.0008470757457748699
-0.0031385309837743936   -0.003115758524123631   -0.0010374867009400122
-0.00320178490921629   -0.0029668896825199207   -0.001238381773387358
0.0   0.0   0.0
-0.001402379753637023   -0.0029410967020335283   -0.0008470757457748699
-0.00320178490921629   -0.0029668896825199207   -0.001238381773387358
0.0   0.0   0.0
0.0   0.0   0.0
-0.0031385309837743936   -0.003115758524123631   -0.0010374867009400122
0.0   0.0   0.0
0.0   0.0   0.0
-0.0031385309837743936   -0.003115758524123631   -0.0010374867009400122
-0.001402379753637023   -0.0029410967020335283   -0.0008470757457748699
0.0   0.0   0.0
-0.0013711565317597527   -0.002978030387015779   -0.0007547122218562425
0.0   0.0   0.0
0.0   0.0   0.0
-0.0013711565317597527   -0.002978030387015779   -0.0007547122218562425
0.0   0.0   0.0
0.0   0.0   0.0
-0.0013711565317597527   -0.002978030387015779   -0.0007547122218562425
-0.0031474546656272847   -0.0031920408509989525   -0.0008368727525823057
-0.0031385309837743936   -0.003115758524123631   -0.0010374867009400122
0.0   0.0   0.0
-0.0013711565317597527   -0.002978030387015779   -0.0007547122218562425
-0.0031385309837743936   -0.003115758524123631   -0.0010374867009400122
0.0   0.0   0.0
0.0   0.0   0.0
-0.0031474546656272847   -0.0031920408509989525   -0.0008368727525823057
0.0   0.0   0.0
0.0   0.0   0.0
-0.0031474546656272847   -0.0031920408509989525   -0.0008368727525823057
-0.0013711565317597527   -0.002978030387015779   -0.0007547122218562425
0.0   0.0   0.0
-0.0013427373140694296   -0.0029626151006979053   -0.0006592166113537949
0.0   0.0   0.0
0.0   0.0   0.0
-0.0013427373140694296   -0.0029626151006979053   -0.0006592166113537949
0.0   0.0   0.0
0.0   0.0   0.0
-0.0013427373140694296   -0.0029626151006979053   -0.0006592166113537949
-0.0031458819868537815   -0.003211630939044294   -0.0006294249736124598
-0.0031474546656272847   -0.0031920408509989525   -0.0008368727525823057
0.0   0.0   0.0
-0.0013427373140694296   -0.0029626151006979053   -0.0006592166113537949
-0.0031474546656272847   -0.0031920408509989525   -0.0008368727525823057
0.0   0.0   0.0
0.0   0.0   0.0
-0.0014580263563496185   -0.002844191652394219   -0.0009419076156022435
0.0   0.0   0.0
0.0   0.0   0.0
-0.0014580263563496185   -0.002844191652394219   -0.0009419076156022435
0.00018955983568063302   -0.0028599013020140607   -0.0007529757524562675
0.0   0.0   0.0
0.00022504537694514594   -0.002910135940488635   -0.0007661184714055111
0.0   0.0   0.0
0.0   0.0   0.0
0.00022504537694514594   -0.002910135940488635   -0.0007661184714055111
0.0   0.0   0.0
0.0   0.0   0.0
0.00022504537694514594   -0.002910135940488635   -0.0007661184714055111
-0.001402379753637023   -0.0029410967020335283   -0.0008470757457748699
-0.0014580263563496185   -0.002844191652394219   -0.0009419076156022435
0.0   0.0   0.0
0.00022504537694514594   -0.002910135940488635   -0.0007661184714055111
-0.0014580263563496185   -0.002844191652394219   -0.0009419076156022435
0.0   0.0   0.0
0.0   0.0   0.0
-0.001402379753637023   -0.0029410967020335283   -0.0008470757457748699
0.0   0.0   0.0
0.0   0.0   0.0
-0.001402379753637023   -0.0029410967020335283   -0.0008470757457748699
0.00022504537694514594   -0.002910135940488635   -0.0007661184714055111
0.0   0.0   0.0
0.00025304323691130714   -0.002905978117229329   -0.000777983181656228
0.0   0.0   0.0
0.0   0.0   0.0
0.00025304323691130714   -0.002905978117229329   -0.000777983181656228
0.0   0.0   0.0
0.0   0.0   0.0
0.00025304323691130714   -0.002905978117229329   -0.000777983181656228
-0.0013711565317597527   -0.002978030387015779   -0.0007547122218562425
-0.001402379753637023   -0.0029410967020335283   -0.0008470757457748699
0.0   0.0   0.0
0.00025304323691130714   -0.002905978117229329   -0.000777983181656228
-0.001402379753637023   -0.0029410967020335283   -0.0008470757457748699
0.0   0.0   0.0
0.0   0.0   0.0
-0.0013711565317597527   -0.002978030387015779   -0.0007547122218562425
0.0   0.0   0.0
0.0   0.0   0.0
-0.0013711565317597527   -0.002978030387015779   -0.0007547122218562425
0.00025304323691130714   -0.002905978117229329   -0.000777983181656228
0.0   0.0   0.0
0.0002907385478225944   -0.0028429658065013013   -0.0007901689476113881
0.0   0.0   0.0
0.0   0.0   0.0
0.0002907385478225944   -0.0028429658065013013   -0.0007901689476113881
0.0   0.0   0.0
0.0   0.0   0.0
0.0002907385478225944   -0.0028429658065013013   -0.0007901689476113881
-0.0013427373140694296   -0.0029626151006979053   -0.0006592166113537949
-0.0013711565317597527   -0.002978030387015779   -0.0007547122218562425
0.0   0.0   0.0
0.0002907385478225944   -0.0028429658065013013   -0.0007901689476113881
-0.0013711565317597527   -0.002978030387015779   -0.0007547122218562425
0.0   0.0   0.0
0.0   0.0   0.0
0.00018955983568063302   -0.0028599013020140607   -0.0007529757524562675
0.0   0.0   0.0
0.0   0.0   0.0
0.00018955983568063302   -0.0028599013020140607   -0.0007529757524562675
0.0019779280629475845   -0.0029990955283496585   -0.0006595311099882537
0.0   0.0   0.0
0.0019813238891724753   -0.003015082223424345   -0.0007862866156155456
0.0   0.0   0.0
0.0   0.0   0.0
0.0019813238891724753   -0.003015082223424345   -0.0007862866156155456
0.0   0.0   0.0
0.0   0.0   0.0
0.0019813238891724753   -0.003015082223424345   -0.0007862866156155456
0.00022504537694514594   -0.002910135940488635   -0.0007661184714055111
0.00018955983568063302   -0.0028599013020140607   -0.0007529757524562675
0.0   0.0   0.0
0.0019813238891724753   -0.003015082223424345   -0.0007862866156155456
0.00018955983568063302   -0.0028599013020140607   -0.0007529757524562675
0.0   0.0   0.0
0.0   0.0   0.0
0.00022504537694514594   -0.002910135940488635   -0.0007661184714055111
0.0   0.0   0.0
0.0   0.0   0.0
0.00022504537694514594   -0.002910135940488635   -0.0007661184714055111
0.0019813238891724753   -0.003015082223424345   -0.0007862866156155456
0.0   0.0   0.0
0.001972733664457271   -0.002972027118926102   -0.0009078804690077928
0.0   0.0   0.0
0.0   0.0   0.0
0.001972733664457271   -0.002972027118926102   -0.0009078804690077928
0.0   0.0   0.0
0.0   0.0   0.0
0.001972733664457271   -0.002972027118926102   -0.0009078804690077928
0.00025304323691130714   -0.002905978117229329   -0.000777983181656228
0.00022504537694514594   -0.002910135940488635   -0.0007661184714055111
0.0   0.0   0.0
0.001972733664457271   -0.002972027118926102   -0.0009078804690077928
0.00022504537694514594   -0.002910135940488635   -0.0007661184714055111
0.0   0.0   0.0
0.0   0.0   0.0
0.00025304323691130714   -0.002905978117229329   -0.000777983181656228
0.0   0.0   0.0
0.0   0.0   0.0
0.00025304323691130714   -0.002905978117229329   -0.000777983181656228
0.001972733664457271   -0.002972027118926102   -0.0009078804690077928
0.0   0.0   0.0
0.002010839167107698   -0.0028567417263398445   -0.001027154852613191
0.0   0.0   0.0
0.0   0.0   0.0
0.002010839167107698   -0.0028567417263398445   -0.001027154852613191
0.0   0.0   0.0
0.0   0.0   0.0
0.002010839167107698   -0.0028567417263398445   -0.001027154852613191
0.0002907385478225944   -0.0028429658065013013   -0.0007901689476113881
0.00025304323691130714   -0.002905978117229329   -0.000777983181656228
0.0   0.0   0.0
0.002010839167107698   -0.0028567417263398445   -0.001027154852613191
0.00025304323691130714   -0.002905978117229329   -0.000777983181656228
0.0   0.0   0.0
0.0   0.0   0.0
0.0019779280629475845   -0.0029990955283496585   -0.0006595311099882537
0.0   0.0   0.0
0.0   0.0   0.0
0.0019779280629475845   -0.0029990955283496585   -0.0006595311099882537
0.004464813882856296   -0.0033519033027768277   -0.000622286403282857
0.0   0.0   0.0
0.004193023249847453   -0.003315303926920754   -0.0009096489030752962
0.0   0.0   0.0
0.0   0.0   0.0
0.004193023249847453   -0.003315303926920754   -0.0009096489030752962
0.0   0.0   0.0
0.0   0.0   0.0
0.004193023249847453   -0.003315303926920754   -0.0009096489030752962
0.0019813238891724753   -0.003015082223424345   -0.0007862866156155456
0.0019779280629475845   -0.0029990955283496585   -0.0006595311099882537
0.0   0.0   0.0
0.004193023249847453   -0.003315303926920754   -0.0009096489030752962
0.0019779280629475845   -0.0029990955283496585   -0.0006595311099882537
0.0   0.0   0.0
0.0   0.0   0.0
0.0019813238891724753   -0.003015082223424345   -0.0007862866156155456
0.0   0.0   0.0
0.0   0.0   0.0
0.0019813238891724753   -0.003015082223424345   -0.0007862866156155456
0.004193023249847453   -0.003315303926920754   -0.0009096489030752962
0.0   0.0   0.0
0.004067642519118469   -0.003246375798396437   -0.001152646769146226
0.0   0.0   0.0
0.0   0.0   0.0
0.004067642519118469   -0.003246375798396437   -0.001152646769146226
0.0   0.0   0.0
0.0   0.0   0.0
0.004067642519118469   -0.003246375798396437   -0.001152646769146226
0.001972733664457271   -0.002972027118926102   -0.0009078804690077928
0.0019813238891724753   -0.003015082223424345   -0.0007862866156155456
0.0   0.0   0.0
0.004067642519118469   -0.003246375798396437   -0.001152646769146226
0.0019813238891724753   -0.003015082223424345   -0.0007862866156155456
0.0   0.0   0.0
0.0   0.0   0.0
0.001972733664457271   -0.002972027118926102   -0.0009078804690077928
0.0   0.0   0.0
0.0   0.0   0.0
0.001972733664457271   -0.002972027118926102   -0.0009078804690077928
0.004067642519118469   -0.003246375798396437   -0.001152646769146226
0.0   0.0   0.0
0.0038810589190795756   -0.0030700173006324503   -0.0014097826859162906
0.0   0.0   0.0
0.0   0.0   0.0
0.0038810589190795756   -0.0030700173006324503   -0.0014097826859162906
0.0   0.0   0.0
0.0   0.0   0.0
0.0038810589190795756   -0.0030700173006324503   -0.0014097826859162906
0.002010839167107698   -0.0028567417263398445   -0.001027154852613191
0.001972733664457271   -0.002972027118926102   -0.0009078804690077928
0.0   0.0   0.0
0.0038810589190795756   -0.0030700173006324503   -0.0014097826859162906
0.001972733664457271   -0.002972027118926102   -0.0009078804690077928
0.0   0.0   0.0
-0.005031594879983764   -0.003301399501342691   -0.0016855452601660982
-0.009397844185435626   -0.00921534432365928   -0.00227087774501924
-0.00320178490921629   -0.0029668896825199207   -0.001238381773387358
-0.005265885044773115   -0.0035171552424017485   -0.0013532389359563288
-0.009397844185435626   -0.00921534432365928   -0.00227087774501924
-0.00599827570114223   -0.008914502653601192   -0.0018692095132483149
-0.00320178490921629   -0.0029668896825199207   -0.001238381773387358
-0.006005432062371332   -0.009066814925474537   -0.0016834050350644624
-0.005265885044773115   -0.0035171552424017485   -0.0013532389359563288
-0.0031385309837743936   -0.003115758524123631   -0.0010374867009400122
-0.006005432062371332   -0.009066814925474537   -0.0016834050350644624
-0.00320178490921629   -0.0029668896825199207   -0.001238381773387358
-0.005265885044773115   -0.0035171552424017485   -0.0013532389359563288
-0.006005432062371332   -0.009066814925474537   -0.0016834050350644624
-0.009679502905116136   -0.009427872635159311   -0.001969150678619296
-0.009397844185435626   -0.00921534432365928   -0.00227087774501924
-0.005265885044773115   -0.0035171552424017485   -0.0013532389359563288
-0.006005432062371332   -0.009066814925474537   -0.0016834050350644624
-0.009397844185435626   -0.00921534432365928   -0.00227087774501924
-0.00320178490921629   -0.0029668896825199207   -0.001238381773387358
-0.005265885044773115   -0.0035171552424017485   -0.0013532389359563288
-0.009679502905116136   -0.009427872635159311   -0.001969150678619296
-0.0031385309837743936   -0.003115758524123631   -0.0010374867009400122
-0.005430458000988724   -0.003622068176973867   -0.0010348221314417307
-0.009679502905116136   -0.009427872635159311   -0.001969150678619296
-0.006005432062371332   -0.009066814925474537   -0.0016834050350644624
-0.0031385309837743936   -0.003115758524123631   -0.0010374867009400122
-0.006029158929073838   -0.009159659737933637   -0.001504850141352489
-0.005430458000988724   -0.003622068176973867   -0.0010348221314417307
-0.0031474546656272847   -0.0031920408509989525   -0.0008368727525823057
-0.006029158929073838   -0.009159659737933637   -0.001504850141352489
-0.0031385309837743936   -0.003115758524123631   -0.0010374867009400122
-0.005430458000988724   -0.003622068176973867   -0.0010348221314417307
-0.006029158929073838   -0.009159659737933637   -0.001504850141352489
-0.009875226669496607   -0.00954789379855003   -0.0016737022645605792
-0.009679502905116136   -0.009427872635159311   -0.001969150678619296
-0.005430458000988724   -0.003622068176973867   -0.0010348221314417307
-0.006029158929073838   -0.009159659737933637   -0.001504850141352489
-0.009679502905116136   -0.009427872635159311   -0.001969150678619296
-0.0031385309837743936   -0.003115758524123631   -0.0010374867009400122
-0.005430458000988724   -0.003622068176973867   -0.0010348221314417307
-0.009875226669496607   -0.00954789379855003   -0.0016737022645605792
-0.0031474546656272847   -0.0031920408509989525   -0.0008368727525823057
-0.005784921569658145   -0.003701492843634057   -0.0006654031395462359
-0.009875226669496607   -0.00954789379855003   -0.0016737022645605792
-0.006029158929073838   -0.009159659737933637   -0.001504850141352489
-0.0031474546656272847   -0.0031920408509989525   -0.0008368727525823057
-0.006011274274038935   -0.009207830112751855   -0.0013377122826883352
-0.005784921569658145   -0.003701492843634057   -0.0006654031395462359
-0.0031458819868537815   -0.003211630939044294   -0.0006294249736124598
-0.006011274274038935   -0.009207830112751855   -0.0013377122826883352
-0.0031474546656272847   -0.0031920408509989525   -0.0008368727525823057
-0.005784921569658145   -0.003701492843634057   -0.0006654031395462359
-0.006011274274038935   -0.009207830112751855   -0.0013377122826883352
-0.01010656756626329   -0.009617662923807719   -0.0014048894110928474
-0.009875226669496607   -0.00954789379855003   -0.0016737022645605792
-0.005784921569658145   -0.003701492843634057   -0.0006654031395462359
-0.006011274274038935   -0.009207830112751855   -0.0013377122826883352
-0.009875226669496607   -0.00954789379855003   -0.0016737022645605792
-0.0031474546656272847   -0.0031920408509989525   -0.0008368727525823057
-0.00320178490921629   -0.0029668896825199207   -0.001238381773387358
-0.00599827570114223   -0.008914502653601192   -0.0018692095132483149
-0.0014580263563496185   -0.002844191652394219   -0.0009419076156022435
-0.0031385309837743936   -0.003115758524123631   -0.0010374867009400122
-0.00599827570114223   -0.008914502653601192   -0.0018692095132483149
-0.002783061843198695   -0.00877451710408397   -0.0015950128521937093
-0.0014580263563496185   -0.002844191652394219   -0.0009419076156022435
-0.0027591254829928734   -0.008871456330310041   -0.0014998043428050146
-0.0031385309837743936   -0.003115758524123631   -0.0010374867009400122
-0.001402379753637023   -0.0029410967020335283   -0.0008470757457748699
-0.0027591254829928734   -0.008871456330310041   -0.0014998043428050146
-0.0014580263563496185   -0.002844191652394219   -0.0009419076156022435
-0.0031385309837743936   -0.003115758524123631   -0.0010374867009400122
-0.0027591254829928734   -0.008871456330310041   -0.0014998043428050146
-0.006005432062371332   -0.009066814925474537   -0.0016834050350644624
-0.00599827570114223   -0.008914502653601192   -0.0018692095132483149
-0.0031385309837743936   -0.003115758524123631   -0.0010374867009400122
-0.0027591254829928734   -0.008871456330310041   -0.0014998043428050146
-0.00599827570114223   -0.008914502653601192   -0.0018692095132483149
-0.0014580263563496185   -0.002844191652394219   -0.0009419076156022435
-0.0031385309837743936   -0.003115758524123631   -0.0010374867009400122
-0.006005432062371332   -0.009066814925474537   -0.0016834050350644624
-0.001402379753637023   -0.0029410967020335283   -0.0008470757457748699
-0.0031474546656272847   -0.0031920408509989525   -0.0008368727525823057
-0.006005432062371332   -0.009066814925474537   -0.0016834050350644624
-0.0027591254829928734   -0.008871456330310041   -0.0014998043428050146
-0.001402379753637023   -0.0029410967020335283   -0.0008470757457748699
-0.0027379223441861282   -0.008918469897297202   -0.0014134931658103262
-0.0031474546656272847   -0.0031920408509989525   -0.0008368727525823057
-0.0013711565317597527   -0.002978030387015779   -0.0007547122218562425
-0.0027379223441861282   -0.008918469897297202   -0.0014134931658103262
-0.001402379753637023   -0.0029410967020335283   -0.0008470757457748699
-0.0031474546656272847   -0.0031920408509989525   -0.0008368727525823057
-0.0027379223441861282   -0.008918469897297202   -0.0014134931658103262
-0.006029158929073838   -0.009159659737933637   -0.001504850141352489
-0.006005432062371332   -0.009066814925474537   -0.0016834050350644624
-0.0031474546656272847   -0.0031920408509989525   -0.0008368727525823057
-0.0027379223441861282   -0.008918469897297202   -0.0014134931658103262
-0.006005432062371332   -0.009066814925474537   -0.0016834050350644624
-0.001402379753637023   -0.0029410967020335283   -0.0008470757457748699
-0.0031474546656272847   -0.0031920408509989525   -0.0008368727525823057
-0.006029158929073838   -0.009159659737933637   -0.001504850141352489
-0.0013711565317597527   -0.002978030387015779   -0.0007547122218562425
-0.0031458819868537815   -0.003211630939044294   -0.0006294249736124598
-0.006029158929073838   -0.009159659737933637   -0.001504850141352489
-0.0027379223441861282   -0.008918469897297202   -0.0014134931658103262
-0.0013711565317597527   -0.002978030387015779   -0.0007547122218562425
-0.002706246376527262   -0.008917330141028067   -0.0013383458052303632
-0.0031458819868537815   -0.003211630939044294   -0.0006294249736124598
-0.0013427373140694296   -0.0029626151006979053   -0.0006592166113537949
-0.002706246376527262   -0.008917330141028067   -0.0013383458052303632
-0.0013711565317597527   -0.002978030387015779   -0.0007547122218562425
-0.0031458819868537815   -0.003211630939044294   -0.0006294249736124598
-0.002706246376527262   -0.008917330141028067   -0.0013383458052303632
-0.006011274274038935   -0.009207830112751855   -0.0013377122826883352
-0.006029158929073838   -0.009159659737933637   -0.001504850141352489
-0.0031458819868537815   -0.003211630939044294   -0.0006294249736124598
-0.002706246376527262   -0.008917330141028067   -0.0013383458052303632
-0.006029158929073838   -0.009159659737933637   -0.001504850141352489
-0.0013711565317597527   -0.002978030387015779   -0.0007547122218562425
-0.0014580263563496185   -0.002844191652394219   -0.0009419076156022435
-0.002783061843198695   -0.00877451710408397   -0.0015950128521937093
0.00018955983568063302   -0.0028599013020140607   -0.0007529757524562675
-0.001402379753637023   -0.0029410967020335283   -0.0008470757457748699
-0.002783061843198695   -0.00877451710408397   -0.0015950128521937093
0.00031742729351677686   -0.00877868056616323   -0.001421659453376007
0.00018955983568063302   -0.0028599013020140607   -0.0007529757524562675
0.0003468613187266953   -0.008824602748911234   -0.0014153689505724024
-0.001402379753637023   -0.0029410967020335283   -0.0008470757457748699
0.00022504537694514594   -0.002910135940488635   -0.0007661184714055111
0.0003468613187266953   -0.008824602748911234   -0.0014153689505724024
0.00018955983568063302   -0.0028599013020140607   -0.0007529757524562675
-0.001402379753637023   -0.0029410967020335283   -0.0008470757457748699
0.0003468613187266953   -0.008824602748911234   -0.0014153689505724024
-0.0027591254829928734   -0.008871456330310041   -0.0014998043428050146
-0.002783061843198695   -0.00877451710408397   -0.0015950128521937093
-0.001402379753637023   -0.0029410967020335283   -0.0008470757457748699
0.0003468613187266953   -0.008824602748911234   -0.0014153689505724024
-0.002783061843198695   -0.00877451710408397   -0.0015950128521937093
0.00018955983568063302   -0.0028599013020140607   -0.0007529757524562675
-0.001402379753637023   -0.0029410967020335283   -0.0008470757457748699
-0.0027591254829928734   -0.008871456330310041   -0.0014998043428050146
0.00022504537694514594   -0.002910135940488635   -0.0007661184714055111
-0.0013711565317597527   -0.002978030387015779   -0.0007547122218562425
-0.0027591254829928734   -0.008871456330310041   -0.0014998043428050146
0.0003468613187266953   -0.008824602748911234   -0.0014153689505724024
0.00022504537694514594   -0.002910135940488635   -0.0007661184714055111
0.0003666425892310034   -0.008821769871408456   -0.0014191770593346637
-0.0013711565317597527   -0.002978030387015779   -0.0007547122218562425
0.00025304323691130714   -0.002905978117229329   -0.000777983181656228
0.0003666425892310034   -0.008821769871408456   -0.0014191770593346637
0.00022504537694514594   -0.002910135940488635   -0.0007661184714055111
-0.0013711565317597527   -0.002978030387015779   -0.0007547122218562425
0.0003666425892310034   -0.008821769871408456   -0.0014191770593346637
-0.0027379223441861282   -0.008918469897297202   -0.0014134931658103262
-0.0027591254829928734   -0.008871456330310041   -0.0014998043428050146
-0.0013711565317597527   -0.002978030387015779   -0.0007547122218562425
0.0003666425892310034   -0.008821769871408456   -0.0014191770593346637
-0.0027591254829928734   -0.008871456330310041   -0.0014998043428050146
0.00022504537694514594   -0.002910135940488635   -0.0007661184714055111
-0.0013711565317597527   -0.002978030387015779   -0.0007547122218562425
-0.0027379223441861282   -0.008918469897297202   -0.0014134931658103262
0.00025304323691130714   -0.002905978117229329   -0.000777983181656228
-0.0013427373140694296   -0.0029626151006979053   -0.0006592166113537949
-0.0027379223441861282   -0.008918469897297202   -0.0014134931658103262
0.0003666425892310034   -0.008821769871408456   -0.0014191770593346637
0.00025304323691130714   -0.002905978117229329   -0.000777983181656228
0.00038787046494261486   -0.008768693796605453   -0.0014332435541835659
-0.0013427373140694296   -0.0029626151006979053   -0.0006592166113537949
0.0002907385478225944   -0.0028429658065013013   -0.0007901689476113881
0.00038787046494261486   -0.008768693796605453   -0.0014332435541835659
0.00025304323691130714   -0.002905978117229329   -0.000777983181656228
-0.0013427373140694296   -0.0029626151006979053   -0.0006592166113537949
0.00038787046494261486   -0.008768693796605453   -0.0014332435541835659
-0.002706246376527262   -0.008917330141028067   -0.0013383458052303632
-0.0027379223441861282   -0.008918469897297202   -0.0014134931658103262
-0.0013427373140694296   -0.0029626151006979053   -0.0006592166113537949
0.00038787046494261486   -0.008768693796605453   -0.0014332435541835659
-0.0027379223441861282   -0.008918469897297202   -0.0014134931658103262
0.00025304323691130714   -0.002905978117229329   -0.000777983181656228
0.00018955983568063302   -0.0028599013020140607   -0.0007529757524562675
0.00031742729351677686   -0.00877868056616323   -0.001421659453376007
0.0019779280629475845   -0.0029990955283496585   -0.0006595311099882537
0.00022504537694514594   -0.002910135940488635   -0.0007661184714055111
0.00031742729351677686   -0.00877868056616323   -0.001421659453376007
0.0036030367673912924   -0.00892178842286692   -0.0013408001975312542
0.0019779280629475845   -0.0029990955283496585   -0.0006595311099882537
0.003619664587800148   -0.008921359981060493   -0.0014263116773906984
0.00022504537694514594   -0.002910135940488635   -0.0007661184714055111
0.0019813238891724753   -0.003015082223424345   -0.0007862866156155456
0.003619664587800148   -0.008921359981060493   -0.0014263116773906984
0.0019779280629475845   -0.0029990955283496585   -0.0006595311099882537
0.00022504537694514594   -0.002910135940488635   -0.0007661184714055111
0.003619664587800148   -0.008921359981060493   -0.0014263116773906984
0.0003468613187266953   -0.008824602748911234   -0.0014153689505724024
0.00031742729351677686   -0.00877868056616323   -0.001421659453376007
0.00022504537694514594   -0.002910135940488635   -0.0007661184714055111
0.003619664587800148   -0.008921359981060493   -0.0014263116773906984
0.00031742729351677686   -0.00877868056616323   -0.001421659453376007
0.0019779280629475845   -0.0029990955283496585   -0.0006595311099882537
0.00022504537694514594   -0.002910135940488635   -0.0007661184714055111
0.0003468613187266953   -0.008824602748911234   -0.0014153689505724024
0.0019813238891724753   -0.003015082223424345   -0.0007862866156155456
0.00025304323691130714   -0.002905978117229329   -0.000777983181656228
0.0003468613187266953   -0.008824602748911234   -0.0014153689505724024
0.003619664587800148   -0.008921359981060493   -0.0014263116773906984
0.0019813238891724753   -0.003015082223424345   -0.0007862866156155456
0.003602882038850811   -0.00887312224870818   -0.0015232486806309208
0.00025304323691130714   -0.002905978117229329   -0.000777983181656228
0.001972733664457271   -0.002972027118926102   -0.0009078804690077928
0.003602882038850811   -0.00887312224870818   -0.0015232486806309208
0.0019813238891724753   -0.003015082223424345   -0.0007862866156155456
0.00025304323691130714   -0.002905978117229329   -0.000777983181656228
0.003602882038850811   -0.00887312224870818   -0.0015232486806309208
0.0003666425892310034   -0.008821769871408456   -0.0014191770593346637
0.0003468613187266953   -0.008824602748911234   -0.0014153689505724024
0.00025304323691130714   -0.002905978117229329   -0.000777983181656228
0.003602882038850811   -0.00887312224870818   -0.0015232486806309208
0.0003468613187266953   -0.008824602748911234   -0.0014153689505724024
0.0019813238891724753   -0.003015082223424345   -0.0007862866156155456
0.00025304323691130714   -0.002905978117229329   -0.000777983181656228
0.0003666425892310034   -0.008821769871408456   -0.0014191770593346637
0.001972733664457271   -0.002972027118926102   -0.0009078804690077928
0.0002907385478225944   -0.0028429658065013013   -0.0007901689476113881
0.0003666425892310034   -0.008821769871408456   -0.0014191770593346637
0.003602882038850811   -0.00887312224870818   -0.0015232486806309208
0.001972733664457271   -0.002972027118926102   -0.0009078804690077928
0.0035932442351334117   -0.008763883300950492   -0.001628024888613867
0.0002907385478225944   -0.0028429658065013013   -0.0007901689476113881
0.002010839167107698   -0.0028567417263398445   -0.001027154852613191
0.0035932442351334117   -0.008763883300950492   -0.001628024888613867
0.001972733664457271   -0.002972027118926102   -0.0009078804690077928
0.0002907385478225944   -0.0028429658065013013   -0.0007901689476113881
0.0035932442351334117   -0.008763883300950492   -0.001628024888613867
0.00038787046494261486   -0.008768693796605453   -0.0014332435541835659
0.0003666425892310034   -0.008821769871408456   -0.0014191770593346637
0.0002907385478225944   -0.0028429658065013013   -0.0007901689476113881
0.0035932442351334117   -0.008763883300950492   -0.001628024888613867
0.0003666425892310034   -0.008821769871408456   -0.0014191770593346637
0.001972733664457271   -0.002972027118926102   -0.0009078804690077928
0.0019779280629475845   -0.0029990955283496585   -0.0006595311099882537
0.0036030367673912924   -0.00892178842286692   -0.0013408001975312542
0.004464813882856296   -0.0033519033027768277   -0.000622286403282857
0.0019813238891724753   -0.003015082223424345   -0.0007862866156155456
0.0036030367673912924   -0.00892178842286692   -0.0013408001975312542
0.007567758450928489   -0.009187800163492292   -0.0013190806241742466
0.004464813882856296   -0.0033519033027768277   -0.000622286403282857
0.007413727442442007   -0.009162708356908564   -0.0015114530178585474
0.0019813238891724753   -0.003015082223424345   -0.0007862866156155456
0.004193023249847453   -0.003315303926920754   -0.0009096489030752962
0.007413727442442007   -0.009162708356908564   -0.0015114530178585474
0.004464813882856296   -0.0033519033027768277   -0.000622286403282857
0.0019813238891724753   -0.003015082223424345   -0.0007862866156155456
0.007413727442442007   -0.009162708356908564   -0.0015114530178585474
0.003619664587800148   -0.008921359981060493   -0.0014263116773906984
0.0036030367673912924   -0.00892178842286692   -0.0013408001975312542
0.0019813238891724753   -0.003015082223424345   -0.0007862866156155456
0.007413727442442007   -0.009162708356908564   -0.0015114530178585474
0.0036030367673912924   -0.00892178842286692   -0.0013408001975312542
0.004464813882856296   -0.0033519033027768277   -0.000622286403282857
0.0019813238891724753   -0.003015082223424345   -0.0007862866156155456
0.003619664587800148   -0.008921359981060493   -0.0014263116773906984
0.004193023249847453   -0.003315303926920754   -0.0009096489030752962
0.001972733664457271   -0.002972027118926102   -0.0009078804690077928
0.003619664587800148   -0.008921359981060493   -0.0014263116773906984
0.007413727442442007   -0.009162708356908564   -0.0015114530178585474
0.004193023249847453   -0.003315303926920754   -0.0009096489030752962
0.0072760783964919366   -0.009088340663333715   -0.0017278660057776076
0.001972733664457271   -0.002972027118926102   -0.0009078804690077928
0.004067642519118469   -0.003246375798396437   -0.001152646769146226
0.0072760783964919366   -0.009088340663333715   -0.0017278660057776076
0.004193023249847453   -0.003315303926920754   -0.0009096489030752962
0.001972733664457271   -0.002972027118926102   -0.0009078804690077928
0.0072760783964919366   -0.009088340663333715   -0.0017278660057776076
0.003602882038850811   -0.00887312224870818   -0.0015232486806309208
0.003619664587800148   -0.008921359981060493   -0.0014263116773906984
0.001972733664457271   -0.002972027118926102   -0.0009078804690077928
0.0072760783964919366   -0.009088340663333715   -0.0017278660057776076
0.003619664587800148   -0.008921359981060493   -0.0014263116773906984
0.004193023249847453   -0.003315303926920754   -0.0009096489030752962
0.001972733664457271   -0.002972027118926102   -0.0009078804690077928
0.003602882038850811   -0.00887312224870818   -0.0015232486806309208
0.004067642519118469   -0.003246375798396437   -0.001152646769146226
0.002010839167107698   -0.0028567417263398445   -0.001027154852613191
0.003602882038850811   -0.00887312224870818   -0.0015232486806309208
0.0072760783964919366   -0.009088340663333715   -0.0017278660057776076
0.004067642519118469   -0.003246375798396437   -0.001152646769146226
0.007069844997962927   -0.008922868951618536   -0.001953142844194255
0.002010839167107698   -0.0028567417263398445   -0.001027154852613191
0.0038810589190795756   -0.0030700173006324503   -0.0014097826859162906
0.007069844997962927   -0.008922868951618536   -0.001953142844194255
0.004067642519118469   -0.003246375798396437   -0.001152646769146226
0.002010839167107698   -0.0028567417263398445   -0.001027154852613191
0.007069844997962927   -0.008922868951618536   -0.001953142844194255
0.0035932442351334117   -0.008763883300950492   -0.001628024888613867
0.003602882038850811   -0.00887312224870818   -0.0015232486806309208
0.002010839167107698   -0.0028567417263398445   -0.001027154852613191
0.007069844997962927   -0.008922868951618536   -0.001953142844194255
0.003602882038850811   -0.00887312224870818   -0.0015232486806309208
0.004067642519118469   -0.003246375798396437   -0.001152646769146226
-0.009397844185435626   -0.00921534432365928   -0.00227087774501924
-0.012876471936435437   -0.01728198110122374   -0.0025865503995639257
-0.00599827570114223   -0.008914502653601192   -0.0018692095132483149
-0.009679502905116136   -0.009427872635159311   -0.001969150678619296
-0.012876471936435437   -0.01728198110122374   -0.0025865503995639257
-0.008278709761945606   -0.017052081291561348   -0.002260788521230916
-0.00599827570114223   -0.008914502653601192   -0.0018692095132483149
-0.008296930268325415   -0.01718354179041568   -0.0021166363121290508
-0.009679502905116136   -0.009427872635159311   -0.001969150678619296
-0.006005432062371332   -0.009066814925474537   -0.0016834050350644624
-0.008296930268325415   -0.01718354179041568   -0.0021166363121290508
-0.00599827570114223   -0.008914502653601192   -0.0018692095132483149
-0.009679502905116136   -0.009427872635159311   -0.001969150678619296
-0.008296930268325415   -0.01718354179041568   -0.0021166363121290508
-0.013105536337443595   -0.01746164036945564   -0.0023615383498390373
-0.012876471936435437   -0.01728198110122374   -0.0025865503995639257
-0.009679502905116136   -0.009427872635159311   -0.001969150678619296
-0.008296930268325415   -0.01718354179041568   -0.0021166363121290508
-0.012876471936435437   -0.01728198110122374   -0.0025865503995639257
-0.00599827570114223   -0.008914502653601192   -0.0018692095132483149
-0.009679502905116136   -0.009427872635159311   -0.001969150678619296
-0.013105536337443595   -0.01746164036945564   -0.0023615383498390373
-0.006005432062371332   -0.009066814925474537   -0.0016834050350644624
-0.009875226669496607   -0.00954789379855003   -0.0016737022645605792
-0.013105536337443595   -0.01746164036945564   -0.0023615383498390373
-0.008296930268325415   -0.01718354179041568   -0.0021166363121290508
-0.006005432062371332   -0.009066814925474537   -0.0016834050350644624
-0.00831837794939713   -0.017275027150384557   -0.001982914225413796
-0.009875226669496607   -0.00954789379855003   -0.0016737022645605792
-0.006029158929073838   -0.009159659737933637   -0.001504850141352489
-0.00831837794939713   -0.017275027150384557   -0.001982914225413796
-0.006005432062371332   -0.009066814925474537   -0.0016834050350644624
-0.009875226669496607   -0.00954789379855003   -0.0016737022645605792
-0.00831837794939713   -0.017275027150384557   -0.001982914225413796
-0.013249972925650983   -0.017574299886158246   -0.0021518155908669947
-0.013105536337443595   -0.01746164036945564   -0.0023615383498390373
-0.009875226669496607   -0.00954789379855003   -0.0016737022645605792
-0.00831837794939713   -0.017275027150384557   -0.001982914225413796
-0.013105536337443595   -0.01746164036945564   -0.0023615383498390373
-0.006005432062371332   -0.009066814925474537   -0.0016834050350644624
-0.009875226669496607   -0.00954789379855003   -0.0016737022645605792
-0.013249972925650983   -0.017574299886158246   -0.0021518155908669947
-0.006029158929073838   -0.009159659737933637   -0.001504850141352489
-0.01010656756626329   -0.009617662923807719   -0.0014048894110928474
-0.013249972925650983   -0.017574299886158246   -0.0021518155908669947
-0.00831837794939713   -0.017275027150384557   -0.001982914225413796
-0.006029158929073838   -0.009159659737933637   -0.001504850141352489
-0.008302857551578462   -0.01733521672734282   -0.0018574003157500686
-0.01010656756626329   -0.009617662923807719   -0.0014048894110928474
-0.006011274274038935   -0.009207830112751855   -0.0013377122826883352
-0.008302857551578462   -0.01733521672734282   -0.0018574003157500686
-0.006029158929073838   -0.009159659737933637   -0.001504850141352489
-0.01010656756626329   -0.009617662923807719   -0.0014048894110928474
-0.008302857551578462   -0.01733521672734282   -0.0018574003157500686
-0.013414312541811685   -0.01765532355290637   -0.0019588118867148317
-0.013249972925650983   -0.017574299886158246   -0.0021518155908669947
-0.01010656756626329   -0.009617662923807719   -0.0014048894110928474
-0.008302857551578462   -0.01733521672734282   -0.0018574003157500686
-0.013249972925650983   -0.017574299886158246   -0.0021518155908669947
-0.006029158929073838   -0.009159659737933637   -0.001504850141352489
-0.00599827570114223   -0.008914502653601192   -0.0018692095132483149
-0.008278709761945606   -0.017052081291561348   -0.002260788521230916
-0.002783061843198695   -0.00877451710408397   -0.0015950128521937093
-0.006005432062371332   -0.009066814925474537   -0.0016834050350644624
-0.008278709761945606   -0.017052081291561348   -0.002260788521230916
-0.003943585914567264   -0.016937456072567324   -0.002034463218018279
-0.002783061843198695   -0.00877451710408397   -0.0015950128521937093
-0.00393378060973994   -0.01702151557200268   -0.001952998830827433
-0.006005432062371332   -0.009066814925474537   -0.0016834050350644624
-0.0027591254829928734   -0.008871456330310041   -0.0014998043428050146
-0.00393378060973994   -0.01702151557200268   -0.001952998830827433
-0.002783061843198695   -0.00877451710408397   -0.0015950128521937093
-0.006005432062371332   -0.009066814925474537   -0.0016834050350644624
-0.00393378060973994   -0.01702151557200268   -0.001952998830827433
-0.008296930268325415   -0.01718354179041568   -0.0021166363121290508
-0.008278709761945606   -0.017052081291561348   -0.002260788521230916
-0.006005432062371332   -0.009066814925474537   -0.0016834050350644624
-0.00393378060973994   -0.01702151557200268   -0.001952998830827433
-0.008278709761945606   -0.017052081291561348   -0.002260788521230916
-0.002783061843198695   -0.00877451710408397   -0.0015950128521937093
-0.006005432062371332   -0.009066814925474537   -0.0016834050350644624
-0.008296930268325415   -0.01718354179041568   -0.0021166363121290508
-0.0027591254829928734   -0.008871456330310041   -0.0014998043428050146
-0.006029158929073838   -0.009159659737933637   -0.001504850141352489
-0.008296930268325415   -0.01718354179041568   -0.0021166363121290508
-0.00393378060973994   -0.01702151557200268   -0.001952998830827433
-0.0027591254829928734   -0.008871456330310041   -0.0014998043428050146
-0.003921753466252576   -0.017070891991923118   -0.0018814666260479034
-0.006029158929073838   -0.009159659737933637   -0.001504850141352489
-0.0027379223441861282   -0.008918469897297202   -0.0014134931658103262
-0.003921753466252576   -0.017070891991923118   -0.0018814666260479034
-0.0027591254829928734   -0.008871456330310041   -0.0014998043428050146
-0.006029158929073838   -0.009159659737933637   -0.001504850141352489
-0.003921753466252576   -0.017070891991923118   -0.0018814666260479034
-0.00831837794939713   -0.017275027150384557   -0.001982914225413796
-0.008296930268325415   -0.01718354179041568   -0.0021166363121290508
-0.006029158929073838   -0.009159659737933637   -0.001504850141352489
-0.003921753466252576   -0.017070891991923118   -0.0018814666260479034
-0.008296930268325415   -0.01718354179041568   -0.0021166363121290508
-0.0027591254829928734   -0.008871456330310041   -0.0014998043428050146
-0.006029158929073838   -0.009159659737933637   -0.001504850141352489
-0.00831837794939713   -0.017275027150384557   -0.001982914225413796
-0.0027379223441861282   -0.008918469897297202   -0.0014134931658103262
-0.006011274274038935   -0.009207830112751855   -0.0013377122826883352
-0.00831837794939713   -0.017275027150384557   -0.001982914225413796
-0.003921753466252576   -0.017070891991923118   -0.0018814666260479034
-0.0027379223441861282   -0.008918469897297202   -0.0014134931658103262
-0.0039019379116626268   -0.017086291226423224   -0.001819836879368076
-0.006011274274038935   -0.009207830112751855   -0.0013377122826883352
-0.002706246376527262   -0.008917330141028067   -0.0013383458052303632
-0.0039019379116626268   -0.017086291226423224   -0.001819836879368076
-0.0027379223441861282   -0.008918469897297202   -0.0014134931658103262
-0.006011274274038935   -0.009207830112751855   -0.0013377122826883352
-0.0039019379116626268   -0.017086291226423224   -0.001819836879368076
-0.008302857551578462   -0.01733521672734282   -0.0018574003157500686
-0.00831837794939713   -0.017275027150384557   -0.001982914225413796
-0.006011274274038935   -0.009207830112751855   -0.0013377122826883352
-0.0039019379116626268   -0.017086291226423224   -0.001819836879368076
-0.00831837794939713   -0.017275027150384557   -0.001982914225413796
-0.0027379223441861282   -0.008918469897297202   -0.0014134931658103262
-0.002783061843198695   -0.00877451710408397   -0.0015950128521937093
-0.003943585914567264   -0.016937456072567324   -0.002034463218018279
0.00031742729351677686   -0.00877868056616323   -0.001421659453376007
-0.0027591254829928734   -0.008871456330310041   -0.0014998043428050146
-0.003943585914567264   -0.016937456072567324   -0.002034463218018279
0.0002642468337313348   -0.016931355355718804   -0.0018941439281092742
0.00031742729351677686   -0.00877868056616323   -0.001421659453376007
0.0002823380653795778   -0.01696875805984542   -0.0018750311700734491
-0.0027591254829928734   -0.008871456330310041   -0.0014998043428050146
0.0003468613187266953   -0.008824602748911234   -0.0014153689505724024
0.0002823380653795778   -0.01696875805984542   -0.0018750311700734491
0.00031742729351677686   -0.00877868056616323   -0.001421659453376007
-0.0027591254829928734   -0.008871456330310041   -0.0014998043428050146
0.0002823380653795778   -0.01696875805984542   -0.0018750311700734491
-0.00393378060973994   -0.01702151557200268   -0.001952998830827433
-0.003943585914567264   -0.016937456072567324   -0.002034463218018279
-0.0027591254829928734   -0.008871456330310041   -0.0014998043428050146
0.0002823380653795778   -0.01696875805984542   -0.0018750311700734491
-0.003943585914567264   -0.016937456072567324   -0.002034463218018279
0.00031742729351677686   -0.00877868056616323   -0.001421659453376007
-0.0027591254829928734   -0.008871456330310041   -0.0014998043428050146
-0.00393378060973994   -0.01702151557200268   -0.001952998830827433
0.0003468613187266953   -0.008824602748911234   -0.0014153689505724024
-0.0027379223441861282   -0.008918469897297202   -0.0014134931658103262
-0.00393378060973994   -0.01702151557200268   -0.001952998830827433
0.0002823380653795778   -0.01696875805984542   -0.0018750311700734491
0.0003468613187266953   -0.008824602748911234   -0.0014153689505724024
0.000293910803523394   -0.016971616997214112   -0.0018655909714389535
-0.0027379223441861282   -0.008918469897297202   -0.0014134931658103262
0.0003666425892310034   -0.008821769871408456   -0.0014191770593346637
0.000293910803523394   -0.016971616997214112   -0.0018655909714389535
0.0003468613187266953   -0.008824602748911234   -0.0014153689505724024
-0.0027379223441861282   -0.008918469897297202   -0.0014134931658103262
0.000293910803523394   -0.016971616997214112   -0.0018655909714389535
-0.003921753466252576   -0.017070891991923118   -0.0018814666260479034
-0.00393378060973994   -0.01702151557200268   -0.001952998830827433
-0.0027379223441861282   -0.008918469897297202   -0.0014134931658103262
0.000293910803523394   -0.016971616997214112   -0.0018655909714389535
-0.00393378060973994   -0.01702151557200268   -0.001952998830827433
0.0003468613187266953   -0.008824602748911234   -0.0014153689505724024
-0.0027379223441861282   -0.008918469897297202   -0.0014134931658103262
-0.003921753466252576   -0.017070891991923118   -0.0018814666260479034
0.0003666425892310034   -0.008821769871408456   -0.0014191770593346637
-0.002706246376527262   -0.008917330141028067   -0.0013383458052303632
-0.003921753466252576   -0.017070891991923118   -0.0018814666260479034
0.000293910803523394   -0.016971616997214112   -0.0018655909714389535
0.0003666425892310034   -0.008821769871408456   -0.0014191770593346637
0.00030226173084491487   -0.01693941708455116   -0.001866411346915725
-0.002706246376527262   -0.008917330141028067   -0.0013383458052303632
0.00038787046494261486   -0.008768693796605453   -0.0014332435541835659
0.00030226173084491487   -0.01693941708455116   -0.001866411346915725
0.0003666425892310034   -0.008821769871408456   -0.0014191770593346637
-0.002706246376527262   -0.008917330141028067   -0.0013383458052303632
0.00030226173084491487   -0.01693941708455116   -0.001866411346915725
-0.0039019379116626268   -0.017086291226423224   -0.001819836879368076
-0.003921753466252576   -0.017070891991923118   -0.0018814666260479034
-0.002706246376527262   -0.008917330141028067   -0.0013383458052303632
0.00030226173084491487   -0.01693941708455116   -0.001866411346915725
-0.003921753466252576   -0.017070891991923118   -0.0018814666260479034
0.0003666425892310034   -0.008821769871408456   -0.0014191770593346637
0.00031742729351677686   -0.00877868056616323   -0.001421659453376007
0.0002642468337313348   -0.016931355355718804   -0.0018941439281092742
0.0036030367673912924   -0.00892178842286692   -0.0013408001975312542
0.0003468613187266953   -0.008824602748911234   -0.0014153689505724024
0.0002642468337313348   -0.016931355355718804   -0.0018941439281092742
0.004651655296866098   -0.01702732872176482   -0.001837431759211207
0.0036030367673912924   -0.00892178842286692   -0.0013408001975312542
0.004667443065868912   -0.017021967878664675   -0.001881965909461004
0.0003468613187266953   -0.008824602748911234   -0.0014153689505724024
0.003619664587800148   -0.008921359981060493   -0.0014263116773906984
0.004667443065868912   -0.017021967878664675   -0.001881965909461004
0.0036030367673912924   -0.00892178842286692   -0.0013408001975312542
0.0003468613187266953   -0.008824602748911234   -0.0014153689505724024
0.004667443065868912   -0.017021967878664675   -0.001881965909461004
0.0002823380653795778   -0.01696875805984542   -0.0018750311700734491
0.0002642468337313348   -0.016931355355718804   -0.0018941439281092742
0.0003468613187266953   -0.008824602748911234   -0.0014153689505724024
0.004667443065868912   -0.017021967878664675   -0.001881965909461004
0.0002642468337313348   -0.016931355355718804   -0.0018941439281092742
0.0036030367673912924   -0.00892178842286692   -0.0013408001975312542
0.0003468613187266953   -0.008824602748911234   -0.0014153689505724024
0.0002823380653795778   -0.01696875805984542   -0.0018750311700734491
0.003619664587800148   -0.008921359981060493   -0.0014263116773906984
0.0003666425892310034   -0.008821769871408456   -0.0014191770593346637
0.0002823380653795778   -0.01696875805984542   -0.0018750311700734491
0.004667443065868912   -0.017021967878664675   -0.001881965909461004
0.003619664587800148   -0.008921359981060493   -0.0014263116773906984
0.004655565448587283   -0.016982803370623977   -0.0019354618838542906
0.0003666425892310034   -0.008821769871408456   -0.0014191770593346637
0.003602882038850811   -0.00887312224870818   -0.0015232486806309208
0.004655565448587283   -0.016982803370623977   -0.0019354618838542906
0.003619664587800148   -0.008921359981060493   -0.0014263116773906984
0.0003666425892310034   -0.008821769871408456   -0.0014191770593346637
0.004655565448587283   -0.016982803370623977   -0.0019354618838542906
0.000293910803523394   -0.016971616997214112   -0.0018655909714389535
0.0002823380653795778   -0.01696875805984542   -0.0018750311700734491
0.0003666425892310034   -0.008821769871408456   -0.0014191770593346637
0.004655565448587283   -0.016982803370623977   -0.0019354618838542906
0.0002823380653795778   -0.01696875805984542   -0.0018750311700734491
0.003619664587800148   -0.008921359981060493   -0.0014263116773906984
0.0003666425892310034   -0.008821769871408456   -0.0014191770593346637
0.000293910803523394   -0.016971616997214112   -0.0018655909714389535
0.003602882038850811   -0.00887312224870818   -0.0015232486806309208
0.00038787046494261486   -0.008768693796605453   -0.0014332435541835659
0.000293910803523394   -0.016971616997214112   -0.0018655909714389535
0.004655565448587283   -0.016982803370623977   -0.0019354618838542906
0.003602882038850811   -0.00887312224870818   -0.0015232486806309208
0.004637805452935668   -0.016901465608197903   -0.001998981305885968
0.00038787046494261486   -0.008768693796605453   -0.0014332435541835659
0.0035932442351334117   -0.008763883300950492   -0.001628024888613867
0.004637805452935668   -0.016901465608197903   -0.001998981305885968
0.003602882038850811   -0.00887312224870818   -0.0015232486806309208
0.00038787046494261486   -0.008768693796605453   -0.0014332435541835659
0.004637805452935668   -0.016901465608197903   -0.001998981305885968
0.00030226173084491487   -0.01693941708455116   -0.001866411346915725
0.000293910803523394   -0.016971616997214112   -0.0018655909714389535
0.00038787046494261486   -0.008768693796605453   -0.0014332435541835659
0.004637805452935668   -0.016901465608197903   -0.001998981305885968
0.000293910803523394   -0.016971616997214112   -0.0018655909714389535
0.003602882038850811   -0.00887312224870818   -0.0015232486806309208
0.0036030367673912924   -0.00892178842286692   -0.0013408001975312542
0.004651655296866098   -0.01702732872176482   -0.001837431759211207
0.007567758450928489   -0.009187800163492292   -0.0013190806241742466
0.003619664587800148   -0.008921359981060493   -0.0014263116773906984
0.004651655296866098   -0.01702732872176482   -0.001837431759211207
0.009648227602520537   -0.017201412315370077   -0.0018385711361802155
0.007567758450928489   -0.009187800163492292   -0.0013190806241742466
0.00956424509353796   -0.017171413460123547   -0.001954946288974661
0.003619664587800148   -0.008921359981060493   -0.0014263116773906984
0.007413727442442007   -0.009162708356908564   -0.0015114530178585474
0.00956424509353796   -0.017171413460123547   -0.001954946288974661
0.007567758450928489   -0.009187800163492292   -0.0013190806241742466
0.003619664587800148   -0.008921359981060493   -0.0014263116773906984
0.00956424509353796   -0.017171413460123547   -0.001954946288974661
0.004667443065868912   -0.017021967878664675   -0.001881965909461004
0.004651655296866098   -0.01702732872176482   -0.001837431759211207
0.003619664587800148   -0.008921359981060493   -0.0014263116773906984
0.00956424509353796   -0.017171413460123547   -0.001954946288974661
0.004651655296866098   -0.01702732872176482   -0.001837431759211207
0.007567758450928489   -0.009187800163492292   -0.0013190806241742466
0.003619664587800148   -0.008921359981060493   -0.0014263116773906984
0.004667443065868912   -0.017021967878664675   -0.001881965909461004
0.007413727442442007   -0.009162708356908564   -0.0015114530178585474
0.003602882038850811   -0.00887312224870818   -0.0015232486806309208
0.004667443065868912   -0.017021967878664675   -0.001881965909461004
0.00956424509353796   -0.017171413460123547   -0.001954946288974661
0.007413727442442007   -0.009162708356908564   -0.0015114530178585474
0.009480420009332566   -0.01711111316555448   -0.0020874818341295384
0.003602882038850811   -0.00887312224870818   -0.0015232486806309208
0.0072760783964919366   -0.009088340663333715   -0.0017278660057776076
0.009480420009332566   -0.01711111316555448   -0.0020874818341295384
0.007413727442442007   -0.009162708356908564   -0.0015114530178585474
0.003602882038850811   -0.00887312224870818   -0.0015232486806309208
0.009480420009332566   -0.01711111316555448   -0.0020874818341295384
0.004655565448587283   -0.016982803370623977   -0.0019354618838542906
0.004667443065868912   -0.017021967878664675   -0.001881965909461004
0.003602882038850811   -0.00887312224870818   -0.0015232486806309208
0.009480420009332566   -0.01711111316555448   -0.0020874818341295384
0.004667443065868912   -0.017021967878664675   -0.001881965909461004
0.007413727442442007   -0.009162708356908564   -0.0015114530178585474
0.003602882038850811   -0.00887312224870818   -0.0015232486806309208
0.004655565448587283   -0.016982803370623977   -0.0019354618838542906
0.0072760783964919366   -0.009088340663333715   -0.0017278660057776076
0.0035932442351334117   -0.008763883300950492   -0.001628024888613867
0.004655565448587283   -0.016982803370623977   -0.0019354618838542906
0.009480420009332566   -0.01711111316555448   -0.0020874818341295384
0.0072760783964919366   -0.009088340663333715   -0.0017278660057776076
0.009331529584661921   -0.016984622126328744   -0.002236194953231354
0.0035932442351334117   -0.008763883300950492   -0.001628024888613867
0.007069844997962927   -0.008922868951618536   -0.001953142844194255
0.009331529584661921   -0.016984622126328744   -0.002236194953231354
0.0072760783964919366   -0.009088340663333715   -0.0017278660057776076
0.0035932442351334117   -0.008763883300950492   -0.001628024888613867
0.009331529584661921   -0.016984622126328744   -0.002236194953231354
0.004637805452935668   -0.016901465608197903   -0.001998981305885968
0.004655565448587283   -0.016982803370623977   -0.0019354618838542906
0.0035932442351334117   -0.008763883300950492   -0.001628024888613867
0.009331529584661921   -0.016984622126328744   -0.002236194953231354
0.004655565448587283   -0.016982803370623977   -0.0019354618838542906
0.0072760783964919366   -0.009088340663333715   -0.0017278660057776076
-0.012876471936435437   -0.01728198110122374   -0.0025865503995639257
-0.01537662735113909   -0.02684679231995645   -0.0027585381786674576
-0.008278709761945606   -0.017052081291561348   -0.002260788521230916
-0.013105536337443595   -0.01746164036945564   -0.0023615383498390373
-0.01537662735113909   -0.02684679231995645   -0.0027585381786674576
-0.009980932043349034   -0.026700524120802923   -0.002492952636838726
-0.008278709761945606   -0.017052081291561348   -0.002260788521230916
-0.009992958854960363   -0.02681359954899132   -0.002389775830551897
-0.013105536337443595   -0.01746164036945564   -0.0023615383498390373
-0.008296930268325415   -0.01718354179041568   -0.0021166363121290508
-0.009992958854960363   -0.02681359954899132   -0.002389775830551897
-0.008278709761945606   -0.017052081291561348   -0.002260788521230916
-0.013105536337443595   -0.01746164036945564   -0.0023615383498390373
-0.009992958854960363   -0.02681359954899132   -0.002389775830551897
-0.015530942693091576   -0.026999768139394136   -0.0026091328679063797
-0.01537662735113909   -0.02684679231995645   -0.0027585381786674576
-0.013105536337443595   -0.01746164036945564   -0.0023615383498390373
-0.009992958854960363   -0.02681359954899132   -0.002389775830551897
-0.01537662735113909   -0.02684679231995645   -0.0027585381786674576
-0.008278709761945606   -0.017052081291561348   -0.002260788521230916
-0.013105536337443595   -0.01746164036945564   -0.0023615383498390373
-0.015530942693091576   -0.026999768139394136   -0.0026091328679063797
-0.008296930268325415   -0.01718354179041568   -0.0021166363121290508
-0.013249972925650983   -0.017574299886158246   -0.0021518155908669947
-0.015530942693091576   -0.026999768139394136   -0.0026091328679063797
-0.009992958854960363   -0.02681359954899132   -0.002389775830551897
-0.008296930268325415   -0.01718354179041568   -0.0021166363121290508
-0.010001545926583474   -0.026903246457791945   -0.0022968803594690815
-0.013249972925650983   -0.017574299886158246   -0.0021518155908669947
-0.00831837794939713   -0.017275027150384557   -0.001982914225413796
-0.010001545926583474   -0.026903246457791945   -0.0022968803594690815
-0.008296930268325415   -0.01718354179041568   -0.0021166363121290508
-0.013249972925650983   -0.017574299886158246   -0.0021518155908669947
-0.010001545926583474   -0.026903246457791945   -0.0022968803594690815
-0.015619497498267347   -0.027108003933722938   -0.0024740634930974074
-0.015530942693091576   -0.026999768139394136   -0.0026091328679063797
-0.013249972925650983   -0.017574299886158246   -0.0021518155908669947
-0.010001545926583474   -0.026903246457791945   -0.0022968803594690815
-0.015530942693091576   -0.026999768139394136   -0.0026091328679063797
-0.008296930268325415   -0.01718354179041568   -0.0021166363121290508
-0.013249972925650983   -0.017574299886158246   -0.0021518155908669947
-0.015619497498267347   -0.027108003933722938   -0.0024740634930974074
-0.00831837794939713   -0.017275027150384557   -0.001982914225413796
-0.013414312541811685   -0.01765532355290637   -0.0019588118867148317
-0.015619497498267347   -0.027108003933722938   -0.0024740634930974074
-0.010001545926583474   -0.026903246457791945   -0.0022968803594690815
-0.00831837794939713   -0.017275027150384557   -0.001982914225413796
-0.00998087421870655   -0.026976899428253723   -0.002212899602333566
-0.013414312541811685   -0.01765532355290637   -0.0019588118867148317
-0.008302857551578462   -0.01733521672734282   -0.0018574003157500686
-0.00998087421870655   -0.026976899428253723   -0.002212899602333566
-0.00831837794939713   -0.017275027150384557   -0.001982914225413796
-0.013414312541811685   -0.01765532355290637   -0.0019588118867148317
-0.00998087421870655   -0.026976899428253723   -0.002212899602333566
-0.015710714801791054   -0.027205029441243384   -0.0023550340350636575
-0.015619497498267347   -0.027108003933722938   -0.0024740634930974074
-0.013414312541811685   -0.01765532355290637   -0.0019588118867148317
-0.00998087421870655   -0.026976899428253723   -0.002212899602333566
-0.015619497498267347   -0.027108003933722938   -0.0024740634930974074
-0.00831837794939713   -0.017275027150384557   -0.001982914225413796
-0.008278709761945606   -0.017052081291561348   -0.002260788521230916
-0.009980932043349034   -0.026700524120802923   -0.002492952636838726
-0.003943585914567264   -0.016937456072567324   -0.002034463218018279
-0.008296930268325415   -0.01718354179041568   -0.0021166363121290508
-0.009980932043349034   -0.026700524120802923   -0.002492952636838726
-0.004922594514347602   -0.02662491464443895   -0.0023090501693556293
-0.003943585914567264   -0.016937456072567324   -0.002034463218018279
-0.004913263564541689   -0.026695867289863725   -0.002240930330649896
-0.008296930268325415   -0.01718354179041568   -0.0021166363121290508
-0.00393378060973994   -0.01702151557200268   -0.001952998830827433
-0.004913263564541689   -0.026695867289863725   -0.002240930330649896
-0.003943585914567264   -0.016937456072567324   -0.002034463218018279
-0.008296930268325415   -0.01718354179041568   -0.0021166363121290508
-0.004913263564541689   -0.026695867289863725   -0.002240930330649896
-0.009992958854960363   -0.02681359954899132   -0.002389775830551897
-0.009980932043349034   -0.026700524120802923   -0.002492952636838726
-0.008296930268325415   -0.01718354179041568   -0.0021166363121290508
-0.004913263564541689   -0.026695867289863725   -0.002240930330649896
-0.009980932043349034   -0.026700524120802923   -0.002492952636838726
-0.003943585914567264   -0.016937456072567324   -0.002034463218018279
-0.008296930268325415   -0.01718354179041568   -0.0021166363121290508
-0.009992958854960363   -0.02681359954899132   -0.002389775830551897
-0.00393378060973994   -0.01702151557200268   -0.001952998830827433
-0.00831837794939713   -0.017275027150384557   -0.001982914225413796
-0.009992958854960363   -0.02681359954899132   -0.002389775830551897
-0.004913263564541689   -0.026695867289863725   -0.002240930330649896
-0.00393378060973994   -0.01702151557200268   -0.001952998830827433
-0.004900509426653854   -0.026747187027232718   -0.0021829373301597162
-0.00831837794939713   -0.017275027150384557   -0.001982914225413796
-0.003921753466252576   -0.017070891991923118   -0.0018814666260479034
-0.004900509426653854   -0.026747187027232718   -0.0021829373301597162
-0.00393378060973994   -0.01702151557200268   -0.001952998830827433
-0.00831837794939713   -0.017275027150384557   -0.001982914225413796
-0.004900509426653854   -0.026747187027232718   -0.0021829373301597162
-0.010001545926583474   -0.026903246457791945   -0.0022968803594690815
-0.009992958854960363   -0.02681359954899132   -0.002389775830551897
-0.00831837794939713   -0.017275027150384557   -0.001982914225413796
-0.004900509426653854   -0.026747187027232718   -0.0021829373301597162
-0.009992958854960363   -0.02681359954899132   -0.002389775830551897
-0.00393378060973994   -0.01702151557200268   -0.001952998830827433
-0.00831837794939713   -0.017275027150384557   -0.001982914225413796
-0.010001545926583474   -0.026903246457791945   -0.0022968803594690815
-0.003921753466252576   -0.017070891991923118   -0.0018814666260479034
-0.008302857551578462   -0.01733521672734282   -0.0018574003157500686
-0.010001545926583474   -0.026903246457791945   -0.0022968803594690815
-0.004900509426653854   -0.026747187027232718   -0.0021829373301597162
-0.003921753466252576   -0.017070891991923118   -0.0018814666260479034
-0.004881472741784216   -0.026779210253575658   -0.002135238955440449
-0.008302857551578462   -0.01733521672734282   -0.0018574003157500686
-0.0039019379116626268   -0.017086291226423224   -0.001819836879368076
-0.004881472741784216   -0.026779210253575658   -0.002135238955440449
-0.003921753466252576   -0.017070891991923118   -0.0018814666260479034
-0.008302857551578462   -0.01733521672734282   -0.0018574003157500686
-0.004881472741784216   -0.026779210253575658   -0.002135238955440449
-0.00998087421870655   -0.026976899428253723   -0.002212899602333566
-0.010001545926583474   -0.026903246457791945   -0.0022968803594690815
-0.008302857551578462   -0.01733521672734282   -0.0018574003157500686
-0.004881472741784216   -0.026779210253575658   -0.002135238955440449
-0.010001545926583474   -0.026903246457791945   -0.0022968803594690815
-0.003921753466252576   -0.017070891991923118   -0.0018814666260479034
-0.003943585914567264   -0.016937456072567324   -0.002034463218018279
-0.004922594514347602   -0.02662491464443895   -0.0023090501693556293
0.0002642468337313348   -0.016931355355718804   -0.0018941439281092742
-0.00393378060973994   -0.01702151557200268   -0.001952998830827433
-0.004922594514347602   -0.02662491464443895   -0.0023090501693556293
-1.614958293934542e-06   -0.026611904597965107   -0.0022019519127312796
0.0002642468337313348   -0.016931355355718804   -0.0018941439281092742
1.5973562649312515e-05   -0.026640507715444593   -0.002169161409820901
-0.00393378060973994   -0.01702151557200268   -0.001952998830827433
0.0002823380653795778   -0.01696875805984542   -0.0018750311700734491
1.5973562649312515e-05   -0.026640507715444593   -0.002169161409820901
0.0002642468337313348   -0.016931355355718804   -0.0018941439281092742
-0.00393378060973994   -0.01702151557200268   -0.001952998830827433
1.5973562649312515e-05   -0.026640507715444593   -0.002169161409820901
-0.004913263564541689   -0.026695867289863725   -0.002240930330649896
-0.004922594514347602   -0.02662491464443895   -0.0023090501693556293
-0.00393378060973994   -0.01702151557200268   -0.001952998830827433
1.5973562649312515e-05   -0.026640507715444593   -0.002169161409820901
-0.004922594514347602   -0.02662491464443895   -0.0023090501693556293
0.0002642468337313348   -0.016931355355718804   -0.0018941439281092742
-0.00393378060973994   -0.01702151557200268   -0.001952998830827433
-0.004913263564541689   -0.026695867289863725   -0.002240930330649896
0.0002823380653795778   -0.01696875805984542   -0.0018750311700734491
-0.003921753466252576   -0.017070891991923118   -0.0018814666260479034
-0.004913263564541689   -0.026695867289863725   -0.002240930330649896
1.5973562649312515e-05   -0.026640507715444593   -0.002169161409820901
0.0002823380653795778   -0.01696875805984542   -0.0018750311700734491
2.8487241302092477e-05   -0.026649342567877318   -0.0021463693633433367
-0.003921753466252576   -0.017070891991923118   -0.0018814666260479034
0.000293910803523394   -0.016971616997214112   -0.0018655909714389535
2.8487241302092477e-05   -0.026649342567877318   -0.0021463693633433367
0.0002823380653795778   -0.01696875805984542   -0.0018750311700734491
-0.003921753466252576   -0.017070891991923118   -0.0018814666260479034
2.8487241302092477e-05   -0.026649342567877318   -0.0021463693633433367
-0.004900509426653854   -0.026747187027232718   -0.0021829373301597162
-0.004913263564541689   -0.026695867289863725   -0.002240930330649896
-0.003921753466252576   -0.017070891991923118   -0.0018814666260479034
2.8487241302092477e-05   -0.026649342567877318   -0.0021463693633433367
-0.004913263564541689   -0.026695867289863725   -0.002240930330649896
0.0002823380653795778   -0.01696875805984542   -0.0018750311700734491
-0.003921753466252576   -0.017070891991923118   -0.0018814666260479034
-0.004900509426653854   -0.026747187027232718   -0.0021829373301597162
0.000293910803523394   -0.016971616997214112   -0.0018655909714389535
-0.0039019379116626268   -0.017086291226423224   -0.001819836879368076
-0.004900509426653854   -0.026747187027232718   -0.0021829373301597162
2.8487241302092477e-05   -0.026649342567877318   -0.0021463693633433367
0.000293910803523394   -0.016971616997214112   -0.0018655909714389535
3.642255166379328e-05   -0.026638138102282664   -0.002134018254482753
-0.0039019379116626268   -0.017086291226423224   -0.001819836879368076
0.00030226173084491487   -0.01693941708455116   -0.001866411346915725
3.642255166379328e-05   -0.026638138102282664   -0.002134018254482753
0.000293910803523394   -0.016971616997214112   -0.0018655909714389535
-0.0039019379116626268   -0.017086291226423224   -0.001819836879368076
3.642255166379328e-05   -0.026638138102282664   -0.002134018254482753
-0.004881472741784216   -0.026779210253575658   -0.002135238955440449
-0.004900509426653854   -0.026747187027232718   -0.0021829373301597162
-0.0039019379116626268   -0.017086291226423224   -0.001819836879368076
3.642255166379328e-05   -0.026638138102282664   -0.002134018254482753
-0.004900509426653854   -0.026747187027232718   -0.0021829373301597162
0.000293910803523394   -0.016971616997214112   -0.0018655909714389535
0.0002642468337313348   -0.016931355355718804   -0.0018941439281092742
-1.614958293934542e-06   -0.026611904597965107   -0.0022019519127312796
0.004651655296866098   -0.01702732872176482   -0.001837431759211207
0.0002823380653795778   -0.01696875805984542   -0.0018750311700734491
-1.614958293934542e-06   -0.026611904597965107   -0.0022019519127312796
0.005088586422468863   -0.026656146578893543   -0.00217122540827377
0.004651655296866098   -0.01702732872176482   -0.001837431759211207
0.005110113340880895   -0.0266448625740994   -0.0021745089769525413
0.0002823380653795778   -0.01696875805984542   -0.0018750311700734491
0.004667443065868912   -0.017021967878664675   -0.001881965909461004
0.005110113340880895   -0.0266448625740994   -0.0021745089769525413
0.004651655296866098   -0.01702732872176482   -0.001837431759211207
0.0002823380653795778   -0.01696875805984542   -0.0018750311700734491
0.005110113340880895   -0.0266448625740994   -0.0021745089769525413
1.5973562649312515e-05   -0.026640507715444593   -0.002169161409820901
-1.614958293934542e-06   -0.026611904597965107   -0.0022019519127312796
0.0002823380653795778   -0.01696875805984542   -0.0018750311700734491
0.005110113340880895   -0.0266448625740994   -0.0021745089769525413
-1.614958293934542e-06   -0.026611904597965107   -0.0022019519127312796
0.004651655296866098   -0.01702732872176482   -0.001837431759211207
0.0002823380653795778   -0.01696875805984542   -0.0018750311700734491
1.5973562649312515e-05   -0.026640507715444593   -0.002169161409820901
0.004667443065868912   -0.017021967878664675   -0.001881965909461004
0.000293910803523394   -0.016971616997214112   -0.0018655909714389535
1.5973562649312515e-05   -0.026640507715444593   -0.002169161409820901
0.005110113340880895   -0.0266448625740994   -0.0021745089769525413
0.004667443065868912   -0.017021967878664675   -0.001881965909461004
0.005111756196863156   -0.02661532285042908   -0.00218725278730383
0.000293910803523394   -0.016971616997214112   -0.0018655909714389535
0.004655565448587283   -0.016982803370623977   -0.0019354618838542906
0.005111756196863156   -0.02661532285042908   -0.00218725278730383
0.004667443065868912   -0.017021967878664675   -0.001881965909461004
0.000293910803523394   -0.016971616997214112   -0.0018655909714389535
0.005111756196863156   -0.02661532285042908   -0.00218725278730383
2.8487241302092477e-05   -0.026649342567877318   -0.0021463693633433367
1.5973562649312515e-05   -0.026640507715444593   -0.002169161409820901
0.000293910803523394   -0.016971616997214112   -0.0018655909714389535
0.005111756196863156   -0.02661532285042908   -0.00218725278730383
1.5973562649312515e-05   -0.026640507715444593   -0.002169161409820901
0.004667443065868912   -0.017021967878664675   -0.001881965909461004
0.000293910803523394   -0.016971616997214112   -0.0018655909714389535
2.8487241302092477e-05   -0.026649342567877318   -0.0021463693633433367
0.004655565448587283   -0.016982803370623977   -0.0019354618838542906
0.00030226173084491487   -0.01693941708455116   -0.001866411346915725
2.8487241302092477e-05   -0.026649342567877318   -0.0021463693633433367
0.005111756196863156   -0.02661532285042908   -0.00218725278730383
0.004655565448587283   -0.016982803370623977   -0.0019354618838542906
0.005100611897854272   -0.02656013377219802   -0.0022098170811779188
0.00030226173084491487   -0.01693941708455116   -0.001866411346915725
0.004637805452935668   -0.016901465608197903   -0.001998981305885968
0.005100611897854272   -0.02656013377219802   -0.0022098170811779188
0.004655565448587283   -0.016982803370623977   -0.0019354618838542906
0.00030226173084491487   -0.01693941708455116   -0.001866411346915725
0.005100611897854272   -0.02656013377219802   -0.0022098170811779188
3.642255166379328e-05   -0.026638138102282664   -0.002134018254482753
2.8487241302092477e-05   -0.026649342567877318   -0.0021463693633433367
0.00030226173084491487   -0.01693941708455116   -0.001866411346915725
0.005100611897854272   -0.02656013377219802   -0.0022098170811779188
2.8487241302092477e-05   -0.026649342567877318   -0.0021463693633433367
0.004655565448587283   -0.016982803370623977   -0.0019354618838542906
0.004651655296866098   -0.01702732872176482   -0.001837431759211207
0.005088586422468863   -0.026656146578893543   -0.00217122540827377
0.009648227602520537   -0.017201412315370077   -0.0018385711361802155
0.004667443065868912   -0.017021967878664675   -0.001881965909461004
0.005088586422468863   -0.026656146578893543   -0.00217122540827377
0.0107094231574766   -0.026737455096843995   -0.0022001908199806566
0.009648227602520537   -0.017201412315370077   -0.0018385711361802155
0.010699557957879356   -0.026699157164338606   -0.002242399818410036
0.004667443065868912   -0.017021967878664675   -0.001881965909461004
0.00956424509353796   -0.017171413460123547   -0.001954946288974661
0.010699557957879356   -0.026699157164338606   -0.002242399818410036
0.009648227602520537   -0.017201412315370077   -0.0018385711361802155
0.004667443065868912   -0.017021967878664675   -0.001881965909461004
0.010699557957879356   -0.026699157164338606   -0.002242399818410036
0.005110113340880895   -0.0266448625740994   -0.0021745089769525413
0.005088586422468863   -0.026656146578893543   -0.00217122540827377
0.004667443065868912   -0.017021967878664675   -0.001881965909461004
0.010699557957879356   -0.026699157164338606   -0.002242399818410036
0.005088586422468863   -0.026656146578893543   -0.00217122540827377
0.009648227602520537   -0.017201412315370077   -0.0018385711361802155
0.004667443065868912   -0.017021967878664675   -0.001881965909461004
0.005110113340880895   -0.0266448625740994   -0.0021745089769525413
0.00956424509353796   -0.017171413460123547   -0.001954946288974661
0.004655565448587283   -0.016982803370623977   -0.0019354618838542906
0.005110113340880895   -0.0266448625740994   -0.0021745089769525413
0.010699557957879356   -0.026699157164338606   -0.002242399818410036
0.00956424509353796   -0.017171413460123547   -0.001954946288974661
0.010672779693490574   -0.026650965672508322   -0.002299957342821609
0.004655565448587283   -0.016982803370623977   -0.0019354618838542906
0.009480420009332566   -0.01711111316555448   -0.0020874818341295384
0.010672779693490574   -0.026650965672508322   -0.002299957342821609
0.00956424509353796   -0.017171413460123547   -0.001954946288974661
0.004655565448587283   -0.016982803370623977   -0.0019354618838542906
0.010672779693490574   -0.026650965672508322   -0.002299957342821609
0.005111756196863156   -0.02661532285042908   -0.00218725278730383
0.005110113340880895   -0.0266448625740994   -0.0021745089769525413
0.004655565448587283   -0.016982803370623977   -0.0019354618838542906
0.010672779693490574   -0.026650965672508322   -0.002299957342821609
0.005110113340880895   -0.0266448625740994   -0.0021745089769525413
0.00956424509353796   -0.017171413460123547   -0.001954946288974661
0.004655565448587283   -0.016982803370623977   -0.0019354618838542906
0.005111756196863156   -0.02661532285042908   -0.00218725278730383
0.009480420009332566   -0.01711111316555448   -0.0020874818341295384
0.004637805452935668   -0.016901465608197903   -0.001998981305885968
0.005111756196863156   -0.02661532285042908   -0.00218725278730383
0.010672779693490574   -0.026650965672508322   -0.002299957342821609
0.009480420009332566   -0.01711111316555448   -0.0020874818341295384
0.010599697963104877   -0.026559105805170968   -0.0023727521009937716
0.004637805452935668   -0.016901465608197903   -0.001998981305885968
0.009331529584661921   -0.016984622126328744   -0.002236194953231354
0.010599697963104877   -0.026559105805170968   -0.0023727521009937716
0.009480420009332566   -0.01711111316555448   -0.0020874818341295384
0.004637805452935668   -0.016901465608197903   -0.001998981305885968
0.010599697963104877   -0.026559105805170968   -0.0023727521009937716
0.005100611897854272   -0.02656013377219802   -0.0022098170811779188
0.005111756196863156   -0.02661532285042908   -0.00218725278730383
0.004637805452935668   -0.016901465608197903   -0.001998981305885968
0.010599697963104877   -0.026559105805170968   -0.0023727521009937716
0.005111756196863156   -0.02661532285042908   -0.00218725278730383
0.009480420009332566   -0.01711111316555448   -0.0020874818341295384
-0.01537662735113909   -0.02684679231995645   -0.0027585381786674576
-0.016890272889174024   -0.037258003218865715   -0.0028091109318682
-0.009980932043349034   -0.026700524120802923   -0.002492952636838726
-0.015530942693091576   -0.026999768139394136   -0.0026091328679063797
-0.016890272889174024   -0.037258003218865715   -0.0028091109318682
-0.011098513786323394   -0.037198402467049654   -0.002597579160124358
-0.009980932043349034   -0.026700524120802923   -0.002492952636838726
-0.011094099819810072   -0.03729484448131189   -0.0025342990200558782
-0.015530942693091576   -0.026999768139394136   -0.0026091328679063797
-0.009992958854960363   -0.02681359954899132   -0.002389775830551897
-0.011094099819810072   -0.03729484448131189   -0.0025342990200558782
-0.009980932043349034   -0.026700524120802923   -0.002492952636838726
-0.015530942693091576   -0.026999768139394136   -0.0026091328679063797
-0.011094099819810072   -0.03729484448131189   -0.0025342990200558782
-0.016962348784551582   -0.037387647823330115   -0.0027320762695838695
-0.016890272889174024   -0.037258003218865715   -0.0028091109318682
-0.015530942693091576   -0.026999768139394136   -0.0026091328679063797
-0.011094099819810072   -0.03729484448131189   -0.0025342990200558782
-0.016890272889174024   -0.037258003218865715   -0.0028091109318682
-0.009980932043349034   -0.026700524120802923   -0.002492952636838726
-0.015530942693091576   -0.026999768139394136   -0.0026091328679063797
-0.016962348784551582   -0.037387647823330115   -0.0027320762695838695
-0.009992958854960363   -0.02681359954899132   -0.002389775830551897
-0.015619497498267347   -0.027108003933722938   -0.0024740634930974074
-0.016962348784551582   -0.037387647823330115   -0.0027320762695838695
-0.011094099819810072   -0.03729484448131189   -0.0025342990200558782
-0.009992958854960363   -0.02681359954899132   -0.002389775830551897
-0.01107922309060991   -0.03738381845840648   -0.0024815264712994825
-0.015619497498267347   -0.027108003933722938   -0.0024740634930974074
-0.010001545926583474   -0.026903246457791945   -0.0022968803594690815
-0.01107922309060991   -0.03738381845840648   -0.0024815264712994825
-0.009992958854960363   -0.02681359954899132   -0.002389775830551897
-0.015619497498267347   -0.027108003933722938   -0.0024740634930974074
-0.01107922309060991   -0.03738381845840648   -0.0024815264712994825
-0.01698530118395995   -0.037493396593352914   -0.0026701653020321453
-0.016962348784551582   -0.037387647823330115   -0.0027320762695838695
-0.015619497498267347   -0.027108003933722938   -0.0024740634930974074
-0.01107922309060991   -0.03738381845840648   -0.0024815264712994825
-0.016962348784551582   -0.037387647823330115   -0.0027320762695838695
-0.009992958854960363   -0.02681359954899132   -0.002389775830551897
-0.015619497498267347   -0.027108003933722938   -0.0024740634930974074
-0.01698530118395995   -0.037493396593352914   -0.0026701653020321453
-0.010001545926583474   -0.026903246457791945   -0.0022968803594690815
-0.015710714801791054   -0.027205029441243384   -0.0023550340350636575
-0.01698530118395995   -0.037493396593352914   -0.0026701653020321453
-0.01107922309060991   -0.03738381845840648   -0.0024815264712994825
-0.010001545926583474   -0.026903246457791945   -0.0022968803594690815
-0.011042563171654184   -0.03747210710550311   -0.0024385246951731786
-0.015710714801791054   -0.027205029441243384   -0.0023550340350636575
-0.00998087421870655   -0.026976899428253723   -0.002212899602333566
-0.011042563171654184   -0.03747210710550311   -0.0024385246951731786
-0.010001545926583474   -0.026903246457791945   -0.0022968803594690815
-0.015710714801791054   -0.027205029441243384   -0.0023550340350636575
-0.011042563171654184   -0.03747210710550311   -0.0024385246951731786
-0.01699298252048265   -0.0376082568701157   -0.0026246775987171307
-0.01698530118395995   -0.037493396593352914   -0.0026701653020321453
-0.015710714801791054   -0.027205029441243384   -0.0023550340350636575
-0.011042563171654184   -0.03747210710550311   -0.0024385246951731786
-0.01698530118395995   -0.037493396593352914   -0.0026701653020321453
-0.010001545926583474   -0.026903246457791945   -0.0022968803594690815
-0.009980932043349034   -0.026700524120802923   -0.002492952636838726
-0.011098513786323394   -0.037198402467049654   -0.002597579160124358
-0.004922594514347602   -0.02662491464443895   -0.0023090501693556293
-0.009992958854960363   -0.02681359954899132   -0.002389775830551897
-0.011098513786323394   -0.037198402467049654   -0.002597579160124358
-0.005718375417975252   -0.037164189108261046   -0.0024535707147682307
-0.004922594514347602   -0.02662491464443895   -0.0023090501693556293
-0.00569827754482694   -0.03722255963987415   -0.0023983957073643856
-0.009992958854960363   -0.02681359954899132   -0.002389775830551897
-0.004913263564541689   -0.026695867289863725   -0.002240930330649896
-0.00569827754482694   -0.03722255963987415   -0.0023983957073643856
-0.004922594514347602   -0.02662491464443895   -0.0023090501693556293
-0.009992958854960363   -0.02681359954899132   -0.002389775830551897
-0.00569827754482694   -0.03722255963987415   -0.0023983957073643856
-0.011094099819810072   -0.03729484448131189   -0.0025342990200558782
-0.011098513786323394   -0.037198402467049654   -0.002597579160124358
-0.009992958854960363   -0.02681359954899132   -0.002389775830551897
-0.00569827754482694   -0.03722255963987415   -0.0023983957073643856
-0.011098513786323394   -0.037198402467049654   -0.002597579160124358
-0.004922594514347602   -0.02662491464443895   -0.0023090501693556293
-0.009992958854960363   -0.02681359954899132   -0.002389775830551897
-0.011094099819810072   -0.03729484448131189   -0.0025342990200558782
-0.004913263564541689   -0.026695867289863725   -0.002240930330649896
-0.010001545926583474   -0.026903246457791945   -0.0022968803594690815
-0.011094099819810072   -0.03729484448131189   -0.0025342990200558782
-0.00569827754482694   -0.03722255963987415   -0.0023983957073643856
-0.004913263564541689   -0.026695867289863725   -0.002240930330649896
-0.005673632610157366   -0.03727613381395615   -0.002353736730826401
-0.010001545926583474   -0.026903246457791945   -0.0022968803594690815
-0.004900509426653854   -0.026747187027232718   -0.0021829373301597162
-0.005673632610157366   -0.03727613381395615   -0.002353736730826401
-0.004913263564541689   -0.026695867289863725   -0.002240930330649896
-0.010001545926583474   -0.026903246457791945   -0.0022968803594690815
-0.005673632610157366   -0.03727613381395615   -0.002353736730826401
-0.01107922309060991   -0.03738381845840648   -0.0024815264712994825
-0.011094099819810072   -0.03729484448131189   -0.0025342990200558782
-0.010001545926583474   -0.026903246457791945   -0.0022968803594690815
-0.005673632610157366   -0.03727613381395615   -0.002353736730826401
-0.011094099819810072   -0.03729484448131189   -0.0025342990200558782
-0.004913263564541689   -0.026695867289863725   -0.002240930330649896
-0.010001545926583474   -0.026903246457791945   -0.0022968803594690815
-0.01107922309060991   -0.03738381845840648   -0.0024815264712994825
-0.004900509426653854   -0.026747187027232718   -0.0021829373301597162
-0.00998087421870655   -0.026976899428253723   -0.002212899602333566
-0.01107922309060991   -0.03738381845840648   -0.0024815264712994825
-0.005673632610157366   -0.03727613381395615   -0.002353736730826401
-0.004900509426653854   -0.026747187027232718   -0.0021829373301597162
-0.005644020419112002   -0.0373250878760091   -0.002319846790784926
-0.00998087421870655   -0.026976899428253723   -0.002212899602333566
-0.004881472741784216   -0.026779210253575658   -0.002135238955440449
-0.005644020419112002   -0.0373250878760091   -0.002319846790784926
-0.004900509426653854   -0.026747187027232718   -0.0021829373301597162
-0.00998087421870655   -0.026976899428253723   -0.002212899602333566
-0.005644020419112002   -0.0373250878760091   -0.002319846790784926
-0.011042563171654184   -0.03747210710550311   -0.0024385246951731786
-0.01107922309060991   -0.03738381845840648   -0.0024815264712994825
-0.00998087421870655   -0.026976899428253723   -0.002212899602333566
-0.005644020419112002   -0.0373250878760091   -0.002319846790784926
-0.01107922309060991   -0.03738381845840648   -0.0024815264712994825
-0.004900509426653854   -0.026747187027232718   -0.0021829373301597162
-0.004922594514347602   -0.02662491464443895   -0.0023090501693556293
-0.005718375417975252   -0.037164189108261046   -0.0024535707147682307
-1.614958293934542e-06   -0.026611904597965107   -0.0022019519127312796
-0.004913263564541689   -0.026695867289863725   -0.002240930330649896
-0.005718375417975252   -0.037164189108261046   -0.0024535707147682307
-0.0004838213699609847   -0.03714458367193506   -0.0023790937611180172
-1.614958293934542e-06   -0.026611904597965107   -0.0022019519127312796
-0.0004557392339016186   -0.03716417848524248   -0.002332575720903809
-0.004913263564541689   -0.026695867289863725   -0.002240930330649896
1.5973562649312515e-05   -0.026640507715444593   -0.002169161409820901
-0.0004557392339016186   -0.03716417848524248   -0.002332575720903809
-1.614958293934542e-06   -0.026611904597965107   -0.0022019519127312796
-0.004913263564541689   -0.026695867289863725   -0.002240930330649896
-0.0004557392339016186   -0.03716417848524248   -0.002332575720903809
-0.00569827754482694   -0.03722255963987415   -0.0023983957073643856
-0.005718375417975252   -0.037164189108261046   -0.0024535707147682307
-0.004913263564541689   -0.026695867289863725   -0.002240930330649896
-0.0004557392339016186   -0.03716417848524248   -0.002332575720903809
-0.005718375417975252   -0.037164189108261046   -0.0024535707147682307
-1.614958293934542e-06   -0.026611904597965107   -0.0022019519127312796
-0.004913263564541689   -0.026695867289863725   -0.002240930330649896
-0.00569827754482694   -0.03722255963987415   -0.0023983957073643856
1.5973562649312515e-05   -0.026640507715444593   -0.002169161409820901
-0.004900509426653854   -0.026747187027232718   -0.0021829373301597162
-0.00569827754482694   -0.03722255963987415   -0.0023983957073643856
-0.0004557392339016186   -0.03716417848524248   -0.002332575720903809
1.5973562649312515e-05   -0.026640507715444593   -0.002169161409820901
-0.0004314199849613035   -0.03717863721189805   -0.0022964831700712637
-0.004900509426653854   -0.026747187027232718   -0.0021829373301597162
2.8487241302092477e-05   -0.026649342567877318   -0.0021463693633433367
-0.0004314199849613035   -0.03717863721189805   -0.0022964831700712637
1.5973562649312515e-05   -0.026640507715444593   -0.002169161409820901
-0.004900509426653854   -0.026747187027232718   -0.0021829373301597162
-0.0004314199849613035   -0.03717863721189805   -0.0022964831700712637
-0.005673632610157366   -0.03727613381395615   -0.002353736730826401
-0.00569827754482694   -0.03722255963987415   -0.0023983957073643856
-0.004900509426653854   -0.026747187027232718   -0.0021829373301597162
-0.0004314199849613035   -0.03717863721189805   -0.0022964831700712637
-0.00569827754482694   -0.03722255963987415   -0.0023983957073643856
1.5973562649312515e-05   -0.026640507715444593   -0.002169161409820901
-0.004900509426653854   -0.026747187027232718   -0.0021829373301597162
-0.005673632610157366   -0.03727613381395615   -0.002353736730826401
2.8487241302092477e-05   -0.026649342567877318   -0.0021463693633433367
-0.004881472741784216   -0.026779210253575658   -0.002135238955440449
-0.005673632610157366   -0.03727613381395615   -0.002353736730826401
-0.0004314199849613035   -0.03717863721189805   -0.0022964831700712637
2.8487241302092477e-05   -0.026649342567877318   -0.0021463693633433367
-0.0004128781159202297   -0.037187885553760035   -0.002271196099655197
-0.004881472741784216   -0.026779210253575658   -0.002135238955440449
3.642255166379328e-05   -0.026638138102282664   -0.002134018254482753
-0.0004128781159202297   -0.037187885553760035   -0.002271196099655197
2.8487241302092477e-05   -0.026649342567877318   -0.0021463693633433367
-0.004881472741784216   -0.026779210253575658   -0.002135238955440449
-0.0004128781159202297   -0.037187885553760035   -0.002271196099655197
-0.005644020419112002   -0.0373250878760091   -0.002319846790784926
-0.005673632610157366   -0.03727613381395615   -0.002353736730826401
-0.004881472741784216   -0.026779210253575658   -0.002135238955440449
-0.0004128781159202297   -0.037187885553760035   -0.002271196099655197
-0.005673632610157366   -0.03727613381395615   -0.002353736730826401
2.8487241302092477e-05   -0.026649342567877318   -0.0021463693633433367
-1.614958293934542e-06   -0.026611904597965107   -0.0022019519127312796
-0.0004838213699609847   -0.03714458367193506   -0.0023790937611180172
0.005088586422468863   -0.026656146578893543   -0.00217122540827377
1.5973562649312515e-05   -0.026640507715444593   -0.002169161409820901
-0.0004838213699609847   -0.03714458367193506   -0.0023790937611180172
0.004910493678645166   -0.037136208474477156   -0.0023748039150835753
0.005088586422468863   -0.026656146578893543   -0.00217122540827377
0.004947698318040487   -0.03711824327295663   -0.002337376871643214
1.5973562649312515e-05   -0.026640507715444593   -0.002169161409820901
0.005110113340880895   -0.0266448625740994   -0.0021745089769525413
0.004947698318040487   -0.03711824327295663   -0.002337376871643214
0.005088586422468863   -0.026656146578893543   -0.00217122540827377
1.5973562649312515e-05   -0.026640507715444593   -0.002169161409820901
0.004947698318040487   -0.03711824327295663   -0.002337376871643214
-0.0004557392339016186   -0.03716417848524248   -0.002332575720903809
-0.0004838213699609847   -0.03714458367193506   -0.0023790937611180172
1.5973562649312515e-05   -0.026640507715444593   -0.002169161409820901
0.004947698318040487   -0.03711824327295663   -0.002337376871643214
-0.0004838213699609847   -0.03714458367193506   -0.0023790937611180172
0.005088586422468863   -0.026656146578893543   -0.00217122540827377
1.5973562649312515e-05   -0.026640507715444593   -0.002169161409820901
-0.0004557392339016186   -0.03716417848524248   -0.002332575720903809
0.005110113340880895   -0.0266448625740994   -0.0021745089769525413
2.8487241302092477e-05   -0.026649342567877318   -0.0021463693633433367
-0.0004557392339016186   -0.03716417848524248   -0.002332575720903809
0.004947698318040487   -0.03711824327295663   -0.002337376871643214
0.005110113340880895   -0.0266448625740994   -0.0021745089769525413
0.0049726162190330825   -0.03709730667047556   -0.0023100763884808997
2.8487241302092477e-05   -0.026649342567877318   -0.0021463693633433367
0.005111756196863156   -0.02661532285042908   -0.00218725278730383
0.0049726162190330825   -0.03709730667047556   -0.0023100763884808997
0.005110113340880895   -0.0266448625740994   -0.0021745089769525413
2.8487241302092477e-05   -0.026649342567877318   -0.0021463693633433367
0.0049726162190330825   -0.03709730667047556   -0.0023100763884808997
-0.0004314199849613035   -0.03717863721189805   -0.0022964831700712637
-0.0004557392339016186   -0.03716417848524248   -0.002332575720903809
2.8487241302092477e-05   -0.026649342567877318   -0.0021463693633433367
0.0049726162190330825   -0.03709730667047556   -0.0023100763884808997
-0.0004557392339016186   -0.03716417848524248   -0.002332575720903809
0.005110113340880895   -0.0266448625740994   -0.0021745089769525413
2.8487241302092477e-05   -0.026649342567877318   -0.0021463693633433367
-0.0004314199849613035   -0.03717863721189805   -0.0022964831700712637
0.005111756196863156   -0.02661532285042908   -0.00218725278730383
3.642255166379328e-05   -0.026638138102282664   -0.002134018254482753
-0.0004314199849613035   -0.03717863721189805   -0.0022964831700712637
0.0049726162190330825   -0.03709730667047556   -0.0023100763884808997
0.005111756196863156   -0.02661532285042908   -0.00218725278730383
0.004977722842461365   -0.03706653147283182   -0.0022926948864484937
3.642255166379328e-05   -0.026638138102282664   -0.002134018254482753
0.005100611897854272   -0.02656013377219802   -0.0022098170811779188
0.004977722842461365   -0.03706653147283182   -0.0022926948864484937
0.005111756196863156   -0.02661532285042908   -0.00218725278730383
3.642255166379328e-05   -0.026638138102282664   -0.002134018254482753
0.004977722842461365   -0.03706653147283182   -0.0022926948864484937
-0.0004128781159202297   -0.037187885553760035   -0.002271196099655197
-0.0004314199849613035   -0.03717863721189805   -0.0022964831700712637
3.642255166379328e-05   -0.026638138102282664   -0.002134018254482753
0.004977722842461365   -0.03706653147283182   -0.0022926948864484937
-0.0004314199849613035   -0.03717863721189805   -0.0022964831700712637
0.005111756196863156   -0.02661532285042908   -0.00218725278730383
0.005088586422468863   -0.026656146578893543   -0.00217122540827377
0.004910493678645166   -0.037136208474477156   -0.0023748039150835753
0.0107094231574766   -0.026737455096843995   -0.0022001908199806566
0.005110113340880895   -0.0266448625740994   -0.0021745089769525413
0.004910493678645166   -0.037136208474477156   -0.0023748039150835753
0.010756299198504543   -0.037124600327244135   -0.0024336678228460357
0.0107094231574766   -0.026737455096843995   -0.0022001908199806566
0.010829145289868945   -0.0370769489707518   -0.002402986218108039
0.005110113340880895   -0.0266448625740994   -0.0021745089769525413
0.010699557957879356   -0.026699157164338606   -0.002242399818410036
0.010829145289868945   -0.0370769489707518   -0.002402986218108039
0.0107094231574766   -0.026737455096843995   -0.0022001908199806566
0.005110113340880895   -0.0266448625740994   -0.0021745089769525413
0.010829145289868945   -0.0370769489707518   -0.002402986218108039
0.004947698318040487   -0.03711824327295663   -0.002337376871643214
0.004910493678645166   -0.037136208474477156   -0.0023748039150835753
0.005110113340880895   -0.0266448625740994   -0.0021745089769525413
0.010829145289868945   -0.0370769489707518   -0.002402986218108039
0.004910493678645166   -0.037136208474477156   -0.0023748039150835753
0.0107094231574766   -0.026737455096843995   -0.0022001908199806566
0.005110113340880895   -0.0266448625740994   -0.0021745089769525413
0.004947698318040487   -0.03711824327295663   -0.002337376871643214
0.010699557957879356   -0.026699157164338606   -0.002242399818410036
0.005111756196863156   -0.02661532285042908   -0.00218725278730383
0.004947698318040487   -0.03711824327295663   -0.002337376871643214
0.010829145289868945   -0.0370769489707518   -0.002402986218108039
0.010699557957879356   -0.026699157164338606   -0.002242399818410036
0.010867675295551162   -0.037039316308984   -0.002387691600492914
0.005111756196863156   -0.02661532285042908   -0.00218725278730383
0.010672779693490574   -0.026650965672508322   -0.002299957342821609
0.010867675295551162   -0.037039316308984   -0.002387691600492914
0.010699557957879356   -0.026699157164338606   -0.002242399818410036
0.005111756196863156   -0.02661532285042908   -0.00218725278730383
0.010867675295551162   -0.037039316308984   -0.002387691600492914
0.0049726162190330825   -0.03709730667047556   -0.0023100763884808997
0.004947698318040487   -0.03711824327295663   -0.002337376871643214
0.005111756196863156   -0.02661532285042908   -0.00218725278730383
0.010867675295551162   -0.037039316308984   -0.002387691600492914
0.004947698318040487   -0.03711824327295663   -0.002337376871643214
0.010699557957879356   -0.026699157164338606   -0.002242399818410036
0.005111756196863156   -0.02661532285042908   -0.00218725278730383
0.0049726162190330825   -0.03709730667047556   -0.0023100763884808997
0.010672779693490574   -0.026650965672508322   -0.002299957342821609
0.005100611897854272   -0.02656013377219802   -0.0022098170811779188
0.0049726162190330825   -0.03709730667047556   -0.0023100763884808997
0.010867675295551162   -0.037039316308984   -0.002387691600492914
0.010672779693490574   -0.026650965672508322   -0.002299957342821609
0.01087699746205443   -0.036978929849719226   -0.002388046171200622
0.005100611897854272   -0.02656013377219802   -0.0022098170811779188
0.010599697963104877   -0.026559105805170968   -0.0023727521009937716
0.01087699746205443   -0.036978929849719226   -0.002388046171200622
0.010672779693490574   -0.026650965672508322   -0.002299957342821609
0.005100611897854272   -0.02656013377219802   -0.0022098170811779188
0.01087699746205443   -0.036978929849719226   -0.002388046171200622
0.004977722842461365   -0.03706653147283182   -0.0022926948864484937
0.0049726162190330825   -0.03709730667047556   -0.0023100763884808997
0.005100611897854272   -0.02656013377219802   -0.0022098170811779188
0.01087699746205443   -0.036978929849719226   -0.002388046171200622
0.0049726162190330825   -0.03709730667047556   -0.0023100763884808997
0.010672779693490574   -0.026650965672508322   -0.002299957342821609
-0.016890272889174024   -0.037258003218865715   -0.0028091109318682
-0.017417752111942932   -0.047856486824438396   -0.002761722405906472
-0.011098513786323394   -0.037198402467049654   -0.002597579160124358
-0.016962348784551582   -0.037387647823330115   -0.0027320762695838695
-0.017417752111942932   -0.047856486824438396   -0.002761722405906472
-0.011632933485497163   -0.04788419310033708   -0.0026053294238858114
-0.011098513786323394   -0.037198402467049654   -0.002597579160124358
-0.011601742615626466   -0.04796367050452198   -0.0025813335691096447
-0.016962348784551582   -0.037387647823330115   -0.0027320762695838695
-0.011094099819810072   -0.03729484448131189   -0.0025342990200558782
-0.011601742615626466   -0.04796367050452198   -0.0025813335691096447
-0.011098513786323394   -0.037198402467049654   -0.002597579160124358
-0.016962348784551582   -0.037387647823330115   -0.0027320762695838695
-0.011601742615626466   -0.04796367050452198   -0.0025813335691096447
-0.017397705498574025   -0.047962825586072816   -0.0027567452114535015
-0.017417752111942932   -0.047856486824438396   -0.002761722405906472
-0.016962348784551582   -0.037387647823330115   -0.0027320762695838695
-0.011601742615626466   -0.04796367050452198   -0.0025813335691096447
-0.017417752111942932   -0.047856486824438396   -0.002761722405906472
-0.011098513786323394   -0.037198402467049654   -0.002597579160124358
-0.016962348784551582   -0.037387647823330115   -0.0027320762695838695
-0.017397705498574025   -0.047962825586072816   -0.0027567452114535015
-0.011094099819810072   -0.03729484448131189   -0.0025342990200558782
-0.01698530118395995   -0.037493396593352914   -0.0026701653020321453
-0.017397705498574025   -0.047962825586072816   -0.0027567452114535015
-0.011601742615626466   -0.04796367050452198   -0.0025813335691096447
-0.011094099819810072   -0.03729484448131189   -0.0025342990200558782
-0.011553090153843946   -0.04805173533553821   -0.002568167042143351
-0.01698530118395995   -0.037493396593352914   -0.0026701653020321453
-0.01107922309060991   -0.03738381845840648   -0.0024815264712994825
-0.011553090153843946   -0.04805173533553821   -0.002568167042143351
-0.011094099819810072   -0.03729484448131189   -0.0025342990200558782
-0.01698530118395995   -0.037493396593352914   -0.0026701653020321453
-0.011553090153843946   -0.04805173533553821   -0.002568167042143351
-0.01734447239157592   -0.04806608456910823   -0.0027679510455409484
-0.017397705498574025   -0.047962825586072816   -0.0027567452114535015
-0.01698530118395995   -0.037493396593352914   -0.0026701653020321453
-0.011553090153843946   -0.04805173533553821   -0.002568167042143351
-0.017397705498574025   -0.047962825586072816   -0.0027567452114535015
-0.011094099819810072   -0.03729484448131189   -0.0025342990200558782
-0.01698530118395995   -0.037493396593352914   -0.0026701653020321453
-0.01734447239157592   -0.04806608456910823   -0.0027679510455409484
-0.01107922309060991   -0.03738381845840648   -0.0024815264712994825
-0.01699298252048265   -0.0376082568701157   -0.0026246775987171307
-0.01734447239157592   -0.04806608456910823   -0.0027679510455409484
-0.011553090153843946   -0.04805173533553821   -0.002568167042143351
-0.01107922309060991   -0.03738381845840648   -0.0024815264712994825
-0.011490082271613522   -0.04815445182509308   -0.0025656537138236614
-0.01699298252048265   -0.0376082568701157   -0.0026246775987171307
-0.011042563171654184   -0.03747210710550311   -0.0024385246951731786
-0.011490082271613522   -0.04815445182509308   -0.0025656537138236614
-0.01107922309060991   -0.03738381845840648   -0.0024815264712994825
-0.01699298252048265   -0.0376082568701157   -0.0026246775987171307
-0.011490082271613522   -0.04815445182509308   -0.0025656537138236614
-0.01725808910304847   -0.04819910513048609   -0.0027961586994170676
-0.01734447239157592   -0.04806608456910823   -0.0027679510455409484
-0.01699298252048265   -0.0376082568701157   -0.0026246775987171307
-0.011490082271613522   -0.04815445182509308   -0.0025656537138236614
-0.01734447239157592   -0.04806608456910823   -0.0027679510455409484
-0.01107922309060991   -0.03738381845840648   -0.0024815264712994825
-0.011098513786323394   -0.037198402467049654   -0.002597579160124358
-0.011632933485497163   -0.04788419310033708   -0.0026053294238858114
-0.005718375417975252   -0.037164189108261046   -0.0024535707147682307
-0.011094099819810072   -0.03729484448131189   -0.0025342990200558782
-0.011632933485497163   -0.04788419310033708   -0.0026053294238858114
-0.006334020018346441   -0.047890198109674986   -0.002501381955446581
-0.005718375417975252   -0.037164189108261046   -0.0024535707147682307
-0.0062922842556581435   -0.047935783922015376   -0.002458772738306345
-0.011094099819810072   -0.03729484448131189   -0.0025342990200558782
-0.00569827754482694   -0.03722255963987415   -0.0023983957073643856
-0.0062922842556581435   -0.047935783922015376   -0.002458772738306345
-0.005718375417975252   -0.037164189108261046   -0.0024535707147682307
-0.011094099819810072   -0.03729484448131189   -0.0025342990200558782
-0.0062922842556581435   -0.047935783922015376   -0.002458772738306345
-0.011601742615626466   -0.04796367050452198   -0.0025813335691096447
-0.011632933485497163   -0.04788419310033708   -0.0026053294238858114
-0.011094099819810072   -0.03729484448131189   -0.0025342990200558782
-0.0062922842556581435   -0.047935783922015376   -0.002458772738306345
-0.011632933485497163   -0.04788419310033708   -0.0026053294238858114
-0.005718375417975252   -0.037164189108261046   -0.0024535707147682307
-0.011094099819810072   -0.03729484448131189   -0.0025342990200558782
-0.011601742615626466   -0.04796367050452198   -0.0025813335691096447
-0.00569827754482694   -0.03722255963987415   -0.0023983957073643856
-0.01107922309060991   -0.03738381845840648   -0.0024815264712994825
-0.011601742615626466   -0.04796367050452198   -0.0025813335691096447
-0.0062922842556581435   -0.047935783922015376   -0.002458772738306345
-0.00569827754482694   -0.03722255963987415   -0.0023983957073643856
-0.00624513517378795   -0.04799121935296501   -0.0024270336077899194
-0.01107922309060991   -0.03738381845840648   -0.0024815264712994825
-0.005673632610157366   -0.03727613381395615   -0.002353736730826401
-0.00624513517378795   -0.04799121935296501   -0.0024270336077899194
-0.00569827754482694   -0.03722255963987415   -0.0023983957073643856
-0.01107922309060991   -0.03738381845840648   -0.0024815264712994825
-0.00624513517378795   -0.04799121935296501   -0.0024270336077899194
-0.011553090153843946   -0.04805173533553821   -0.002568167042143351
-0.011601742615626466   -0.04796367050452198   -0.0025813335691096447
-0.01107922309060991   -0.03738381845840648   -0.0024815264712994825
-0.00624513517378795   -0.04799121935296501   -0.0024270336077899194
-0.011601742615626466   -0.04796367050452198   -0.0025813335691096447
-0.00569827754482694   -0.03722255963987415   -0.0023983957073643856
-0.01107922309060991   -0.03738381845840648   -0.0024815264712994825
-0.011553090153843946   -0.04805173533553821   -0.002568167042143351
-0.005673632610157366   -0.03727613381395615   -0.002353736730826401
-0.011042563171654184   -0.03747210710550311   -0.0024385246951731786
-0.011553090153843946   -0.04805173533553821   -0.002568167042143351
-0.00624513517378795   -0.04799121935296501   -0.0024270336077899194
-0.005673632610157366   -0.03727613381395615   -0.002353736730826401
-0.00619432720793195   -0.04805667724317223   -0.0024065173783735017
-0.011042563171654184   -0.03747210710550311   -0.0024385246951731786
-0.005644020419112002   -0.0373250878760091   -0.002319846790784926
-0.00619432720793195   -0.04805667724317223   -0.0024065173783735017
-0.005673632610157366   -0.03727613381395615   -0.002353736730826401
-0.011042563171654184   -0.03747210710550311   -0.0024385246951731786
-0.00619432720793195   -0.04805667724317223   -0.0024065173783735017
-0.011490082271613522   -0.04815445182509308   -0.0025656537138236614
-0.011553090153843946   -0.04805173533553821   -0.002568167042143351
-0.011042563171654184   -0.03747210710550311   -0.0024385246951731786
-0.00619432720793195   -0.04805667724317223   -0.0024065173783735017
-0.011553090153843946   -0.04805173533553821   -0.002568167042143351
-0.005673632610157366   -0.03727613381395615   -0.002353736730826401
-0.005718375417975252   -0.037164189108261046   -0.0024535707147682307
-0.006334020018346441   -0.047890198109674986   -0.002501381955446581
-0.0004838213699609847   -0.03714458367193506   -0.0023790937611180172
-0.00569827754482694   -0.03722255963987415   -0.0023983957073643856
-0.006334020018346441   -0.047890198109674986   -0.002501381955446581
-0.0011850119344183258   -0.047862096780261154   -0.002458902301902321
-0.0004838213699609847   -0.03714458367193506   -0.0023790937611180172
-0.0011356642973159039   -0.04787265365546934   -0.002398606258112408
-0.00569827754482694   -0.03722255963987415   -0.0023983957073643856
-0.0004557392339016186   -0.03716417848524248   -0.002332575720903809
-0.0011356642973159039   -0.04787265365546934   -0.002398606258112408
-0.0004838213699609847   -0.03714458367193506   -0.0023790937611180172
-0.00569827754482694   -0.03722255963987415   -0.0023983957073643856
-0.0011356642973159039   -0.04787265365546934   -0.002398606258112408
-0.0062922842556581435   -0.047935783922015376   -0.002458772738306345
-0.006334020018346441   -0.047890198109674986   -0.002501381955446581
-0.00569827754482694   -0.03722255963987415   -0.0023983957073643856
-0.0011356642973159039   -0.04787265365546934   -0.002398606258112408
-0.006334020018346441   -0.047890198109674986   -0.002501381955446581
-0.0004838213699609847   -0.03714458367193506   -0.0023790937611180172
-0.00569827754482694   -0.03722255963987415   -0.0023983957073643856
-0.0062922842556581435   -0.047935783922015376   -0.002458772738306345
-0.0004557392339016186   -0.03716417848524248   -0.002332575720903809
-0.005673632610157366   -0.03727613381395615   -0.002353736730826401
-0.0062922842556581435   -0.047935783922015376   -0.002458772738306345
-0.0011356642973159039   -0.04787265365546934   -0.002398606258112408
-0.0004557392339016186   -0.03716417848524248   -0.002332575720903809
-0.0010889793661919514   -0.047892289971522915   -0.002349103718591736
-0.005673632610157366   -0.03727613381395615   -0.002353736730826401
-0.0004314199849613035   -0.03717863721189805   -0.0022964831700712637
-0.0010889793661919514   -0.047892289971522915   -0.002349103718591736
-0.0004557392339016186   -0.03716417848524248   -0.002332575720903809
-0.005673632610157366   -0.03727613381395615   -0.002353736730826401
-0.0010889793661919514   -0.047892289971522915   -0.002349103718591736
-0.00624513517378795   -0.04799121935296501   -0.0024270336077899194
-0.0062922842556581435   -0.047935783922015376   -0.002458772738306345
-0.005673632610157366   -0.03727613381395615   -0.002353736730826401
-0.0010889793661919514   -0.047892289971522915   -0.002349103718591736
-0.0062922842556581435   -0.047935783922015376   -0.002458772738306345
-0.0004557392339016186   -0.03716417848524248   -0.002332575720903809
-0.005673632610157366   -0.03727613381395615   -0.002353736730826401
-0.00624513517378795   -0.04799121935296501   -0.0024270336077899194
-0.0004314199849613035   -0.03717863721189805   -0.0022964831700712637
-0.005644020419112002   -0.0373250878760091   -0.002319846790784926
-0.00624513517378795   -0.04799121935296501   -0.0024270336077899194
-0.0010889793661919514   -0.047892289971522915   -0.002349103718591736
-0.0004314199849613035   -0.03717863721189805   -0.0022964831700712637
-0.0010493434106091755   -0.04792145336772465   -0.002310771491718553
-0.005644020419112002   -0.0373250878760091   -0.002319846790784926
-0.0004128781159202297   -0.037187885553760035   -0.002271196099655197
-0.0010493434106091755   -0.04792145336772465   -0.002310771491718553
-0.0004314199849613035   -0.03717863721189805   -0.0022964831700712637
-0.005644020419112002   -0.0373250878760091   -0.002319846790784926
-0.0010493434106091755   -0.04792145336772465   -0.002310771491718553
-0.00619432720793195   -0.04805667724317223   -0.0024065173783735017
-0.00624513517378795   -0.04799121935296501   -0.0024270336077899194
-0.005644020419112002   -0.0373250878760091   -0.002319846790784926
-0.0010493434106091755   -0.04792145336772465   -0.002310771491718553
-0.00624513517378795   -0.04799121935296501   -0.0024270336077899194
-0.0004314199849613035   -0.03717863721189805   -0.0022964831700712637
-0.0004838213699609847   -0.03714458367193506   -0.0023790937611180172
-0.0011850119344183258   -0.047862096780261154   -0.002458902301902321
0.004910493678645166   -0.037136208474477156   -0.0023748039150835753
-0.0004557392339016186   -0.03716417848524248   -0.002332575720903809
-0.0011850119344183258   -0.047862096780261154   -0.002458902301902321
0.004118981635602184   -0.04779963637786831   -0.0024799219082561686
0.004910493678645166   -0.037136208474477156   -0.0023748039150835753
0.004181915580433785   -0.04777504649799776   -0.0024022514615134067
-0.0004557392339016186   -0.03716417848524248   -0.002332575720903809
0.004947698318040487   -0.03711824327295663   -0.002337376871643214
0.004181915580433785   -0.04777504649799776   -0.0024022514615134067
0.004910493678645166   -0.037136208474477156   -0.0023748039150835753
-0.0004557392339016186   -0.03716417848524248   -0.002332575720903809
0.004181915580433785   -0.04777504649799776   -0.0024022514615134067
-0.0011356642973159039   -0.04787265365546934   -0.002398606258112408
-0.0011850119344183258   -0.047862096780261154   -0.002458902301902321
-0.0004557392339016186   -0.03716417848524248   -0.002332575720903809
0.004181915580433785   -0.04777504649799776   -0.0024022514615134067
-0.0011850119344183258   -0.047862096780261154   -0.002458902301902321
0.004910493678645166   -0.037136208474477156   -0.0023748039150835753
-0.0004557392339016186   -0.03716417848524248   -0.002332575720903809
-0.0011356642973159039   -0.04787265365546934   -0.002398606258112408
0.004947698318040487   -0.03711824327295663   -0.002337376871643214
-0.0004314199849613035   -0.03717863721189805   -0.0022964831700712637
-0.0011356642973159039   -0.04787265365546934   -0.002398606258112408
0.004181915580433785   -0.04777504649799776   -0.0024022514615134067
0.004947698318040487   -0.03711824327295663   -0.002337376871643214
0.004240080341039051   -0.04776225880166736   -0.002335342017635506
-0.0004314199849613035   -0.03717863721189805   -0.0022964831700712637
0.0049726162190330825   -0.03709730667047556   -0.0023100763884808997
0.004240080341039051   -0.04776225880166736   -0.002335342017635506
0.004947698318040487   -0.03711824327295663   -0.002337376871643214
-0.0004314199849613035   -0.03717863721189805   -0.0022964831700712637
0.004240080341039051   -0.04776225880166736   -0.002335342017635506
-0.0010889793661919514   -0.047892289971522915   -0.002349103718591736
-0.0011356642973159039   -0.04787265365546934   -0.002398606258112408
-0.0004314199849613035   -0.03717863721189805   -0.0022964831700712637
0.004240080341039051   -0.04776225880166736   -0.002335342017635506
-0.0011356642973159039   -0.04787265365546934   -0.002398606258112408
0.004947698318040487   -0.03711824327295663   -0.002337376871643214
-0.0004314199849613035   -0.03717863721189805   -0.0022964831700712637
-0.0010889793661919514   -0.047892289971522915   -0.002349103718591736
0.0049726162190330825   -0.03709730667047556   -0.0023100763884808997
-0.0004128781159202297   -0.037187885553760035   -0.002271196099655197
-0.0010889793661919514   -0.047892289971522915   -0.002349103718591736
0.004240080341039051   -0.04776225880166736   -0.002335342017635506
0.0049726162190330825   -0.03709730667047556   -0.0023100763884808997
0.0042713063098992815   -0.047755083921880666   -0.002278491043804207
-0.0004128781159202297   -0.037187885553760035   -0.002271196099655197
0.004977722842461365   -0.03706653147283182   -0.0022926948864484937
0.0042713063098992815   -0.047755083921880666   -0.002278491043804207
0.0049726162190330825   -0.03709730667047556   -0.0023100763884808997
-0.0004128781159202297   -0.037187885553760035   -0.002271196099655197
0.0042713063098992815   -0.047755083921880666   -0.002278491043804207
-0.0010493434106091755   -0.04792145336772465   -0.002310771491718553
-0.0010889793661919514   -0.047892289971522915   -0.002349103718591736
-0.0004128781159202297   -0.037187885553760035   -0.002271196099655197
0.0042713063098992815   -0.047755083921880666   -0.002278491043804207
-0.0010889793661919514   -0.047892289971522915   -0.002349103718591736
0.0049726162190330825   -0.03709730667047556   -0.0023100763884808997
0.004910493678645166   -0.037136208474477156   -0.0023748039150835753
0.004118981635602184   -0.04779963637786831   -0.0024799219082561686
0.010756299198504543   -0.037124600327244135   -0.0024336678228460357
0.004947698318040487   -0.03711824327295663   -0.002337376871643214
0.004118981635602184   -0.04779963637786831   -0.0024799219082561686
0.009797756949032859   -0.04769467942493333   -0.002567768875422411
0.010756299198504543   -0.037124600327244135   -0.0024336678228460357
0.009961965838535994   -0.04763822646512219   -0.0024658110971110714
0.004947698318040487   -0.03711824327295663   -0.002337376871643214
0.010829145289868945   -0.0370769489707518   -0.002402986218108039
0.009961965838535994   -0.04763822646512219   -0.0024658110971110714
0.010756299198504543   -0.037124600327244135   -0.0024336678228460357
0.004947698318040487   -0.03711824327295663   -0.002337376871643214
0.009961965838535994   -0.04763822646512219   -0.0024658110971110714
0.004181915580433785   -0.04777504649799776   -0.0024022514615134067
0.004118981635602184   -0.04779963637786831   -0.0024799219082561686
0.004947698318040487   -0.03711824327295663   -0.002337376871643214
0.009961965838535994   -0.04763822646512219   -0.0024658110971110714
0.004118981635602184   -0.04779963637786831   -0.0024799219082561686
0.010756299198504543   -0.037124600327244135   -0.0024336678228460357
0.004947698318040487   -0.03711824327295663   -0.002337376871643214
0.004181915580433785   -0.04777504649799776   -0.0024022514615134067
0.010829145289868945   -0.0370769489707518   -0.002402986218108039
0.0049726162190330825   -0.03709730667047556   -0.0023100763884808997
0.004181915580433785   -0.04777504649799776   -0.0024022514615134067
0.009961965838535994   -0.04763822646512219   -0.0024658110971110714
0.010829145289868945   -0.0370769489707518   -0.002402986218108039
0.010074806701173345   -0.04761084951538167   -0.00237917881108903
0.0049726162190330825   -0.03709730667047556   -0.0023100763884808997
0.010867675295551162   -0.037039316308984   -0.002387691600492914
0.010074806701173345   -0.04761084951538167   -0.00237917881108903
0.010829145289868945   -0.0370769489707518   -0.002402986218108039
0.0049726162190330825   -0.03709730667047556   -0.0023100763884808997
0.010074806701173345   -0.04761084951538167   -0.00237917881108903
0.004240080341039051   -0.04776225880166736   -0.002335342017635506
0.004181915580433785   -0.04777504649799776   -0.0024022514615134067
0.0049726162190330825   -0.03709730667047556   -0.0023100763884808997
0.010074806701173345   -0.04761084951538167   -0.00237917881108903
0.004181915580433785   -0.04777504649799776   -0.0024022514615134067
0.010829145289868945   -0.0370769489707518   -0.002402986218108039
0.0049726162190330825   -0.03709730667047556   -0.0023100763884808997
0.004240080341039051   -0.04776225880166736   -0.002335342017635506
0.010867675295551162   -0.037039316308984   -0.002387691600492914
0.004977722842461365   -0.03706653147283182   -0.0022926948864484937
0.004240080341039051   -0.04776225880166736   -0.002335342017635506
0.010074806701173345   -0.04761084951538167   -0.00237917881108903
0.010867675295551162   -0.037039316308984   -0.002387691600492914
0.01017501170388086   -0.04758106606303681   -0.002308508327364643
0.004977722842461365   -0.03706653147283182   -0.0022926948864484937
0.01087699746205443   -0.036978929849719226   -0.002388046171200622
0.01017501170388086   -0.04758106606303681   -0.002308508327364643
0.010867675295551162   -0.037039316308984   -0.002387691600492914
0.004977722842461365   -0.03706653147283182   -0.0022926948864484937
0.01017501170388086   -0.04758106606303681   -0.002308508327364643
0.0042713063098992815   -0.047755083921880666   -0.002278491043804207
0.004240080341039051   -0.04776225880166736   -0.002335342017635506
0.004977722842461365   -0.03706653147283182   -0.0022926948864484937
0.01017501170388086   -0.04758106606303681   -0.002308508327364643
0.004240080341039051   -0.04776225880166736   -0.002335342017635506
0.010867675295551162   -0.037039316308984   -0.002387691600492914
-0.017417752111942932   -0.047856486824438396   -0.002761722405906472
-0.016951009855087962   -0.05797674375081151   -0.0026405218070994535
-0.011632933485497163   -0.04788419310033708   -0.0026053294238858114
-0.017397705498574025   -0.047962825586072816   -0.0027567452114535015
-0.016951009855087962   -0.05797674375081151   -0.0026405218070994535
-0.01158507134706726   -0.05809332130922432   -0.0025463359096283547
-0.011632933485497163   -0.04788419310033708   -0.0026053294238858114
-0.011517168013329537   -0.0581526516432407   -0.0025605794687392444
-0.017397705498574025   -0.047962825586072816   -0.0027567452114535015
-0.011601742615626466   -0.04796367050452198   -0.0025813335691096447
-0.011517168013329537   -0.0581526516432407   -0.0025605794687392444
-0.011632933485497163   -0.04788419310033708   -0.0026053294238858114
-0.017397705498574025   -0.047962825586072816   -0.0027567452114535015
-0.011517168013329537   -0.0581526516432407   -0.0025605794687392444
-0.016828431779802443   -0.058056852192741995   -0.00270774961207878
-0.016951009855087962   -0.05797674375081151   -0.0026405218070994535
-0.017397705498574025   -0.047962825586072816   -0.0027567452114535015
-0.011517168013329537   -0.0581526516432407   -0.0025605794687392444
-0.016951009855087962   -0.05797674375081151   -0.0026405218070994535
-0.011632933485497163   -0.04788419310033708   -0.0026053294238858114
-0.017397705498574025   -0.047962825586072816   -0.0027567452114535015
-0.016828431779802443   -0.058056852192741995   -0.00270774961207878
-0.011601742615626466   -0.04796367050452198   -0.0025813335691096447
-0.01734447239157592   -0.04806608456910823   -0.0027679510455409484
-0.016828431779802443   -0.058056852192741995   -0.00270774961207878
-0.011517168013329537   -0.0581526516432407   -0.0025605794687392444
-0.011601742615626466   -0.04796367050452198   -0.0025813335691096447
-0.011425239077282516   -0.05823712534112501   -0.002585925952509946
-0.01734447239157592   -0.04806608456910823   -0.0027679510455409484
-0.011553090153843946   -0.04805173533553821   -0.002568167042143351
-0.011425239077282516   -0.05823712534112501   -0.002585925952509946
-0.011601742615626466   -0.04796367050452198   -0.0025813335691096447
-0.01734447239157592   -0.04806608456910823   -0.0027679510455409484
-0.011425239077282516   -0.05823712534112501   -0.002585925952509946
-0.01668852832150304   -0.05815517689861418   -0.002792439129068149
-0.016828431779802443   -0.058056852192741995   -0.00270774961207878
-0.01734447239157592   -0.04806608456910823   -0.0027679510455409484
-0.011425239077282516   -0.05823712534112501   -0.002585925952509946
-0.016828431779802443   -0.058056852192741995   -0.00270774961207878
-0.011601742615626466   -0.04796367050452198   -0.0025813335691096447
-0.01734447239157592   -0.04806608456910823   -0.0027679510455409484
-0.01668852832150304   -0.05815517689861418   -0.002792439129068149
-0.011553090153843946   -0.04805173533553821   -0.002568167042143351
-0.01725808910304847   -0.04819910513048609   -0.0027961586994170676
-0.01668852832150304   -0.05815517689861418   -0.002792439129068149
-0.011425239077282516   -0.05823712534112501   -0.002585925952509946
-0.011553090153843946   -0.04805173533553821   -0.002568167042143351
-0.011326602706097769   -0.05835189569804248   -0.002622702428007669
-0.01725808910304847   -0.04819910513048609   -0.0027961586994170676
-0.011490082271613522   -0.04815445182509308   -0.0025656537138236614
-0.011326602706097769   -0.05835189569804248   -0.002622702428007669
-0.011553090153843946   -0.04805173533553821   -0.002568167042143351
-0.01725808910304847   -0.04819910513048609   -0.0027961586994170676
-0.011326602706097769   -0.05835189569804248   -0.002622702428007669
-0.016498032554709927   -0.05830484969388445   -0.00289491320406743
-0.01668852832150304   -0.05815517689861418   -0.002792439129068149
-0.01725808910304847   -0.04819910513048609   -0.0027961586994170676
-0.011326602706097769   -0.05835189569804248   -0.002622702428007669
-0.01668852832150304   -0.05815517689861418   -0.002792439129068149
-0.011553090153843946   -0.04805173533553821   -0.002568167042143351
-0.011632933485497163   -0.04788419310033708   -0.0026053294238858114
-0.01158507134706726   -0.05809332130922432   -0.0025463359096283547
-0.006334020018346441   -0.047890198109674986   -0.002501381955446581
-0.011601742615626466   -0.04796367050452198   -0.0025813335691096447
-0.01158507134706726   -0.05809332130922432   -0.0025463359096283547
-0.006775034666812819   -0.058139439252818885   -0.002486055224390161
-0.006334020018346441   -0.047890198109674986   -0.002501381955446581
-0.006701093296982268   -0.058170283801242055   -0.002455029466425072
-0.011601742615626466   -0.04796367050452198   -0.0025813335691096447
-0.0062922842556581435   -0.047935783922015376   -0.002458772738306345
-0.006701093296982268   -0.058170283801242055   -0.002455029466425072
-0.006334020018346441   -0.047890198109674986   -0.002501381955446581
-0.011601742615626466   -0.04796367050452198   -0.0025813335691096447
-0.006701093296982268   -0.058170283801242055   -0.002455029466425072
-0.011517168013329537   -0.0581526516432407   -0.0025605794687392444
-0.01158507134706726   -0.05809332130922432   -0.0025463359096283547
-0.011601742615626466   -0.04796367050452198   -0.0025813335691096447
-0.006701093296982268   -0.058170283801242055   -0.002455029466425072
-0.01158507134706726   -0.05809332130922432   -0.0025463359096283547
-0.006334020018346441   -0.047890198109674986   -0.002501381955446581
-0.011601742615626466   -0.04796367050452198   -0.0025813335691096447
-0.011517168013329537   -0.0581526516432407   -0.0025605794687392444
-0.0062922842556581435   -0.047935783922015376   -0.002458772738306345
-0.011553090153843946   -0.04805173533553821   -0.002568167042143351
-0.011517168013329537   -0.0581526516432407   -0.0025605794687392444
-0.006701093296982268   -0.058170283801242055   -0.002455029466425072
-0.0062922842556581435   -0.047935783922015376   -0.002458772738306345
-0.0066215550220767305   -0.05822530305323731   -0.0024349712841489285
-0.011553090153843946   -0.04805173533553821   -0.002568167042143351
-0.00624513517378795   -0.04799121935296501   -0.0024270336077899194
-0.0066215550220767305   -0.05822530305323731   -0.0024349712841489285
-0.0062922842556581435   -0.047935783922015376   -0.002458772738306345
-0.011553090153843946   -0.04805173533553821   -0.002568167042143351
-0.0066215550220767305   -0.05822530305323731   -0.0024349712841489285
-0.011425239077282516   -0.05823712534112501   -0.002585925952509946
-0.011517168013329537   -0.0581526516432407   -0.0025605794687392444
-0.011553090153843946   -0.04805173533553821   -0.002568167042143351
-0.0066215550220767305   -0.05822530305323731   -0.0024349712841489285
-0.011517168013329537   -0.0581526516432407   -0.0025605794687392444
-0.0062922842556581435   -0.047935783922015376   -0.002458772738306345
-0.011553090153843946   -0.04805173533553821   -0.002568167042143351
-0.011425239077282516   -0.05823712534112501   -0.002585925952509946
-0.00624513517378795   -0.04799121935296501   -0.0024270336077899194
-0.011490082271613522   -0.04815445182509308   -0.0025656537138236614
-0.011425239077282516   -0.05823712534112501   -0.002585925952509946
-0.0066215550220767305   -0.05822530305323731   -0.0024349712841489285
-0.00624513517378795   -0.04799121935296501   -0.0024270336077899194
-0.006539799180602438   -0.05830519260690176   -0.002426417351595732
-0.011490082271613522   -0.04815445182509308   -0.0025656537138236614
-0.00619432720793195   -0.04805667724317223   -0.0024065173783735017
-0.006539799180602438   -0.05830519260690176   -0.002426417351595732
-0.00624513517378795   -0.04799121935296501   -0.0024270336077899194
-0.011490082271613522   -0.04815445182509308   -0.0025656537138236614
-0.006539799180602438   -0.05830519260690176   -0.002426417351595732
-0.011326602706097769   -0.05835189569804248   -0.002622702428007669
-0.011425239077282516   -0.05823712534112501   -0.002585925952509946
-0.011490082271613522   -0.04815445182509308   -0.0025656537138236614
-0.006539799180602438   -0.05830519260690176   -0.002426417351595732
-0.011425239077282516   -0.05823712534112501   -0.002585925952509946
-0.00624513517378795   -0.04799121935296501   -0.0024270336077899194
-0.006334020018346441   -0.047890198109674986   -0.002501381955446581
-0.006775034666812819   -0.058139439252818885   -0.002486055224390161
-0.0011850119344183258   -0.047862096780261154   -0.002458902301902321
-0.0062922842556581435   -0.047935783922015376   -0.002458772738306345
-0.006775034666812819   -0.058139439252818885   -0.002486055224390161
-0.002110662538735973   -0.05810401507118315   -0.0024760944701593727
-0.0011850119344183258   -0.047862096780261154   -0.002458902301902321
-0.0020288800064339157   -0.0581047220221737   -0.0024013521802278286
-0.0062922842556581435   -0.047935783922015376   -0.002458772738306345
-0.0011356642973159039   -0.04787265365546934   -0.002398606258112408
-0.0020288800064339157   -0.0581047220221737   -0.0024013521802278286
-0.0011850119344183258   -0.047862096780261154   -0.002458902301902321
-0.0062922842556581435   -0.047935783922015376   -0.002458772738306345
-0.0020288800064339157   -0.0581047220221737   -0.0024013521802278286
-0.006701093296982268   -0.058170283801242055   -0.002455029466425072
-0.006775034666812819   -0.058139439252818885   -0.002486055224390161
-0.0062922842556581435   -0.047935783922015376   -0.002458772738306345
-0.0020288800064339157   -0.0581047220221737   -0.0024013521802278286
-0.006775034666812819   -0.058139439252818885   -0.002486055224390161
-0.0011850119344183258   -0.047862096780261154   -0.002458902301902321
-0.0062922842556581435   -0.047935783922015376   -0.002458772738306345
-0.006701093296982268   -0.058170283801242055   -0.002455029466425072
-0.0011356642973159039   -0.04787265365546934   -0.002398606258112408
-0.00624513517378795   -0.04799121935296501   -0.0024270336077899194
-0.006701093296982268   -0.058170283801242055   -0.002455029466425072
-0.0020288800064339157   -0.0581047220221737   -0.0024013521802278286
-0.0011356642973159039   -0.04787265365546934   -0.002398606258112408
-0.00194923963963746   -0.05812783343893981   -0.0023376048023259987
-0.00624513517378795   -0.04799121935296501   -0.0024270336077899194
-0.0010889793661919514   -0.047892289971522915   -0.002349103718591736
-0.00194923963963746   -0.05812783343893981   -0.0023376048023259987
-0.0011356642973159039   -0.04787265365546934   -0.002398606258112408
-0.00624513517378795   -0.04799121935296501   -0.0024270336077899194
-0.00194923963963746   -0.05812783343893981   -0.0023376048023259987
-0.0066215550220767305   -0.05822530305323731   -0.0024349712841489285
-0.006701093296982268   -0.058170283801242055   -0.002455029466425072
-0.00624513517378795   -0.04799121935296501   -0.0024270336077899194
-0.00194923963963746   -0.05812783343893981   -0.0023376048023259987
-0.006701093296982268   -0.058170283801242055   -0.002455029466425072
-0.0011356642973159039   -0.04787265365546934   -0.002398606258112408
-0.00624513517378795   -0.04799121935296501   -0.0024270336077899194
-0.0066215550220767305   -0.05822530305323731   -0.0024349712841489285
-0.0010889793661919514   -0.047892289971522915   -0.002349103718591736
-0.00619432720793195   -0.04805667724317223   -0.0024065173783735017
-0.0066215550220767305   -0.05822530305323731   -0.0024349712841489285
-0.00194923963963746   -0.05812783343893981   -0.0023376048023259987
-0.0010889793661919514   -0.047892289971522915   -0.002349103718591736
-0.0018781785995608574   -0.05817526369327625   -0.0022852344748282437
-0.00619432720793195   -0.04805667724317223   -0.0024065173783735017
-0.0010493434106091755   -0.04792145336772465   -0.002310771491718553
-0.0018781785995608574   -0.05817526369327625   -0.0022852344748282437
-0.0010889793661919514   -0.047892289971522915   -0.002349103718591736
-0.00619432720793195   -0.04805667724317223   -0.0024065173783735017
-0.0018781785995608574   -0.05817526369327625   -0.0022852344748282437
-0.006539799180602438   -0.05830519260690176   -0.002426417351595732
-0.0066215550220767305   -0.05822530305323731   -0.0024349712841489285
-0.00619432720793195   -0.04805667724317223   -0.0024065173783735017
-0.0018781785995608574   -0.05817526369327625   -0.0022852344748282437
-0.0066215550220767305   -0.05822530305323731   -0.0024349712841489285
-0.0010889793661919514   -0.047892289971522915   -0.002349103718591736
-0.0011850119344183258   -0.047862096780261154   -0.002458902301902321
-0.002110662538735973   -0.05810401507118315   -0.0024760944701593727
0.004118981635602184   -0.04779963637786831   -0.0024799219082561686
-0.0011356642973159039   -0.04787265365546934   -0.002398606258112408
-0.002110662538735973   -0.05810401507118315   -0.0024760944701593727
0.0027144765434838243   -0.05798944932851858   -0.0025204034128220518
0.004118981635602184   -0.04779963637786831   -0.0024799219082561686
0.0028144695871143884   -0.05795798739580905   -0.002402355761085109
-0.0011356642973159039   -0.04787265365546934   -0.002398606258112408
0.004181915580433785   -0.04777504649799776   -0.0024022514615134067
0.0028144695871143884   -0.05795798739580905   -0.002402355761085109
0.004118981635602184   -0.04779963637786831   -0.0024799219082561686
-0.0011356642973159039   -0.04787265365546934   -0.002398606258112408
0.0028144695871143884   -0.05795798739580905   -0.002402355761085109
-0.0020288800064339157   -0.0581047220221737   -0.0024013521802278286
-0.002110662538735973   -0.05810401507118315   -0.0024760944701593727
-0.0011356642973159039   -0.04787265365546934   -0.002398606258112408
0.0028144695871143884   -0.05795798739580905   -0.002402355761085109
-0.002110662538735973   -0.05810401507118315   -0.0024760944701593727
0.004118981635602184   -0.04779963637786831   -0.0024799219082561686
-0.0011356642973159039   -0.04787265365546934   -0.002398606258112408
-0.0020288800064339157   -0.0581047220221737   -0.0024013521802278286
0.004181915580433785   -0.04777504649799776   -0.0024022514615134067
-0.0010889793661919514   -0.047892289971522915   -0.002349103718591736
-0.0020288800064339157   -0.0581047220221737   -0.0024013521802278286
0.0028144695871143884   -0.05795798739580905   -0.002402355761085109
0.004181915580433785   -0.04777504649799776   -0.0024022514615134067
0.002917002730901413   -0.05795212201868457   -0.002296007080047842
-0.0010889793661919514   -0.047892289971522915   -0.002349103718591736
0.004240080341039051   -0.04776225880166736   -0.002335342017635506
0.002917002730901413   -0.05795212201868457   -0.002296007080047842
0.004181915580433785   -0.04777504649799776   -0.0024022514615134067
-0.0010889793661919514   -0.047892289971522915   -0.002349103718591736
0.002917002730901413   -0.05795212201868457   -0.002296007080047842
-0.00194923963963746   -0.05812783343893981   -0.0023376048023259987
-0.0020288800064339157   -0.0581047220221737   -0.0024013521802278286
-0.0010889793661919514   -0.047892289971522915   -0.002349103718591736
0.002917002730901413   -0.05795212201868457   -0.002296007080047842
-0.0020288800064339157   -0.0581047220221737   -0.0024013521802278286
0.004181915580433785   -0.04777504649799776   -0.0024022514615134067
-0.0010889793661919514   -0.047892289971522915   -0.002349103718591736
-0.00194923963963746   -0.05812783343893981   -0.0023376048023259987
0.004240080341039051   -0.04776225880166736   -0.002335342017635506
-0.0010493434106091755   -0.04792145336772465   -0.002310771491718553
-0.00194923963963746   -0.05812783343893981   -0.0023376048023259987
0.002917002730901413   -0.05795212201868457   -0.002296007080047842
0.004240080341039051   -0.04776225880166736   -0.002335342017635506
0.0029851938772347065   -0.05796713063413986   -0.0021998145694765853
-0.0010493434106091755   -0.04792145336772465   -0.002310771491718553
0.0042713063098992815   -0.047755083921880666   -0.002278491043804207
0.0029851938772347065   -0.05796713063413986   -0.0021998145694765853
0.004240080341039051   -0.04776225880166736   -0.002335342017635506
-0.0010493434106091755   -0.04792145336772465   -0.002310771491718553
0.0029851938772347065   -0.05796713063413986   -0.0021998145694765853
-0.0018781785995608574   -0.05817526369327625   -0.0022852344748282437
-0.00194923963963746   -0.05812783343893981   -0.0023376048023259987
-0.0010493434106091755   -0.04792145336772465   -0.002310771491718553
0.0029851938772347065   -0.05796713063413986   -0.0021998145694765853
-0.00194923963963746   -0.05812783343893981   -0.0023376048023259987
0.004240080341039051   -0.04776225880166736   -0.002335342017635506
0.004118981635602184   -0.04779963637786831   -0.0024799219082561686
0.0027144765434838243   -0.05798944932851858   -0.0025204034128220518
0.009797756949032859   -0.04769467942493333   -0.002567768875422411
0.004181915580433785   -0.04777504649799776   -0.0024022514615134067
0.0027144765434838243   -0.05798944932851858   -0.0025204034128220518
0.007847517411255372   -0.05779248434950806   -0.0026347549104697252
0.009797756949032859   -0.04769467942493333   -0.002567768875422411
0.008113553482662721   -0.057727625089238475   -0.0024629830812773284
0.004181915580433785   -0.04777504649799776   -0.0024022514615134067
0.009961965838535994   -0.04763822646512219   -0.0024658110971110714
0.008113553482662721   -0.057727625089238475   -0.0024629830812773284
0.009797756949032859   -0.04769467942493333   -0.002567768875422411
0.004181915580433785   -0.04777504649799776   -0.0024022514615134067
0.008113553482662721   -0.057727625089238475   -0.0024629830812773284
0.0028144695871143884   -0.05795798739580905   -0.002402355761085109
0.0027144765434838243   -0.05798944932851858   -0.0025204034128220518
0.004181915580433785   -0.04777504649799776   -0.0024022514615134067
0.008113553482662721   -0.057727625089238475   -0.0024629830812773284
0.0027144765434838243   -0.05798944932851858   -0.0025204034128220518
0.009797756949032859   -0.04769467942493333   -0.002567768875422411
0.004181915580433785   -0.04777504649799776   -0.0024022514615134067
0.0028144695871143884   -0.05795798739580905   -0.002402355761085109
0.009961965838535994   -0.04763822646512219   -0.0024658110971110714
0.004240080341039051   -0.04776225880166736   -0.002335342017635506
0.0028144695871143884   -0.05795798739580905   -0.002402355761085109
0.008113553482662721   -0.057727625089238475   -0.0024629830812773284
0.009961965838535994   -0.04763822646512219   -0.0024658110971110714
0.008310555500617062   -0.05770979333531771   -0.0023067695906244974
0.004240080341039051   -0.04776225880166736   -0.002335342017635506
0.010074806701173345   -0.04761084951538167   -0.00237917881108903
0.008310555500617062   -0.05770979333531771   -0.0023067695906244974
0.009961965838535994   -0.04763822646512219   -0.0024658110971110714
0.004240080341039051   -0.04776225880166736   -0.002335342017635506
0.008310555500617062   -0.05770979333531771   -0.0023067695906244974
0.002917002730901413   -0.05795212201868457   -0.002296007080047842
0.0028144695871143884   -0.05795798739580905   -0.002402355761085109
0.004240080341039051   -0.04776225880166736   -0.002335342017635506
0.008310555500617062   -0.05770979333531771   -0.0023067695906244974
0.0028144695871143884   -0.05795798739580905   -0.002402355761085109
0.009961965838535994   -0.04763822646512219   -0.0024658110971110714
0.004240080341039051   -0.04776225880166736   -0.002335342017635506
0.002917002730901413   -0.05795212201868457   -0.002296007080047842
0.010074806701173345   -0.04761084951538167   -0.00237917881108903
0.0042713063098992815   -0.047755083921880666   -0.002278491043804207
0.002917002730901413   -0.05795212201868457   -0.002296007080047842
0.008310555500617062   -0.05770979333531771   -0.0023067695906244974
0.010074806701173345   -0.04761084951538167   -0.00237917881108903
0.008510285936510561   -0.057709623831351774   -0.0021668236031994435
0.0042713063098992815   -0.047755083921880666   -0.002278491043804207
0.01017501170388086   -0.04758106606303681   -0.002308508327364643
0.008510285936510561   -0.057709623831351774   -0.0021668236031994435
0.010074806701173345   -0.04761084951538167   -0.00237917881108903
0.0042713063098992815   -0.047755083921880666   -0.002278491043804207
0.008510285936510561   -0.057709623831351774   -0.0021668236031994435
0.0029851938772347065   -0.05796713063413986   -0.0021998145694765853
0.002917002730901413   -0.05795212201868457   -0.002296007080047842
0.0042713063098992815   -0.047755083921880666   -0.002278491043804207
0.008510285936510561   -0.057709623831351774   -0.0021668236031994435
0.002917002730901413   -0.05795212201868457   -0.002296007080047842
0.010074806701173345   -0.04761084951538167   -0.00237917881108903
-0.016951009855087962   -0.05797674375081151   -0.0026405218070994535
-0.015469902352528802   -0.0669314749934202   -0.002462423550485407
-0.01158507134706726   -0.05809332130922432   -0.0025463359096283547
-0.016828431779802443   -0.058056852192741995   -0.00270774961207878
-0.015469902352528802   -0.0669314749934202   -0.002462423550485407
-0.010953793671510482   -0.06714179125401853   -0.002447241904955145
-0.01158507134706726   -0.05809332130922432   -0.0025463359096283547
-0.010841110780523435   -0.06717221147629066   -0.002496973566822533
-0.016828431779802443   -0.058056852192741995   -0.00270774961207878
-0.011517168013329537   -0.0581526516432407   -0.0025605794687392444
-0.010841110780523435   -0.06717221147629066   -0.002496973566822533
-0.01158507134706726   -0.05809332130922432   -0.0025463359096283547
-0.016828431779802443   -0.058056852192741995   -0.00270774961207878
-0.010841110780523435   -0.06717221147629066   -0.002496973566822533
-0.01523520548470263   -0.06697661942830184   -0.0026016463106872606
-0.015469902352528802   -0.0669314749934202   -0.002462423550485407
-0.016828431779802443   -0.058056852192741995   -0.00270774961207878
-0.010841110780523435   -0.06717221147629066   -0.002496973566822533
-0.015469902352528802   -0.0669314749934202   -0.002462423550485407
-0.01158507134706726   -0.05809332130922432   -0.0025463359096283547
-0.016828431779802443   -0.058056852192741995   -0.00270774961207878
-0.01523520548470263   -0.06697661942830184   -0.0026016463106872606
-0.011517168013329537   -0.0581526516432407   -0.0025605794687392444
-0.01668852832150304   -0.05815517689861418   -0.002792439129068149
-0.01523520548470263   -0.06697661942830184   -0.0026016463106872606
-0.010841110780523435   -0.06717221147629066   -0.002496973566822533
-0.011517168013329537   -0.0581526516432407   -0.0025605794687392444
-0.010699578390844844   -0.06724508987590941   -0.002557972571854276
-0.01668852832150304   -0.05815517689861418   -0.002792439129068149
-0.011425239077282516   -0.05823712534112501   -0.002585925952509946
-0.010699578390844844   -0.06724508987590941   -0.002557972571854276
-0.011517168013329537   -0.0581526516432407   -0.0025605794687392444
-0.01668852832150304   -0.05815517689861418   -0.002792439129068149
-0.010699578390844844   -0.06724508987590941   -0.002557972571854276
-0.015001105073877802   -0.06706214723466686   -0.0027592156642878536
-0.01523520548470263   -0.06697661942830184   -0.0026016463106872606
-0.01668852832150304   -0.05815517689861418   -0.002792439129068149
-0.010699578390844844   -0.06724508987590941   -0.002557972571854276
-0.01523520548470263   -0.06697661942830184   -0.0026016463106872606
-0.011517168013329537   -0.0581526516432407   -0.0025605794687392444
-0.01668852832150304   -0.05815517689861418   -0.002792439129068149
-0.015001105073877802   -0.06706214723466686   -0.0027592156642878536
-0.011425239077282516   -0.05823712534112501   -0.002585925952509946
-0.016498032554709927   -0.05830484969388445   -0.00289491320406743
-0.015001105073877802   -0.06706214723466686   -0.0027592156642878536
-0.010699578390844844   -0.06724508987590941   -0.002557972571854276
-0.011425239077282516   -0.05823712534112501   -0.002585925952509946
-0.010559931060124206   -0.06736456584348685   -0.002630133128920206
-0.016498032554709927   -0.05830484969388445   -0.00289491320406743
-0.011326602706097769   -0.05835189569804248   -0.002622702428007669
-0.010559931060124206   -0.06736456584348685   -0.002630133128920206
-0.011425239077282516   -0.05823712534112501   -0.002585925952509946
-0.016498032554709927   -0.05830484969388445   -0.00289491320406743
-0.010559931060124206   -0.06736456584348685   -0.002630133128920206
-0.01470123765687242   -0.06722163113952617   -0.0029347935161361063
-0.015001105073877802   -0.06706214723466686   -0.0027592156642878536
-0.016498032554709927   -0.05830484969388445   -0.00289491320406743
-0.010559931060124206   -0.06736456584348685   -0.002630133128920206
-0.015001105073877802   -0.06706214723466686   -0.0027592156642878536
-0.011425239077282516   -0.05823712534112501   -0.002585925952509946
-0.01158507134706726   -0.05809332130922432   -0.0025463359096283547
-0.010953793671510482   -0.06714179125401853   -0.002447241904955145
-0.006775034666812819   -0.058139439252818885   -0.002486055224390161
-0.011517168013329537   -0.0581526516432407   -0.0025605794687392444
-0.010953793671510482   -0.06714179125401853   -0.002447241904955145
-0.007043405736105177   -0.06724030866136566   -0.0024412175534332336
-0.006775034666812819   -0.058139439252818885   -0.002486055224390161
-0.006927794441463218   -0.06725028455596135   -0.002418963297651355
-0.011517168013329537   -0.0581526516432407   -0.0025605794687392444
-0.006701093296982268   -0.058170283801242055   -0.002455029466425072
-0.006927794441463218   -0.06725028455596135   -0.002418963297651355
-0.006775034666812819   -0.058139439252818885   -0.002486055224390161
-0.011517168013329537   -0.0581526516432407   -0.0025605794687392444
-0.006927794441463218   -0.06725028455596135   -0.002418963297651355
-0.010841110780523435   -0.06717221147629066   -0.002496973566822533
-0.010953793671510482   -0.06714179125401853   -0.002447241904955145
-0.011517168013329537   -0.0581526516432407   -0.0025605794687392444
-0.006927794441463218   -0.06725028455596135   -0.002418963297651355
-0.010953793671510482   -0.06714179125401853   -0.002447241904955145
-0.006775034666812819   -0.058139439252818885   -0.002486055224390161
-0.011517168013329537   -0.0581526516432407   -0.0025605794687392444
-0.010841110780523435   -0.06717221147629066   -0.002496973566822533
-0.006701093296982268   -0.058170283801242055   -0.002455029466425072
-0.011425239077282516   -0.05823712534112501   -0.002585925952509946
-0.010841110780523435   -0.06717221147629066   -0.002496973566822533
-0.006927794441463218   -0.06725028455596135   -0.002418963297651355
-0.006701093296982268   -0.058170283801242055   -0.002455029466425072
-0.0068084697701733254   -0.06729817191832084   -0.002407642792692007
-0.011425239077282516   -0.05823712534112501   -0.002585925952509946
-0.0066215550220767305   -0.05822530305323731   -0.0024349712841489285
-0.0068084697701733254   -0.06729817191832084   -0.002407642792692007
-0.006701093296982268   -0.058170283801242055   -0.002455029466425072
-0.011425239077282516   -0.05823712534112501   -0.002585925952509946
-0.0068084697701733254   -0.06729817191832084   -0.002407642792692007
-0.010699578390844844   -0.06724508987590941   -0.002557972571854276
-0.010841110780523435   -0.06717221147629066   -0.002496973566822533
-0.011425239077282516   -0.05823712534112501   -0.002585925952509946
-0.0068084697701733254   -0.06729817191832084   -0.002407642792692007
-0.010841110780523435   -0.06717221147629066   -0.002496973566822533
-0.006701093296982268   -0.058170283801242055   -0.002455029466425072
-0.011425239077282516   -0.05823712534112501   -0.002585925952509946
-0.010699578390844844   -0.06724508987590941   -0.002557972571854276
-0.0066215550220767305   -0.05822530305323731   -0.0024349712841489285
-0.011326602706097769   -0.05835189569804248   -0.002622702428007669
-0.010699578390844844   -0.06724508987590941   -0.002557972571854276
-0.0068084697701733254   -0.06729817191832084   -0.002407642792692007
-0.0066215550220767305   -0.05822530305323731   -0.0024349712841489285
-0.006689340284066874   -0.0673862049112836   -0.002407115829252053
-0.011326602706097769   -0.05835189569804248   -0.002622702428007669
-0.006539799180602438   -0.05830519260690176   -0.002426417351595732
-0.006689340284066874   -0.0673862049112836   -0.002407115829252053
-0.0066215550220767305   -0.05822530305323731   -0.0024349712841489285
-0.011326602706097769   -0.05835189569804248   -0.002622702428007669
-0.006689340284066874   -0.0673862049112836   -0.002407115829252053
-0.010559931060124206   -0.06736456584348685   -0.002630133128920206
-0.010699578390844844   -0.06724508987590941   -0.002557972571854276
-0.011326602706097769   -0.05835189569804248   -0.002622702428007669
-0.006689340284066874   -0.0673862049112836   -0.002407115829252053
-0.010699578390844844   -0.06724508987590941   -0.002557972571854276
-0.0066215550220767305   -0.05822530305323731   -0.0024349712841489285
-0.006775034666812819   -0.058139439252818885   -0.002486055224390161
-0.007043405736105177   -0.06724030866136566   -0.0024412175534332336
-0.002110662538735973   -0.05810401507118315   -0.0024760944701593727
-0.006701093296982268   -0.058170283801242055   -0.002455029466425072
-0.007043405736105177   -0.06724030866136566   -0.0024412175534332336
-0.003262836433705092   -0.06722242606609605   -0.0024692683550891137
-0.002110662538735973   -0.05810401507118315   -0.0024760944701593727
-0.0031362017164895304   -0.06720944114702852   -0.0023775539480801375
-0.006701093296982268   -0.058170283801242055   -0.002455029466425072
-0.0020288800064339157   -0.0581047220221737   -0.0024013521802278286
-0.0031362017164895304   -0.06720944114702852   -0.0023775539480801375
-0.002110662538735973   -0.05810401507118315   -0.0024760944701593727
-0.006701093296982268   -0.058170283801242055   -0.002455029466425072
-0.0031362017164895304   -0.06720944114702852   -0.0023775539480801375
-0.006927794441463218   -0.06725028455596135   -0.002418963297651355
-0.007043405736105177   -0.06724030866136566   -0.0024412175534332336
-0.006701093296982268   -0.058170283801242055   -0.002455029466425072
-0.0031362017164895304   -0.06720944114702852   -0.0023775539480801375
-0.007043405736105177   -0.06724030866136566   -0.0024412175534332336
-0.002110662538735973   -0.05810401507118315   -0.0024760944701593727
-0.006701093296982268   -0.058170283801242055   -0.002455029466425072
-0.006927794441463218   -0.06725028455596135   -0.002418963297651355
-0.0020288800064339157   -0.0581047220221737   -0.0024013521802278286
-0.0066215550220767305   -0.05822530305323731   -0.0024349712841489285
-0.006927794441463218   -0.06725028455596135   -0.002418963297651355
-0.0031362017164895304   -0.06720944114702852   -0.0023775539480801375
-0.0020288800064339157   -0.0581047220221737   -0.0024013521802278286
-0.0030133015557615734   -0.06723073758568185   -0.0022974944003651947
-0.0066215550220767305   -0.05822530305323731   -0.0024349712841489285
-0.00194923963963746   -0.05812783343893981   -0.0023376048023259987
-0.0030133015557615734   -0.06723073758568185   -0.0022974944003651947
-0.0020288800064339157   -0.0581047220221737   -0.0024013521802278286
-0.0066215550220767305   -0.05822530305323731   -0.0024349712841489285
-0.0030133015557615734   -0.06723073758568185   -0.0022974944003651947
-0.0068084697701733254   -0.06729817191832084   -0.002407642792692007
-0.006927794441463218   -0.06725028455596135   -0.002418963297651355
-0.0066215550220767305   -0.05822530305323731   -0.0024349712841489285
-0.0030133015557615734   -0.06723073758568185   -0.0022974944003651947
-0.006927794441463218   -0.06725028455596135   -0.002418963297651355
-0.0020288800064339157   -0.0581047220221737   -0.0024013521802278286
-0.0066215550220767305   -0.05822530305323731   -0.0024349712841489285
-0.0068084697701733254   -0.06729817191832084   -0.002407642792692007
-0.00194923963963746   -0.05812783343893981   -0.0023376048023259987
-0.006539799180602438   -0.05830519260690176   -0.002426417351595732
-0.0068084697701733254   -0.06729817191832084   -0.002407642792692007
-0.0030133015557615734   -0.06723073758568185   -0.0022974944003651947
-0.00194923963963746   -0.05812783343893981   -0.0023376048023259987
-0.002902265974513462   -0.0672912893916842   -0.00222808039050037
-0.006539799180602438   -0.05830519260690176   -0.002426417351595732
-0.0018781785995608574   -0.05817526369327625   -0.0022852344748282437
-0.002902265974513462   -0.0672912893916842   -0.00222808039050037
-0.00194923963963746   -0.05812783343893981   -0.0023376048023259987
-0.006539799180602438   -0.05830519260690176   -0.002426417351595732
-0.002902265974513462   -0.0672912893916842   -0.00222808039050037
-0.006689340284066874   -0.0673862049112836   -0.002407115829252053
-0.0068084697701733254   -0.06729817191832084   -0.002407642792692007
-0.006539799180602438   -0.05830519260690176   -0.002426417351595732
-0.002902265974513462   -0.0672912893916842   -0.00222808039050037
-0.0068084697701733254   -0.06729817191832084   -0.002407642792692007
-0.00194923963963746   -0.05812783343893981   -0.0023376048023259987
-0.002110662538735973   -0.05810401507118315   -0.0024760944701593727
-0.003262836433705092   -0.06722242606609605   -0.0024692683550891137
0.0027144765434838243   -0.05798944932851858   -0.0025204034128220518
-0.0020288800064339157   -0.0581047220221737   -0.0024013521802278286
-0.003262836433705092   -0.06722242606609605   -0.0024692683550891137
0.0006949145277326812   -0.06708397946046266   -0.002537552911775814
0.0027144765434838243   -0.05798944932851858   -0.0025204034128220518
0.0008489658184312208   -0.06704183455179111   -0.0023766169343046656
-0.0020288800064339157   -0.0581047220221737   -0.0024013521802278286
0.0028144695871143884   -0.05795798739580905   -0.002402355761085109
0.0008489658184312208   -0.06704183455179111   -0.0023766169343046656
0.0027144765434838243   -0.05798944932851858   -0.0025204034128220518
-0.0020288800064339157   -0.0581047220221737   -0.0024013521802278286
0.0008489658184312208   -0.06704183455179111   -0.0023766169343046656
-0.0031362017164895304   -0.06720944114702852   -0.0023775539480801375
-0.003262836433705092   -0.06722242606609605   -0.0024692683550891137
-0.0020288800064339157   -0.0581047220221737   -0.0024013521802278286
0.0008489658184312208   -0.06704183455179111   -0.0023766169343046656
-0.003262836433705092   -0.06722242606609605   -0.0024692683550891137
0.0027144765434838243   -0.05798944932851858   -0.0025204034128220518
-0.0020288800064339157   -0.0581047220221737   -0.0024013521802278286
-0.0031362017164895304   -0.06720944114702852   -0.0023775539480801375
0.0028144695871143884   -0.05795798739580905   -0.002402355761085109
-0.00194923963963746   -0.05812783343893981   -0.0023376048023259987
-0.0031362017164895304   -0.06720944114702852   -0.0023775539480801375
0.0008489658184312208   -0.06704183455179111   -0.0023766169343046656
0.0028144695871143884   -0.05795798739580905   -0.002402355761085109
0.0010113110545407322   -0.06703801808892346   -0.002230455017224053
-0.00194923963963746   -0.05812783343893981   -0.0023376048023259987
0.002917002730901413   -0.05795212201868457   -0.002296007080047842
0.0010113110545407322   -0.06703801808892346   -0.002230455017224053
0.0028144695871143884   -0.05795798739580905   -0.002402355761085109
-0.00194923963963746   -0.05812783343893981   -0.0023376048023259987
0.0010113110545407322   -0.06703801808892346   -0.002230455017224053
-0.0030133015557615734   -0.06723073758568185   -0.0022974944003651947
-0.0031362017164895304   -0.06720944114702852   -0.0023775539480801375
-0.00194923963963746   -0.05812783343893981   -0.0023376048023259987
0.0010113110545407322   -0.06703801808892346   -0.002230455017224053
-0.0031362017164895304   -0.06720944114702852   -0.0023775539480801375
0.0028144695871143884   -0.05795798739580905   -0.002402355761085109
-0.00194923963963746   -0.05812783343893981   -0.0023376048023259987
-0.0030133015557615734   -0.06723073758568185   -0.0022974944003651947
0.002917002730901413   -0.05795212201868457   -0.002296007080047842
-0.0018781785995608574   -0.05817526369327625   -0.0022852344748282437
-0.0030133015557615734   -0.06723073758568185   -0.0022974944003651947
0.0010113110545407322   -0.06703801808892346   -0.002230455017224053
0.002917002730901413   -0.05795212201868457   -0.002296007080047842
0.001130044857950129   -0.06707078615104023   -0.0020944658647047898
-0.0018781785995608574   -0.05817526369327625   -0.0022852344748282437
0.0029851938772347065   -0.05796713063413986   -0.0021998145694765853
0.001130044857950129   -0.06707078615104023   -0.0020944658647047898
0.002917002730901413   -0.05795212201868457   -0.002296007080047842
-0.0018781785995608574   -0.05817526369327625   -0.0022852344748282437
0.001130044857950129   -0.06707078615104023   -0.0020944658647047898
-0.002902265974513462   -0.0672912893916842   -0.00222808039050037
-0.0030133015557615734   -0.06723073758568185   -0.0022974944003651947
-0.0018781785995608574   -0.05817526369327625   -0.0022852344748282437
0.001130044857950129   -0.06707078615104023   -0.0020944658647047898
-0.0030133015557615734   -0.06723073758568185   -0.0022974944003651947
0.002917002730901413   -0.05795212201868457   -0.002296007080047842
0.0027144765434838243   -0.05798944932851858   -0.0025204034128220518
0.0006949145277326812   -0.06708397946046266   -0.002537552911775814
0.007847517411255372   -0.05779248434950806   -0.0026347549104697252
0.0028144695871143884   -0.05795798739580905   -0.002402355761085109
0.0006949145277326812   -0.06708397946046266   -0.002537552911775814
0.004914379215998171   -0.06681184095681106   -0.0026835563215457203
0.007847517411255372   -0.05779248434950806   -0.0026347549104697252
0.005304540239811092   -0.0667309521460178   -0.0024372493653835466
0.0028144695871143884   -0.05795798739580905   -0.002402355761085109
0.008113553482662721   -0.057727625089238475   -0.0024629830812773284
0.005304540239811092   -0.0667309521460178   -0.0024372493653835466
0.007847517411255372   -0.05779248434950806   -0.0026347549104697252
0.0028144695871143884   -0.05795798739580905   -0.002402355761085109
0.005304540239811092   -0.0667309521460178   -0.0024372493653835466
0.0008489658184312208   -0.06704183455179111   -0.0023766169343046656
0.0006949145277326812   -0.06708397946046266   -0.002537552911775814
0.0028144695871143884   -0.05795798739580905   -0.002402355761085109
0.005304540239811092   -0.0667309521460178   -0.0024372493653835466
0.0006949145277326812   -0.06708397946046266   -0.002537552911775814
0.007847517411255372   -0.05779248434950806   -0.0026347549104697252
0.0028144695871143884   -0.05795798739580905   -0.002402355761085109
0.0008489658184312208   -0.06704183455179111   -0.0023766169343046656
0.008113553482662721   -0.057727625089238475   -0.0024629830812773284
0.002917002730901413   -0.05795212201868457   -0.002296007080047842
0.0008489658184312208   -0.06704183455179111   -0.0023766169343046656
0.005304540239811092   -0.0667309521460178   -0.0024372493653835466
0.008113553482662721   -0.057727625089238475   -0.0024629830812773284
0.005603684406124746   -0.0667169457940134   -0.0022092635586322693
0.002917002730901413   -0.05795212201868457   -0.002296007080047842
0.008310555500617062   -0.05770979333531771   -0.0023067695906244974
0.005603684406124746   -0.0667169457940134   -0.0022092635586322693
0.008113553482662721   -0.057727625089238475   -0.0024629830812773284
0.002917002730901413   -0.05795212201868457   -0.002296007080047842
0.005603684406124746   -0.0667169457940134   -0.0022092635586322693
0.0010113110545407322   -0.06703801808892346   -0.002230455017224053
0.0008489658184312208   -0.06704183455179111   -0.0023766169343046656
0.002917002730901413   -0.05795212201868457   -0.002296007080047842
0.005603684406124746   -0.0667169457940134   -0.0022092635586322693
0.0008489658184312208   -0.06704183455179111   -0.0023766169343046656
0.008113553482662721   -0.057727625089238475   -0.0024629830812773284
0.002917002730901413   -0.05795212201868457   -0.002296007080047842
0.0010113110545407322   -0.06703801808892346   -0.002230455017224053
0.008310555500617062   -0.05770979333531771   -0.0023067695906244974
0.0029851938772347065   -0.05796713063413986   -0.0021998145694765853
0.0010113110545407322   -0.06703801808892346   -0.002230455017224053
0.005603684406124746   -0.0667169457940134   -0.0022092635586322693
0.008310555500617062   -0.05770979333531771   -0.0023067695906244974
0.005913599420774436   -0.06674093095100278   -0.0020014617962591636
0.0029851938772347065   -0.05796713063413986   -0.0021998145694765853
0.008510285936510561   -0.057709623831351774   -0.0021668236031994435
0.005913599420774436   -0.06674093095100278   -0.0020014617962591636
0.008310555500617062   -0.05770979333531771   -0.0023067695906244974
0.0029851938772347065   -0.05796713063413986   -0.0021998145694765853
0.005913599420774436   -0.06674093095100278   -0.0020014617962591636
0.001130044857950129   -0.06707078615104023   -0.0020944658647047898
0.0010113110545407322   -0.06703801808892346   -0.002230455017224053
0.0029851938772347065   -0.05796713063413986   -0.0021998145694765853
0.005913599420774436   -0.06674093095100278   -0.0020014617962591636
0.0010113110545407322   -0.06703801808892346   -0.002230455017224053
0.008310555500617062   -0.05770979333531771   -0.0023067695906244974
-0.015469902352528802   -0.0669314749934202   -0.002462423550485407
-0.012956280140125379   -0.07396037974014581   -0.002234133964003051
-0.010953793671510482   -0.06714179125401853   -0.002447241904955145
-0.01523520548470263   -0.06697661942830184   -0.0026016463106872606
-0.012956280140125379   -0.07396037974014581   -0.002234133964003051
-0.00974235193019802   -0.0742718330464125   -0.002327555949802869
-0.010953793671510482   -0.06714179125401853   -0.002447241904955145
-0.009580039328621318   -0.07425578418268382   -0.002404092504458114
-0.01523520548470263   -0.06697661942830184   -0.0026016463106872606
-0.010841110780523435   -0.06717221147629066   -0.002496973566822533
-0.009580039328621318   -0.07425578418268382   -0.002404092504458114
-0.010953793671510482   -0.06714179125401853   -0.002447241904955145
-0.01523520548470263   -0.06697661942830184   -0.0026016463106872606
-0.009580039328621318   -0.07425578418268382   -0.002404092504458114
-0.01260640156003655   -0.07395160876675734   -0.002440496235435904
-0.012956280140125379   -0.07396037974014581   -0.002234133964003051
-0.01523520548470263   -0.06697661942830184   -0.0026016463106872606
-0.009580039328621318   -0.07425578418268382   -0.002404092504458114
-0.012956280140125379   -0.07396037974014581   -0.002234133964003051
-0.010953793671510482   -0.06714179125401853   -0.002447241904955145
-0.01523520548470263   -0.06697661942830184   -0.0026016463106872606
-0.01260640156003655   -0.07395160876675734   -0.002440496235435904
-0.010841110780523435   -0.06717221147629066   -0.002496973566822533
-0.015001105073877802   -0.06706214723466686   -0.0027592156642878536
-0.01260640156003655   -0.07395160876675734   -0.002440496235435904
-0.009580039328621318   -0.07425578418268382   -0.002404092504458114
-0.010841110780523435   -0.06717221147629066   -0.002496973566822533
-0.009389137135386843   -0.07430060152447876   -0.0024921412237919574
-0.015001105073877802   -0.06706214723466686   -0.0027592156642878536
-0.010699578390844844   -0.06724508987590941   -0.002557972571854276
-0.009389137135386843   -0.07430060152447876   -0.0024921412237919574
-0.010841110780523435   -0.06717221147629066   -0.002496973566822533
-0.015001105073877802   -0.06706214723466686   -0.0027592156642878536
-0.009389137135386843   -0.07430060152447876   -0.0024921412237919574
-0.012283884641306347   -0.07400698475006931   -0.0026630715245774513
-0.01260640156003655   -0.07395160876675734   -0.002440496235435904
-0.015001105073877802   -0.06706214723466686   -0.0027592156642878536
-0.009389137135386843   -0.07430060152447876   -0.0024921412237919574
-0.01260640156003655   -0.07395160876675734   -0.002440496235435904
-0.010841110780523435   -0.06717221147629066   -0.002496973566822533
-0.015001105073877802   -0.06706214723466686   -0.0027592156642878536
-0.012283884641306347   -0.07400698475006931   -0.0026630715245774513
-0.010699578390844844   -0.06724508987590941   -0.002557972571854276
-0.01470123765687242   -0.06722163113952617   -0.0029347935161361063
-0.012283884641306347   -0.07400698475006931   -0.0026630715245774513
-0.009389137135386843   -0.07430060152447876   -0.0024921412237919574
-0.010699578390844844   -0.06724508987590941   -0.002557972571854276
-0.009215951241088606   -0.0744073057780349   -0.0025909657268547515
-0.01470123765687242   -0.06722163113952617   -0.0029347935161361063
-0.010559931060124206   -0.06736456584348685   -0.002630133128920206
-0.009215951241088606   -0.0744073057780349   -0.0025909657268547515
-0.010699578390844844   -0.06724508987590941   -0.002557972571854276
-0.01470123765687242   -0.06722163113952617   -0.0029347935161361063
-0.009215951241088606   -0.0744073057780349   -0.0025909657268547515
-0.011890524655884723   -0.07415487799695235   -0.002900904378406642
-0.012283884641306347   -0.07400698475006931   -0.0026630715245774513
-0.01470123765687242   -0.06722163113952617   -0.0029347935161361063
-0.009215951241088606   -0.0744073057780349   -0.0025909657268547515
-0.012283884641306347   -0.07400698475006931   -0.0026630715245774513
-0.010699578390844844   -0.06724508987590941   -0.002557972571854276
-0.010953793671510482   -0.06714179125401853   -0.002447241904955145
-0.00974235193019802   -0.0742718330464125   -0.002327555949802869
-0.007043405736105177   -0.06724030866136566   -0.0024412175534332336
-0.010841110780523435   -0.06717221147629066   -0.002496973566822533
-0.00974235193019802   -0.0742718330464125   -0.002327555949802869
-0.007116535664061114   -0.07447374263950209   -0.002400666554243912
-0.007043405736105177   -0.06724030866136566   -0.0024412175534332336
-0.00694997559179269   -0.07444803803094573   -0.0023772536912915953
-0.010841110780523435   -0.06717221147629066   -0.002496973566822533
-0.006927794441463218   -0.06725028455596135   -0.002418963297651355
-0.00694997559179269   -0.07444803803094573   -0.0023772536912915953
-0.007043405736105177   -0.06724030866136566   -0.0024412175534332336
-0.010841110780523435   -0.06717221147629066   -0.002496973566822533
-0.00694997559179269   -0.07444803803094573   -0.0023772536912915953
-0.009580039328621318   -0.07425578418268382   -0.002404092504458114
-0.00974235193019802   -0.0742718330464125   -0.002327555949802869
-0.010841110780523435   -0.06717221147629066   -0.002496973566822533
-0.00694997559179269   -0.07444803803094573   -0.0023772536912915953
-0.00974235193019802   -0.0742718330464125   -0.002327555949802869
-0.007043405736105177   -0.06724030866136566   -0.0024412175534332336
-0.010841110780523435   -0.06717221147629066   -0.002496973566822533
-0.009580039328621318   -0.07425578418268382   -0.002404092504458114
-0.006927794441463218   -0.06725028455596135   -0.002418963297651355
-0.010699578390844844   -0.06724508987590941   -0.002557972571854276
-0.009580039328621318   -0.07425578418268382   -0.002404092504458114
-0.00694997559179269   -0.07444803803094573   -0.0023772536912915953
-0.006927794441463218   -0.06725028455596135   -0.002418963297651355
-0.006785760280182935   -0.07447487078110515   -0.0023650220331808422
-0.010699578390844844   -0.06724508987590941   -0.002557972571854276
-0.0068084697701733254   -0.06729817191832084   -0.002407642792692007
-0.006785760280182935   -0.07447487078110515   -0.0023650220331808422
-0.006927794441463218   -0.06725028455596135   -0.002418963297651355
-0.010699578390844844   -0.06724508987590941   -0.002557972571854276
-0.006785760280182935   -0.07447487078110515   -0.0023650220331808422
-0.009389137135386843   -0.07430060152447876   -0.0024921412237919574
-0.009580039328621318   -0.07425578418268382   -0.002404092504458114
-0.010699578390844844   -0.06724508987590941   -0.002557972571854276
-0.006785760280182935   -0.07447487078110515   -0.0023650220331808422
-0.009580039328621318   -0.07425578418268382   -0.002404092504458114
-0.006927794441463218   -0.06725028455596135   -0.002418963297651355
-0.010699578390844844   -0.06724508987590941   -0.002557972571854276
-0.009389137135386843   -0.07430060152447876   -0.0024921412237919574
-0.0068084697701733254   -0.06729817191832084   -0.002407642792692007
-0.010559931060124206   -0.06736456584348685   -0.002630133128920206
-0.009389137135386843   -0.07430060152447876   -0.0024921412237919574
-0.006785760280182935   -0.07447487078110515   -0.0023650220331808422
-0.0068084697701733254   -0.06729817191832084   -0.002407642792692007
-0.0066346647524119255   -0.07455598763033863   -0.0023663142474860395
-0.010559931060124206   -0.06736456584348685   -0.002630133128920206
-0.006689340284066874   -0.0673862049112836   -0.002407115829252053
-0.0066346647524119255   -0.07455598763033863   -0.0023663142474860395
-0.0068084697701733254   -0.06729817191832084   -0.002407642792692007
-0.010559931060124206   -0.06736456584348685   -0.002630133128920206
-0.0066346647524119255   -0.07455598763033863   -0.0023663142474860395
-0.009215951241088606   -0.0744073057780349   -0.0025909657268547515
-0.009389137135386843   -0.07430060152447876   -0.0024921412237919574
-0.010559931060124206   -0.06736456584348685   -0.002630133128920206
-0.0066346647524119255   -0.07455598763033863   -0.0023663142474860395
-0.009389137135386843   -0.07430060152447876   -0.0024921412237919574
-0.0068084697701733254   -0.06729817191832084   -0.002407642792692007
-0.007043405736105177   -0.06724030866136566   -0.0024412175534332336
-0.007116535664061114   -0.07447374263950209   -0.002400666554243912
-0.003262836433705092   -0.06722242606609605   -0.0024692683550891137
-0.006927794441463218   -0.06725028455596135   -0.002418963297651355
-0.007116535664061114   -0.07447374263950209   -0.002400666554243912
-0.004601561348692223   -0.07457988440788571   -0.00248704797593649
-0.003262836433705092   -0.06722242606609605   -0.0024692683550891137
-0.004413799296565805   -0.07454280623075647   -0.0023693787766103014
-0.006927794441463218   -0.06725028455596135   -0.002418963297651355
-0.0031362017164895304   -0.06720944114702852   -0.0023775539480801375
-0.004413799296565805   -0.07454280623075647   -0.0023693787766103014
-0.003262836433705092   -0.06722242606609605   -0.0024692683550891137
-0.006927794441463218   -0.06725028455596135   -0.002418963297651355
-0.004413799296565805   -0.07454280623075647   -0.0023693787766103014
-0.00694997559179269   -0.07444803803094573   -0.0023772536912915953
-0.007116535664061114   -0.07447374263950209   -0.002400666554243912
-0.006927794441463218   -0.06725028455596135   -0.002418963297651355
-0.004413799296565805   -0.07454280623075647   -0.0023693787766103014
-0.007116535664061114   -0.07447374263950209   -0.002400666554243912
-0.003262836433705092   -0.06722242606609605   -0.0024692683550891137
-0.006927794441463218   -0.06725028455596135   -0.002418963297651355
-0.00694997559179269   -0.07444803803094573   -0.0023772536912915953
-0.0031362017164895304   -0.06720944114702852   -0.0023775539480801375
-0.0068084697701733254   -0.06729817191832084   -0.002407642792692007
-0.00694997559179269   -0.07444803803094573   -0.0023772536912915953
-0.004413799296565805   -0.07454280623075647   -0.0023693787766103014
-0.0031362017164895304   -0.06720944114702852   -0.0023775539480801375
-0.004234817732138653   -0.07455192191155982   -0.0022615914614154964
-0.0068084697701733254   -0.06729817191832084   -0.002407642792692007
-0.0030133015557615734   -0.06723073758568185   -0.0022974944003651947
-0.004234817732138653   -0.07455192191155982   -0.0022615914614154964
-0.0031362017164895304   -0.06720944114702852   -0.0023775539480801375
-0.0068084697701733254   -0.06729817191832084   -0.002407642792692007
-0.004234817732138653   -0.07455192191155982   -0.0022615914614154964
-0.006785760280182935   -0.07447487078110515   -0.0023650220331808422
-0.00694997559179269   -0.07444803803094573   -0.0023772536912915953
-0.0068084697701733254   -0.06729817191832084   -0.002407642792692007
-0.004234817732138653   -0.07455192191155982   -0.0022615914614154964
-0.00694997559179269   -0.07444803803094573   -0.0023772536912915953
-0.0031362017164895304   -0.06720944114702852   -0.0023775539480801375
-0.0068084697701733254   -0.06729817191832084   -0.002407642792692007
-0.006785760280182935   -0.07447487078110515   -0.0023650220331808422
-0.0030133015557615734   -0.06723073758568185   -0.0022974944003651947
-0.006689340284066874   -0.0673862049112836   -0.002407115829252053
-0.006785760280182935   -0.07447487078110515   -0.0023650220331808422
-0.004234817732138653   -0.07455192191155982   -0.0022615914614154964
-0.0030133015557615734   -0.06723073758568185   -0.0022974944003651947
-0.004085967424031396   -0.07461623939671638   -0.0021698641593886994
-0.006689340284066874   -0.0673862049112836   -0.002407115829252053
-0.002902265974513462   -0.0672912893916842   -0.00222808039050037
-0.004085967424031396   -0.07461623939671638   -0.0021698641593886994
-0.0030133015557615734   -0.06723073758568185   -0.0022974944003651947
-0.006689340284066874   -0.0673862049112836   -0.002407115829252053
-0.004085967424031396   -0.07461623939671638   -0.0021698641593886994
-0.0066346647524119255   -0.07455598763033863   -0.0023663142474860395
-0.006785760280182935   -0.07447487078110515   -0.0023650220331808422
-0.006689340284066874   -0.0673862049112836   -0.002407115829252053
-0.004085967424031396   -0.07461623939671638   -0.0021698641593886994
-0.006785760280182935   -0.07447487078110515   -0.0023650220331808422
-0.0030133015557615734   -0.06723073758568185   -0.0022974944003651947
-0.003262836433705092   -0.06722242606609605   -0.0024692683550891137
-0.004601561348692223   -0.07457988440788571   -0.00248704797593649
0.0006949145277326812   -0.06708397946046266   -0.002537552911775814
-0.0031362017164895304   -0.06720944114702852   -0.0023775539480801375
-0.004601561348692223   -0.07457988440788571   -0.00248704797593649
-0.001927025247807385   -0.07455320035524375   -0.0025887884374754364
0.0006949145277326812   -0.06708397946046266   -0.002537552911775814
-0.0016859544179894297   -0.07449507484185218   -0.0023809502631155664
-0.0031362017164895304   -0.06720944114702852   -0.0023775539480801375
0.0008489658184312208   -0.06704183455179111   -0.0023766169343046656
-0.0016859544179894297   -0.07449507484185218   -0.0023809502631155664
0.0006949145277326812   -0.06708397946046266   -0.002537552911775814
-0.0031362017164895304   -0.06720944114702852   -0.0023775539480801375
-0.0016859544179894297   -0.07449507484185218   -0.0023809502631155664
-0.004413799296565805   -0.07454280623075647   -0.0023693787766103014
-0.004601561348692223   -0.07457988440788571   -0.00248704797593649
-0.0031362017164895304   -0.06720944114702852   -0.0023775539480801375
-0.0016859544179894297   -0.07449507484185218   -0.0023809502631155664
-0.004601561348692223   -0.07457988440788571   -0.00248704797593649
0.0006949145277326812   -0.06708397946046266   -0.002537552911775814
-0.0031362017164895304   -0.06720944114702852   -0.0023775539480801375
-0.004413799296565805   -0.07454280623075647   -0.0023693787766103014
0.0008489658184312208   -0.06704183455179111   -0.0023766169343046656
-0.0030133015557615734   -0.06723073758568185   -0.0022974944003651947
-0.004413799296565805   -0.07454280623075647   -0.0023693787766103014
-0.0016859544179894297   -0.07449507484185218   -0.0023809502631155664
0.0008489658184312208   -0.06704183455179111   -0.0023766169343046656
-0.001439496781535592   -0.07448481337136811   -0.002183684411063719
-0.0030133015557615734   -0.06723073758568185   -0.0022974944003651947
0.0010113110545407322   -0.06703801808892346   -0.002230455017224053
-0.001439496781535592   -0.07448481337136811   -0.002183684411063719
0.0008489658184312208   -0.06704183455179111   -0.0023766169343046656
-0.0030133015557615734   -0.06723073758568185   -0.0022974944003651947
-0.001439496781535592   -0.07448481337136811   -0.002183684411063719
-0.004234817732138653   -0.07455192191155982   -0.0022615914614154964
-0.004413799296565805   -0.07454280623075647   -0.0023693787766103014
-0.0030133015557615734   -0.06723073758568185   -0.0022974944003651947
-0.001439496781535592   -0.07448481337136811   -0.002183684411063719
-0.004413799296565805   -0.07454280623075647   -0.0023693787766103014
0.0008489658184312208   -0.06704183455179111   -0.0023766169343046656
-0.0030133015557615734   -0.06723073758568185   -0.0022974944003651947
-0.004234817732138653   -0.07455192191155982   -0.0022615914614154964
0.0010113110545407322   -0.06703801808892346   -0.002230455017224053
-0.002902265974513462   -0.0672912893916842   -0.00222808039050037
-0.004234817732138653   -0.07455192191155982   -0.0022615914614154964
-0.001439496781535592   -0.07448481337136811   -0.002183684411063719
0.0010113110545407322   -0.06703801808892346   -0.002230455017224053
-0.0012569449256033837   -0.07453273607935039   -0.0020045298008286136
-0.002902265974513462   -0.0672912893916842   -0.00222808039050037
0.001130044857950129   -0.06707078615104023   -0.0020944658647047898
-0.0012569449256033837   -0.07453273607935039   -0.0020045298008286136
0.0010113110545407322   -0.06703801808892346   -0.002230455017224053
-0.002902265974513462   -0.0672912893916842   -0.00222808039050037
-0.0012569449256033837   -0.07453273607935039   -0.0020045298008286136
-0.004085967424031396   -0.07461623939671638   -0.0021698641593886994
-0.004234817732138653   -0.07455192191155982   -0.0022615914614154964
-0.002902265974513462   -0.0672912893916842   -0.00222808039050037
-0.0012569449256033837   -0.07453273607935039   -0.0020045298008286136
-0.004234817732138653   -0.07455192191155982   -0.0022615914614154964
0.0010113110545407322   -0.06703801808892346   -0.002230455017224053
0.0006949145277326812   -0.06708397946046266   -0.002537552911775814
-0.001927025247807385   -0.07455320035524375   -0.0025887884374754364
0.004914379215998171   -0.06681184095681106   -0.0026835563215457203
0.0008489658184312208   -0.06704183455179111   -0.0023766169343046656
-0.001927025247807385   -0.07455320035524375   -0.0025887884374754364
0.0009518286310914518   -0.07429632970479258   -0.002797326600495718
0.004914379215998171   -0.06681184095681106   -0.0026835563215457203
0.0015135875922278753   -0.07416983029095471   -0.0024573403100008303
0.0008489658184312208   -0.06704183455179111   -0.0023766169343046656
0.005304540239811092   -0.0667309521460178   -0.0024372493653835466
0.0015135875922278753   -0.07416983029095471   -0.0024573403100008303
0.004914379215998171   -0.06681184095681106   -0.0026835563215457203
0.0008489658184312208   -0.06704183455179111   -0.0023766169343046656
0.0015135875922278753   -0.07416983029095471   -0.0024573403100008303
-0.0016859544179894297   -0.07449507484185218   -0.0023809502631155664
-0.001927025247807385   -0.07455320035524375   -0.0025887884374754364
0.0008489658184312208   -0.06704183455179111   -0.0023766169343046656
0.0015135875922278753   -0.07416983029095471   -0.0024573403100008303
-0.001927025247807385   -0.07455320035524375   -0.0025887884374754364
0.004914379215998171   -0.06681184095681106   -0.0026835563215457203
0.0008489658184312208   -0.06704183455179111   -0.0023766169343046656
-0.0016859544179894297   -0.07449507484185218   -0.0023809502631155664
0.005304540239811092   -0.0667309521460178   -0.0024372493653835466
0.0010113110545407322   -0.06703801808892346   -0.002230455017224053
-0.0016859544179894297   -0.07449507484185218   -0.0023809502631155664
0.0015135875922278753   -0.07416983029095471   -0.0024573403100008303
0.005304540239811092   -0.0667309521460178   -0.0024372493653835466
0.001955064478309789   -0.07414420541450208   -0.002138121856430799
0.0010113110545407322   -0.06703801808892346   -0.002230455017224053
0.005603684406124746   -0.0667169457940134   -0.0022092635586322693
0.001955064478309789   -0.07414420541450208   -0.002138121856430799
0.005304540239811092   -0.0667309521460178   -0.0024372493653835466
0.0010113110545407322   -0.06703801808892346   -0.002230455017224053
0.001955064478309789   -0.07414420541450208   -0.002138121856430799
-0.001439496781535592   -0.07448481337136811   -0.002183684411063719
-0.0016859544179894297   -0.07449507484185218   -0.0023809502631155664
0.0010113110545407322   -0.06703801808892346   -0.002230455017224053
0.001955064478309789   -0.07414420541450208   -0.002138121856430799
-0.0016859544179894297   -0.07449507484185218   -0.0023809502631155664
0.005304540239811092   -0.0667309521460178   -0.0024372493653835466
0.0010113110545407322   -0.06703801808892346   -0.002230455017224053
-0.001439496781535592   -0.07448481337136811   -0.002183684411063719
0.005603684406124746   -0.0667169457940134   -0.0022092635586322693
0.001130044857950129   -0.06707078615104023   -0.0020944658647047898
-0.001439496781535592   -0.07448481337136811   -0.002183684411063719
0.001955064478309789   -0.07414420541450208   -0.002138121856430799
0.005603684406124746   -0.0667169457940134   -0.0022092635586322693
0.0024138279659585925   -0.07416572315235657   -0.0018465961243922413
0.001130044857950129   -0.06707078615104023   -0.0020944658647047898
0.005913599420774436   -0.06674093095100278   -0.0020014617962591636
0.0024138279659585925   -0.07416572315235657   -0.0018465961243922413
0.005603684406124746   -0.0667169457940134   -0.0022092635586322693
0.001130044857950129   -0.06707078615104023   -0.0020944658647047898
0.0024138279659585925   -0.07416572315235657   -0.0018465961243922413
-0.0012569449256033837   -0.07453273607935039   -0.0020045298008286136
-0.001439496781535592   -0.07448481337136811   -0.002183684411063719
0.001130044857950129   -0.06707078615104023   -0.0020944658647047898
0.0024138279659585925   -0.07416572315235657   -0.0018465961243922413
-0.001439496781535592   -0.07448481337136811   -0.002183684411063719
0.005603684406124746   -0.0667169457940134   -0.0022092635586322693
-0.012956280140125379   -0.07396037974014581   -0.002234133964003051
-0.009500537417320036   -0.0781383223355259   -0.0019660245346535834
-0.00974235193019802   -0.0742718330464125   -0.002327555949802869
-0.01260640156003655   -0.07395160876675734   -0.002440496235435904
-0.009500537417320036   -0.0781383223355259   -0.0019660245346535834
-0.00800518462711455   -0.07853223452846599   -0.002202759325524721
-0.00974235193019802   -0.0742718330464125   -0.002327555949802869
-0.007800393038331764   -0.07845438375456695   -0.002284191298808133
-0.01260640156003655   -0.07395160876675734   -0.002440496235435904
-0.009580039328621318   -0.07425578418268382   -0.002404092504458114
-0.007800393038331764   -0.07845438375456695   -0.002284191298808133
-0.00974235193019802   -0.0742718330464125   -0.002327555949802869
-0.01260640156003655   -0.07395160876675734   -0.002440496235435904
-0.007800393038331764   -0.07845438375456695   -0.002284191298808133
-0.009064500621608117   -0.0780506176378335   -0.0022136068993667294
-0.009500537417320036   -0.0781383223355259   -0.0019660245346535834
-0.01260640156003655   -0.07395160876675734   -0.002440496235435904
-0.007800393038331764   -0.07845438375456695   -0.002284191298808133
-0.009500537417320036   -0.0781383223355259   -0.0019660245346535834
-0.00974235193019802   -0.0742718330464125   -0.002327555949802869
-0.01260640156003655   -0.07395160876675734   -0.002440496235435904
-0.009064500621608117   -0.0780506176378335   -0.0022136068993667294
-0.009580039328621318   -0.07425578418268382   -0.002404092504458114
-0.012283884641306347   -0.07400698475006931   -0.0026630715245774513
-0.009064500621608117   -0.0780506176378335   -0.0022136068993667294
-0.007800393038331764   -0.07845438375456695   -0.002284191298808133
-0.009580039328621318   -0.07425578418268382   -0.002404092504458114
-0.007573584805602181   -0.07845821149766136   -0.002366448230357446
-0.012283884641306347   -0.07400698475006931   -0.0026630715245774513
-0.009389137135386843   -0.07430060152447876   -0.0024921412237919574
-0.007573584805602181   -0.07845821149766136   -0.002366448230357446
-0.009580039328621318   -0.07425578418268382   -0.002404092504458114
-0.012283884641306347   -0.07400698475006931   -0.0026630715245774513
-0.007573584805602181   -0.07845821149766136   -0.002366448230357446
-0.008688285485637449   -0.07805809918504979   -0.002460234022758524
-0.009064500621608117   -0.0780506176378335   -0.0022136068993667294
-0.012283884641306347   -0.07400698475006931   -0.0026630715245774513
-0.007573584805602181   -0.07845821149766136   -0.002366448230357446
-0.009064500621608117   -0.0780506176378335   -0.0022136068993667294
-0.009580039328621318   -0.07425578418268382   -0.002404092504458114
-0.012283884641306347   -0.07400698475006931   -0.0026630715245774513
-0.008688285485637449   -0.07805809918504979   -0.002460234022758524
-0.009389137135386843   -0.07430060152447876   -0.0024921412237919574
-0.011890524655884723   -0.07415487799695235   -0.002900904378406642
-0.008688285485637449   -0.07805809918504979   -0.002460234022758524
-0.007573584805602181   -0.07845821149766136   -0.002366448230357446
-0.009389137135386843   -0.07430060152447876   -0.0024921412237919574
-0.007362880235369779   -0.07854409616939766   -0.00244987457319683
-0.011890524655884723   -0.07415487799695235   -0.002900904378406642
-0.009215951241088606   -0.0744073057780349   -0.0025909657268547515
-0.007362880235369779   -0.07854409616939766   -0.00244987457319683
-0.009389137135386843   -0.07430060152447876   -0.0024921412237919574
-0.011890524655884723   -0.07415487799695235   -0.002900904378406642
-0.007362880235369779   -0.07854409616939766   -0.00244987457319683
-0.008242051655536082   -0.0781662305981931   -0.0027121739527330452
-0.008688285485637449   -0.07805809918504979   -0.002460234022758524
-0.011890524655884723   -0.07415487799695235   -0.002900904378406642
-0.007362880235369779   -0.07854409616939766   -0.00244987457319683
-0.008688285485637449   -0.07805809918504979   -0.002460234022758524
-0.009389137135386843   -0.07430060152447876   -0.0024921412237919574
-0.00974235193019802   -0.0742718330464125   -0.002327555949802869
-0.00800518462711455   -0.07853223452846599   -0.002202759325524721
-0.007116535664061114   -0.07447374263950209   -0.002400666554243912
-0.009580039328621318   -0.07425578418268382   -0.002404092504458114
-0.00800518462711455   -0.07853223452846599   -0.002202759325524721
-0.006910127419160335   -0.07892761825221216   -0.0024119895085850333
-0.007116535664061114   -0.07447374263950209   -0.002400666554243912
-0.006694054815881168   -0.07884774326557577   -0.002354921741610755
-0.009580039328621318   -0.07425578418268382   -0.002404092504458114
-0.00694997559179269   -0.07444803803094573   -0.0023772536912915953
-0.006694054815881168   -0.07884774326557577   -0.002354921741610755
-0.007116535664061114   -0.07447374263950209   -0.002400666554243912
-0.009580039328621318   -0.07425578418268382   -0.002404092504458114
-0.006694054815881168   -0.07884774326557577   -0.002354921741610755
-0.007800393038331764   -0.07845438375456695   -0.002284191298808133
-0.00800518462711455   -0.07853223452846599   -0.002202759325524721
-0.009580039328621318   -0.07425578418268382   -0.002404092504458114
-0.006694054815881168   -0.07884774326557577   -0.002354921741610755
-0.00800518462711455   -0.07853223452846599   -0.002202759325524721
-0.007116535664061114   -0.07447374263950209   -0.002400666554243912
-0.009580039328621318   -0.07425578418268382   -0.002404092504458114
-0.007800393038331764   -0.07845438375456695   -0.002284191298808133
-0.00694997559179269   -0.07444803803094573   -0.0023772536912915953
-0.009389137135386843   -0.07430060152447876   -0.0024921412237919574
-0.007800393038331764   -0.07845438375456695   -0.002284191298808133
-0.006694054815881168   -0.07884774326557577   -0.002354921741610755
-0.00694997559179269   -0.07444803803094573   -0.0023772536912915953
-0.0064851458496605376   -0.07884629644059402   -0.0022971440870533273
-0.009389137135386843   -0.07430060152447876   -0.0024921412237919574
-0.006785760280182935   -0.07447487078110515   -0.0023650220331808422
-0.0064851458496605376   -0.07884629644059402   -0.0022971440870533273
-0.00694997559179269   -0.07444803803094573   -0.0023772536912915953
-0.009389137135386843   -0.07430060152447876   -0.0024921412237919574
-0.0064851458496605376   -0.07884629644059402   -0.0022971440870533273
-0.007573584805602181   -0.07845821149766136   -0.002366448230357446
-0.007800393038331764   -0.07845438375456695   -0.002284191298808133
-0.009389137135386843   -0.07430060152447876   -0.0024921412237919574
-0.0064851458496605376   -0.07884629644059402   -0.0022971440870533273
-0.007800393038331764   -0.07845438375456695   -0.002284191298808133
-0.00694997559179269   -0.07444803803094573   -0.0023772536912915953
-0.009389137135386843   -0.07430060152447876   -0.0024921412237919574
-0.007573584805602181   -0.07845821149766136   -0.002366448230357446
-0.006785760280182935   -0.07447487078110515   -0.0023650220331808422
-0.009215951241088606   -0.0744073057780349   -0.0025909657268547515
-0.007573584805602181   -0.07845821149766136   -0.002366448230357446
-0.0064851458496605376   -0.07884629644059402   -0.0022971440870533273
-0.006785760280182935   -0.07447487078110515   -0.0023650220331808422
-0.006267349077596682   -0.07892163976165036   -0.0022416477009314104
-0.009215951241088606   -0.0744073057780349   -0.0025909657268547515
-0.0066346647524119255   -0.07455598763033863   -0.0023663142474860395
-0.006267349077596682   -0.07892163976165036   -0.0022416477009314104
-0.006785760280182935   -0.07447487078110515   -0.0023650220331808422
-0.009215951241088606   -0.0744073057780349   -0.0025909657268547515
-0.006267349077596682   -0.07892163976165036   -0.0022416477009314104
-0.007362880235369779   -0.07854409616939766   -0.00244987457319683
-0.007573584805602181   -0.07845821149766136   -0.002366448230357446
-0.009215951241088606   -0.0744073057780349   -0.0025909657268547515
-0.006267349077596682   -0.07892163976165036   -0.0022416477009314104
-0.007573584805602181   -0.07845821149766136   -0.002366448230357446
-0.006785760280182935   -0.07447487078110515   -0.0023650220331808422
-0.007116535664061114   -0.07447374263950209   -0.002400666554243912
-0.006910127419160335   -0.07892761825221216   -0.0024119895085850333
-0.004601561348692223   -0.07457988440788571   -0.00248704797593649
-0.00694997559179269   -0.07444803803094573   -0.0023772536912915953
-0.006910127419160335   -0.07892761825221216   -0.0024119895085850333
-0.005910096518611562   -0.07940480652243798   -0.002642391723929387
-0.004601561348692223   -0.07457988440788571   -0.00248704797593649
-0.00564521235440701   -0.07933549332976382   -0.0024390542377977667
-0.00694997559179269   -0.07444803803094573   -0.0023772536912915953
-0.004413799296565805   -0.07454280623075647   -0.0023693787766103014
-0.00564521235440701   -0.07933549332976382   -0.0024390542377977667
-0.004601561348692223   -0.07457988440788571   -0.00248704797593649
-0.00694997559179269   -0.07444803803094573   -0.0023772536912915953
-0.00564521235440701   -0.07933549332976382   -0.0024390542377977667
-0.006694054815881168   -0.07884774326557577   -0.002354921741610755
-0.006910127419160335   -0.07892761825221216   -0.0024119895085850333
-0.00694997559179269   -0.07444803803094573   -0.0023772536912915953
-0.00564521235440701   -0.07933549332976382   -0.0024390542377977667
-0.006910127419160335   -0.07892761825221216   -0.0024119895085850333
-0.004601561348692223   -0.07457988440788571   -0.00248704797593649
-0.00694997559179269   -0.07444803803094573   -0.0023772536912915953
-0.006694054815881168   -0.07884774326557577   -0.002354921741610755
-0.004413799296565805   -0.07454280623075647   -0.0023693787766103014
-0.006785760280182935   -0.07447487078110515   -0.0023650220331808422
-0.006694054815881168   -0.07884774326557577   -0.002354921741610755
-0.00564521235440701   -0.07933549332976382   -0.0024390542377977667
-0.004413799296565805   -0.07454280623075647   -0.0023693787766103014
-0.005399776524147812   -0.07933177513260357   -0.0022364055780979726
-0.006785760280182935   -0.07447487078110515   -0.0023650220331808422
-0.004234817732138653   -0.07455192191155982   -0.0022615914614154964
-0.005399776524147812   -0.07933177513260357   -0.0022364055780979726
-0.004413799296565805   -0.07454280623075647   -0.0023693787766103014
-0.006785760280182935   -0.07447487078110515   -0.0023650220331808422
-0.005399776524147812   -0.07933177513260357   -0.0022364055780979726
-0.0064851458496605376   -0.07884629644059402   -0.0022971440870533273
-0.006694054815881168   -0.07884774326557577   -0.002354921741610755
-0.006785760280182935   -0.07447487078110515   -0.0023650220331808422
-0.005399776524147812   -0.07933177513260357   -0.0022364055780979726
-0.006694054815881168   -0.07884774326557577   -0.002354921741610755
-0.004413799296565805   -0.07454280623075647   -0.0023693787766103014
-0.006785760280182935   -0.07447487078110515   -0.0023650220331808422
-0.0064851458496605376   -0.07884629644059402   -0.0022971440870533273
-0.004234817732138653   -0.07455192191155982   -0.0022615914614154964
-0.0066346647524119255   -0.07455598763033863   -0.0023663142474860395
-0.0064851458496605376   -0.07884629644059402   -0.0022971440870533273
-0.005399776524147812   -0.07933177513260357   -0.0022364055780979726
-0.004234817732138653   -0.07455192191155982   -0.0022615914614154964
-0.005136270465087201   -0.07939010719773591   -0.0020333024756019466
-0.0066346647524119255   -0.07455598763033863   -0.0023663142474860395
-0.004085967424031396   -0.07461623939671638   -0.0021698641593886994
-0.005136270465087201   -0.07939010719773591   -0.0020333024756019466
-0.004234817732138653   -0.07455192191155982   -0.0022615914614154964
-0.0066346647524119255   -0.07455598763033863   -0.0023663142474860395
-0.005136270465087201   -0.07939010719773591   -0.0020333024756019466
-0.006267349077596682   -0.07892163976165036   -0.0022416477009314104
-0.0064851458496605376   -0.07884629644059402   -0.0022971440870533273
-0.0066346647524119255   -0.07455598763033863   -0.0023663142474860395
-0.005136270465087201   -0.07939010719773591   -0.0020333024756019466
-0.0064851458496605376   -0.07884629644059402   -0.0022971440870533273
-0.004234817732138653   -0.07455192191155982   -0.0022615914614154964
-0.004601561348692223   -0.07457988440788571   -0.00248704797593649
-0.005910096518611562   -0.07940480652243798   -0.002642391723929387
-0.001927025247807385   -0.07455320035524375   -0.0025887884374754364
-0.004413799296565805   -0.07454280623075647   -0.0023693787766103014
-0.005910096518611562   -0.07940480652243798   -0.002642391723929387
-0.004925890637174022   -0.08   -0.0028193666981044204
-0.001927025247807385   -0.07455320035524375   -0.0025887884374754364
-0.0045927434822603825   -0.08   -0.002510556426681908
-0.004413799296565805   -0.07454280623075647   -0.0023693787766103014
-0.0016859544179894297   -0.07449507484185218   -0.0023809502631155664
-0.0045927434822603825   -0.08   -0.002510556426681908
-0.001927025247807385   -0.07455320035524375   -0.0025887884374754364
-0.004413799296565805   -0.07454280623075647   -0.0023693787766103014
-0.0045927434822603825   -0.08   -0.002510556426681908
-0.00564521235440701   -0.07933549332976382   -0.0024390542377977667
-0.005910096518611562   -0.07940480652243798   -0.002642391723929387
-0.004413799296565805   -0.07454280623075647   -0.0023693787766103014
-0.0045927434822603825   -0.08   -0.002510556426681908
-0.005910096518611562   -0.07940480652243798   -0.002642391723929387
-0.001927025247807385   -0.07455320035524375   -0.0025887884374754364
-0.004413799296565805   -0.07454280623075647   -0.0023693787766103014
-0.00564521235440701   -0.07933549332976382   -0.0024390542377977667
-0.0016859544179894297   -0.07449507484185218   -0.0023809502631155664
-0.004234817732138653   -0.07455192191155982   -0.0022615914614154964
-0.00564521235440701   -0.07933549332976382   -0.0024390542377977667
-0.0045927434822603825   -0.08   -0.002510556426681908
-0.0016859544179894297   -0.07449507484185218   -0.0023809502631155664
-0.004258019280598565   -0.08   -0.0021980836990020598
-0.004234817732138653   -0.07455192191155982   -0.0022615914614154964
-0.001439496781535592   -0.07448481337136811   -0.002183684411063719
-0.004258019280598565   -0.08   -0.0021980836990020598
-0.0016859544179894297   -0.07449507484185218   -0.0023809502631155664
-0.004234817732138653   -0.07455192191155982   -0.0022615914614154964
-0.004258019280598565   -0.08   -0.0021980836990020598
-0.005399776524147812   -0.07933177513260357   -0.0022364055780979726
-0.00564521235440701   -0.07933549332976382   -0.0024390542377977667
-0.004234817732138653   -0.07455192191155982   -0.0022615914614154964
-0.004258019280598565   -0.08   -0.0021980836990020598
-0.00564521235440701   -0.07933549332976382   -0.0024390542377977667
-0.0016859544179894297   -0.07449507484185218   -0.0023809502631155664
-0.004234817732138653   -0.07455192191155982   -0.0022615914614154964
-0.005399776524147812   -0.07933177513260357   -0.0022364055780979726
-0.001439496781535592   -0.07448481337136811   -0.002183684411063719
-0.004085967424031396   -0.07461623939671638   -0.0021698641593886994
-0.005399776524147812   -0.07933177513260357   -0.0022364055780979726
-0.004258019280598565   -0.08   -0.0021980836990020598
-0.001439496781535592   -0.07448481337136811   -0.002183684411063719
-0.003930810376377337   -0.08   -0.0018897414335372338
-0.004085967424031396   -0.07461623939671638   -0.0021698641593886994
-0.0012569449256033837   -0.07453273607935039   -0.0020045298008286136
-0.003930810376377337   -0.08   -0.0018897414335372338
-0.001439496781535592   -0.07448481337136811   -0.002183684411063719
-0.004085967424031396   -0.07461623939671638   -0.0021698641593886994
-0.003930810376377337   -0.08   -0.0018897414335372338
-0.005136270465087201   -0.07939010719773591   -0.0020333024756019466
-0.005399776524147812   -0.07933177513260357   -0.0022364055780979726
-0.004085967424031396   -0.07461623939671638   -0.0021698641593886994
-0.003930810376377337   -0.08   -0.0018897414335372338
-0.005399776524147812   -0.07933177513260357   -0.0022364055780979726
-0.001439496781535592   -0.07448481337136811   -0.002183684411063719
-0.001927025247807385   -0.07455320035524375   -0.0025887884374754364
-0.004925890637174022   -0.08   -0.0028193666981044204
0.0009518286310914518   -0.07429632970479258   -0.002797326600495718
-0.0016859544179894297   -0.07449507484185218   -0.0023809502631155664
-0.004925890637174022   -0.08   -0.0028193666981044204
-0.004212035545044712   -0.08   -0.0030337011723011276
0.0009518286310914518   -0.07429632970479258   -0.002797326600495718
-0.0035155314875885382   -0.08   -0.0025869596198368696
-0.0016859544179894297   -0.07449507484185218   -0.0023809502631155664
0.0015135875922278753   -0.07416983029095471   -0.0024573403100008303
-0.0035155314875885382   -0.08   -0.0025869596198368696
0.0009518286310914518   -0.07429632970479258   -0.002797326600495718
-0.0016859544179894297   -0.07449507484185218   -0.0023809502631155664
-0.0035155314875885382   -0.08   -0.0025869596198368696
-0.0045927434822603825   -0.08   -0.002510556426681908
-0.004925890637174022   -0.08   -0.0028193666981044204
-0.0016859544179894297   -0.07449507484185218   -0.0023809502631155664
-0.0035155314875885382   -0.08   -0.0025869596198368696
-0.004925890637174022   -0.08   -0.0028193666981044204
0.0009518286310914518   -0.07429632970479258   -0.002797326600495718
-0.0016859544179894297   -0.07449507484185218   -0.0023809502631155664
-0.0045927434822603825   -0.08   -0.002510556426681908
0.0015135875922278753   -0.07416983029095471   -0.0024573403100008303
-0.001439496781535592   -0.07448481337136811   -0.002183684411063719
-0.0045927434822603825   -0.08   -0.002510556426681908
-0.0035155314875885382   -0.08   -0.0025869596198368696
0.0015135875922278753   -0.07416983029095471   -0.0024573403100008303
-0.0029600791832931645   -0.08   -0.0021595947168986077
-0.001439496781535592   -0.07448481337136811   -0.002183684411063719
0.001955064478309789   -0.07414420541450208   -0.002138121856430799
-0.0029600791832931645   -0.08   -0.0021595947168986077
0.0015135875922278753   -0.07416983029095471   -0.0024573403100008303
-0.001439496781535592   -0.07448481337136811   -0.002183684411063719
-0.0029600791832931645   -0.08   -0.0021595947168986077
-0.004258019280598565   -0.08   -0.0021980836990020598
-0.0045927434822603825   -0.08   -0.002510556426681908
-0.001439496781535592   -0.07448481337136811   -0.002183684411063719
-0.0029600791832931645   -0.08   -0.0021595947168986077
-0.0045927434822603825   -0.08   -0.002510556426681908
0.0015135875922278753   -0.07416983029095471   -0.0024573403100008303
-0.001439496781535592   -0.07448481337136811   -0.002183684411063719
-0.004258019280598565   -0.08   -0.0021980836990020598
0.001955064478309789   -0.07414420541450208   -0.002138121856430799
-0.0012569449256033837   -0.07453273607935039   -0.0020045298008286136
-0.004258019280598565   -0.08   -0.0021980836990020598
-0.0029600791832931645   -0.08   -0.0021595947168986077
0.001955064478309789   -0.07414420541450208   -0.002138121856430799
-0.002273924005737101   -0.08   -0.0017159426889603987
-0.0012569449256033837   -0.07453273607935039   -0.0020045298008286136
0.0024138279659585925   -0.07416572315235657   -0.0018465961243922413
-0.002273924005737101   -0.08   -0.0017159426889603987
0.001955064478309789   -0.07414420541450208   -0.002138121856430799
-0.0012569449256033837   -0.07453273607935039   -0.0020045298008286136
-0.002273924005737101   -0.08   -0.0017159426889603987
-0.003930810376377337   -0.08   -0.0018897414335372338
-0.004258019280598565   -0.08   -0.0021980836990020598
-0.0012569449256033837   -0.07453273607935039   -0.0020045298008286136
-0.002273924005737101   -0.08   -0.0017159426889603987
-0.004258019280598565   -0.08   -0.0021980836990020598
0.001955064478309789   -0.07414420541450208   -0.002138121856430799
-0.009500537417320036   -0.0781383223355259   -0.0019660245346535834
-0.005677305747136239   -0.07834837623202807   -0.0016827301884307754
-0.00800518462711455   -0.07853223452846599   -0.002202759325524721
-0.009064500621608117   -0.0780506176378335   -0.0022136068993667294
-0.005677305747136239   -0.07834837623202807   -0.0016827301884307754
-0.006021516064529293   -0.07865189812502267   -0.0019875434166563765
-0.00800518462711455   -0.07853223452846599   -0.002202759325524721
-0.0058666380200988865   -0.07854558698167986   -0.0020986601422179605
-0.009064500621608117   -0.0780506176378335   -0.0022136068993667294
-0.007800393038331764   -0.07845438375456695   -0.002284191298808133
-0.0058666380200988865   -0.07854558698167986   -0.0020986601422179605
-0.00800518462711455   -0.07853223452846599   -0.002202759325524721
-0.009064500621608117   -0.0780506176378335   -0.0022136068993667294
-0.0058666380200988865   -0.07854558698167986   -0.0020986601422179605
-0.005282172501777708   -0.07821187234173871   -0.0019428551029147415
-0.005677305747136239   -0.07834837623202807   -0.0016827301884307754
-0.009064500621608117   -0.0780506176378335   -0.0022136068993667294
-0.0058666380200988865   -0.07854558698167986   -0.0020986601422179605
-0.005677305747136239   -0.07834837623202807   -0.0016827301884307754
-0.00800518462711455   -0.07853223452846599   -0.002202759325524721
-0.009064500621608117   -0.0780506176378335   -0.0022136068993667294
-0.005282172501777708   -0.07821187234173871   -0.0019428551029147415
-0.007800393038331764   -0.07845438375456695   -0.002284191298808133
-0.008688285485637449   -0.07805809918504979   -0.002460234022758524
-0.005282172501777708   -0.07821187234173871   -0.0019428551029147415
-0.0058666380200988865   -0.07854558698167986   -0.0020986601422179605
-0.007800393038331764   -0.07845438375456695   -0.002284191298808133
-0.005684982020492815   -0.07850632066735105   -0.002201171873038194
-0.008688285485637449   -0.07805809918504979   -0.002460234022758524
-0.007573584805602181   -0.07845821149766136   -0.002366448230357446
-0.005684982020492815   -0.07850632066735105   -0.002201171873038194
-0.007800393038331764   -0.07845438375456695   -0.002284191298808133
-0.008688285485637449   -0.07805809918504979   -0.002460234022758524
-0.005684982020492815   -0.07850632066735105   -0.002201171873038194
-0.004953260565640635   -0.07816982702533432   -0.0021923015040135416
-0.005282172501777708   -0.07821187234173871   -0.0019428551029147415
-0.008688285485637449   -0.07805809918504979   -0.002460234022758524
-0.005684982020492815   -0.07850632066735105   -0.002201171873038194
-0.005282172501777708   -0.07821187234173871   -0.0019428551029147415
-0.007800393038331764   -0.07845438375456695   -0.002284191298808133
-0.008688285485637449   -0.07805809918504979   -0.002460234022758524
-0.004953260565640635   -0.07816982702533432   -0.0021923015040135416
-0.007573584805602181   -0.07845821149766136   -0.002366448230357446
-0.008242051655536082   -0.0781662305981931   -0.0027121739527330452
-0.004953260565640635   -0.07816982702533432   -0.0021923015040135416
-0.005684982020492815   -0.07850632066735105   -0.002201171873038194
-0.007573584805602181   -0.07845821149766136   -0.002366448230357446
-0.005529363978324434   -0.07853466578901712   -0.002294541871427549
-0.008242051655536082   -0.0781662305981931   -0.0027121739527330452
-0.007362880235369779   -0.07854409616939766   -0.00244987457319683
-0.005529363978324434   -0.07853466578901712   -0.002294541871427549
-0.007573584805602181   -0.07845821149766136   -0.002366448230357446
-0.008242051655536082   -0.0781662305981931   -0.0027121739527330452
-0.005529363978324434   -0.07853466578901712   -0.002294541871427549
-0.004581142228359399   -0.07820519077371928   -0.0024299598625710864
-0.004953260565640635   -0.07816982702533432   -0.0021923015040135416
-0.008242051655536082   -0.0781662305981931   -0.0027121739527330452
-0.005529363978324434   -0.07853466578901712   -0.002294541871427549
-0.004953260565640635   -0.07816982702533432   -0.0021923015040135416
-0.007573584805602181   -0.07845821149766136   -0.002366448230357446
-0.00800518462711455   -0.07853223452846599   -0.002202759325524721
-0.006021516064529293   -0.07865189812502267   -0.0019875434166563765
-0.006910127419160335   -0.07892761825221216   -0.0024119895085850333
-0.007800393038331764   -0.07845438375456695   -0.002284191298808133
-0.006021516064529293   -0.07865189812502267   -0.0019875434166563765
-0.006487473506438113   -0.07883959336768948   -0.0022312641080560773
-0.006910127419160335   -0.07892761825221216   -0.0024119895085850333
-0.006350396067208603   -0.07874466554244847   -0.0022341805972810615
-0.007800393038331764   -0.07845438375456695   -0.002284191298808133
-0.006694054815881168   -0.07884774326557577   -0.002354921741610755
-0.006350396067208603   -0.07874466554244847   -0.0022341805972810615
-0.006910127419160335   -0.07892761825221216   -0.0024119895085850333
-0.007800393038331764   -0.07845438375456695   -0.002284191298808133
-0.006350396067208603   -0.07874466554244847   -0.0022341805972810615
-0.0058666380200988865   -0.07854558698167986   -0.0020986601422179605
-0.006021516064529293   -0.07865189812502267   -0.0019875434166563765
-0.007800393038331764   -0.07845438375456695   -0.002284191298808133
-0.006350396067208603   -0.07874466554244847   -0.0022341805972810615
-0.006021516064529293   -0.07865189812502267   -0.0019875434166563765
-0.006910127419160335   -0.07892761825221216   -0.0024119895085850333
-0.007800393038331764   -0.07845438375456695   -0.002284191298808133
-0.0058666380200988865   -0.07854558698167986   -0.0020986601422179605
-0.006694054815881168   -0.07884774326557577   -0.002354921741610755
-0.007573584805602181   -0.07845821149766136   -0.002366448230357446
-0.0058666380200988865   -0.07854558698167986   -0.0020986601422179605
-0.006350396067208603   -0.07874466554244847   -0.0022341805972810615
-0.006694054815881168   -0.07884774326557577   -0.002354921741610755
-0.006197818183966179   -0.07871046148248442   -0.0022259408519707006
-0.007573584805602181   -0.07845821149766136   -0.002366448230357446
-0.0064851458496605376   -0.07884629644059402   -0.0022971440870533273
-0.006197818183966179   -0.07871046148248442   -0.0022259408519707006
-0.006694054815881168   -0.07884774326557577   -0.002354921741610755
-0.007573584805602181   -0.07845821149766136   -0.002366448230357446
-0.006197818183966179   -0.07871046148248442   -0.0022259408519707006
-0.005684982020492815   -0.07850632066735105   -0.002201171873038194
-0.0058666380200988865   -0.07854558698167986   -0.0020986601422179605
-0.007573584805602181   -0.07845821149766136   -0.002366448230357446
-0.006197818183966179   -0.07871046148248442   -0.0022259408519707006
-0.0058666380200988865   -0.07854558698167986   -0.0020986601422179605
-0.006694054815881168   -0.07884774326557577   -0.002354921741610755
-0.007573584805602181   -0.07845821149766136   -0.002366448230357446
-0.005684982020492815   -0.07850632066735105   -0.002201171873038194
-0.0064851458496605376   -0.07884629644059402   -0.0022971440870533273
-0.007362880235369779   -0.07854409616939766   -0.00244987457319683
-0.005684982020492815   -0.07850632066735105   -0.002201171873038194
-0.006197818183966179   -0.07871046148248442   -0.0022259408519707006
-0.0064851458496605376   -0.07884629644059402   -0.0022971440870533273
-0.006042684822236346   -0.07873420434352267   -0.0022089470351988874
-0.007362880235369779   -0.07854409616939766   -0.00244987457319683
-0.006267349077596682   -0.07892163976165036   -0.0022416477009314104
-0.006042684822236346   -0.07873420434352267   -0.0022089470351988874
-0.0064851458496605376   -0.07884629644059402   -0.0022971440870533273
-0.007362880235369779   -0.07854409616939766   -0.00244987457319683
-0.006042684822236346   -0.07873420434352267   -0.0022089470351988874
-0.005529363978324434   -0.07853466578901712   -0.002294541871427549
-0.005684982020492815   -0.07850632066735105   -0.002201171873038194
-0.007362880235369779   -0.07854409616939766   -0.00244987457319683
-0.006042684822236346   -0.07873420434352267   -0.0022089470351988874
-0.005684982020492815   -0.07850632066735105   -0.002201171873038194
-0.0064851458496605376   -0.07884629644059402   -0.0022971440870533273
-0.006910127419160335   -0.07892761825221216   -0.0024119895085850333
-0.006487473506438113   -0.07883959336768948   -0.0022312641080560773
-0.005910096518611562   -0.07940480652243798   -0.002642391723929387
-0.006694054815881168   -0.07884774326557577   -0.002354921741610755
-0.006487473506438113   -0.07883959336768948   -0.0022312641080560773
-0.006986985364890948   -0.0789185516718106   -0.002471134111378185
-0.005910096518611562   -0.07940480652243798   -0.002642391723929387
-0.006844988313158642   -0.0788280422209782   -0.0023700098162444533
-0.006694054815881168   -0.07884774326557577   -0.002354921741610755
-0.00564521235440701   -0.07933549332976382   -0.0024390542377977667
-0.006844988313158642   -0.0788280422209782   -0.0023700098162444533
-0.005910096518611562   -0.07940480652243798   -0.002642391723929387
-0.006694054815881168   -0.07884774326557577   -0.002354921741610755
-0.006844988313158642   -0.0788280422209782   -0.0023700098162444533
-0.006350396067208603   -0.07874466554244847   -0.0022341805972810615
-0.006487473506438113   -0.07883959336768948   -0.0022312641080560773
-0.006694054815881168   -0.07884774326557577   -0.002354921741610755
-0.006844988313158642   -0.0788280422209782   -0.0023700098162444533
-0.006487473506438113   -0.07883959336768948   -0.0022312641080560773
-0.005910096518611562   -0.07940480652243798   -0.002642391723929387
-0.006694054815881168   -0.07884774326557577   -0.002354921741610755
-0.006350396067208603   -0.07874466554244847   -0.0022341805972810615
-0.00564521235440701   -0.07933549332976382   -0.0024390542377977667
-0.0064851458496605376   -0.07884629644059402   -0.0022971440870533273
-0.006350396067208603   -0.07874466554244847   -0.0022341805972810615
-0.006844988313158642   -0.0788280422209782   -0.0023700098162444533
-0.00564521235440701   -0.07933549332976382   -0.0024390542377977667
-0.006674660066546127   -0.07879924972403339   -0.002255298518504865
-0.0064851458496605376   -0.07884629644059402   -0.0022971440870533273
-0.005399776524147812   -0.07933177513260357   -0.0022364055780979726
-0.006674660066546127   -0.07879924972403339   -0.002255298518504865
-0.00564521235440701   -0.07933549332976382   -0.0024390542377977667
-0.0064851458496605376   -0.07884629644059402   -0.0022971440870533273
-0.006674660066546127   -0.07879924972403339   -0.002255298518504865
-0.006197818183966179   -0.07871046148248442   -0.0022259408519707006
-0.006350396067208603   -0.07874466554244847   -0.0022341805972810615
-0.0064851458496605376   -0.07884629644059402   -0.0022971440870533273
-0.006674660066546127   -0.07879924972403339   -0.002255298518504865
-0.006350396067208603   -0.07874466554244847   -0.0022341805972810615
-0.00564521235440701   -0.07933549332976382   -0.0024390542377977667
-0.0064851458496605376   -0.07884629644059402   -0.0022971440870533273
-0.006197818183966179   -0.07871046148248442   -0.0022259408519707006
-0.005399776524147812   -0.07933177513260357   -0.0022364055780979726
-0.006267349077596682   -0.07892163976165036   -0.0022416477009314104
-0.006197818183966179   -0.07871046148248442   -0.0022259408519707006
-0.006674660066546127   -0.07879924972403339   -0.002255298518504865
-0.005399776524147812   -0.07933177513260357   -0.0022364055780979726
-0.006499493173730409   -0.07882246977050532   -0.0021331129010331495
-0.006267349077596682   -0.07892163976165036   -0.0022416477009314104
-0.005136270465087201   -0.07939010719773591   -0.0020333024756019466
-0.006499493173730409   -0.07882246977050532   -0.0021331129010331495
-0.005399776524147812   -0.07933177513260357   -0.0022364055780979726
-0.006267349077596682   -0.07892163976165036   -0.0022416477009314104
-0.006499493173730409   -0.07882246977050532   -0.0021331129010331495
-0.006042684822236346   -0.07873420434352267   -0.0022089470351988874
-0.006197818183966179   -0.07871046148248442   -0.0022259408519707006
-0.006267349077596682   -0.07892163976165036   -0.0022416477009314104
-0.006499493173730409   -0.07882246977050532   -0.0021331129010331495
-0.006197818183966179   -0.07871046148248442   -0.0022259408519707006
-0.005399776524147812   -0.07933177513260357   -0.0022364055780979726
-0.005910096518611562   -0.07940480652243798   -0.002642391723929387
-0.006986985364890948   -0.0789185516718106   -0.002471134111378185
-0.004925890637174022   -0.08   -0.0028193666981044204
-0.00564521235440701   -0.07933549332976382   -0.0024390542377977667
-0.006986985364890948   -0.0789185516718106   -0.002471134111378185
-0.007710412878723606   -0.07883373359903317   -0.0026990137354573366
-0.004925890637174022   -0.08   -0.0028193666981044204
-0.0075249312288625005   -0.07874829654964724   -0.002498838798796272
-0.00564521235440701   -0.07933549332976382   -0.0024390542377977667
-0.0045927434822603825   -0.08   -0.002510556426681908
-0.0075249312288625005   -0.07874829654964724   -0.002498838798796272
-0.004925890637174022   -0.08   -0.0028193666981044204
-0.00564521235440701   -0.07933549332976382   -0.0024390542377977667
-0.0075249312288625005   -0.07874829654964724   -0.002498838798796272
-0.006844988313158642   -0.0788280422209782   -0.0023700098162444533
-0.006986985364890948   -0.0789185516718106   -0.002471134111378185
-0.00564521235440701   -0.07933549332976382   -0.0024390542377977667
-0.0075249312288625005   -0.07874829654964724   -0.002498838798796272
-0.006986985364890948   -0.0789185516718106   -0.002471134111378185
-0.004925890637174022   -0.08   -0.0028193666981044204
-0.00564521235440701   -0.07933549332976382   -0.0024390542377977667
-0.006844988313158642   -0.0788280422209782   -0.0023700098162444533
-0.0045927434822603825   -0.08   -0.002510556426681908
-0.005399776524147812   -0.07933177513260357   -0.0022364055780979726
-0.006844988313158642   -0.0788280422209782   -0.0023700098162444533
-0.0075249312288625005   -0.07874829654964724   -0.002498838798796272
-0.0045927434822603825   -0.08   -0.002510556426681908
-0.007280211986818081   -0.07872884846492564   -0.002283536510345072
-0.005399776524147812   -0.07933177513260357   -0.0022364055780979726
-0.004258019280598565   -0.08   -0.0021980836990020598
-0.007280211986818081   -0.07872884846492564   -0.002283536510345072
-0.0045927434822603825   -0.08   -0.002510556426681908
-0.005399776524147812   -0.07933177513260357   -0.0022364055780979726
-0.007280211986818081   -0.07872884846492564   -0.002283536510345072
-0.006674660066546127   -0.07879924972403339   -0.002255298518504865
-0.006844988313158642   -0.0788280422209782   -0.0023700098162444533
-0.005399776524147812   -0.07933177513260357   -0.0022364055780979726
-0.007280211986818081   -0.07872884846492564   -0.002283536510345072
-0.006844988313158642   -0.0788280422209782   -0.0023700098162444533
-0.0045927434822603825   -0.08   -0.002510556426681908
-0.005399776524147812   -0.07933177513260357   -0.0022364055780979726
-0.006674660066546127   -0.07879924972403339   -0.002255298518504865
-0.004258019280598565   -0.08   -0.0021980836990020598
-0.005136270465087201   -0.07939010719773591   -0.0020333024756019466
-0.006674660066546127   -0.07879924972403339   -0.002255298518504865
-0.007280211986818081   -0.07872884846492564   -0.002283536510345072
-0.004258019280598565   -0.08   -0.0021980836990020598
-0.007049977961086015   -0.07876264770277669   -0.002059915293460182
-0.005136270465087201   -0.07939010719773591   -0.0020333024756019466
-0.003930810376377337   -0.08   -0.0018897414335372338
-0.007049977961086015   -0.07876264770277669   -0.002059915293460182
-0.004258019280598565   -0.08   -0.0021980836990020598
-0.005136270465087201   -0.07939010719773591   -0.0020333024756019466
-0.007049977961086015   -0.07876264770277669   -0.002059915293460182
-0.006499493173730409   -0.07882246977050532   -0.0021331129010331495
-0.006674660066546127   -0.07879924972403339   -0.002255298518504865
-0.005136270465087201   -0.07939010719773591   -0.0020333024756019466
-0.007049977961086015   -0.07876264770277669   -0.002059915293460182
-0.006674660066546127   -0.07879924972403339   -0.002255298518504865
-0.004258019280598565   -0.08   -0.0021980836990020598
-0.004925890637174022   -0.08   -0.0028193666981044204
-0.007710412878723606   -0.07883373359903317   -0.0026990137354573366
-0.004212035545044712   -0.08   -0.0030337011723011276
-0.0045927434822603825   -0.08   -0.002510556426681908
-0.007710412878723606   -0.07883373359903317   -0.0026990137354573366
-0.009116350791193118   -0.07844791245492974   -0.00294060492859842
-0.004212035545044712   -0.08   -0.0030337011723011276
-0.008623504987316283   -0.07837592447624317   -0.002612186930829833
-0.0045927434822603825   -0.08   -0.002510556426681908
-0.0035155314875885382   -0.08   -0.0025869596198368696
-0.008623504987316283   -0.07837592447624317   -0.002612186930829833
-0.004212035545044712   -0.08   -0.0030337011723011276
-0.0045927434822603825   -0.08   -0.002510556426681908
-0.008623504987316283   -0.07837592447624317   -0.002612186930829833
-0.0075249312288625005   -0.07874829654964724   -0.002498838798796272
-0.007710412878723606   -0.07883373359903317   -0.0026990137354573366
-0.0045927434822603825   -0.08   -0.002510556426681908
-0.008623504987316283   -0.07837592447624317   -0.002612186930829833
-0.007710412878723606   -0.07883373359903317   -0.0026990137354573366
-0.004212035545044712   -0.08   -0.0030337011723011276
-0.0045927434822603825   -0.08   -0.002510556426681908
-0.0075249312288625005   -0.07874829654964724   -0.002498838798796272
-0.0035155314875885382   -0.08   -0.0025869596198368696
-0.004258019280598565   -0.08   -0.0021980836990020598
-0.0075249312288625005   -0.07874829654964724   -0.002498838798796272
-0.008623504987316283   -0.07837592447624317   -0.002612186930829833
-0.0035155314875885382   -0.08   -0.0025869596198368696
-0.008170622976379516   -0.07836602845794846   -0.0022616134510552908
-0.004258019280598565   -0.08   -0.0021980836990020598
-0.0029600791832931645   -0.08   -0.0021595947168986077
-0.008170622976379516   -0.07836602845794846   -0.0022616134510552908
-0.0035155314875885382   -0.08   -0.0025869596198368696
-0.004258019280598565   -0.08   -0.0021980836990020598
-0.008170622976379516   -0.07836602845794846   -0.0022616134510552908
-0.007280211986818081   -0.07872884846492564   -0.002283536510345072
-0.0075249312288625005   -0.07874829654964724   -0.002498838798796272
-0.004258019280598565   -0.08   -0.0021980836990020598
-0.008170622976379516   -0.07836602845794846   -0.0022616134510552908
-0.0075249312288625005   -0.07874829654964724   -0.002498838798796272
-0.0035155314875885382   -0.08   -0.0025869596198368696
-0.004258019280598565   -0.08   -0.0021980836990020598
-0.007280211986818081   -0.07872884846492564   -0.002283536510345072
-0.0029600791832931645   -0.08   -0.0021595947168986077
-0.003930810376377337   -0.08   -0.0018897414335372338
-0.007280211986818081   -0.07872884846492564   -0.002283536510345072
-0.008170622976379516   -0.07836602845794846   -0.0022616134510552908
-0.0029600791832931645   -0.08   -0.0021595947168986077
-0.0075986918641636845   -0.07846051126438888   -0.0018949458355230933
-0.003930810376377337   -0.08   -0.0018897414335372338
-0.002273924005737101   -0.08   -0.0017159426889603987
-0.0075986918641636845   -0.07846051126438888   -0.0018949458355230933
-0.0029600791832931645   -0.08   -0.0021595947168986077
-0.003930810376377337   -0.08   -0.0018897414335372338
-0.0075986918641636845   -0.07846051126438888   -0.0018949458355230933
-0.007049977961086015   -0.07876264770277669   -0.002059915293460182
-0.007280211986818081   -0.07872884846492564   -0.002283536510345072
-0.003930810376377337   -0.08   -0.0018897414335372338
-0.0075986918641636845   -0.07846051126438888   -0.0018949458355230933
-0.007280211986818081   -0.07872884846492564   -0.002283536510345072
-0.0029600791832931645   -0.08   -0.0021595947168986077
-0.005677305747136239   -0.07834837623202807   -0.0016827301884307754
-0.002314706208651883   -0.07538727039177975   -0.0014540483201681382
-0.006021516064529293   -0.07865189812502267   -0.0019875434166563765
-0.005282172501777708   -0.07821187234173871   -0.0019428551029147415
-0.002314706208651883   -0.07538727039177975   -0.0014540483201681382
-0.00432082276063604   -0.07561617211994828   -0.001777796426879551
-0.006021516064529293   -0.07865189812502267   -0.0019875434166563765
-0.0042108337126802245   -0.0754875358636308   -0.0018768524089616497
-0.005282172501777708   -0.07821187234173871   -0.0019428551029147415
-0.0058666380200988865   -0.07854558698167986   -0.0020986601422179605
-0.0042108337126802245   -0.0754875358636308   -0.0018768524089616497
-0.006021516064529293   -0.07865189812502267   -0.0019875434166563765
-0.005282172501777708   -0.07821187234173871   -0.0019428551029147415
-0.0042108337126802245   -0.0754875358636308   -0.0018768524089616497
-0.001999719512429208   -0.07522809812677471   -0.0016788275982665345
-0.002314706208651883   -0.07538727039177975   -0.0014540483201681382
-0.005282172501777708   -0.07821187234173871   -0.0019428551029147415
-0.0042108337126802245   -0.0754875358636308   -0.0018768524089616497
-0.002314706208651883   -0.07538727039177975   -0.0014540483201681382
-0.006021516064529293   -0.07865189812502267   -0.0019875434166563765
-0.005282172501777708   -0.07821187234173871   -0.0019428551029147415
-0.001999719512429208   -0.07522809812677471   -0.0016788275982665345
-0.0058666380200988865   -0.07854558698167986   -0.0020986601422179605
-0.004953260565640635   -0.07816982702533432   -0.0021923015040135416
-0.001999719512429208   -0.07522809812677471   -0.0016788275982665345
-0.0042108337126802245   -0.0754875358636308   -0.0018768524089616497
-0.0058666380200988865   -0.07854558698167986   -0.0020986601422179605
-0.0040870200647447645   -0.07541622381486444   -0.001966971190844787
-0.004953260565640635   -0.07816982702533432   -0.0021923015040135416
-0.005684982020492815   -0.07850632066735105   -0.002201171873038194
-0.0040870200647447645   -0.07541622381486444   -0.001966971190844787
-0.0058666380200988865   -0.07854558698167986   -0.0020986601422179605
-0.004953260565640635   -0.07816982702533432   -0.0021923015040135416
-0.0040870200647447645   -0.07541622381486444   -0.001966971190844787
-0.001751863500432218   -0.07515224595088876   -0.0018903591543808782
-0.001999719512429208   -0.07522809812677471   -0.0016788275982665345
-0.004953260565640635   -0.07816982702533432   -0.0021923015040135416
-0.0040870200647447645   -0.07541622381486444   -0.001966971190844787
-0.001999719512429208   -0.07522809812677471   -0.0016788275982665345
-0.0058666380200988865   -0.07854558698167986   -0.0020986601422179605
-0.004953260565640635   -0.07816982702533432   -0.0021923015040135416
-0.001751863500432218   -0.07515224595088876   -0.0018903591543808782
-0.005684982020492815   -0.07850632066735105   -0.002201171873038194
-0.004581142228359399   -0.07820519077371928   -0.0024299598625710864
-0.001751863500432218   -0.07515224595088876   -0.0018903591543808782
-0.0040870200647447645   -0.07541622381486444   -0.001966971190844787
-0.005684982020492815   -0.07850632066735105   -0.002201171873038194
-0.003992088307883264   -0.07540024428409467   -0.002048437848174028
-0.004581142228359399   -0.07820519077371928   -0.0024299598625710864
-0.005529363978324434   -0.07853466578901712   -0.002294541871427549
-0.003992088307883264   -0.07540024428409467   -0.002048437848174028
-0.005684982020492815   -0.07850632066735105   -0.002201171873038194
-0.004581142228359399   -0.07820519077371928   -0.0024299598625710864
-0.003992088307883264   -0.07540024428409467   -0.002048437848174028
-0.0014812093337499231   -0.07513793058086986   -0.0020880824043322307
-0.001751863500432218   -0.07515224595088876   -0.0018903591543808782
-0.004581142228359399   -0.07820519077371928   -0.0024299598625710864
-0.003992088307883264   -0.07540024428409467   -0.002048437848174028
-0.001751863500432218   -0.07515224595088876   -0.0018903591543808782
-0.005684982020492815   -0.07850632066735105   -0.002201171873038194
-0.006021516064529293   -0.07865189812502267   -0.0019875434166563765
-0.00432082276063604   -0.07561617211994828   -0.001777796426879551
-0.006487473506438113   -0.07883959336768948   -0.0022312641080560773
-0.0058666380200988865   -0.07854558698167986   -0.0020986601422179605
-0.00432082276063604   -0.07561617211994828   -0.001777796426879551
-0.006300947998909539   -0.07569694365282346   -0.0020418851170750066
-0.006487473506438113   -0.07883959336768948   -0.0022312641080560773
-0.006208461832660263   -0.07558471745821614   -0.0020473512097380674
-0.0058666380200988865   -0.07854558698167986   -0.0020986601422179605
-0.006350396067208603   -0.07874466554244847   -0.0022341805972810615
-0.006208461832660263   -0.07558471745821614   -0.0020473512097380674
-0.006487473506438113   -0.07883959336768948   -0.0022312641080560773
-0.0058666380200988865   -0.07854558698167986   -0.0020986601422179605
-0.006208461832660263   -0.07558471745821614   -0.0020473512097380674
-0.0042108337126802245   -0.0754875358636308   -0.0018768524089616497
-0.00432082276063604   -0.07561617211994828   -0.001777796426879551
-0.0058666380200988865   -0.07854558698167986   -0.0020986601422179605
-0.006208461832660263   -0.07558471745821614   -0.0020473512097380674
-0.00432082276063604   -0.07561617211994828   -0.001777796426879551
-0.006487473506438113   -0.07883959336768948   -0.0022312641080560773
-0.0058666380200988865   -0.07854558698167986   -0.0020986601422179605
-0.0042108337126802245   -0.0754875358636308   -0.0018768524089616497
-0.006350396067208603   -0.07874466554244847   -0.0022341805972810615
-0.005684982020492815   -0.07850632066735105   -0.002201171873038194
-0.0042108337126802245   -0.0754875358636308   -0.0018768524089616497
-0.006208461832660263   -0.07558471745821614   -0.0020473512097380674
-0.006350396067208603   -0.07874466554244847   -0.0022341805972810615
-0.00611280697334591   -0.0755241672367181   -0.0020445406118408138
-0.005684982020492815   -0.07850632066735105   -0.002201171873038194
-0.006197818183966179   -0.07871046148248442   -0.0022259408519707006
-0.00611280697334591   -0.0755241672367181   -0.0020445406118408138
-0.006350396067208603   -0.07874466554244847   -0.0022341805972810615
-0.005684982020492815   -0.07850632066735105   -0.002201171873038194
-0.00611280697334591   -0.0755241672367181   -0.0020445406118408138
-0.0040870200647447645   -0.07541622381486444   -0.001966971190844787
-0.0042108337126802245   -0.0754875358636308   -0.0018768524089616497
-0.005684982020492815   -0.07850632066735105   -0.002201171873038194
-0.00611280697334591   -0.0755241672367181   -0.0020445406118408138
-0.0042108337126802245   -0.0754875358636308   -0.0018768524089616497
-0.006350396067208603   -0.07874466554244847   -0.0022341805972810615
-0.005684982020492815   -0.07850632066735105   -0.002201171873038194
-0.0040870200647447645   -0.07541622381486444   -0.001966971190844787
-0.006197818183966179   -0.07871046148248442   -0.0022259408519707006
-0.005529363978324434   -0.07853466578901712   -0.002294541871427549
-0.0040870200647447645   -0.07541622381486444   -0.001966971190844787
-0.00611280697334591   -0.0755241672367181   -0.0020445406118408138
-0.006197818183966179   -0.07871046148248442   -0.0022259408519707006
-0.006020555827330395   -0.07551279976259674   -0.002033374822331865
-0.005529363978324434   -0.07853466578901712   -0.002294541871427549
-0.006042684822236346   -0.07873420434352267   -0.0022089470351988874
-0.006020555827330395   -0.07551279976259674   -0.002033374822331865
-0.006197818183966179   -0.07871046148248442   -0.0022259408519707006
-0.005529363978324434   -0.07853466578901712   -0.002294541871427549
-0.006020555827330395   -0.07551279976259674   -0.002033374822331865
-0.003992088307883264   -0.07540024428409467   -0.002048437848174028
-0.0040870200647447645   -0.07541622381486444   -0.001966971190844787
-0.005529363978324434   -0.07853466578901712   -0.002294541871427549
-0.006020555827330395   -0.07551279976259674   -0.002033374822331865
-0.0040870200647447645   -0.07541622381486444   -0.001966971190844787
-0.006197818183966179   -0.07871046148248442   -0.0022259408519707006
-0.006487473506438113   -0.07883959336768948   -0.0022312641080560773
-0.006300947998909539   -0.07569694365282346   -0.0020418851170750066
-0.006986985364890948   -0.0789185516718106   -0.002471134111378185
-0.006350396067208603   -0.07874466554244847   -0.0022341805972810615
-0.006300947998909539   -0.07569694365282346   -0.0020418851170750066
-0.00826735077597106   -0.07562516798791691   -0.002289041081996765
-0.006986985364890948   -0.0789185516718106   -0.002471134111378185
-0.008175595193881146   -0.0755255015811668   -0.0022047692941838835
-0.006350396067208603   -0.07874466554244847   -0.0022341805972810615
-0.006844988313158642   -0.0788280422209782   -0.0023700098162444533
-0.008175595193881146   -0.0755255015811668   -0.0022047692941838835
-0.006986985364890948   -0.0789185516718106   -0.002471134111378185
-0.006350396067208603   -0.07874466554244847   -0.0022341805972810615
-0.008175595193881146   -0.0755255015811668   -0.0022047692941838835
-0.006208461832660263   -0.07558471745821614   -0.0020473512097380674
-0.006300947998909539   -0.07569694365282346   -0.0020418851170750066
-0.006350396067208603   -0.07874466554244847   -0.0022341805972810615
-0.008175595193881146   -0.0755255015811668   -0.0022047692941838835
-0.006300947998909539   -0.07569694365282346   -0.0020418851170750066
-0.006986985364890948   -0.0789185516718106   -0.002471134111378185
-0.006350396067208603   -0.07874466554244847   -0.0022341805972810615
-0.006208461832660263   -0.07558471745821614   -0.0020473512097380674
-0.006844988313158642   -0.0788280422209782   -0.0023700098162444533
-0.006197818183966179   -0.07871046148248442   -0.0022259408519707006
-0.006208461832660263   -0.07558471745821614   -0.0020473512097380674
-0.008175595193881146   -0.0755255015811668   -0.0022047692941838835
-0.006844988313158642   -0.0788280422209782   -0.0023700098162444533
-0.008072624394535448   -0.07547664308290476   -0.002112342963813079
-0.006197818183966179   -0.07871046148248442   -0.0022259408519707006
-0.006674660066546127   -0.07879924972403339   -0.002255298518504865
-0.008072624394535448   -0.07547664308290476   -0.002112342963813079
-0.006844988313158642   -0.0788280422209782   -0.0023700098162444533
-0.006197818183966179   -0.07871046148248442   -0.0022259408519707006
-0.008072624394535448   -0.07547664308290476   -0.002112342963813079
-0.00611280697334591   -0.0755241672367181   -0.0020445406118408138
-0.006208461832660263   -0.07558471745821614   -0.0020473512097380674
-0.006197818183966179   -0.07871046148248442   -0.0022259408519707006
-0.008072624394535448   -0.07547664308290476   -0.002112342963813079
-0.006208461832660263   -0.07558471745821614   -0.0020473512097380674
-0.006844988313158642   -0.0788280422209782   -0.0023700098162444533
-0.006197818183966179   -0.07871046148248442   -0.0022259408519707006
-0.00611280697334591   -0.0755241672367181   -0.0020445406118408138
-0.006674660066546127   -0.07879924972403339   -0.002255298518504865
-0.006042684822236346   -0.07873420434352267   -0.0022089470351988874
-0.00611280697334591   -0.0755241672367181   -0.0020445406118408138
-0.008072624394535448   -0.07547664308290476   -0.002112342963813079
-0.006674660066546127   -0.07879924972403339   -0.002255298518504865
-0.007969222032871546   -0.07547369703547437   -0.0020107684993837132
-0.006042684822236346   -0.07873420434352267   -0.0022089470351988874
-0.006499493173730409   -0.07882246977050532   -0.0021331129010331495
-0.007969222032871546   -0.07547369703547437   -0.0020107684993837132
-0.006674660066546127   -0.07879924972403339   -0.002255298518504865
-0.006042684822236346   -0.07873420434352267   -0.0022089470351988874
-0.007969222032871546   -0.07547369703547437   -0.0020107684993837132
-0.006020555827330395   -0.07551279976259674   -0.002033374822331865
-0.00611280697334591   -0.0755241672367181   -0.0020445406118408138
-0.006042684822236346   -0.07873420434352267   -0.0022089470351988874
-0.007969222032871546   -0.07547369703547437   -0.0020107684993837132
-0.00611280697334591   -0.0755241672367181   -0.0020445406118408138
-0.006674660066546127   -0.07879924972403339   -0.002255298518504865
-0.006986985364890948   -0.0789185516718106   -0.002471134111378185
-0.00826735077597106   -0.07562516798791691   -0.002289041081996765
-0.007710412878723606   -0.07883373359903317   -0.0026990137354573366
-0.006844988313158642   -0.0788280422209782   -0.0023700098162444533
-0.00826735077597106   -0.07562516798791691   -0.002289041081996765
-0.01042783690858966   -0.07539133389874468   -0.0025160423391455346
-0.007710412878723606   -0.07883373359903317   -0.0026990137354573366
-0.010315530322965512   -0.07530425876022459   -0.0023440369939446964
-0.006844988313158642   -0.0788280422209782   -0.0023700098162444533
-0.0075249312288625005   -0.07874829654964724   -0.002498838798796272
-0.010315530322965512   -0.07530425876022459   -0.0023440369939446964
-0.007710412878723606   -0.07883373359903317   -0.0026990137354573366
-0.006844988313158642   -0.0788280422209782   -0.0023700098162444533
-0.010315530322965512   -0.07530425876022459   -0.0023440369939446964
-0.008175595193881146   -0.0755255015811668   -0.0022047692941838835
-0.00826735077597106   -0.07562516798791691   -0.002289041081996765
-0.006844988313158642   -0.0788280422209782   -0.0023700098162444533
-0.010315530322965512   -0.07530425876022459   -0.0023440369939446964
-0.00826735077597106   -0.07562516798791691   -0.002289041081996765
-0.007710412878723606   -0.07883373359903317   -0.0026990137354573366
-0.006844988313158642   -0.0788280422209782   -0.0023700098162444533
-0.008175595193881146   -0.0755255015811668   -0.0022047692941838835
-0.0075249312288625005   -0.07874829654964724   -0.002498838798796272
-0.006674660066546127   -0.07879924972403339   -0.002255298518504865
-0.008175595193881146   -0.0755255015811668   -0.0022047692941838835
-0.010315530322965512   -0.07530425876022459   -0.0023440369939446964
-0.0075249312288625005   -0.07874829654964724   -0.002498838798796272
-0.010160486862298637   -0.07526704535906974   -0.002164474160587294
-0.006674660066546127   -0.07879924972403339   -0.002255298518504865
-0.007280211986818081   -0.07872884846492564   -0.002283536510345072
-0.010160486862298637   -0.07526704535906974   -0.002164474160587294
-0.0075249312288625005   -0.07874829654964724   -0.002498838798796272
-0.006674660066546127   -0.07879924972403339   -0.002255298518504865
-0.010160486862298637   -0.07526704535906974   -0.002164474160587294
-0.008072624394535448   -0.07547664308290476   -0.002112342963813079
-0.008175595193881146   -0.0755255015811668   -0.0022047692941838835
-0.006674660066546127   -0.07879924972403339   -0.002255298518504865
-0.010160486862298637   -0.07526704535906974   -0.002164474160587294
-0.008175595193881146   -0.0755255015811668   -0.0022047692941838835
-0.0075249312288625005   -0.07874829654964724   -0.002498838798796272
-0.006674660066546127   -0.07879924972403339   -0.002255298518504865
-0.008072624394535448   -0.07547664308290476   -0.002112342963813079
-0.007280211986818081   -0.07872884846492564   -0.002283536510345072
-0.006499493173730409   -0.07882246977050532   -0.0021331129010331495
-0.008072624394535448   -0.07547664308290476   -0.002112342963813079
-0.010160486862298637   -0.07526704535906974   -0.002164474160587294
-0.007280211986818081   -0.07872884846492564   -0.002283536510345072
-0.01002513797872012   -0.0752797540036668   -0.00197234668096246
-0.006499493173730409   -0.07882246977050532   -0.0021331129010331495
-0.007049977961086015   -0.07876264770277669   -0.002059915293460182
-0.01002513797872012   -0.0752797540036668   -0.00197234668096246
-0.007280211986818081   -0.07872884846492564   -0.002283536510345072
-0.006499493173730409   -0.07882246977050532   -0.0021331129010331495
-0.01002513797872012   -0.0752797540036668   -0.00197234668096246
-0.007969222032871546   -0.07547369703547437   -0.0020107684993837132
-0.008072624394535448   -0.07547664308290476   -0.002112342963813079
-0.006499493173730409   -0.07882246977050532   -0.0021331129010331495
-0.01002513797872012   -0.0752797540036668   -0.00197234668096246
-0.008072624394535448   -0.07547664308290476   -0.002112342963813079
-0.007280211986818081   -0.07872884846492564   -0.002283536510345072
-0.007710412878723606   -0.07883373359903317   -0.0026990137354573366
-0.01042783690858966   -0.07539133389874468   -0.0025160423391455346
-0.009116350791193118   -0.07844791245492974   -0.00294060492859842
-0.0075249312288625005   -0.07874829654964724   -0.002498838798796272
-0.01042783690858966   -0.07539133389874468   -0.0025160423391455346
-0.013210042731156444   -0.07501104386259358   -0.0027338463349642094
-0.009116350791193118   -0.07844791245492974   -0.00294060492859842
-0.012848553480127839   -0.07491667314403666   -0.0024622872310225826
-0.0075249312288625005   -0.07874829654964724   -0.002498838798796272
-0.008623504987316283   -0.07837592447624317   -0.002612186930829833
-0.012848553480127839   -0.07491667314403666   -0.0024622872310225826
-0.009116350791193118   -0.07844791245492974   -0.00294060492859842
-0.0075249312288625005   -0.07874829654964724   -0.002498838798796272
-0.012848553480127839   -0.07491667314403666   -0.0024622872310225826
-0.010315530322965512   -0.07530425876022459   -0.0023440369939446964
-0.01042783690858966   -0.07539133389874468   -0.0025160423391455346
-0.0075249312288625005   -0.07874829654964724   -0.002498838798796272
-0.012848553480127839   -0.07491667314403666   -0.0024622872310225826
-0.01042783690858966   -0.07539133389874468   -0.0025160423391455346
-0.009116350791193118   -0.07844791245492974   -0.00294060492859842
-0.0075249312288625005   -0.07874829654964724   -0.002498838798796272
-0.010315530322965512   -0.07530425876022459   -0.0023440369939446964
-0.008623504987316283   -0.07837592447624317   -0.002612186930829833
-0.007280211986818081   -0.07872884846492564   -0.002283536510345072
-0.010315530322965512   -0.07530425876022459   -0.0023440369939446964
-0.012848553480127839   -0.07491667314403666   -0.0024622872310225826
-0.008623504987316283   -0.07837592447624317   -0.002612186930829833
-0.012524486342554323   -0.07488225188568105   -0.002174882782391417
-0.007280211986818081   -0.07872884846492564   -0.002283536510345072
-0.008170622976379516   -0.07836602845794846   -0.0022616134510552908
-0.012524486342554323   -0.07488225188568105   -0.002174882782391417
-0.008623504987316283   -0.07837592447624317   -0.002612186930829833
-0.007280211986818081   -0.07872884846492564   -0.002283536510345072
-0.012524486342554323   -0.07488225188568105   -0.002174882782391417
-0.010160486862298637   -0.07526704535906974   -0.002164474160587294
-0.010315530322965512   -0.07530425876022459   -0.0023440369939446964
-0.007280211986818081   -0.07872884846492564   -0.002283536510345072
-0.012524486342554323   -0.07488225188568105   -0.002174882782391417
-0.010315530322965512   -0.07530425876022459   -0.0023440369939446964
-0.008623504987316283   -0.07837592447624317   -0.002612186930829833
-0.007280211986818081   -0.07872884846492564   -0.002283536510345072
-0.010160486862298637   -0.07526704535906974   -0.002164474160587294
-0.008170622976379516   -0.07836602845794846   -0.0022616134510552908
-0.007049977961086015   -0.07876264770277669   -0.002059915293460182
-0.010160486862298637   -0.07526704535906974   -0.002164474160587294
-0.012524486342554323   -0.07488225188568105   -0.002174882782391417
-0.008170622976379516   -0.07836602845794846   -0.0022616134510552908
-0.012104473517597405   -0.07492552499639002   -0.0018743656658014567
-0.007049977961086015   -0.07876264770277669   -0.002059915293460182
-0.0075986918641636845   -0.07846051126438888   -0.0018949458355230933
-0.012104473517597405   -0.07492552499639002   -0.0018743656658014567
-0.008170622976379516   -0.07836602845794846   -0.0022616134510552908
-0.007049977961086015   -0.07876264770277669   -0.002059915293460182
-0.012104473517597405   -0.07492552499639002   -0.0018743656658014567
-0.01002513797872012   -0.0752797540036668   -0.00197234668096246
-0.010160486862298637   -0.07526704535906974   -0.002164474160587294
-0.007049977961086015   -0.07876264770277669   -0.002059915293460182
-0.012104473517597405   -0.07492552499639002   -0.0018743656658014567
-0.010160486862298637   -0.07526704535906974   -0.002164474160587294
-0.008170622976379516   -0.07836602845794846   -0.0022616134510552908
-0.002314706208651883   -0.07538727039177975   -0.0014540483201681382
0.0004122786555968988   -0.06993932150204737   -0.0012028476708752284
-0.00432082276063604   -0.07561617211994828   -0.001777796426879551
-0.001999719512429208   -0.07522809812677471   -0.0016788275982665345
0.0004122786555968988   -0.06993932150204737   -0.0012028476708752284
-0.002970684391103521   -0.07010713266824127   -0.0015206726018490658
-0.00432082276063604   -0.07561617211994828   -0.001777796426879551
-0.0029124032414881056   -0.06997232599725822   -0.0015992373193866216
-0.001999719512429208   -0.07522809812677471   -0.0016788275982665345
-0.0042108337126802245   -0.0754875358636308   -0.0018768524089616497
-0.0029124032414881056   -0.06997232599725822   -0.0015992373193866216
-0.00432082276063604   -0.07561617211994828   -0.001777796426879551
-0.001999719512429208   -0.07522809812677471   -0.0016788275982665345
-0.0029124032414881056   -0.06997232599725822   -0.0015992373193866216
0.0006321673917811879   -0.0697776138673109   -0.0013817865555553858
0.0004122786555968988   -0.06993932150204737   -0.0012028476708752284
-0.001999719512429208   -0.07522809812677471   -0.0016788275982665345
-0.0029124032414881056   -0.06997232599725822   -0.0015992373193866216
0.0004122786555968988   -0.06993932150204737   -0.0012028476708752284
-0.00432082276063604   -0.07561617211994828   -0.001777796426879551
-0.001999719512429208   -0.07522809812677471   -0.0016788275982665345
0.0006321673917811879   -0.0697776138673109   -0.0013817865555553858
-0.0042108337126802245   -0.0754875358636308   -0.0018768524089616497
-0.001751863500432218   -0.07515224595088876   -0.0018903591543808782
0.0006321673917811879   -0.0697776138673109   -0.0013817865555553858
-0.0029124032414881056   -0.06997232599725822   -0.0015992373193866216
-0.0042108337126802245   -0.0754875358636308   -0.0018768524089616497
-0.0028460459001221254   -0.06988425211467321   -0.0016686432204011555
-0.001751863500432218   -0.07515224595088876   -0.0018903591543808782
-0.0040870200647447645   -0.07541622381486444   -0.001966971190844787
-0.0028460459001221254   -0.06988425211467321   -0.0016686432204011555
-0.0042108337126802245   -0.0754875358636308   -0.0018768524089616497
-0.001751863500432218   -0.07515224595088876   -0.0018903591543808782
-0.0028460459001221254   -0.06988425211467321   -0.0016686432204011555
0.0007939113681514819   -0.06968413454165788   -0.0015479061814383192
0.0006321673917811879   -0.0697776138673109   -0.0013817865555553858
-0.001751863500432218   -0.07515224595088876   -0.0018903591543808782
-0.0028460459001221254   -0.06988425211467321   -0.0016686432204011555
0.0006321673917811879   -0.0697776138673109   -0.0013817865555553858
-0.0042108337126802245   -0.0754875358636308   -0.0018768524089616497
-0.001751863500432218   -0.07515224595088876   -0.0018903591543808782
0.0007939113681514819   -0.06968413454165788   -0.0015479061814383192
-0.0040870200647447645   -0.07541622381486444   -0.001966971190844787
-0.0014812093337499231   -0.07513793058086986   -0.0020880824043322307
0.0007939113681514819   -0.06968413454165788   -0.0015479061814383192
-0.0028460459001221254   -0.06988425211467321   -0.0016686432204011555
-0.0040870200647447645   -0.07541622381486444   -0.001966971190844787
-0.002806374658237958   -0.06984030582193657   -0.0017297945228305946
-0.0014812093337499231   -0.07513793058086986   -0.0020880824043322307
-0.003992088307883264   -0.07540024428409467   -0.002048437848174028
-0.002806374658237958   -0.06984030582193657   -0.0017297945228305946
-0.0040870200647447645   -0.07541622381486444   -0.001966971190844787
-0.0014812093337499231   -0.07513793058086986   -0.0020880824043322307
-0.002806374658237958   -0.06984030582193657   -0.0017297945228305946
0.0009670385312205191   -0.06963799738432418   -0.0017011434516333477
0.0007939113681514819   -0.06968413454165788   -0.0015479061814383192
-0.0014812093337499231   -0.07513793058086986   -0.0020880824043322307
-0.002806374658237958   -0.06984030582193657   -0.0017297945228305946
0.0007939113681514819   -0.06968413454165788   -0.0015479061814383192
-0.0040870200647447645   -0.07541622381486444   -0.001966971190844787
-0.00432082276063604   -0.07561617211994828   -0.001777796426879551
-0.002970684391103521   -0.07010713266824127   -0.0015206726018490658
-0.006300947998909539   -0.07569694365282346   -0.0020418851170750066
-0.0042108337126802245   -0.0754875358636308   -0.0018768524089616497
-0.002970684391103521   -0.07010713266824127   -0.0015206726018490658
-0.0062431867905039596   -0.07013922740594071   -0.0017825824070672363
-0.006300947998909539   -0.07569694365282346   -0.0020418851170750066
-0.00620033761112069   -0.07002349737934543   -0.0017846118575083772
-0.0042108337126802245   -0.0754875358636308   -0.0018768524089616497
-0.006208461832660263   -0.07558471745821614   -0.0020473512097380674
-0.00620033761112069   -0.07002349737934543   -0.0017846118575083772
-0.006300947998909539   -0.07569694365282346   -0.0020418851170750066
-0.0042108337126802245   -0.0754875358636308   -0.0018768524089616497
-0.00620033761112069   -0.07002349737934543   -0.0017846118575083772
-0.0029124032414881056   -0.06997232599725822   -0.0015992373193866216
-0.002970684391103521   -0.07010713266824127   -0.0015206726018490658
-0.0042108337126802245   -0.0754875358636308   -0.0018768524089616497
-0.00620033761112069   -0.07002349737934543   -0.0017846118575083772
-0.002970684391103521   -0.07010713266824127   -0.0015206726018490658
-0.006300947998909539   -0.07569694365282346   -0.0020418851170750066
-0.0042108337126802245   -0.0754875358636308   -0.0018768524089616497
-0.0029124032414881056   -0.06997232599725822   -0.0015992373193866216
-0.006208461832660263   -0.07558471745821614   -0.0020473512097380674
-0.0040870200647447645   -0.07541622381486444   -0.001966971190844787
-0.0029124032414881056   -0.06997232599725822   -0.0015992373193866216
-0.00620033761112069   -0.07002349737934543   -0.0017846118575083772
-0.006208461832660263   -0.07558471745821614   -0.0020473512097380674
-0.006156277160128681   -0.06994959632793674   -0.0017778668483109093
-0.0040870200647447645   -0.07541622381486444   -0.001966971190844787
-0.00611280697334591   -0.0755241672367181   -0.0020445406118408138
-0.006156277160128681   -0.06994959632793674   -0.0017778668483109093
-0.006208461832660263   -0.07558471745821614   -0.0020473512097380674
-0.0040870200647447645   -0.07541622381486444   -0.001966971190844787
-0.006156277160128681   -0.06994959632793674   -0.0017778668483109093
-0.0028460459001221254   -0.06988425211467321   -0.0016686432204011555
-0.0029124032414881056   -0.06997232599725822   -0.0015992373193866216
-0.0040870200647447645   -0.07541622381486444   -0.001966971190844787
-0.006156277160128681   -0.06994959632793674   -0.0017778668483109093
-0.0029124032414881056   -0.06997232599725822   -0.0015992373193866216
-0.006208461832660263   -0.07558471745821614   -0.0020473512097380674
-0.0040870200647447645   -0.07541622381486444   -0.001966971190844787
-0.0028460459001221254   -0.06988425211467321   -0.0016686432204011555
-0.00611280697334591   -0.0755241672367181   -0.0020445406118408138
-0.003992088307883264   -0.07540024428409467   -0.002048437848174028
-0.0028460459001221254   -0.06988425211467321   -0.0016686432204011555
-0.006156277160128681   -0.06994959632793674   -0.0017778668483109093
-0.00611280697334591   -0.0755241672367181   -0.0020445406118408138
-0.006117739375563799   -0.06991683244830983   -0.0017629307185390826
-0.003992088307883264   -0.07540024428409467   -0.002048437848174028
-0.006020555827330395   -0.07551279976259674   -0.002033374822331865
-0.006117739375563799   -0.06991683244830983   -0.0017629307185390826
-0.00611280697334591   -0.0755241672367181   -0.0020445406118408138
-0.003992088307883264   -0.07540024428409467   -0.002048437848174028
-0.006117739375563799   -0.06991683244830983   -0.0017629307185390826
-0.002806374658237958   -0.06984030582193657   -0.0017297945228305946
-0.0028460459001221254   -0.06988425211467321   -0.0016686432204011555
-0.003992088307883264   -0.07540024428409467   -0.002048437848174028
-0.006117739375563799   -0.06991683244830983   -0.0017629307185390826
-0.0028460459001221254   -0.06988425211467321   -0.0016686432204011555
-0.00611280697334591   -0.0755241672367181   -0.0020445406118408138
-0.006300947998909539   -0.07569694365282346   -0.0020418851170750066
-0.0062431867905039596   -0.07013922740594071   -0.0017825824070672363
-0.00826735077597106   -0.07562516798791691   -0.002289041081996765
-0.006208461832660263   -0.07558471745821614   -0.0020473512097380674
-0.0062431867905039596   -0.07013922740594071   -0.0017825824070672363
-0.00946421125879913   -0.07003502926828406   -0.00201900348687857
-0.00826735077597106   -0.07562516798791691   -0.002289041081996765
-0.009424318010445597   -0.06993517539222853   -0.0019463439019265227
-0.006208461832660263   -0.07558471745821614   -0.0020473512097380674
-0.008175595193881146   -0.0755255015811668   -0.0022047692941838835
-0.009424318010445597   -0.06993517539222853   -0.0019463439019265227
-0.00826735077597106   -0.07562516798791691   -0.002289041081996765
-0.006208461832660263   -0.07558471745821614   -0.0020473512097380674
-0.009424318010445597   -0.06993517539222853   -0.0019463439019265227
-0.00620033761112069   -0.07002349737934543   -0.0017846118575083772
-0.0062431867905039596   -0.07013922740594071   -0.0017825824070672363
-0.006208461832660263   -0.07558471745821614   -0.0020473512097380674
-0.009424318010445597   -0.06993517539222853   -0.0019463439019265227
-0.0062431867905039596   -0.07013922740594071   -0.0017825824070672363
-0.00826735077597106   -0.07562516798791691   -0.002289041081996765
-0.006208461832660263   -0.07558471745821614   -0.0020473512097380674
-0.00620033761112069   -0.07002349737934543   -0.0017846118575083772
-0.008175595193881146   -0.0755255015811668   -0.0022047692941838835
-0.00611280697334591   -0.0755241672367181   -0.0020445406118408138
-0.00620033761112069   -0.07002349737934543   -0.0017846118575083772
-0.009424318010445597   -0.06993517539222853   -0.0019463439019265227
-0.008175595193881146   -0.0755255015811668   -0.0022047692941838835
-0.009376113262604693   -0.06987669016043135   -0.001865099733499885
-0.00611280697334591   -0.0755241672367181   -0.0020445406118408138
-0.008072624394535448   -0.07547664308290476   -0.002112342963813079
-0.009376113262604693   -0.06987669016043135   -0.001865099733499885
-0.008175595193881146   -0.0755255015811668   -0.0022047692941838835
-0.00611280697334591   -0.0755241672367181   -0.0020445406118408138
-0.009376113262604693   -0.06987669016043135   -0.001865099733499885
-0.006156277160128681   -0.06994959632793674   -0.0017778668483109093
-0.00620033761112069   -0.07002349737934543   -0.0017846118575083772
-0.00611280697334591   -0.0755241672367181   -0.0020445406118408138
-0.009376113262604693   -0.06987669016043135   -0.001865099733499885
-0.00620033761112069   -0.07002349737934543   -0.0017846118575083772
-0.008175595193881146   -0.0755255015811668   -0.0022047692941838835
-0.00611280697334591   -0.0755241672367181   -0.0020445406118408138
-0.006156277160128681   -0.06994959632793674   -0.0017778668483109093
-0.008072624394535448   -0.07547664308290476   -0.002112342963813079
-0.006020555827330395   -0.07551279976259674   -0.002033374822331865
-0.006156277160128681   -0.06994959632793674   -0.0017778668483109093
-0.009376113262604693   -0.06987669016043135   -0.001865099733499885
-0.008072624394535448   -0.07547664308290476   -0.002112342963813079
-0.009329225305747691   -0.06985764832695128   -0.0017755354639282495
-0.006020555827330395   -0.07551279976259674   -0.002033374822331865
-0.007969222032871546   -0.07547369703547437   -0.0020107684993837132
-0.009329225305747691   -0.06985764832695128   -0.0017755354639282495
-0.008072624394535448   -0.07547664308290476   -0.002112342963813079
-0.006020555827330395   -0.07551279976259674   -0.002033374822331865
-0.009329225305747691   -0.06985764832695128   -0.0017755354639282495
-0.006117739375563799   -0.06991683244830983   -0.0017629307185390826
-0.006156277160128681   -0.06994959632793674   -0.0017778668483109093
-0.006020555827330395   -0.07551279976259674   -0.002033374822331865
-0.009329225305747691   -0.06985764832695128   -0.0017755354639282495
-0.006156277160128681   -0.06994959632793674   -0.0017778668483109093
-0.008072624394535448   -0.07547664308290476   -0.002112342963813079
-0.00826735077597106   -0.07562516798791691   -0.002289041081996765
-0.00946421125879913   -0.07003502926828406   -0.00201900348687857
-0.01042783690858966   -0.07539133389874468   -0.0025160423391455346
-0.008175595193881146   -0.0755255015811668   -0.0022047692941838835
-0.00946421125879913   -0.07003502926828406   -0.00201900348687857
-0.01283976953269078   -0.06979823607802564   -0.00222902125653607
-0.01042783690858966   -0.07539133389874468   -0.0025160423391455346
-0.012787672057027485   -0.06971354476550969   -0.002081581006576091
-0.008175595193881146   -0.0755255015811668   -0.0022047692941838835
-0.010315530322965512   -0.07530425876022459   -0.0023440369939446964
-0.012787672057027485   -0.06971354476550969   -0.002081581006576091
-0.01042783690858966   -0.07539133389874468   -0.0025160423391455346
-0.008175595193881146   -0.0755255015811668   -0.0022047692941838835
-0.012787672057027485   -0.06971354476550969   -0.002081581006576091
-0.009424318010445597   -0.06993517539222853   -0.0019463439019265227
-0.00946421125879913   -0.07003502926828406   -0.00201900348687857
-0.008175595193881146   -0.0755255015811668   -0.0022047692941838835
-0.012787672057027485   -0.06971354476550969   -0.002081581006576091
-0.00946421125879913   -0.07003502926828406   -0.00201900348687857
-0.01042783690858966   -0.07539133389874468   -0.0025160423391455346
-0.008175595193881146   -0.0755255015811668   -0.0022047692941838835
-0.009424318010445597   -0.06993517539222853   -0.0019463439019265227
-0.010315530322965512   -0.07530425876022459   -0.0023440369939446964
-0.008072624394535448   -0.07547664308290476   -0.002112342963813079
-0.009424318010445597   -0.06993517539222853   -0.0019463439019265227
-0.012787672057027485   -0.06971354476550969   -0.002081581006576091
-0.010315530322965512   -0.07530425876022459   -0.0023440369939446964
-0.012699360877167347   -0.06966903595564877   -0.0019268746163125414
-0.008072624394535448   -0.07547664308290476   -0.002112342963813079
-0.010160486862298637   -0.07526704535906974   -0.002164474160587294
-0.012699360877167347   -0.06966903595564877   -0.0019268746163125414
-0.010315530322965512   -0.07530425876022459   -0.0023440369939446964
-0.008072624394535448   -0.07547664308290476   -0.002112342963813079
-0.012699360877167347   -0.06966903595564877   -0.0019268746163125414
-0.009376113262604693   -0.06987669016043135   -0.001865099733499885
-0.009424318010445597   -0.06993517539222853   -0.0019463439019265227
-0.008072624394535448   -0.07547664308290476   -0.002112342963813079
-0.012699360877167347   -0.06966903595564877   -0.0019268746163125414
-0.009424318010445597   -0.06993517539222853   -0.0019463439019265227
-0.010315530322965512   -0.07530425876022459   -0.0023440369939446964
-0.008072624394535448   -0.07547664308290476   -0.002112342963813079
-0.009376113262604693   -0.06987669016043135   -0.001865099733499885
-0.010160486862298637   -0.07526704535906974   -0.002164474160587294
-0.007969222032871546   -0.07547369703547437   -0.0020107684993837132
-0.009376113262604693   -0.06987669016043135   -0.001865099733499885
-0.012699360877167347   -0.06966903595564877   -0.0019268746163125414
-0.010160486862298637   -0.07526704535906974   -0.002164474160587294
-0.012627611693906117   -0.06966706098826896   -0.0017626379904225964
-0.007969222032871546   -0.07547369703547437   -0.0020107684993837132
-0.01002513797872012   -0.0752797540036668   -0.00197234668096246
-0.012627611693906117   -0.06966706098826896   -0.0017626379904225964
-0.010160486862298637   -0.07526704535906974   -0.002164474160587294
-0.007969222032871546   -0.07547369703547437   -0.0020107684993837132
-0.012627611693906117   -0.06966706098826896   -0.0017626379904225964
-0.009329225305747691   -0.06985764832695128   -0.0017755354639282495
-0.009376113262604693   -0.06987669016043135   -0.001865099733499885
-0.007969222032871546   -0.07547369703547437   -0.0020107684993837132
-0.012627611693906117   -0.06966706098826896   -0.0017626379904225964
-0.009376113262604693   -0.06987669016043135   -0.001865099733499885
-0.010160486862298637   -0.07526704535906974   -0.002164474160587294
-0.01042783690858966   -0.07539133389874468   -0.0025160423391455346
-0.01283976953269078   -0.06979823607802564   -0.00222902125653607
-0.013210042731156444   -0.07501104386259358   -0.0027338463349642094
-0.010315530322965512   -0.07530425876022459   -0.0023440369939446964
-0.01283976953269078   -0.06979823607802564   -0.00222902125653607
-0.016776475547548613   -0.06945733444823401   -0.0024247805637414607
-0.013210042731156444   -0.07501104386259358   -0.0027338463349642094
-0.016509801219376497   -0.06936903550833896   -0.0021940128591582796
-0.010315530322965512   -0.07530425876022459   -0.0023440369939446964
-0.012848553480127839   -0.07491667314403666   -0.0024622872310225826
-0.016509801219376497   -0.06936903550833896   -0.0021940128591582796
-0.013210042731156444   -0.07501104386259358   -0.0027338463349642094
-0.010315530322965512   -0.07530425876022459   -0.0023440369939446964
-0.016509801219376497   -0.06936903550833896   -0.0021940128591582796
-0.012787672057027485   -0.06971354476550969   -0.002081581006576091
-0.01283976953269078   -0.06979823607802564   -0.00222902125653607
-0.010315530322965512   -0.07530425876022459   -0.0023440369939446964
-0.016509801219376497   -0.06936903550833896   -0.0021940128591582796
-0.01283976953269078   -0.06979823607802564   -0.00222902125653607
-0.013210042731156444   -0.07501104386259358   -0.0027338463349642094
-0.010315530322965512   -0.07530425876022459   -0.0023440369939446964
-0.012787672057027485   -0.06971354476550969   -0.002081581006576091
-0.012848553480127839   -0.07491667314403666   -0.0024622872310225826
-0.010160486862298637   -0.07526704535906974   -0.002164474160587294
-0.012787672057027485   -0.06971354476550969   -0.002081581006576091
-0.016509801219376497   -0.06936903550833896   -0.0021940128591582796
-0.012848553480127839   -0.07491667314403666   -0.0024622872310225826
-0.01627831827050004   -0.06932832073236858   -0.0019512669718670453
-0.010160486862298637   -0.07526704535906974   -0.002164474160587294
-0.012524486342554323   -0.07488225188568105   -0.002174882782391417
-0.01627831827050004   -0.06932832073236858   -0.0019512669718670453
-0.012848553480127839   -0.07491667314403666   -0.0024622872310225826
-0.010160486862298637   -0.07526704535906974   -0.002164474160587294
-0.01627831827050004   -0.06932832073236858   -0.0019512669718670453
-0.012699360877167347   -0.06966903595564877   -0.0019268746163125414
-0.012787672057027485   -0.06971354476550969   -0.002081581006576091
-0.010160486862298637   -0.07526704535906974   -0.002164474160587294
-0.01627831827050004   -0.06932832073236858   -0.0019512669718670453
-0.012787672057027485   -0.06971354476550969   -0.002081581006576091
-0.012848553480127839   -0.07491667314403666   -0.0024622872310225826
-0.010160486862298637   -0.07526704535906974   -0.002164474160587294
-0.012699360877167347   -0.06966903595564877   -0.0019268746163125414
-0.012524486342554323   -0.07488225188568105   -0.002174882782391417
-0.01002513797872012   -0.0752797540036668   -0.00197234668096246
-0.012699360877167347   -0.06966903595564877   -0.0019268746163125414
-0.01627831827050004   -0.06932832073236858   -0.0019512669718670453
-0.012524486342554323   -0.07488225188568105   -0.002174882782391417
-0.015966434941394245   -0.06935262345972297   -0.0016980901584646387
-0.01002513797872012   -0.0752797540036668   -0.00197234668096246
-0.012104473517597405   -0.07492552499639002   -0.0018743656658014567
-0.015966434941394245   -0.06935262345972297   -0.0016980901584646387
-0.012524486342554323   -0.07488225188568105   -0.002174882782391417
-0.01002513797872012   -0.0752797540036668   -0.00197234668096246
-0.015966434941394245   -0.06935262345972297   -0.0016980901584646387
-0.012627611693906117   -0.06966706098826896   -0.0017626379904225964
-0.012699360877167347   -0.06966903595564877   -0.0019268746163125414
-0.01002513797872012   -0.0752797540036668   -0.00197234668096246
-0.015966434941394245   -0.06935262345972297   -0.0016980901584646387
-0.012699360877167347   -0.06966903595564877   -0.0019268746163125414
-0.012524486342554323   -0.07488225188568105   -0.002174882782391417
0.0004122786555968988   -0.06993932150204737   -0.0012028476708752284
0.0024821641060693176   -0.06254422639785191   -0.0009166425503191984
-0.002970684391103521   -0.07010713266824127   -0.0015206726018490658
0.0006321673917811879   -0.0697776138673109   -0.0013817865555553858
0.0024821641060693176   -0.06254422639785191   -0.0009166425503191984
-0.0019962065558094128   -0.06265510748155252   -0.0012199991627663365
-0.002970684391103521   -0.07010713266824127   -0.0015206726018490658
-0.0019841047058000104   -0.06252102350176568   -0.0012744460508629799
0.0006321673917811879   -0.0697776138673109   -0.0013817865555553858
-0.0029124032414881056   -0.06997232599725822   -0.0015992373193866216
-0.0019841047058000104   -0.06252102350176568   -0.0012744460508629799
-0.002970684391103521   -0.07010713266824127   -0.0015206726018490658
0.0006321673917811879   -0.0697776138673109   -0.0013817865555553858
-0.0019841047058000104   -0.06252102350176568   -0.0012744460508629799
0.002612708286198652   -0.06238643481671623   -0.0010489502268773208
0.0024821641060693176   -0.06254422639785191   -0.0009166425503191984
0.0006321673917811879   -0.0697776138673109   -0.0013817865555553858
-0.0019841047058000104   -0.06252102350176568   -0.0012744460508629799
0.0024821641060693176   -0.06254422639785191   -0.0009166425503191984
-0.002970684391103521   -0.07010713266824127   -0.0015206726018490658
0.0006321673917811879   -0.0697776138673109   -0.0013817865555553858
0.002612708286198652   -0.06238643481671623   -0.0010489502268773208
-0.0029124032414881056   -0.06997232599725822   -0.0015992373193866216
0.0007939113681514819   -0.06968413454165788   -0.0015479061814383192
0.002612708286198652   -0.06238643481671623   -0.0010489502268773208
-0.0019841047058000104   -0.06252102350176568   -0.0012744460508629799
-0.0029124032414881056   -0.06997232599725822   -0.0015992373193866216
-0.0019687148263412045   -0.06242379517027946   -0.0013205251550599173
0.0007939113681514819   -0.06968413454165788   -0.0015479061814383192
-0.0028460459001221254   -0.06988425211467321   -0.0016686432204011555
-0.0019687148263412045   -0.06242379517027946   -0.0013205251550599173
-0.0029124032414881056   -0.06997232599725822   -0.0015992373193866216
0.0007939113681514819   -0.06968413454165788   -0.0015479061814383192
-0.0019687148263412045   -0.06242379517027946   -0.0013205251550599173
0.0026961553048653187   -0.06228287160715058   -0.0011694334178131462
0.002612708286198652   -0.06238643481671623   -0.0010489502268773208
0.0007939113681514819   -0.06968413454165788   -0.0015479061814383192
-0.0019687148263412045   -0.06242379517027946   -0.0013205251550599173
0.002612708286198652   -0.06238643481671623   -0.0010489502268773208
-0.0029124032414881056   -0.06997232599725822   -0.0015992373193866216
0.0007939113681514819   -0.06968413454165788   -0.0015479061814383192
0.0026961553048653187   -0.06228287160715058   -0.0011694334178131462
-0.0028460459001221254   -0.06988425211467321   -0.0016686432204011555
0.0009670385312205191   -0.06963799738432418   -0.0017011434516333477
0.0026961553048653187   -0.06228287160715058   -0.0011694334178131462
-0.0019687148263412045   -0.06242379517027946   -0.0013205251550599173
-0.0028460459001221254   -0.06988425211467321   -0.0016686432204011555
-0.001976103353816215   -0.0623603126279404   -0.001358846934002315
0.0009670385312205191   -0.06963799738432418   -0.0017011434516333477
-0.002806374658237958   -0.06984030582193657   -0.0017297945228305946
-0.001976103353816215   -0.0623603126279404   -0.001358846934002315
-0.0028460459001221254   -0.06988425211467321   -0.0016686432204011555
0.0009670385312205191   -0.06963799738432418   -0.0017011434516333477
-0.001976103353816215   -0.0623603126279404   -0.001358846934002315
0.0027818076471083303   -0.06221346218111442   -0.0012783396131380226
0.0026961553048653187   -0.06228287160715058   -0.0011694334178131462
0.0009670385312205191   -0.06963799738432418   -0.0017011434516333477
-0.001976103353816215   -0.0623603126279404   -0.001358846934002315
0.0026961553048653187   -0.06228287160715058   -0.0011694334178131462
-0.0028460459001221254   -0.06988425211467321   -0.0016686432204011555
-0.002970684391103521   -0.07010713266824127   -0.0015206726018490658
-0.0019962065558094128   -0.06265510748155252   -0.0012199991627663365
-0.0062431867905039596   -0.07013922740594071   -0.0017825824070672363
-0.0029124032414881056   -0.06997232599725822   -0.0015992373193866216
-0.0019962065558094128   -0.06265510748155252   -0.0012199991627663365
-0.006305548239662285   -0.06265566385594133   -0.001470232932450149
-0.0062431867905039596   -0.07013922740594071   -0.0017825824070672363
-0.0063061122303851615   -0.0625422040046653   -0.0014650951699879497
-0.0029124032414881056   -0.06997232599725822   -0.0015992373193866216
-0.00620033761112069   -0.07002349737934543   -0.0017846118575083772
-0.0063061122303851615   -0.0625422040046653   -0.0014650951699879497
-0.0062431867905039596   -0.07013922740594071   -0.0017825824070672363
-0.0029124032414881056   -0.06997232599725822   -0.0015992373193866216
-0.0063061122303851615   -0.0625422040046653   -0.0014650951699879497
-0.0019841047058000104   -0.06252102350176568   -0.0012744460508629799
-0.0019962065558094128   -0.06265510748155252   -0.0012199991627663365
-0.0029124032414881056   -0.06997232599725822   -0.0015992373193866216
-0.0063061122303851615   -0.0625422040046653   -0.0014650951699879497
-0.0019962065558094128   -0.06265510748155252   -0.0012199991627663365
-0.0062431867905039596   -0.07013922740594071   -0.0017825824070672363
-0.0029124032414881056   -0.06997232599725822   -0.0015992373193866216
-0.0019841047058000104   -0.06252102350176568   -0.0012744460508629799
-0.00620033761112069   -0.07002349737934543   -0.0017846118575083772
-0.0028460459001221254   -0.06988425211467321   -0.0016686432204011555
-0.0019841047058000104   -0.06252102350176568   -0.0012744460508629799
-0.0063061122303851615   -0.0625422040046653   -0.0014650951699879497
-0.00620033761112069   -0.07002349737934543   -0.0017846118575083772
-0.006306387869349118   -0.06246123559114382   -0.0014516228725470405
-0.0028460459001221254   -0.06988425211467321   -0.0016686432204011555
-0.006156277160128681   -0.06994959632793674   -0.0017778668483109093
-0.006306387869349118   -0.06246123559114382   -0.0014516228725470405
-0.00620033761112069   -0.07002349737934543   -0.0017846118575083772
-0.0028460459001221254   -0.06988425211467321   -0.0016686432204011555
-0.006306387869349118   -0.06246123559114382   -0.0014516228725470405
-0.0019687148263412045   -0.06242379517027946   -0.0013205251550599173
-0.0019841047058000104   -0.06252102350176568   -0.0012744460508629799
-0.0028460459001221254   -0.06988425211467321   -0.0016686432204011555
-0.006306387869349118   -0.06246123559114382   -0.0014516228725470405
-0.0019841047058000104   -0.06252102350176568   -0.0012744460508629799
-0.00620033761112069   -0.07002349737934543   -0.0017846118575083772
-0.0028460459001221254   -0.06988425211467321   -0.0016686432204011555
-0.0019687148263412045   -0.06242379517027946   -0.0013205251550599173
-0.006156277160128681   -0.06994959632793674   -0.0017778668483109093
-0.002806374658237958   -0.06984030582193657   -0.0017297945228305946
-0.0019687148263412045   -0.06242379517027946   -0.0013205251550599173
-0.006306387869349118   -0.06246123559114382   -0.0014516228725470405
-0.006156277160128681   -0.06994959632793674   -0.0017778668483109093
-0.006312426248765818   -0.06241281575746849   -0.0014302475399070572
-0.002806374658237958   -0.06984030582193657   -0.0017297945228305946
-0.006117739375563799   -0.06991683244830983   -0.0017629307185390826
-0.006312426248765818   -0.06241281575746849   -0.0014302475399070572
-0.006156277160128681   -0.06994959632793674   -0.0017778668483109093
-0.002806374658237958   -0.06984030582193657   -0.0017297945228305946
-0.006312426248765818   -0.06241281575746849   -0.0014302475399070572
-0.001976103353816215   -0.0623603126279404   -0.001358846934002315
-0.0019687148263412045   -0.06242379517027946   -0.0013205251550599173
-0.002806374658237958   -0.06984030582193657   -0.0017297945228305946
-0.006312426248765818   -0.06241281575746849   -0.0014302475399070572
-0.0019687148263412045   -0.06242379517027946   -0.0013205251550599173
-0.006156277160128681   -0.06994959632793674   -0.0017778668483109093
-0.0062431867905039596   -0.07013922740594071   -0.0017825824070672363
-0.006305548239662285   -0.06265566385594133   -0.001470232932450149
-0.00946421125879913   -0.07003502926828406   -0.00201900348687857
-0.00620033761112069   -0.07002349737934543   -0.0017846118575083772
-0.006305548239662285   -0.06265566385594133   -0.001470232932450149
-0.010541659447103335   -0.06254841937510279   -0.0016894454184049467
-0.00946421125879913   -0.07003502926828406   -0.00201900348687857
-0.010545411314807246   -0.06245308498530664   -0.0016254413107327354
-0.00620033761112069   -0.07002349737934543   -0.0017846118575083772
-0.009424318010445597   -0.06993517539222853   -0.0019463439019265227
-0.010545411314807246   -0.06245308498530664   -0.0016254413107327354
-0.00946421125879913   -0.07003502926828406   -0.00201900348687857
-0.00620033761112069   -0.07002349737934543   -0.0017846118575083772
-0.010545411314807246   -0.06245308498530664   -0.0016254413107327354
-0.0063061122303851615   -0.0625422040046653   -0.0014650951699879497
-0.006305548239662285   -0.06265566385594133   -0.001470232932450149
-0.00620033761112069   -0.07002349737934543   -0.0017846118575083772
-0.010545411314807246   -0.06245308498530664   -0.0016254413107327354
-0.006305548239662285   -0.06265566385594133   -0.001470232932450149
-0.00946421125879913   -0.07003502926828406   -0.00201900348687857
-0.00620033761112069   -0.07002349737934543   -0.0017846118575083772
-0.0063061122303851615   -0.0625422040046653   -0.0014650951699879497
-0.009424318010445597   -0.06993517539222853   -0.0019463439019265227
-0.006156277160128681   -0.06994959632793674   -0.0017778668483109093
-0.0063061122303851615   -0.0625422040046653   -0.0014650951699879497
-0.010545411314807246   -0.06245308498530664   -0.0016254413107327354
-0.009424318010445597   -0.06993517539222853   -0.0019463439019265227
-0.010541942539823615   -0.062389954518414774   -0.0015532639678839358
-0.006156277160128681   -0.06994959632793674   -0.0017778668483109093
-0.009376113262604693   -0.06987669016043135   -0.001865099733499885
-0.010541942539823615   -0.062389954518414774   -0.0015532639678839358
-0.009424318010445597   -0.06993517539222853   -0.0019463439019265227
-0.006156277160128681   -0.06994959632793674   -0.0017778668483109093
-0.010541942539823615   -0.062389954518414774   -0.0015532639678839358
-0.006306387869349118   -0.06246123559114382   -0.0014516228725470405
-0.0063061122303851615   -0.0625422040046653   -0.0014650951699879497
-0.006156277160128681   -0.06994959632793674   -0.0017778668483109093
-0.010541942539823615   -0.062389954518414774   -0.0015532639678839358
-0.0063061122303851615   -0.0625422040046653   -0.0014650951699879497
-0.009424318010445597   -0.06993517539222853   -0.0019463439019265227
-0.006156277160128681   -0.06994959632793674   -0.0017778668483109093
-0.006306387869349118   -0.06246123559114382   -0.0014516228725470405
-0.009376113262604693   -0.06987669016043135   -0.001865099733499885
-0.006117739375563799   -0.06991683244830983   -0.0017629307185390826
-0.006306387869349118   -0.06246123559114382   -0.0014516228725470405
-0.010541942539823615   -0.062389954518414774   -0.0015532639678839358
-0.009376113262604693   -0.06987669016043135   -0.001865099733499885
-0.010539773624694729   -0.06235846166874209   -0.0014731519427885673
-0.006117739375563799   -0.06991683244830983   -0.0017629307185390826
-0.009329225305747691   -0.06985764832695128   -0.0017755354639282495
-0.010539773624694729   -0.06235846166874209   -0.0014731519427885673
-0.009376113262604693   -0.06987669016043135   -0.001865099733499885
-0.006117739375563799   -0.06991683244830983   -0.0017629307185390826
-0.010539773624694729   -0.06235846166874209   -0.0014731519427885673
-0.006312426248765818   -0.06241281575746849   -0.0014302475399070572
-0.006306387869349118   -0.06246123559114382   -0.0014516228725470405
-0.006117739375563799   -0.06991683244830983   -0.0017629307185390826
-0.010539773624694729   -0.06235846166874209   -0.0014731519427885673
-0.006306387869349118   -0.06246123559114382   -0.0014516228725470405
-0.009376113262604693   -0.06987669016043135   -0.001865099733499885
-0.00946421125879913   -0.07003502926828406   -0.00201900348687857
-0.010541659447103335   -0.06254841937510279   -0.0016894454184049467
-0.01283976953269078   -0.06979823607802564   -0.00222902125653607
-0.009424318010445597   -0.06993517539222853   -0.0019463439019265227
-0.010541659447103335   -0.06254841937510279   -0.0016894454184049467
-0.01490983363961238   -0.06233743968216612   -0.0018780413804630647
-0.01283976953269078   -0.06979823607802564   -0.00222902125653607
-0.014904697707761838   -0.062259467182961804   -0.0017544752061161692
-0.009424318010445597   -0.06993517539222853   -0.0019463439019265227
-0.012787672057027485   -0.06971354476550969   -0.002081581006576091
-0.014904697707761838   -0.062259467182961804   -0.0017544752061161692
-0.01283976953269078   -0.06979823607802564   -0.00222902125653607
-0.009424318010445597   -0.06993517539222853   -0.0019463439019265227
-0.014904697707761838   -0.062259467182961804   -0.0017544752061161692
-0.010545411314807246   -0.06245308498530664   -0.0016254413107327354
-0.010541659447103335   -0.06254841937510279   -0.0016894454184049467
-0.009424318010445597   -0.06993517539222853   -0.0019463439019265227
-0.014904697707761838   -0.062259467182961804   -0.0017544752061161692
-0.010541659447103335   -0.06254841937510279   -0.0016894454184049467
-0.01283976953269078   -0.06979823607802564   -0.00222902125653607
-0.009424318010445597   -0.06993517539222853   -0.0019463439019265227
-0.010545411314807246   -0.06245308498530664   -0.0016254413107327354
-0.012787672057027485   -0.06971354476550969   -0.002081581006576091
-0.009376113262604693   -0.06987669016043135   -0.001865099733499885
-0.010545411314807246   -0.06245308498530664   -0.0016254413107327354
-0.014904697707761838   -0.062259467182961804   -0.0017544752061161692
-0.012787672057027485   -0.06971354476550969   -0.002081581006576091
-0.014868086605525648   -0.06221251057756943   -0.0016239675254897828
-0.009376113262604693   -0.06987669016043135   -0.001865099733499885
-0.012699360877167347   -0.06966903595564877   -0.0019268746163125414
-0.014868086605525648   -0.06221251057756943   -0.0016239675254897828
-0.012787672057027485   -0.06971354476550969   -0.002081581006576091
-0.009376113262604693   -0.06987669016043135   -0.001865099733499885
-0.014868086605525648   -0.06221251057756943   -0.0016239675254897828
-0.010541942539823615   -0.062389954518414774   -0.0015532639678839358
-0.010545411314807246   -0.06245308498530664   -0.0016254413107327354
-0.009376113262604693   -0.06987669016043135   -0.001865099733499885
-0.014868086605525648   -0.06221251057756943   -0.0016239675254897828
-0.010545411314807246   -0.06245308498530664   -0.0016254413107327354
-0.012787672057027485   -0.06971354476550969   -0.002081581006576091
-0.009376113262604693   -0.06987669016043135   -0.001865099733499885
-0.010541942539823615   -0.062389954518414774   -0.0015532639678839358
-0.012699360877167347   -0.06966903595564877   -0.0019268746163125414
-0.009329225305747691   -0.06985764832695128   -0.0017755354639282495
-0.010541942539823615   -0.062389954518414774   -0.0015532639678839358
-0.014868086605525648   -0.06221251057756943   -0.0016239675254897828
-0.012699360877167347   -0.06966903595564877   -0.0019268746163125414
-0.01484361293434094   -0.062199849447026286   -0.0014848880670066812
-0.009329225305747691   -0.06985764832695128   -0.0017755354639282495
-0.012627611693906117   -0.06966706098826896   -0.0017626379904225964
-0.01484361293434094   -0.062199849447026286   -0.0014848880670066812
-0.012699360877167347   -0.06966903595564877   -0.0019268746163125414
-0.009329225305747691   -0.06985764832695128   -0.0017755354639282495
-0.01484361293434094   -0.062199849447026286   -0.0014848880670066812
-0.010539773624694729   -0.06235846166874209   -0.0014731519427885673
-0.010541942539823615   -0.062389954518414774   -0.0015532639678839358
-0.009329225305747691   -0.06985764832695128   -0.0017755354639282495
-0.01484361293434094   -0.062199849447026286   -0.0014848880670066812
-0.010541942539823615   -0.062389954518414774   -0.0015532639678839358
-0.012699360877167347   -0.06966903595564877   -0.0019268746163125414
-0.01283976953269078   -0.06979823607802564   -0.00222902125653607
-0.01490983363961238   -0.06233743968216612   -0.0018780413804630647
-0.016776475547548613   -0.06945733444823401   -0.0024247805637414607
-0.012787672057027485   -0.06971354476550969   -0.002081581006576091
-0.01490983363961238   -0.06233743968216612   -0.0018780413804630647
-0.019789007031821394   -0.06204671909367938   -0.0020480692691859518
-0.016776475547548613   -0.06945733444823401   -0.0024247805637414607
-0.019606724446263248   -0.0619702133602859   -0.0018590595858226117
-0.012787672057027485   -0.06971354476550969   -0.002081581006576091
-0.016509801219376497   -0.06936903550833896   -0.0021940128591582796
-0.019606724446263248   -0.0619702133602859   -0.0018590595858226117
-0.016776475547548613   -0.06945733444823401   -0.0024247805637414607
-0.012787672057027485   -0.06971354476550969   -0.002081581006576091
-0.019606724446263248   -0.0619702133602859   -0.0018590595858226117
-0.014904697707761838   -0.062259467182961804   -0.0017544752061161692
-0.01490983363961238   -0.06233743968216612   -0.0018780413804630647
-0.012787672057027485   -0.06971354476550969   -0.002081581006576091
-0.019606724446263248   -0.0619702133602859   -0.0018590595858226117
-0.01490983363961238   -0.06233743968216612   -0.0018780413804630647
-0.016776475547548613   -0.06945733444823401   -0.0024247805637414607
-0.012787672057027485   -0.06971354476550969   -0.002081581006576091
-0.014904697707761838   -0.062259467182961804   -0.0017544752061161692
-0.016509801219376497   -0.06936903550833896   -0.0021940128591582796
-0.012699360877167347   -0.06966903595564877   -0.0019268746163125414
-0.014904697707761838   -0.062259467182961804   -0.0017544752061161692
-0.019606724446263248   -0.0619702133602859   -0.0018590595858226117
-0.016509801219376497   -0.06936903550833896   -0.0021940128591582796
-0.01945080812688085   -0.06192915556165502   -0.001658384857341182
-0.012699360877167347   -0.06966903595564877   -0.0019268746163125414
-0.01627831827050004   -0.06932832073236858   -0.0019512669718670453
-0.01945080812688085   -0.06192915556165502   -0.001658384857341182
-0.016509801219376497   -0.06936903550833896   -0.0021940128591582796
-0.012699360877167347   -0.06966903595564877   -0.0019268746163125414
-0.01945080812688085   -0.06192915556165502   -0.001658384857341182
-0.014868086605525648   -0.06221251057756943   -0.0016239675254897828
-0.014904697707761838   -0.062259467182961804   -0.0017544752061161692
-0.012699360877167347   -0.06966903595564877   -0.0019268746163125414
-0.01945080812688085   -0.06192915556165502   -0.001658384857341182
-0.014904697707761838   -0.062259467182961804   -0.0017544752061161692
-0.016509801219376497   -0.06936903550833896   -0.0021940128591582796
-0.012699360877167347   -0.06966903595564877   -0.0019268746163125414
-0.014868086605525648   -0.06221251057756943   -0.0016239675254897828
-0.01627831827050004   -0.06932832073236858   -0.0019512669718670453
-0.012627611693906117   -0.06966706098826896   -0.0017626379904225964
-0.014868086605525648   -0.06221251057756943   -0.0016239675254897828
-0.01945080812688085   -0.06192915556165502   -0.001658384857341182
-0.01627831827050004   -0.06932832073236858   -0.0019512669718670453
-0.019225760663242587   -0.06194250464232297   -0.0014476429541802132
-0.012627611693906117   -0.06966706098826896   -0.0017626379904225964
-0.015966434941394245   -0.06935262345972297   -0.0016980901584646387
-0.019225760663242587   -0.06194250464232297   -0.0014476429541802132
-0.01627831827050004   -0.06932832073236858   -0.0019512669718670453
-0.012627611693906117   -0.06966706098826896   -0.0017626379904225964
-0.019225760663242587   -0.06194250464232297   -0.0014476429541802132
-0.01484361293434094   -0.062199849447026286   -0.0014848880670066812
-0.014868086605525648   -0.06221251057756943   -0.0016239675254897828
-0.012627611693906117   -0.06966706098826896   -0.0017626379904225964
-0.019225760663242587   -0.06194250464232297   -0.0014476429541802132
-0.014868086605525648   -0.06221251057756943   -0.0016239675254897828
-0.01627831827050004   -0.06932832073236858   -0.0019512669718670453
0.0024821641060693176   -0.06254422639785191   -0.0009166425503191984
0.0039079648973010354   -0.05365028928567182   -0.0006105877422187433
-0.0019962065558094128   -0.06265510748155252   -0.0012199991627663365
0.002612708286198652   -0.06238643481671623   -0.0010489502268773208
0.0039079648973010354   -0.05365028928567182   -0.0006105877422187433
-0.0014046043945305999   -0.05370476996577571   -0.0008959983000955533
-0.0019962065558094128   -0.06265510748155252   -0.0012199991627663365
-0.0014296395890005548   -0.05357394960844059   -0.0009253227826503944
0.002612708286198652   -0.06238643481671623   -0.0010489502268773208
-0.0019841047058000104   -0.06252102350176568   -0.0012744460508629799
-0.0014296395890005548   -0.05357394960844059   -0.0009253227826503944
-0.0019962065558094128   -0.06265510748155252   -0.0012199991627663365
0.002612708286198652   -0.06238643481671623   -0.0010489502268773208
-0.0014296395890005548   -0.05357394960844059   -0.0009253227826503944
0.003959464721748662   -0.053498267805645296   -0.0006972305550206969
0.0039079648973010354   -0.05365028928567182   -0.0006105877422187433
0.002612708286198652   -0.06238643481671623   -0.0010489502268773208
-0.0014296395890005548   -0.05357394960844059   -0.0009253227826503944
0.0039079648973010354   -0.05365028928567182   -0.0006105877422187433
-0.0019962065558094128   -0.06265510748155252   -0.0012199991627663365
0.002612708286198652   -0.06238643481671623   -0.0010489502268773208
0.003959464721748662   -0.053498267805645296   -0.0006972305550206969
-0.0019841047058000104   -0.06252102350176568   -0.0012744460508629799
0.0026961553048653187   -0.06228287160715058   -0.0011694334178131462
0.003959464721748662   -0.053498267805645296   -0.0006972305550206969
-0.0014296395890005548   -0.05357394960844059   -0.0009253227826503944
-0.0019841047058000104   -0.06252102350176568   -0.0012744460508629799
-0.0014559562306190493   -0.053470432398486374   -0.0009471795757345358
0.0026961553048653187   -0.06228287160715058   -0.0011694334178131462
-0.0019687148263412045   -0.06242379517027946   -0.0013205251550599173
-0.0014559562306190493   -0.053470432398486374   -0.0009471795757345358
-0.0019841047058000104   -0.06252102350176568   -0.0012744460508629799
0.0026961553048653187   -0.06228287160715058   -0.0011694334178131462
-0.0014559562306190493   -0.053470432398486374   -0.0009471795757345358
0.003975061455640024   -0.053387449331926934   -0.0007728568595659482
0.003959464721748662   -0.053498267805645296   -0.0006972305550206969
0.0026961553048653187   -0.06228287160715058   -0.0011694334178131462
-0.0014559562306190493   -0.053470432398486374   -0.0009471795757345358
0.003959464721748662   -0.053498267805645296   -0.0006972305550206969
-0.0019841047058000104   -0.06252102350176568   -0.0012744460508629799
0.0026961553048653187   -0.06228287160715058   -0.0011694334178131462
0.003975061455640024   -0.053387449331926934   -0.0007728568595659482
-0.0019687148263412045   -0.06242379517027946   -0.0013205251550599173
0.0027818076471083303   -0.06221346218111442   -0.0012783396131380226
0.003975061455640024   -0.053387449331926934   -0.0007728568595659482
-0.0014559562306190493   -0.053470432398486374   -0.0009471795757345358
-0.0019687148263412045   -0.06242379517027946   -0.0013205251550599173
-0.0015007287325306347   -0.053390969329193204   -0.0009618213141705956
0.0027818076471083303   -0.06221346218111442   -0.0012783396131380226
-0.001976103353816215   -0.0623603126279404   -0.001358846934002315
-0.0015007287325306347   -0.053390969329193204   -0.0009618213141705956
-0.0019687148263412045   -0.06242379517027946   -0.0013205251550599173
0.0027818076471083303   -0.06221346218111442   -0.0012783396131380226
-0.0015007287325306347   -0.053390969329193204   -0.0009618213141705956
0.00398376386463557   -0.053298325569790146   -0.0008379877021613228
0.003975061455640024   -0.053387449331926934   -0.0007728568595659482
0.0027818076471083303   -0.06221346218111442   -0.0012783396131380226
-0.0015007287325306347   -0.053390969329193204   -0.0009618213141705956
0.003975061455640024   -0.053387449331926934   -0.0007728568595659482
-0.0019687148263412045   -0.06242379517027946   -0.0013205251550599173
-0.0019962065558094128   -0.06265510748155252   -0.0012199991627663365
-0.0014046043945305999   -0.05370476996577571   -0.0008959983000955533
-0.006305548239662285   -0.06265566385594133   -0.001470232932450149
-0.0019841047058000104   -0.06252102350176568   -0.0012744460508629799
-0.0014046043945305999   -0.05370476996577571   -0.0008959983000955533
-0.006496783220329185   -0.053676700747809614   -0.0011310813293796446
-0.006305548239662285   -0.06265566385594133   -0.001470232932450149
-0.0065314693203144215   -0.053567348529307425   -0.0011173502154479304
-0.0019841047058000104   -0.06252102350176568   -0.0012744460508629799
-0.0063061122303851615   -0.0625422040046653   -0.0014650951699879497
-0.0065314693203144215   -0.053567348529307425   -0.0011173502154479304
-0.006305548239662285   -0.06265566385594133   -0.001470232932450149
-0.0019841047058000104   -0.06252102350176568   -0.0012744460508629799
-0.0065314693203144215   -0.053567348529307425   -0.0011173502154479304
-0.0014296395890005548   -0.05357394960844059   -0.0009253227826503944
-0.0014046043945305999   -0.05370476996577571   -0.0008959983000955533
-0.0019841047058000104   -0.06252102350176568   -0.0012744460508629799
-0.0065314693203144215   -0.053567348529307425   -0.0011173502154479304
-0.0014046043945305999   -0.05370476996577571   -0.0008959983000955533
-0.006305548239662285   -0.06265566385594133   -0.001470232932450149
-0.0019841047058000104   -0.06252102350176568   -0.0012744460508629799
-0.0014296395890005548   -0.05357394960844059   -0.0009253227826503944
-0.0063061122303851615   -0.0625422040046653   -0.0014650951699879497
-0.0019687148263412045   -0.06242379517027946   -0.0013205251550599173
-0.0014296395890005548   -0.05357394960844059   -0.0009253227826503944
-0.0065314693203144215   -0.053567348529307425   -0.0011173502154479304
-0.0063061122303851615   -0.0625422040046653   -0.0014650951699879497
-0.006566631426911379   -0.053481401394405145   -0.0010959319562594985
-0.0019687148263412045   -0.06242379517027946   -0.0013205251550599173
-0.006306387869349118   -0.06246123559114382   -0.0014516228725470405
-0.006566631426911379   -0.053481401394405145   -0.0010959319562594985
-0.0063061122303851615   -0.0625422040046653   -0.0014650951699879497
-0.0019687148263412045   -0.06242379517027946   -0.0013205251550599173
-0.006566631426911379   -0.053481401394405145   -0.0010959319562594985
-0.0014559562306190493   -0.053470432398486374   -0.0009471795757345358
-0.0014296395890005548   -0.05357394960844059   -0.0009253227826503944
-0.0019687148263412045   -0.06242379517027946   -0.0013205251550599173
-0.006566631426911379   -0.053481401394405145   -0.0010959319562594985
-0.0014296395890005548   -0.05357394960844059   -0.0009253227826503944
-0.0063061122303851615   -0.0625422040046653   -0.0014650951699879497
-0.0019687148263412045   -0.06242379517027946   -0.0013205251550599173
-0.0014559562306190493   -0.053470432398486374   -0.0009471795757345358
-0.006306387869349118   -0.06246123559114382   -0.0014516228725470405
-0.001976103353816215   -0.0623603126279404   -0.001358846934002315
-0.0014559562306190493   -0.053470432398486374   -0.0009471795757345358
-0.006566631426911379   -0.053481401394405145   -0.0010959319562594985
-0.006306387869349118   -0.06246123559114382   -0.0014516228725470405
-0.006607262479739696   -0.05341925714783633   -0.0010671963247597027
-0.001976103353816215   -0.0623603126279404   -0.001358846934002315
-0.006312426248765818   -0.06241281575746849   -0.0014302475399070572
-0.006607262479739696   -0.05341925714783633   -0.0010671963247597027
-0.006306387869349118   -0.06246123559114382   -0.0014516228725470405
-0.001976103353816215   -0.0623603126279404   -0.001358846934002315
-0.006607262479739696   -0.05341925714783633   -0.0010671963247597027
-0.0015007287325306347   -0.053390969329193204   -0.0009618213141705956
-0.0014559562306190493   -0.053470432398486374   -0.0009471795757345358
-0.001976103353816215   -0.0623603126279404   -0.001358846934002315
-0.006607262479739696   -0.05341925714783633   -0.0010671963247597027
-0.0014559562306190493   -0.053470432398486374   -0.0009471795757345358
-0.006306387869349118   -0.06246123559114382   -0.0014516228725470405
-0.006305548239662285   -0.06265566385594133   -0.001470232932450149
-0.006496783220329185   -0.053676700747809614   -0.0011310813293796446
-0.010541659447103335   -0.06254841937510279   -0.0016894454184049467
-0.0063061122303851615   -0.0625422040046653   -0.0014650951699879497
-0.006496783220329185   -0.053676700747809614   -0.0011310813293796446
-0.011502849796828953   -0.05357117451803387   -0.00133225706445646
-0.010541659447103335   -0.06254841937510279   -0.0016894454184049467
-0.011540263891325762   -0.053481334094581244   -0.0012756768766571578
-0.0063061122303851615   -0.0625422040046653   -0.0014650951699879497
-0.010545411314807246   -0.06245308498530664   -0.0016254413107327354
-0.011540263891325762   -0.053481334094581244   -0.0012756768766571578
-0.010541659447103335   -0.06254841937510279   -0.0016894454184049467
-0.0063061122303851615   -0.0625422040046653   -0.0014650951699879497
-0.011540263891325762   -0.053481334094581244   -0.0012756768766571578
-0.0065314693203144215   -0.053567348529307425   -0.0011173502154479304
-0.006496783220329185   -0.053676700747809614   -0.0011310813293796446
-0.0063061122303851615   -0.0625422040046653   -0.0014650951699879497
-0.011540263891325762   -0.053481334094581244   -0.0012756768766571578
-0.006496783220329185   -0.053676700747809614   -0.0011310813293796446
-0.010541659447103335   -0.06254841937510279   -0.0016894454184049467
-0.0063061122303851615   -0.0625422040046653   -0.0014650951699879497
-0.0065314693203144215   -0.053567348529307425   -0.0011173502154479304
-0.010545411314807246   -0.06245308498530664   -0.0016254413107327354
-0.006306387869349118   -0.06246123559114382   -0.0014516228725470405
-0.0065314693203144215   -0.053567348529307425   -0.0011173502154479304
-0.011540263891325762   -0.053481334094581244   -0.0012756768766571578
-0.010545411314807246   -0.06245308498530664   -0.0016254413107327354
-0.011571267862805356   -0.053414675056256924   -0.0012115450897570723
-0.006306387869349118   -0.06246123559114382   -0.0014516228725470405
-0.010541942539823615   -0.062389954518414774   -0.0015532639678839358
-0.011571267862805356   -0.053414675056256924   -0.0012115450897570723
-0.010545411314807246   -0.06245308498530664   -0.0016254413107327354
-0.006306387869349118   -0.06246123559114382   -0.0014516228725470405
-0.011571267862805356   -0.053414675056256924   -0.0012115450897570723
-0.006566631426911379   -0.053481401394405145   -0.0010959319562594985
-0.0065314693203144215   -0.053567348529307425   -0.0011173502154479304
-0.006306387869349118   -0.06246123559114382   -0.0014516228725470405
-0.011571267862805356   -0.053414675056256924   -0.0012115450897570723
-0.0065314693203144215   -0.053567348529307425   -0.0011173502154479304
-0.010545411314807246   -0.06245308498530664   -0.0016254413107327354
-0.006306387869349118   -0.06246123559114382   -0.0014516228725470405
-0.006566631426911379   -0.053481401394405145   -0.0010959319562594985
-0.010541942539823615   -0.062389954518414774   -0.0015532639678839358
-0.006312426248765818   -0.06241281575746849   -0.0014302475399070572
-0.006566631426911379   -0.053481401394405145   -0.0010959319562594985
-0.011571267862805356   -0.053414675056256924   -0.0012115450897570723
-0.010541942539823615   -0.062389954518414774   -0.0015532639678839358
-0.011603171299324637   -0.053371100625628415   -0.001140084305897121
-0.006312426248765818   -0.06241281575746849   -0.0014302475399070572
-0.010539773624694729   -0.06235846166874209   -0.0014731519427885673
-0.011603171299324637   -0.053371100625628415   -0.001140084305897121
-0.010541942539823615   -0.062389954518414774   -0.0015532639678839358
-0.006312426248765818   -0.06241281575746849   -0.0014302475399070572
-0.011603171299324637   -0.053371100625628415   -0.001140084305897121
-0.006607262479739696   -0.05341925714783633   -0.0010671963247597027
-0.006566631426911379   -0.053481401394405145   -0.0010959319562594985
-0.006312426248765818   -0.06241281575746849   -0.0014302475399070572
-0.011603171299324637   -0.053371100625628415   -0.001140084305897121
-0.006566631426911379   -0.053481401394405145   -0.0010959319562594985
-0.010541942539823615   -0.062389954518414774   -0.0015532639678839358
-0.010541659447103335   -0.06254841937510279   -0.0016894454184049467
-0.011502849796828953   -0.05357117451803387   -0.00133225706445646
-0.01490983363961238   -0.06233743968216612   -0.0018780413804630647
-0.010545411314807246   -0.06245308498530664   -0.0016254413107327354
-0.011502849796828953   -0.05357117451803387   -0.00133225706445646
-0.016627990504014572   -0.05339029825211968   -0.0015002848785124448
-0.01490983363961238   -0.06233743968216612   -0.0018780413804630647
-0.01665896054163847   -0.05331952181043927   -0.0014002731234297164
-0.010545411314807246   -0.06245308498530664   -0.0016254413107327354
-0.014904697707761838   -0.062259467182961804   -0.0017544752061161692
-0.01665896054163847   -0.05331952181043927   -0.0014002731234297164
-0.01490983363961238   -0.06233743968216612   -0.0018780413804630647
-0.010545411314807246   -0.06245308498530664   -0.0016254413107327354
-0.01665896054163847   -0.05331952181043927   -0.0014002731234297164
-0.011540263891325762   -0.053481334094581244   -0.0012756768766571578
-0.011502849796828953   -0.05357117451803387   -0.00133225706445646
-0.010545411314807246   -0.06245308498530664   -0.0016254413107327354
-0.01665896054163847   -0.05331952181043927   -0.0014002731234297164
-0.011502849796828953   -0.05357117451803387   -0.00133225706445646
-0.01490983363961238   -0.06233743968216612   -0.0018780413804630647
-0.010545411314807246   -0.06245308498530664   -0.0016254413107327354
-0.011540263891325762   -0.053481334094581244   -0.0012756768766571578
-0.014904697707761838   -0.062259467182961804   -0.0017544752061161692
-0.010541942539823615   -0.062389954518414774   -0.0015532639678839358
-0.011540263891325762   -0.053481334094581244   -0.0012756768766571578
-0.01665896054163847   -0.05331952181043927   -0.0014002731234297164
-0.014904697707761838   -0.062259467182961804   -0.0017544752061161692
-0.01666298675539572   -0.053270499134410045   -0.0012937548656168135
-0.010541942539823615   -0.062389954518414774   -0.0015532639678839358
-0.014868086605525648   -0.06221251057756943   -0.0016239675254897828
-0.01666298675539572   -0.053270499134410045   -0.0012937548656168135
-0.014904697707761838   -0.062259467182961804   -0.0017544752061161692
-0.010541942539823615   -0.062389954518414774   -0.0015532639678839358
-0.01666298675539572   -0.053270499134410045   -0.0012937548656168135
-0.011571267862805356   -0.053414675056256924   -0.0012115450897570723
-0.011540263891325762   -0.053481334094581244   -0.0012756768766571578
-0.010541942539823615   -0.062389954518414774   -0.0015532639678839358
-0.01666298675539572   -0.053270499134410045   -0.0012937548656168135
-0.011540263891325762   -0.053481334094581244   -0.0012756768766571578
-0.014904697707761838   -0.062259467182961804   -0.0017544752061161692
-0.010541942539823615   -0.062389954518414774   -0.0015532639678839358
-0.011571267862805356   -0.053414675056256924   -0.0012115450897570723
-0.014868086605525648   -0.06221251057756943   -0.0016239675254897828
-0.010539773624694729   -0.06235846166874209   -0.0014731519427885673
-0.011571267862805356   -0.053414675056256924   -0.0012115450897570723
-0.01666298675539572   -0.053270499134410045   -0.0012937548656168135
-0.014868086605525648   -0.06221251057756943   -0.0016239675254897828
-0.016674647597890262   -0.053246636434086295   -0.001179352557592449
-0.010539773624694729   -0.06235846166874209   -0.0014731519427885673
-0.01484361293434094   -0.062199849447026286   -0.0014848880670066812
-0.016674647597890262   -0.053246636434086295   -0.001179352557592449
-0.014868086605525648   -0.06221251057756943   -0.0016239675254897828
-0.010539773624694729   -0.06235846166874209   -0.0014731519427885673
-0.016674647597890262   -0.053246636434086295   -0.001179352557592449
-0.011603171299324637   -0.053371100625628415   -0.001140084305897121
-0.011571267862805356   -0.053414675056256924   -0.0012115450897570723
-0.010539773624694729   -0.06235846166874209   -0.0014731519427885673
-0.016674647597890262   -0.053246636434086295   -0.001179352557592449
-0.011571267862805356   -0.053414675056256924   -0.0012115450897570723
-0.014868086605525648   -0.06221251057756943   -0.0016239675254897828
-0.01490983363961238   -0.06233743968216612   -0.0018780413804630647
-0.016627990504014572   -0.05339029825211968   -0.0015002848785124448
-0.019789007031821394   -0.06204671909367938   -0.0020480692691859518
-0.014904697707761838   -0.062259467182961804   -0.0017544752061161692
-0.016627990504014572   -0.05339029825211968   -0.0015002848785124448
-0.022216770651064147   -0.053153095354036776   -0.0016438175457877723
-0.019789007031821394   -0.06204671909367938   -0.0020480692691859518
-0.0221099684149999   -0.05308844446190069   -0.001497900208526383
-0.014904697707761838   -0.062259467182961804   -0.0017544752061161692
-0.019606724446263248   -0.0619702133602859   -0.0018590595858226117
-0.0221099684149999   -0.05308844446190069   -0.001497900208526383
-0.019789007031821394   -0.06204671909367938   -0.0020480692691859518
-0.014904697707761838   -0.062259467182961804   -0.0017544752061161692
-0.0221099684149999   -0.05308844446190069   -0.001497900208526383
-0.01665896054163847   -0.05331952181043927   -0.0014002731234297164
-0.016627990504014572   -0.05339029825211968   -0.0015002848785124448
-0.014904697707761838   -0.062259467182961804   -0.0017544752061161692
-0.0221099684149999   -0.05308844446190069   -0.001497900208526383
-0.016627990504014572   -0.05339029825211968   -0.0015002848785124448
-0.019789007031821394   -0.06204671909367938   -0.0020480692691859518
-0.014904697707761838   -0.062259467182961804   -0.0017544752061161692
-0.01665896054163847   -0.05331952181043927   -0.0014002731234297164
-0.019606724446263248   -0.0619702133602859   -0.0018590595858226117
-0.014868086605525648   -0.06221251057756943   -0.0016239675254897828
-0.01665896054163847   -0.05331952181043927   -0.0014002731234297164
-0.0221099684149999   -0.05308844446190069   -0.001497900208526383
-0.019606724446263248   -0.0619702133602859   -0.0018590595858226117
-0.02201991553868792   -0.053046897621136076   -0.0013406242174336526
-0.014868086605525648   -0.06221251057756943   -0.0016239675254897828
-0.01945080812688085   -0.06192915556165502   -0.001658384857341182
-0.02201991553868792   -0.053046897621136076   -0.0013406242174336526
-0.019606724446263248   -0.0619702133602859   -0.0018590595858226117
-0.014868086605525648   -0.06221251057756943   -0.0016239675254897828
-0.02201991553868792   -0.053046897621136076   -0.0013406242174336526
-0.01666298675539572   -0.053270499134410045   -0.0012937548656168135
-0.01665896054163847   -0.05331952181043927   -0.0014002731234297164
-0.014868086605525648   -0.06221251057756943   -0.0016239675254897828
-0.02201991553868792   -0.053046897621136076   -0.0013406242174336526
-0.01665896054163847   -0.05331952181043927   -0.0014002731234297164
-0.019606724446263248   -0.0619702133602859   -0.0018590595858226117
-0.014868086605525648   -0.06221251057756943   -0.0016239675254897828
-0.01666298675539572   -0.053270499134410045   -0.0012937548656168135
-0.01945080812688085   -0.06192915556165502   -0.001658384857341182
-0.01484361293434094   -0.062199849447026286   -0.0014848880670066812
-0.01666298675539572   -0.053270499134410045   -0.0012937548656168135
-0.02201991553868792   -0.053046897621136076   -0.0013406242174336526
-0.01945080812688085   -0.06192915556165502   -0.001658384857341182
-0.021871276653009405   -0.053048112941021526   -0.0011734051424118748
-0.01484361293434094   -0.062199849447026286   -0.0014848880670066812
-0.019225760663242587   -0.06194250464232297   -0.0014476429541802132
-0.021871276653009405   -0.053048112941021526   -0.0011734051424118748
-0.01945080812688085   -0.06192915556165502   -0.001658384857341182
-0.01484361293434094   -0.062199849447026286   -0.0014848880670066812
-0.021871276653009405   -0.053048112941021526   -0.0011734051424118748
-0.016674647597890262   -0.053246636434086295   -0.001179352557592449
-0.01666298675539572   -0.053270499134410045   -0.0012937548656168135
-0.01484361293434094   -0.062199849447026286   -0.0014848880670066812
-0.021871276653009405   -0.053048112941021526   -0.0011734051424118748
-0.01666298675539572   -0.053270499134410045   -0.0012937548656168135
-0.01945080812688085   -0.06192915556165502   -0.001658384857341182
0.0039079648973010354   -0.05365028928567182   -0.0006105877422187433
0.004699341583607359   -0.043671113500007956   -0.0003109123958441346
-0.0014046043945305999   -0.05370476996577571   -0.0008959983000955533
0.003959464721748662   -0.053498267805645296   -0.0006972305550206969
0.004699341583607359   -0.043671113500007956   -0.0003109123958441346
-0.0011978435742267945   -0.04366978736363345   -0.0005755959163000281
-0.0014046043945305999   -0.05370476996577571   -0.0008959983000955533
-0.0012506494663129621   -0.04354324193428304   -0.0005794859356967381
0.003959464721748662   -0.053498267805645296   -0.0006972305550206969
-0.0014296395890005548   -0.05357394960844059   -0.0009253227826503944
-0.0012506494663129621   -0.04354324193428304   -0.0005794859356967381
-0.0014046043945305999   -0.05370476996577571   -0.0008959983000955533
0.003959464721748662   -0.053498267805645296   -0.0006972305550206969
-0.0012506494663129621   -0.04354324193428304   -0.0005794859356967381
0.0046822028082482425   -0.04352557291313571   -0.00035241403168155745
0.004699341583607359   -0.043671113500007956   -0.0003109123958441346
0.003959464721748662   -0.053498267805645296   -0.0006972305550206969
-0.0012506494663129621   -0.04354324193428304   -0.0005794859356967381
0.004699341583607359   -0.043671113500007956   -0.0003109123958441346
-0.0014046043945305999   -0.05370476996577571   -0.0008959983000955533
0.003959464721748662   -0.053498267805645296   -0.0006972305550206969
0.0046822028082482425   -0.04352557291313571   -0.00035241403168155745
-0.0014296395890005548   -0.05357394960844059   -0.0009253227826503944
0.003975061455640024   -0.053387449331926934   -0.0007728568595659482
0.0046822028082482425   -0.04352557291313571   -0.00035241403168155745
-0.0012506494663129621   -0.04354324193428304   -0.0005794859356967381
-0.0014296395890005548   -0.05357394960844059   -0.0009253227826503944
-0.0013093252256689777   -0.043434285307778465   -0.000576756670697338
0.003975061455640024   -0.053387449331926934   -0.0007728568595659482
-0.0014559562306190493   -0.053470432398486374   -0.0009471795757345358
-0.0013093252256689777   -0.043434285307778465   -0.000576756670697338
-0.0014296395890005548   -0.05357394960844059   -0.0009253227826503944
0.003975061455640024   -0.053387449331926934   -0.0007728568595659482
-0.0013093252256689777   -0.043434285307778465   -0.000576756670697338
0.004639690341615817   -0.043408422026517686   -0.00038330614194011833
0.0046822028082482425   -0.04352557291313571   -0.00035241403168155745
0.003975061455640024   -0.053387449331926934   -0.0007728568595659482
-0.0013093252256689777   -0.043434285307778465   -0.000576756670697338
0.0046822028082482425   -0.04352557291313571   -0.00035241403168155745
-0.0014296395890005548   -0.05357394960844059   -0.0009253227826503944
0.003975061455640024   -0.053387449331926934   -0.0007728568595659482
0.004639690341615817   -0.043408422026517686   -0.00038330614194011833
-0.0014559562306190493   -0.053470432398486374   -0.0009471795757345358
0.00398376386463557   -0.053298325569790146   -0.0008379877021613228
0.004639690341615817   -0.043408422026517686   -0.00038330614194011833
-0.0013093252256689777   -0.043434285307778465   -0.000576756670697338
-0.0014559562306190493   -0.053470432398486374   -0.0009471795757345358
-0.0013821313155321642   -0.04334009801212322   -0.0005671471679362453
0.00398376386463557   -0.053298325569790146   -0.0008379877021613228
-0.0015007287325306347   -0.053390969329193204   -0.0009618213141705956
-0.0013821313155321642   -0.04334009801212322   -0.0005671471679362453
-0.0014559562306190493   -0.053470432398486374   -0.0009471795757345358
0.00398376386463557   -0.053298325569790146   -0.0008379877021613228
-0.0013821313155321642   -0.04334009801212322   -0.0005671471679362453
0.004580356013348732   -0.04330057722789475   -0.0004043296209470653
0.004639690341615817   -0.043408422026517686   -0.00038330614194011833
0.00398376386463557   -0.053298325569790146   -0.0008379877021613228
-0.0013821313155321642   -0.04334009801212322   -0.0005671471679362453
0.004639690341615817   -0.043408422026517686   -0.00038330614194011833
-0.0014559562306190493   -0.053470432398486374   -0.0009471795757345358
-0.0014046043945305999   -0.05370476996577571   -0.0008959983000955533
-0.0011978435742267945   -0.04366978736363345   -0.0005755959163000281
-0.006496783220329185   -0.053676700747809614   -0.0011310813293796446
-0.0014296395890005548   -0.05357394960844059   -0.0009253227826503944
-0.0011978435742267945   -0.04366978736363345   -0.0005755959163000281
-0.006822661925251194   -0.043616457677367326   -0.000794109014558729
-0.006496783220329185   -0.053676700747809614   -0.0011310813293796446
-0.006881740762762427   -0.043511382625118764   -0.0007710706478329593
-0.0014296395890005548   -0.05357394960844059   -0.0009253227826503944
-0.0065314693203144215   -0.053567348529307425   -0.0011173502154479304
-0.006881740762762427   -0.043511382625118764   -0.0007710706478329593
-0.006496783220329185   -0.053676700747809614   -0.0011310813293796446
-0.0014296395890005548   -0.05357394960844059   -0.0009253227826503944
-0.006881740762762427   -0.043511382625118764   -0.0007710706478329593
-0.0012506494663129621   -0.04354324193428304   -0.0005794859356967381
-0.0011978435742267945   -0.04366978736363345   -0.0005755959163000281
-0.0014296395890005548   -0.05357394960844059   -0.0009253227826503944
-0.006881740762762427   -0.043511382625118764   -0.0007710706478329593
-0.0011978435742267945   -0.04366978736363345   -0.0005755959163000281
-0.006496783220329185   -0.053676700747809614   -0.0011310813293796446
-0.0014296395890005548   -0.05357394960844059   -0.0009253227826503944
-0.0012506494663129621   -0.04354324193428304   -0.0005794859356967381
-0.0065314693203144215   -0.053567348529307425   -0.0011173502154479304
-0.0014559562306190493   -0.053470432398486374   -0.0009471795757345358
-0.0012506494663129621   -0.04354324193428304   -0.0005794859356967381
-0.006881740762762427   -0.043511382625118764   -0.0007710706478329593
-0.0065314693203144215   -0.053567348529307425   -0.0011173502154479304
-0.006942006580911981   -0.04342062625114342   -0.0007411379890140314
-0.0014559562306190493   -0.053470432398486374   -0.0009471795757345358
-0.006566631426911379   -0.053481401394405145   -0.0010959319562594985
-0.006942006580911981   -0.04342062625114342   -0.0007411379890140314
-0.0065314693203144215   -0.053567348529307425   -0.0011173502154479304
-0.0014559562306190493   -0.053470432398486374   -0.0009471795757345358
-0.006942006580911981   -0.04342062625114342   -0.0007411379890140314
-0.0013093252256689777   -0.043434285307778465   -0.000576756670697338
-0.0012506494663129621   -0.04354324193428304   -0.0005794859356967381
-0.0014559562306190493   -0.053470432398486374   -0.0009471795757345358
-0.006942006580911981   -0.04342062625114342   -0.0007411379890140314
-0.0012506494663129621   -0.04354324193428304   -0.0005794859356967381
-0.0065314693203144215   -0.053567348529307425   -0.0011173502154479304
-0.0014559562306190493   -0.053470432398486374   -0.0009471795757345358
-0.0013093252256689777   -0.043434285307778465   -0.000576756670697338
-0.006566631426911379   -0.053481401394405145   -0.0010959319562594985
-0.0015007287325306347   -0.053390969329193204   -0.0009618213141705956
-0.0013093252256689777   -0.043434285307778465   -0.000576756670697338
-0.006942006580911981   -0.04342062625114342   -0.0007411379890140314
-0.006566631426911379   -0.053481401394405145   -0.0010959319562594985
-0.007007365306995648   -0.043345043267626095   -0.0007046334626434078
-0.0015007287325306347   -0.053390969329193204   -0.0009618213141705956
-0.006607262479739696   -0.05341925714783633   -0.0010671963247597027
-0.007007365306995648   -0.043345043267626095   -0.0007046334626434078
-0.006566631426911379   -0.053481401394405145   -0.0010959319562594985
-0.0015007287325306347   -0.053390969329193204   -0.0009618213141705956
-0.007007365306995648   -0.043345043267626095   -0.0007046334626434078
-0.0013821313155321642   -0.04334009801212322   -0.0005671471679362453
-0.0013093252256689777   -0.043434285307778465   -0.000576756670697338
-0.0015007287325306347   -0.053390969329193204   -0.0009618213141705956
-0.007007365306995648   -0.043345043267626095   -0.0007046334626434078
-0.0013093252256689777   -0.043434285307778465   -0.000576756670697338
-0.006566631426911379   -0.053481401394405145   -0.0010959319562594985
-0.006496783220329185   -0.053676700747809614   -0.0011310813293796446
-0.006822661925251194   -0.043616457677367326   -0.000794109014558729
-0.011502849796828953   -0.05357117451803387   -0.00133225706445646
-0.0065314693203144215   -0.053567348529307425   -0.0011173502154479304
-0.006822661925251194   -0.043616457677367326   -0.000794109014558729
-0.01235237034030796   -0.0435169942155576   -0.0009784924302441726
-0.011502849796828953   -0.05357117451803387   -0.00133225706445646
-0.012413186123171981   -0.04343171758058362   -0.0009285717922584622
-0.0065314693203144215   -0.053567348529307425   -0.0011173502154479304
-0.011540263891325762   -0.053481334094581244   -0.0012756768766571578
-0.012413186123171981   -0.04343171758058362   -0.0009285717922584622
-0.011502849796828953   -0.05357117451803387   -0.00133225706445646
-0.0065314693203144215   -0.053567348529307425   -0.0011173502154479304
-0.012413186123171981   -0.04343171758058362   -0.0009285717922584622
-0.006881740762762427   -0.043511382625118764   -0.0007710706478329593
-0.006822661925251194   -0.043616457677367326   -0.000794109014558729
-0.0065314693203144215   -0.053567348529307425   -0.0011173502154479304
-0.012413186123171981   -0.04343171758058362   -0.0009285717922584622
-0.006822661925251194   -0.043616457677367326   -0.000794109014558729
-0.011502849796828953   -0.05357117451803387   -0.00133225706445646
-0.0065314693203144215   -0.053567348529307425   -0.0011173502154479304
-0.006881740762762427   -0.043511382625118764   -0.0007710706478329593
-0.011540263891325762   -0.053481334094581244   -0.0012756768766571578
-0.006566631426911379   -0.053481401394405145   -0.0010959319562594985
-0.006881740762762427   -0.043511382625118764   -0.0007710706478329593
-0.012413186123171981   -0.04343171758058362   -0.0009285717922584622
-0.011540263891325762   -0.053481334094581244   -0.0012756768766571578
-0.01246836018428867   -0.043360658374895604   -0.0008719172705626614
-0.006566631426911379   -0.053481401394405145   -0.0010959319562594985
-0.011571267862805356   -0.053414675056256924   -0.0012115450897570723
-0.01246836018428867   -0.043360658374895604   -0.0008719172705626614
-0.011540263891325762   -0.053481334094581244   -0.0012756768766571578
-0.006566631426911379   -0.053481401394405145   -0.0010959319562594985
-0.01246836018428867   -0.043360658374895604   -0.0008719172705626614
-0.006942006580911981   -0.04342062625114342   -0.0007411379890140314
-0.006881740762762427   -0.043511382625118764   -0.0007710706478329593
-0.006566631426911379   -0.053481401394405145   -0.0010959319562594985
-0.01246836018428867   -0.043360658374895604   -0.0008719172705626614
-0.006881740762762427   -0.043511382625118764   -0.0007710706478329593
-0.011540263891325762   -0.053481334094581244   -0.0012756768766571578
-0.006566631426911379   -0.053481401394405145   -0.0010959319562594985
-0.006942006580911981   -0.04342062625114342   -0.0007411379890140314
-0.011571267862805356   -0.053414675056256924   -0.0012115450897570723
-0.006607262479739696   -0.05341925714783633   -0.0010671963247597027
-0.006942006580911981   -0.04342062625114342   -0.0007411379890140314
-0.01246836018428867   -0.043360658374895604   -0.0008719172705626614
-0.011571267862805356   -0.053414675056256924   -0.0012115450897570723
-0.012524056982182853   -0.04330393715991115   -0.0008087859519814294
-0.006607262479739696   -0.05341925714783633   -0.0010671963247597027
-0.011603171299324637   -0.053371100625628415   -0.001140084305897121
-0.012524056982182853   -0.04330393715991115   -0.0008087859519814294
-0.011571267862805356   -0.053414675056256924   -0.0012115450897570723
-0.006607262479739696   -0.05341925714783633   -0.0010671963247597027
-0.012524056982182853   -0.04330393715991115   -0.0008087859519814294
-0.007007365306995648   -0.043345043267626095   -0.0007046334626434078
-0.006942006580911981   -0.04342062625114342   -0.0007411379890140314
-0.006607262479739696   -0.05341925714783633   -0.0010671963247597027
-0.012524056982182853   -0.04330393715991115   -0.0008087859519814294
-0.006942006580911981   -0.04342062625114342   -0.0007411379890140314
-0.011571267862805356   -0.053414675056256924   -0.0012115450897570723
-0.011502849796828953   -0.05357117451803387   -0.00133225706445646
-0.01235237034030796   -0.0435169942155576   -0.0009784924302441726
-0.016627990504014572   -0.05339029825211968   -0.0015002848785124448
-0.011540263891325762   -0.053481334094581244   -0.0012756768766571578
-0.01235237034030796   -0.0435169942155576   -0.0009784924302441726
-0.017991585092212665   -0.04336928026084424   -0.0011291558604779438
-0.016627990504014572   -0.05339029825211968   -0.0015002848785124448
-0.018048059068918154   -0.04330397228084894   -0.0010521478828011883
-0.011540263891325762   -0.053481334094581244   -0.0012756768766571578
-0.01665896054163847   -0.05331952181043927   -0.0014002731234297164
-0.018048059068918154   -0.04330397228084894   -0.0010521478828011883
-0.016627990504014572   -0.05339029825211968   -0.0015002848785124448
-0.011540263891325762   -0.053481334094581244   -0.0012756768766571578
-0.018048059068918154   -0.04330397228084894   -0.0010521478828011883
-0.012413186123171981   -0.04343171758058362   -0.0009285717922584622
-0.01235237034030796   -0.0435169942155576   -0.0009784924302441726
-0.011540263891325762   -0.053481334094581244   -0.0012756768766571578
-0.018048059068918154   -0.04330397228084894   -0.0010521478828011883
-0.01235237034030796   -0.0435169942155576   -0.0009784924302441726
-0.016627990504014572   -0.05339029825211968   -0.0015002848785124448
-0.011540263891325762   -0.053481334094581244   -0.0012756768766571578
-0.012413186123171981   -0.04343171758058362   -0.0009285717922584622
-0.01665896054163847   -0.05331952181043927   -0.0014002731234297164
-0.011571267862805356   -0.053414675056256924   -0.0012115450897570723
-0.012413186123171981   -0.04343171758058362   -0.0009285717922584622
-0.018048059068918154   -0.04330397228084894   -0.0010521478828011883
-0.01665896054163847   -0.05331952181043927   -0.0014002731234297164
-0.01808229328294358   -0.04325106411456586   -0.0009693154147045972
-0.011571267862805356   -0.053414675056256924   -0.0012115450897570723
-0.01666298675539572   -0.053270499134410045   -0.0012937548656168135
-0.01808229328294358   -0.04325106411456586   -0.0009693154147045972
-0.01665896054163847   -0.05331952181043927   -0.0014002731234297164
-0.011571267862805356   -0.053414675056256924   -0.0012115450897570723
-0.01808229328294358   -0.04325106411456586   -0.0009693154147045972
-0.01246836018428867   -0.043360658374895604   -0.0008719172705626614
-0.012413186123171981   -0.04343171758058362   -0.0009285717922584622
-0.011571267862805356   -0.053414675056256924   -0.0012115450897570723
-0.01808229328294358   -0.04325106411456586   -0.0009693154147045972
-0.012413186123171981   -0.04343171758058362   -0.0009285717922584622
-0.01665896054163847   -0.05331952181043927   -0.0014002731234297164
-0.011571267862805356   -0.053414675056256924   -0.0012115450897570723
-0.01246836018428867   -0.043360658374895604   -0.0008719172705626614
-0.01666298675539572   -0.053270499134410045   -0.0012937548656168135
-0.011603171299324637   -0.053371100625628415   -0.001140084305897121
-0.01246836018428867   -0.043360658374895604   -0.0008719172705626614
-0.01808229328294358   -0.04325106411456586   -0.0009693154147045972
-0.01666298675539572   -0.053270499134410045   -0.0012937548656168135
-0.018119881575069937   -0.0432137361792853   -0.0008794538180478816
-0.011603171299324637   -0.053371100625628415   -0.001140084305897121
-0.016674647597890262   -0.053246636434086295   -0.001179352557592449
-0.018119881575069937   -0.0432137361792853   -0.0008794538180478816
-0.01666298675539572   -0.053270499134410045   -0.0012937548656168135
-0.011603171299324637   -0.053371100625628415   -0.001140084305897121
-0.018119881575069937   -0.0432137361792853   -0.0008794538180478816
-0.012524056982182853   -0.04330393715991115   -0.0008087859519814294
-0.01246836018428867   -0.043360658374895604   -0.0008719172705626614
-0.011603171299324637   -0.053371100625628415   -0.001140084305897121
-0.018119881575069937   -0.0432137361792853   -0.0008794538180478816
-0.01246836018428867   -0.043360658374895604   -0.0008719172705626614
-0.01666298675539572   -0.053270499134410045   -0.0012937548656168135
-0.016627990504014572   -0.05339029825211968   -0.0015002848785124448
-0.017991585092212665   -0.04336928026084424   -0.0011291558604779438
-0.022216770651064147   -0.053153095354036776   -0.0016438175457877723
-0.01665896054163847   -0.05331952181043927   -0.0014002731234297164
-0.017991585092212665   -0.04336928026084424   -0.0011291558604779438
-0.024043773742158967   -0.043187610033104985   -0.0012489659744829866
-0.022216770651064147   -0.053153095354036776   -0.0016438175457877723
-0.024002343911557103   -0.04313254516330141   -0.0011464052524599888
-0.01665896054163847   -0.05331952181043927   -0.0014002731234297164
-0.0221099684149999   -0.05308844446190069   -0.001497900208526383
-0.024002343911557103   -0.04313254516330141   -0.0011464052524599888
-0.022216770651064147   -0.053153095354036776   -0.0016438175457877723
-0.01665896054163847   -0.05331952181043927   -0.0014002731234297164
-0.024002343911557103   -0.04313254516330141   -0.0011464052524599888
-0.018048059068918154   -0.04330397228084894   -0.0010521478828011883
-0.017991585092212665   -0.04336928026084424   -0.0011291558604779438
-0.01665896054163847   -0.05331952181043927   -0.0014002731234297164
-0.024002343911557103   -0.04313254516330141   -0.0011464052524599888
-0.017991585092212665   -0.04336928026084424   -0.0011291558604779438
-0.022216770651064147   -0.053153095354036776   -0.0016438175457877723
-0.01665896054163847   -0.05331952181043927   -0.0014002731234297164
-0.018048059068918154   -0.04330397228084894   -0.0010521478828011883
-0.0221099684149999   -0.05308844446190069   -0.001497900208526383
-0.01666298675539572   -0.053270499134410045   -0.0012937548656168135
-0.018048059068918154   -0.04330397228084894   -0.0010521478828011883
-0.024002343911557103   -0.04313254516330141   -0.0011464052524599888
-0.0221099684149999   -0.05308844446190069   -0.001497900208526383
-0.02396858466184605   -0.043088187179970754   -0.0010331570351626443
-0.01666298675539572   -0.053270499134410045   -0.0012937548656168135
-0.02201991553868792   -0.053046897621136076   -0.0013406242174336526
-0.02396858466184605   -0.043088187179970754   -0.0010331570351626443
-0.0221099684149999   -0.05308844446190069   -0.001497900208526383
-0.01666298675539572   -0.053270499134410045   -0.0012937548656168135
-0.02396858466184605   -0.043088187179970754   -0.0010331570351626443
-0.01808229328294358   -0.04325106411456586   -0.0009693154147045972
-0.018048059068918154   -0.04330397228084894   -0.0010521478828011883
-0.01666298675539572   -0.053270499134410045   -0.0012937548656168135
-0.02396858466184605   -0.043088187179970754   -0.0010331570351626443
-0.018048059068918154   -0.04330397228084894   -0.0010521478828011883
-0.0221099684149999   -0.05308844446190069   -0.001497900208526383
-0.01666298675539572   -0.053270499134410045   -0.0012937548656168135
-0.01808229328294358   -0.04325106411456586   -0.0009693154147045972
-0.02201991553868792   -0.053046897621136076   -0.0013406242174336526
-0.016674647597890262   -0.053246636434086295   -0.001179352557592449
-0.01808229328294358   -0.04325106411456586   -0.0009693154147045972
-0.02396858466184605   -0.043088187179970754   -0.0010331570351626443
-0.02201991553868792   -0.053046897621136076   -0.0013406242174336526
-0.023887330121582853   -0.04307410157562802   -0.0009104405582433266
-0.016674647597890262   -0.053246636434086295   -0.001179352557592449
-0.021871276653009405   -0.053048112941021526   -0.0011734051424118748
-0.023887330121582853   -0.04307410157562802   -0.0009104405582433266
-0.02201991553868792   -0.053046897621136076   -0.0013406242174336526
-0.016674647597890262   -0.053246636434086295   -0.001179352557592449
-0.023887330121582853   -0.04307410157562802   -0.0009104405582433266
-0.018119881575069937   -0.0432137361792853   -0.0008794538180478816
-0.01808229328294358   -0.04325106411456586   -0.0009693154147045972
-0.016674647597890262   -0.053246636434086295   -0.001179352557592449
-0.023887330121582853   -0.04307410157562802   -0.0009104405582433266
-0.01808229328294358   -0.04325106411456586   -0.0009693154147045972
-0.02201991553868792   -0.053046897621136076   -0.0013406242174336526
0.004699341583607359   -0.043671113500007956   -0.0003109123958441346
0.004856742380208319   -0.033003393145491694   -4.843838948346819e-05
-0.0011978435742267945   -0.04366978736363345   -0.0005755959163000281
0.0046822028082482425   -0.04352557291313571   -0.00035241403168155745
0.004856742380208319   -0.033003393145491694   -4.843838948346819e-05
-0.0013746170971236879   -0.032948504937639206   -0.0002864419463407958
-0.0011978435742267945   -0.04366978736363345   -0.0005755959163000281
-0.0014470727391185927   -0.03282738314506904   -0.00026491231466769973
0.0046822028082482425   -0.04352557291313571   -0.00035241403168155745
-0.0012506494663129621   -0.04354324193428304   -0.0005794859356967381
-0.0014470727391185927   -0.03282738314506904   -0.00026491231466769973
-0.0011978435742267945   -0.04366978736363345   -0.0005755959163000281
0.0046822028082482425   -0.04352557291313571   -0.00035241403168155745
-0.0014470727391185927   -0.03282738314506904   -0.00026491231466769973
0.004779786646213563   -0.03286455202874467   -4.402522593751034e-05
0.004856742380208319   -0.033003393145491694   -4.843838948346819e-05
0.0046822028082482425   -0.04352557291313571   -0.00035241403168155745
-0.0014470727391185927   -0.03282738314506904   -0.00026491231466769973
0.004856742380208319   -0.033003393145491694   -4.843838948346819e-05
-0.0011978435742267945   -0.04366978736363345   -0.0005755959163000281
0.0046822028082482425   -0.04352557291313571   -0.00035241403168155745
0.004779786646213563   -0.03286455202874467   -4.402522593751034e-05
-0.0012506494663129621   -0.04354324193428304   -0.0005794859356967381
0.004639690341615817   -0.043408422026517686   -0.00038330614194011833
0.004779786646213563   -0.03286455202874467   -4.402522593751034e-05
-0.0014470727391185927   -0.03282738314506904   -0.00026491231466769973
-0.0012506494663129621   -0.04354324193428304   -0.0005794859356967381
-0.0015300191471366005   -0.032713038068724457   -0.00023738306112624366
0.004639690341615817   -0.043408422026517686   -0.00038330614194011833
-0.0013093252256689777   -0.043434285307778465   -0.000576756670697338
-0.0015300191471366005   -0.032713038068724457   -0.00023738306112624366
-0.0012506494663129621   -0.04354324193428304   -0.0005794859356967381
0.004639690341615817   -0.043408422026517686   -0.00038330614194011833
-0.0015300191471366005   -0.032713038068724457   -0.00023738306112624366
0.00468537636875156   -0.03274044668838517   -2.7351502250467852e-05
0.004779786646213563   -0.03286455202874467   -4.402522593751034e-05
0.004639690341615817   -0.043408422026517686   -0.00038330614194011833
-0.0015300191471366005   -0.032713038068724457   -0.00023738306112624366
0.004779786646213563   -0.03286455202874467   -4.402522593751034e-05
-0.0012506494663129621   -0.04354324193428304   -0.0005794859356967381
0.004639690341615817   -0.043408422026517686   -0.00038330614194011833
0.00468537636875156   -0.03274044668838517   -2.7351502250467852e-05
-0.0013093252256689777   -0.043434285307778465   -0.000576756670697338
0.004580356013348732   -0.04330057722789475   -0.0004043296209470653
0.00468537636875156   -0.03274044668838517   -2.7351502250467852e-05
-0.0015300191471366005   -0.032713038068724457   -0.00023738306112624366
-0.0013093252256689777   -0.043434285307778465   -0.000576756670697338
-0.0016231044775858899   -0.03260390619900361   -0.00020234990354387882
0.004580356013348732   -0.04330057722789475   -0.0004043296209470653
-0.0013821313155321642   -0.04334009801212322   -0.0005671471679362453
-0.0016231044775858899   -0.03260390619900361   -0.00020234990354387882
-0.0013093252256689777   -0.043434285307778465   -0.000576756670697338
0.004580356013348732   -0.04330057722789475   -0.0004043296209470653
-0.0016231044775858899   -0.03260390619900361   -0.00020234990354387882
0.004560939172993345   -0.03261060748877019   1.027454495526482e-06
0.00468537636875156   -0.03274044668838517   -2.7351502250467852e-05
0.004580356013348732   -0.04330057722789475   -0.0004043296209470653
-0.0016231044775858899   -0.03260390619900361   -0.00020234990354387882
0.00468537636875156   -0.03274044668838517   -2.7351502250467852e-05
-0.0013093252256689777   -0.043434285307778465   -0.000576756670697338
-0.0011978435742267945   -0.04366978736363345   -0.0005755959163000281
-0.0013746170971236879   -0.032948504937639206   -0.0002864419463407958
-0.006822661925251194   -0.043616457677367326   -0.000794109014558729
-0.0012506494663129621   -0.04354324193428304   -0.0005794859356967381
-0.0013746170971236879   -0.032948504937639206   -0.0002864419463407958
-0.00727916479965046   -0.03288461981123815   -0.00048792552736998205
-0.006822661925251194   -0.043616457677367326   -0.000794109014558729
-0.007353056106130519   -0.032783289427730636   -0.00045499444856664977
-0.0012506494663129621   -0.04354324193428304   -0.0005794859356967381
-0.006881740762762427   -0.043511382625118764   -0.0007710706478329593
-0.007353056106130519   -0.032783289427730636   -0.00045499444856664977
-0.006822661925251194   -0.043616457677367326   -0.000794109014558729
-0.0012506494663129621   -0.04354324193428304   -0.0005794859356967381
-0.007353056106130519   -0.032783289427730636   -0.00045499444856664977
-0.0014470727391185927   -0.03282738314506904   -0.00026491231466769973
-0.0013746170971236879   -0.032948504937639206   -0.0002864419463407958
-0.0012506494663129621   -0.04354324193428304   -0.0005794859356967381
-0.007353056106130519   -0.032783289427730636   -0.00045499444856664977
-0.0013746170971236879   -0.032948504937639206   -0.0002864419463407958
-0.006822661925251194   -0.043616457677367326   -0.000794109014558729
-0.0012506494663129621   -0.04354324193428304   -0.0005794859356967381
-0.0014470727391185927   -0.03282738314506904   -0.00026491231466769973
-0.006881740762762427   -0.043511382625118764   -0.0007710706478329593
-0.0013093252256689777   -0.043434285307778465   -0.000576756670697338
-0.0014470727391185927   -0.03282738314506904   -0.00026491231466769973
-0.007353056106130519   -0.032783289427730636   -0.00045499444856664977
-0.006881740762762427   -0.043511382625118764   -0.0007710706478329593
-0.007428599216478835   -0.032687219868427604   -0.00041634741429299213
-0.0013093252256689777   -0.043434285307778465   -0.000576756670697338
-0.006942006580911981   -0.04342062625114342   -0.0007411379890140314
-0.007428599216478835   -0.032687219868427604   -0.00041634741429299213
-0.006881740762762427   -0.043511382625118764   -0.0007710706478329593
-0.0013093252256689777   -0.043434285307778465   -0.000576756670697338
-0.007428599216478835   -0.032687219868427604   -0.00041634741429299213
-0.0015300191471366005   -0.032713038068724457   -0.00023738306112624366
-0.0014470727391185927   -0.03282738314506904   -0.00026491231466769973
-0.0013093252256689777   -0.043434285307778465   -0.000576756670697338
-0.007428599216478835   -0.032687219868427604   -0.00041634741429299213
-0.0014470727391185927   -0.03282738314506904   -0.00026491231466769973
-0.006881740762762427   -0.043511382625118764   -0.0007710706478329593
-0.0013093252256689777   -0.043434285307778465   -0.000576756670697338
-0.0015300191471366005   -0.032713038068724457   -0.00023738306112624366
-0.006942006580911981   -0.04342062625114342   -0.0007411379890140314
-0.0013821313155321642   -0.04334009801212322   -0.0005671471679362453
-0.0015300191471366005   -0.032713038068724457   -0.00023738306112624366
-0.007428599216478835   -0.032687219868427604   -0.00041634741429299213
-0.006942006580911981   -0.04342062625114342   -0.0007411379890140314
-0.0075089416702294794   -0.03259789397888272   -0.000371921440700226
-0.0013821313155321642   -0.04334009801212322   -0.0005671471679362453
-0.007007365306995648   -0.043345043267626095   -0.0007046334626434078
-0.0075089416702294794   -0.03259789397888272   -0.000371921440700226
-0.006942006580911981   -0.04342062625114342   -0.0007411379890140314
-0.0013821313155321642   -0.04334009801212322   -0.0005671471679362453
-0.0075089416702294794   -0.03259789397888272   -0.000371921440700226
-0.0016231044775858899   -0.03260390619900361   -0.00020234990354387882
-0.0015300191471366005   -0.032713038068724457   -0.00023738306112624366
-0.0013821313155321642   -0.04334009801212322   -0.0005671471679362453
-0.0075089416702294794   -0.03259789397888272   -0.000371921440700226
-0.0015300191471366005   -0.032713038068724457   -0.00023738306112624366
-0.006942006580911981   -0.04342062625114342   -0.0007411379890140314
-0.006822661925251194   -0.043616457677367326   -0.000794109014558729
-0.00727916479965046   -0.03288461981123815   -0.00048792552736998205
-0.01235237034030796   -0.0435169942155576   -0.0009784924302441726
-0.006881740762762427   -0.043511382625118764   -0.0007710706478329593
-0.00727916479965046   -0.03288461981123815   -0.00048792552736998205
-0.013087701731695642   -0.03280804993418188   -0.0006590716468973457
-0.01235237034030796   -0.0435169942155576   -0.0009784924302441726
-0.013161049709300666   -0.03272506512380774   -0.0006147437337060334
-0.006881740762762427   -0.043511382625118764   -0.0007710706478329593
-0.012413186123171981   -0.04343171758058362   -0.0009285717922584622
-0.013161049709300666   -0.03272506512380774   -0.0006147437337060334
-0.01235237034030796   -0.0435169942155576   -0.0009784924302441726
-0.006881740762762427   -0.043511382625118764   -0.0007710706478329593
-0.013161049709300666   -0.03272506512380774   -0.0006147437337060334
-0.007353056106130519   -0.032783289427730636   -0.00045499444856664977
-0.00727916479965046   -0.03288461981123815   -0.00048792552736998205
-0.006881740762762427   -0.043511382625118764   -0.0007710706478329593
-0.013161049709300666   -0.03272506512380774   -0.0006147437337060334
-0.00727916479965046   -0.03288461981123815   -0.00048792552736998205
-0.01235237034030796   -0.0435169942155576   -0.0009784924302441726
-0.006881740762762427   -0.043511382625118764   -0.0007710706478329593
-0.007353056106130519   -0.032783289427730636   -0.00045499444856664977
-0.012413186123171981   -0.04343171758058362   -0.0009285717922584622
-0.006942006580911981   -0.04342062625114342   -0.0007411379890140314
-0.007353056106130519   -0.032783289427730636   -0.00045499444856664977
-0.013161049709300666   -0.03272506512380774   -0.0006147437337060334
-0.012413186123171981   -0.04343171758058362   -0.0009285717922584622
-0.01322965451738968   -0.03264764155456518   -0.0005648953751860766
-0.006942006580911981   -0.04342062625114342   -0.0007411379890140314
-0.01246836018428867   -0.043360658374895604   -0.0008719172705626614
-0.01322965451738968   -0.03264764155456518   -0.0005648953751860766
-0.012413186123171981   -0.04343171758058362   -0.0009285717922584622
-0.006942006580911981   -0.04342062625114342   -0.0007411379890140314
-0.01322965451738968   -0.03264764155456518   -0.0005648953751860766
-0.007428599216478835   -0.032687219868427604   -0.00041634741429299213
-0.007353056106130519   -0.032783289427730636   -0.00045499444856664977
-0.006942006580911981   -0.04342062625114342   -0.0007411379890140314
-0.01322965451738968   -0.03264764155456518   -0.0005648953751860766
-0.007353056106130519   -0.032783289427730636   -0.00045499444856664977
-0.012413186123171981   -0.04343171758058362   -0.0009285717922584622
-0.006942006580911981   -0.04342062625114342   -0.0007411379890140314
-0.007428599216478835   -0.032687219868427604   -0.00041634741429299213
-0.01246836018428867   -0.043360658374895604   -0.0008719172705626614
-0.007007365306995648   -0.043345043267626095   -0.0007046334626434078
-0.007428599216478835   -0.032687219868427604   -0.00041634741429299213
-0.01322965451738968   -0.03264764155456518   -0.0005648953751860766
-0.01246836018428867   -0.043360658374895604   -0.0008719172705626614
-0.013298504642733484   -0.03257599451161503   -0.0005098003660415002
-0.007007365306995648   -0.043345043267626095   -0.0007046334626434078
-0.012524056982182853   -0.04330393715991115   -0.0008087859519814294
-0.013298504642733484   -0.03257599451161503   -0.0005098003660415002
-0.01246836018428867   -0.043360658374895604   -0.0008719172705626614
-0.007007365306995648   -0.043345043267626095   -0.0007046334626434078
-0.013298504642733484   -0.03257599451161503   -0.0005098003660415002
-0.0075089416702294794   -0.03259789397888272   -0.000371921440700226
-0.007428599216478835   -0.032687219868427604   -0.00041634741429299213
-0.007007365306995648   -0.043345043267626095   -0.0007046334626434078
-0.013298504642733484   -0.03257599451161503   -0.0005098003660415002
-0.007428599216478835   -0.032687219868427604   -0.00041634741429299213
-0.01246836018428867   -0.043360658374895604   -0.0008719172705626614
-0.01235237034030796   -0.0435169942155576   -0.0009784924302441726
-0.013087701731695642   -0.03280804993418188   -0.0006590716468973457
-0.017991585092212665   -0.04336928026084424   -0.0011291558604779438
-0.012413186123171981   -0.04343171758058362   -0.0009285717922584622
-0.013087701731695642   -0.03280804993418188   -0.0006590716468973457
-0.019001127477393666   -0.03270456149848722   -0.0007984182675552401
-0.017991585092212665   -0.04336928026084424   -0.0011291558604779438
-0.01907137008153696   -0.03264087837781973   -0.0007428288283522666
-0.012413186123171981   -0.04343171758058362   -0.0009285717922584622
-0.018048059068918154   -0.04330397228084894   -0.0010521478828011883
-0.01907137008153696   -0.03264087837781973   -0.0007428288283522666
-0.017991585092212665   -0.04336928026084424   -0.0011291558604779438
-0.012413186123171981   -0.04343171758058362   -0.0009285717922584622
-0.01907137008153696   -0.03264087837781973   -0.0007428288283522666
-0.013161049709300666   -0.03272506512380774   -0.0006147437337060334
-0.013087701731695642   -0.03280804993418188   -0.0006590716468973457
-0.012413186123171981   -0.04343171758058362   -0.0009285717922584622
-0.01907137008153696   -0.03264087837781973   -0.0007428288283522666
-0.013087701731695642   -0.03280804993418188   -0.0006590716468973457
-0.017991585092212665   -0.04336928026084424   -0.0011291558604779438
-0.012413186123171981   -0.04343171758058362   -0.0009285717922584622
-0.013161049709300666   -0.03272506512380774   -0.0006147437337060334
-0.018048059068918154   -0.04330397228084894   -0.0010521478828011883
-0.01246836018428867   -0.043360658374895604   -0.0008719172705626614
-0.013161049709300666   -0.03272506512380774   -0.0006147437337060334
-0.01907137008153696   -0.03264087837781973   -0.0007428288283522666
-0.018048059068918154   -0.04330397228084894   -0.0010521478828011883
-0.019124640212992594   -0.03258062330928402   -0.0006826316892180858
-0.01246836018428867   -0.043360658374895604   -0.0008719172705626614
-0.01808229328294358   -0.04325106411456586   -0.0009693154147045972
-0.019124640212992594   -0.03258062330928402   -0.0006826316892180858
-0.018048059068918154   -0.04330397228084894   -0.0010521478828011883
-0.01246836018428867   -0.043360658374895604   -0.0008719172705626614
-0.019124640212992594   -0.03258062330928402   -0.0006826316892180858
-0.01322965451738968   -0.03264764155456518   -0.0005648953751860766
-0.013161049709300666   -0.03272506512380774   -0.0006147437337060334
-0.01246836018428867   -0.043360658374895604   -0.0008719172705626614
-0.019124640212992594   -0.03258062330928402   -0.0006826316892180858
-0.013161049709300666   -0.03272506512380774   -0.0006147437337060334
-0.018048059068918154   -0.04330397228084894   -0.0010521478828011883
-0.01246836018428867   -0.043360658374895604   -0.0008719172705626614
-0.01322965451738968   -0.03264764155456518   -0.0005648953751860766
-0.01808229328294358   -0.04325106411456586   -0.0009693154147045972
-0.012524056982182853   -0.04330393715991115   -0.0008087859519814294
-0.01322965451738968   -0.03264764155456518   -0.0005648953751860766
-0.019124640212992594   -0.03258062330928402   -0.0006826316892180858
-0.01808229328294358   -0.04325106411456586   -0.0009693154147045972
-0.019177490999616603   -0.03252646276698391   -0.0006166232112533982
-0.012524056982182853   -0.04330393715991115   -0.0008087859519814294
-0.018119881575069937   -0.0432137361792853   -0.0008794538180478816
-0.019177490999616603   -0.03252646276698391   -0.0006166232112533982
-0.01808229328294358   -0.04325106411456586   -0.0009693154147045972
-0.012524056982182853   -0.04330393715991115   -0.0008087859519814294
-0.019177490999616603   -0.03252646276698391   -0.0006166232112533982
-0.013298504642733484   -0.03257599451161503   -0.0005098003660415002
-0.01322965451738968   -0.03264764155456518   -0.0005648953751860766
-0.012524056982182853   -0.04330393715991115   -0.0008087859519814294
-0.019177490999616603   -0.03252646276698391   -0.0006166232112533982
-0.01322965451738968   -0.03264764155456518   -0.0005648953751860766
-0.01808229328294358   -0.04325106411456586   -0.0009693154147045972
-0.017991585092212665   -0.04336928026084424   -0.0011291558604779438
-0.019001127477393666   -0.03270456149848722   -0.0007984182675552401
-0.024043773742158967   -0.043187610033104985   -0.0012489659744829866
-0.018048059068918154   -0.04330397228084894   -0.0010521478828011883
-0.019001127477393666   -0.03270456149848722   -0.0007984182675552401
-0.025268355964398043   -0.03258233911959757   -0.0009018531602106505
-0.024043773742158967   -0.043187610033104985   -0.0012489659744829866
-0.025279201436958363   -0.03253150058896391   -0.000840472735633273
-0.018048059068918154   -0.04330397228084894   -0.0010521478828011883
-0.024002343911557103   -0.04313254516330141   -0.0011464052524599888
-0.025279201436958363   -0.03253150058896391   -0.000840472735633273
-0.024043773742158967   -0.043187610033104985   -0.0012489659744829866
-0.018048059068918154   -0.04330397228084894   -0.0010521478828011883
-0.025279201436958363   -0.03253150058896391   -0.000840472735633273
-0.01907137008153696   -0.03264087837781973   -0.0007428288283522666
-0.019001127477393666   -0.03270456149848722   -0.0007984182675552401
-0.018048059068918154   -0.04330397228084894   -0.0010521478828011883
-0.025279201436958363   -0.03253150058896391   -0.000840472735633273
-0.019001127477393666   -0.03270456149848722   -0.0007984182675552401
-0.024043773742158967   -0.043187610033104985   -0.0012489659744829866
-0.018048059068918154   -0.04330397228084894   -0.0010521478828011883
-0.01907137008153696   -0.03264087837781973   -0.0007428288283522666
-0.024002343911557103   -0.04313254516330141   -0.0011464052524599888
-0.01808229328294358   -0.04325106411456586   -0.0009693154147045972
-0.01907137008153696   -0.03264087837781973   -0.0007428288283522666
-0.025279201436958363   -0.03253150058896391   -0.000840472735633273
-0.024002343911557103   -0.04313254516330141   -0.0011464052524599888
-0.025290329069556326   -0.03248006315067538   -0.0007698130368387551
-0.01808229328294358   -0.04325106411456586   -0.0009693154147045972
-0.02396858466184605   -0.043088187179970754   -0.0010331570351626443
-0.025290329069556326   -0.03248006315067538   -0.0007698130368387551
-0.024002343911557103   -0.04313254516330141   -0.0011464052524599888
-0.01808229328294358   -0.04325106411456586   -0.0009693154147045972
-0.025290329069556326   -0.03248006315067538   -0.0007698130368387551
-0.019124640212992594   -0.03258062330928402   -0.0006826316892180858
-0.01907137008153696   -0.03264087837781973   -0.0007428288283522666
-0.01808229328294358   -0.04325106411456586   -0.0009693154147045972
-0.025290329069556326   -0.03248006315067538   -0.0007698130368387551
-0.01907137008153696   -0.03264087837781973   -0.0007428288283522666
-0.024002343911557103   -0.04313254516330141   -0.0011464052524599888
-0.01808229328294358   -0.04325106411456586   -0.0009693154147045972
-0.019124640212992594   -0.03258062330928402   -0.0006826316892180858
-0.02396858466184605   -0.043088187179970754   -0.0010331570351626443
-0.018119881575069937   -0.0432137361792853   -0.0008794538180478816
-0.019124640212992594   -0.03258062330928402   -0.0006826316892180858
-0.025290329069556326   -0.03248006315067538   -0.0007698130368387551
-0.02396858466184605   -0.043088187179970754   -0.0010331570351626443
-0.025266244525789745   -0.03244613231263922   -0.0006909760638464691
-0.018119881575069937   -0.0432137361792853   -0.0008794538180478816
-0.023887330121582853   -0.04307410157562802   -0.0009104405582433266
-0.025266244525789745   -0.03244613231263922   -0.0006909760638464691
-0.02396858466184605   -0.043088187179970754   -0.0010331570351626443
-0.018119881575069937   -0.0432137361792853   -0.0008794538180478816
-0.025266244525789745   -0.03244613231263922   -0.0006909760638464691
-0.019177490999616603   -0.03252646276698391   -0.0006166232112533982
-0.019124640212992594   -0.03258062330928402   -0.0006826316892180858
-0.018119881575069937   -0.0432137361792853   -0.0008794538180478816
-0.025266244525789745   -0.03244613231263922   -0.0006909760638464691
-0.019124640212992594   -0.03258062330928402   -0.0006826316892180858
-0.02396858466184605   -0.043088187179970754   -0.0010331570351626443
0.004856742380208319   -0.033003393145491694   -4.843838948346819e-05
0.004352889180447753   -0.022019548751327323   0.00013271378538252552
-0.0013746170971236879   -0.032948504937639206   -0.0002864419463407958
0.004779786646213563   -0.03286455202874467   -4.402522593751034e-05
0.004352889180447753   -0.022019548751327323   0.00013271378538252552
-0.0019245190327233444   -0.02191599797192314   -5.646990241406294e-05
-0.0013746170971236879   -0.032948504937639206   -0.0002864419463407958
-0.0020110614961058714   -0.021806333901029318   -1.155431337978672e-05
0.004779786646213563   -0.03286455202874467   -4.402522593751034e-05
-0.0014470727391185927   -0.03282738314506904   -0.00026491231466769973
-0.0020110614961058714   -0.021806333901029318   -1.155431337978672e-05
-0.0013746170971236879   -0.032948504937639206   -0.0002864419463407958
0.004779786646213563   -0.03286455202874467   -4.402522593751034e-05
-0.0020110614961058714   -0.021806333901029318   -1.155431337978672e-05
0.004216540854771548   -0.021887258841100467   0.00018865127315171391
0.004352889180447753   -0.022019548751327323   0.00013271378538252552
0.004779786646213563   -0.03286455202874467   -4.402522593751034e-05
-0.0020110614961058714   -0.021806333901029318   -1.155431337978672e-05
0.004352889180447753   -0.022019548751327323   0.00013271378538252552
-0.0013746170971236879   -0.032948504937639206   -0.0002864419463407958
0.004779786646213563   -0.03286455202874467   -4.402522593751034e-05
0.004216540854771548   -0.021887258841100467   0.00018865127315171391
-0.0014470727391185927   -0.03282738314506904   -0.00026491231466769973
0.00468537636875156   -0.03274044668838517   -2.7351502250467852e-05
0.004216540854771548   -0.021887258841100467   0.00018865127315171391
-0.0020110614961058714   -0.021806333901029318   -1.155431337978672e-05
-0.0014470727391185927   -0.03282738314506904   -0.00026491231466769973
-0.002112293338138412   -0.021690584177689532   4.1346286595583854e-05
0.00468537636875156   -0.03274044668838517   -2.7351502250467852e-05
-0.0015300191471366005   -0.032713038068724457   -0.00023738306112624366
-0.002112293338138412   -0.021690584177689532   4.1346286595583854e-05
-0.0014470727391185927   -0.03282738314506904   -0.00026491231466769973
0.00468537636875156   -0.03274044668838517   -2.7351502250467852e-05
-0.002112293338138412   -0.021690584177689532   4.1346286595583854e-05
0.004064378623968691   -0.02175585846052551   0.00026896578265645676
0.004216540854771548   -0.021887258841100467   0.00018865127315171391
0.00468537636875156   -0.03274044668838517   -2.7351502250467852e-05
-0.002112293338138412   -0.021690584177689532   4.1346286595583854e-05
0.004216540854771548   -0.021887258841100467   0.00018865127315171391
-0.0014470727391185927   -0.03282738314506904   -0.00026491231466769973
0.00468537636875156   -0.03274044668838517   -2.7351502250467852e-05
0.004064378623968691   -0.02175585846052551   0.00026896578265645676
-0.0015300191471366005   -0.032713038068724457   -0.00023738306112624366
0.004560939172993345   -0.03261060748877019   1.027454495526482e-06
0.004064378623968691   -0.02175585846052551   0.00026896578265645676
-0.002112293338138412   -0.021690584177689532   4.1346286595583854e-05
-0.0015300191471366005   -0.032713038068724457   -0.00023738306112624366
-0.0022169965161994774   -0.021567674684466295   0.0001021240788417206
0.004560939172993345   -0.03261060748877019   1.027454495526482e-06
-0.0016231044775858899   -0.03260390619900361   -0.00020234990354387882
-0.0022169965161994774   -0.021567674684466295   0.0001021240788417206
-0.0015300191471366005   -0.032713038068724457   -0.00023738306112624366
0.004560939172993345   -0.03261060748877019   1.027454495526482e-06
-0.0022169965161994774   -0.021567674684466295   0.0001021240788417206
0.0038784596105767223   -0.021594449513500143   0.00035733602694941875
0.004064378623968691   -0.02175585846052551   0.00026896578265645676
0.004560939172993345   -0.03261060748877019   1.027454495526482e-06
-0.0022169965161994774   -0.021567674684466295   0.0001021240788417206
0.004064378623968691   -0.02175585846052551   0.00026896578265645676
-0.0015300191471366005   -0.032713038068724457   -0.00023738306112624366
-0.0013746170971236879   -0.032948504937639206   -0.0002864419463407958
-0.0019245190327233444   -0.02191599797192314   -5.646990241406294e-05
-0.00727916479965046   -0.03288461981123815   -0.00048792552736998205
-0.0014470727391185927   -0.03282738314506904   -0.00026491231466769973
-0.0019245190327233444   -0.02191599797192314   -5.646990241406294e-05
-0.007835888832256523   -0.021889201032642053   -0.00023883927908829102
-0.00727916479965046   -0.03288461981123815   -0.00048792552736998205
-0.007914104682124707   -0.021793473079974396   -0.00019706508247084684
-0.0014470727391185927   -0.03282738314506904   -0.00026491231466769973
-0.007353056106130519   -0.032783289427730636   -0.00045499444856664977
-0.007914104682124707   -0.021793473079974396   -0.00019706508247084684
-0.00727916479965046   -0.03288461981123815   -0.00048792552736998205
-0.0014470727391185927   -0.03282738314506904   -0.00026491231466769973
-0.007914104682124707   -0.021793473079974396   -0.00019706508247084684
-0.0020110614961058714   -0.021806333901029318   -1.155431337978672e-05
-0.0019245190327233444   -0.02191599797192314   -5.646990241406294e-05
-0.0014470727391185927   -0.03282738314506904   -0.00026491231466769973
-0.007914104682124707   -0.021793473079974396   -0.00019706508247084684
-0.0019245190327233444   -0.02191599797192314   -5.646990241406294e-05
-0.00727916479965046   -0.03288461981123815   -0.00048792552736998205
-0.0014470727391185927   -0.03282738314506904   -0.00026491231466769973
-0.0020110614961058714   -0.021806333901029318   -1.155431337978672e-05
-0.007353056106130519   -0.032783289427730636   -0.00045499444856664977
-0.0015300191471366005   -0.032713038068724457   -0.00023738306112624366
-0.0020110614961058714   -0.021806333901029318   -1.155431337978672e-05
-0.007914104682124707   -0.021793473079974396   -0.00019706508247084684
-0.007353056106130519   -0.032783289427730636   -0.00045499444856664977
-0.007995011918867393   -0.02169389455696527   -0.00015114975737194302
-0.0015300191471366005   -0.032713038068724457   -0.00023738306112624366
-0.007428599216478835   -0.032687219868427604   -0.00041634741429299213
-0.007995011918867393   -0.02169389455696527   -0.00015114975737194302
-0.007353056106130519   -0.032783289427730636   -0.00045499444856664977
-0.0015300191471366005   -0.032713038068724457   -0.00023738306112624366
-0.007995011918867393   -0.02169389455696527   -0.00015114975737194302
-0.002112293338138412   -0.021690584177689532   4.1346286595583854e-05
-0.0020110614961058714   -0.021806333901029318   -1.155431337978672e-05
-0.0015300191471366005   -0.032713038068724457   -0.00023738306112624366
-0.007995011918867393   -0.02169389455696527   -0.00015114975737194302
-0.0020110614961058714   -0.021806333901029318   -1.155431337978672e-05
-0.007353056106130519   -0.032783289427730636   -0.00045499444856664977
-0.0015300191471366005   -0.032713038068724457   -0.00023738306112624366
-0.002112293338138412   -0.021690584177689532   4.1346286595583854e-05
-0.007428599216478835   -0.032687219868427604   -0.00041634741429299213
-0.0016231044775858899   -0.03260390619900361   -0.00020234990354387882
-0.002112293338138412   -0.021690584177689532   4.1346286595583854e-05
-0.007995011918867393   -0.02169389455696527   -0.00015114975737194302
-0.007428599216478835   -0.032687219868427604   -0.00041634741429299213
-0.008079239645554437   -0.02159224231936737   -0.00010026492664474293
-0.0016231044775858899   -0.03260390619900361   -0.00020234990354387882
-0.0075089416702294794   -0.03259789397888272   -0.000371921440700226
-0.008079239645554437   -0.02159224231936737   -0.00010026492664474293
-0.007428599216478835   -0.032687219868427604   -0.00041634741429299213
-0.0016231044775858899   -0.03260390619900361   -0.00020234990354387882
-0.008079239645554437   -0.02159224231936737   -0.00010026492664474293
-0.0022169965161994774   -0.021567674684466295   0.0001021240788417206
-0.002112293338138412   -0.021690584177689532   4.1346286595583854e-05
-0.0016231044775858899   -0.03260390619900361   -0.00020234990354387882
-0.008079239645554437   -0.02159224231936737   -0.00010026492664474293
-0.002112293338138412   -0.021690584177689532   4.1346286595583854e-05
-0.007428599216478835   -0.032687219868427604   -0.00041634741429299213
-0.00727916479965046   -0.03288461981123815   -0.00048792552736998205
-0.007835888832256523   -0.021889201032642053   -0.00023883927908829102
-0.013087701731695642   -0.03280804993418188   -0.0006590716468973457
-0.007353056106130519   -0.032783289427730636   -0.00045499444856664977
-0.007835888832256523   -0.021889201032642053   -0.00023883927908829102
-0.013686701135655855   -0.021881754228397735   -0.00040369337418176375
-0.013087701731695642   -0.03280804993418188   -0.0006590716468973457
-0.013761469426564294   -0.02179780518124033   -0.0003638557036465983
-0.007353056106130519   -0.032783289427730636   -0.00045499444856664977
-0.013161049709300666   -0.03272506512380774   -0.0006147437337060334
-0.013761469426564294   -0.02179780518124033   -0.0003638557036465983
-0.013087701731695642   -0.03280804993418188   -0.0006590716468973457
-0.007353056106130519   -0.032783289427730636   -0.00045499444856664977
-0.013761469426564294   -0.02179780518124033   -0.0003638557036465983
-0.007914104682124707   -0.021793473079974396   -0.00019706508247084684
-0.007835888832256523   -0.021889201032642053   -0.00023883927908829102
-0.007353056106130519   -0.032783289427730636   -0.00045499444856664977
-0.013761469426564294   -0.02179780518124033   -0.0003638557036465983
-0.007835888832256523   -0.021889201032642053   -0.00023883927908829102
-0.013087701731695642   -0.03280804993418188   -0.0006590716468973457
-0.007353056106130519   -0.032783289427730636   -0.00045499444856664977
-0.007914104682124707   -0.021793473079974396   -0.00019706508247084684
-0.013161049709300666   -0.03272506512380774   -0.0006147437337060334
-0.007428599216478835   -0.032687219868427604   -0.00041634741429299213
-0.007914104682124707   -0.021793473079974396   -0.00019706508247084684
-0.013761469426564294   -0.02179780518124033   -0.0003638557036465983
-0.013161049709300666   -0.03272506512380774   -0.0006147437337060334
-0.013832693799410073   -0.021712332057512496   -0.0003203975202711345
-0.007428599216478835   -0.032687219868427604   -0.00041634741429299213
-0.01322965451738968   -0.03264764155456518   -0.0005648953751860766
-0.013832693799410073   -0.021712332057512496   -0.0003203975202711345
-0.013161049709300666   -0.03272506512380774   -0.0006147437337060334
-0.007428599216478835   -0.032687219868427604   -0.00041634741429299213
-0.013832693799410073   -0.021712332057512496   -0.0003203975202711345
-0.007995011918867393   -0.02169389455696527   -0.00015114975737194302
-0.007914104682124707   -0.021793473079974396   -0.00019706508247084684
-0.007428599216478835   -0.032687219868427604   -0.00041634741429299213
-0.013832693799410073   -0.021712332057512496   -0.0003203975202711345
-0.007914104682124707   -0.021793473079974396   -0.00019706508247084684
-0.013161049709300666   -0.03272506512380774   -0.0006147437337060334
-0.007428599216478835   -0.032687219868427604   -0.00041634741429299213
-0.007995011918867393   -0.02169389455696527   -0.00015114975737194302
-0.01322965451738968   -0.03264764155456518   -0.0005648953751860766
-0.0075089416702294794   -0.03259789397888272   -0.000371921440700226
-0.007995011918867393   -0.02169389455696527   -0.00015114975737194302
-0.013832693799410073   -0.021712332057512496   -0.0003203975202711345
-0.01322965451738968   -0.03264764155456518   -0.0005648953751860766
-0.013903201318467295   -0.02162484821233081   -0.00027352463572571565
-0.0075089416702294794   -0.03259789397888272   -0.000371921440700226
-0.013298504642733484   -0.03257599451161503   -0.0005098003660415002
-0.013903201318467295   -0.02162484821233081   -0.00027352463572571565
-0.01322965451738968   -0.03264764155456518   -0.0005648953751860766
-0.0075089416702294794   -0.03259789397888272   -0.000371921440700226
-0.013903201318467295   -0.02162484821233081   -0.00027352463572571565
-0.008079239645554437   -0.02159224231936737   -0.00010026492664474293
-0.007995011918867393   -0.02169389455696527   -0.00015114975737194302
-0.0075089416702294794   -0.03259789397888272   -0.000371921440700226
-0.013903201318467295   -0.02162484821233081   -0.00027352463572571565
-0.007995011918867393   -0.02169389455696527   -0.00015114975737194302
-0.01322965451738968   -0.03264764155456518   -0.0005648953751860766
-0.013087701731695642   -0.03280804993418188   -0.0006590716468973457
-0.013686701135655855   -0.021881754228397735   -0.00040369337418176375
-0.019001127477393666   -0.03270456149848722   -0.0007984182675552401
-0.013161049709300666   -0.03272506512380774   -0.0006147437337060334
-0.013686701135655855   -0.021881754228397735   -0.00040369337418176375
-0.0196614479843974   -0.021847782791345617   -0.0005421876622107934
-0.019001127477393666   -0.03270456149848722   -0.0007984182675552401
-0.019732726435108025   -0.02177934977420042   -0.0005044857753255811
-0.013161049709300666   -0.03272506512380774   -0.0006147437337060334
-0.01907137008153696   -0.03264087837781973   -0.0007428288283522666
-0.019732726435108025   -0.02177934977420042   -0.0005044857753255811
-0.019001127477393666   -0.03270456149848722   -0.0007984182675552401
-0.013161049709300666   -0.03272506512380774   -0.0006147437337060334
-0.019732726435108025   -0.02177934977420042   -0.0005044857753255811
-0.013761469426564294   -0.02179780518124033   -0.0003638557036465983
-0.013686701135655855   -0.021881754228397735   -0.00040369337418176375
-0.013161049709300666   -0.03272506512380774   -0.0006147437337060334
-0.019732726435108025   -0.02177934977420042   -0.0005044857753255811
-0.013686701135655855   -0.021881754228397735   -0.00040369337418176375
-0.019001127477393666   -0.03270456149848722   -0.0007984182675552401
-0.013161049709300666   -0.03272506512380774   -0.0006147437337060334
-0.013761469426564294   -0.02179780518124033   -0.0003638557036465983
-0.01907137008153696   -0.03264087837781973   -0.0007428288283522666
-0.01322965451738968   -0.03264764155456518   -0.0005648953751860766
-0.013761469426564294   -0.02179780518124033   -0.0003638557036465983
-0.019732726435108025   -0.02177934977420042   -0.0005044857753255811
-0.01907137008153696   -0.03264087837781973   -0.0007428288283522666
-0.019793128480042537   -0.02170716120171119   -0.0004642147181056267
-0.01322965451738968   -0.03264764155456518   -0.0005648953751860766
-0.019124640212992594   -0.03258062330928402   -0.0006826316892180858
-0.019793128480042537   -0.02170716120171119   -0.0004642147181056267
-0.01907137008153696   -0.03264087837781973   -0.0007428288283522666
-0.01322965451738968   -0.03264764155456518   -0.0005648953751860766
-0.019793128480042537   -0.02170716120171119   -0.0004642147181056267
-0.013832693799410073   -0.021712332057512496   -0.0003203975202711345
-0.013761469426564294   -0.02179780518124033   -0.0003638557036465983
-0.01322965451738968   -0.03264764155456518   -0.0005648953751860766
-0.019793128480042537   -0.02170716120171119   -0.0004642147181056267
-0.013761469426564294   -0.02179780518124033   -0.0003638557036465983
-0.01907137008153696   -0.03264087837781973   -0.0007428288283522666
-0.01322965451738968   -0.03264764155456518   -0.0005648953751860766
-0.013832693799410073   -0.021712332057512496   -0.0003203975202711345
-0.019124640212992594   -0.03258062330928402   -0.0006826316892180858
-0.013298504642733484   -0.03257599451161503   -0.0005098003660415002
-0.013832693799410073   -0.021712332057512496   -0.0003203975202711345
-0.019793128480042537   -0.02170716120171119   -0.0004642147181056267
-0.019124640212992594   -0.03258062330928402   -0.0006826316892180858
-0.019850217726333108   -0.021633068033088097   -0.0004202537256099207
-0.013298504642733484   -0.03257599451161503   -0.0005098003660415002
-0.019177490999616603   -0.03252646276698391   -0.0006166232112533982
-0.019850217726333108   -0.021633068033088097   -0.0004202537256099207
-0.019124640212992594   -0.03258062330928402   -0.0006826316892180858
-0.013298504642733484   -0.03257599451161503   -0.0005098003660415002
-0.019850217726333108   -0.021633068033088097   -0.0004202537256099207
-0.013903201318467295   -0.02162484821233081   -0.00027352463572571565
-0.013832693799410073   -0.021712332057512496   -0.0003203975202711345
-0.013298504642733484   -0.03257599451161503   -0.0005098003660415002
-0.019850217726333108   -0.021633068033088097   -0.0004202537256099207
-0.013832693799410073   -0.021712332057512496   -0.0003203975202711345
-0.019124640212992594   -0.03258062330928402   -0.0006826316892180858
-0.019001127477393666   -0.03270456149848722   -0.0007984182675552401
-0.0196614479843974   -0.021847782791345617   -0.0005421876622107934
-0.025268355964398043   -0.03258233911959757   -0.0009018531602106505
-0.01907137008153696   -0.03264087837781973   -0.0007428288283522666
-0.0196614479843974   -0.021847782791345617   -0.0005421876622107934
-0.025919833256653285   -0.021791838599374586   -0.0006446869248951164
-0.025268355964398043   -0.03258233911959757   -0.0009018531602106505
-0.02596417574354509   -0.021734380308579944   -0.0006164334995088687
-0.01907137008153696   -0.03264087837781973   -0.0007428288283522666
-0.025279201436958363   -0.03253150058896391   -0.000840472735633273
-0.02596417574354509   -0.021734380308579944   -0.0006164334995088687
-0.025268355964398043   -0.03258233911959757   -0.0009018531602106505
-0.01907137008153696   -0.03264087837781973   -0.0007428288283522666
-0.02596417574354509   -0.021734380308579944   -0.0006164334995088687
-0.019732726435108025   -0.02177934977420042   -0.0005044857753255811
-0.0196614479843974   -0.021847782791345617   -0.0005421876622107934
-0.01907137008153696   -0.03264087837781973   -0.0007428288283522666
-0.02596417574354509   -0.021734380308579944   -0.0006164334995088687
-0.0196614479843974   -0.021847782791345617   -0.0005421876622107934
-0.025268355964398043   -0.03258233911959757   -0.0009018531602106505
-0.01907137008153696   -0.03264087837781973   -0.0007428288283522666
-0.019732726435108025   -0.02177934977420042   -0.0005044857753255811
-0.025279201436958363   -0.03253150058896391   -0.000840472735633273
-0.019124640212992594   -0.03258062330928402   -0.0006826316892180858
-0.019732726435108025   -0.02177934977420042   -0.0005044857753255811
-0.02596417574354509   -0.021734380308579944   -0.0006164334995088687
-0.025279201436958363   -0.03253150058896391   -0.000840472735633273
-0.026004721810968398   -0.02166936933990616   -0.0005818736695249255
-0.019124640212992594   -0.03258062330928402   -0.0006826316892180858
-0.025290329069556326   -0.03248006315067538   -0.0007698130368387551
-0.026004721810968398   -0.02166936933990616   -0.0005818736695249255
-0.025279201436958363   -0.03253150058896391   -0.000840472735633273
-0.019124640212992594   -0.03258062330928402   -0.0006826316892180858
-0.026004721810968398   -0.02166936933990616   -0.0005818736695249255
-0.019793128480042537   -0.02170716120171119   -0.0004642147181056267
-0.019732726435108025   -0.02177934977420042   -0.0005044857753255811
-0.019124640212992594   -0.03258062330928402   -0.0006826316892180858
-0.026004721810968398   -0.02166936933990616   -0.0005818736695249255
-0.019732726435108025   -0.02177934977420042   -0.0005044857753255811
-0.025279201436958363   -0.03253150058896391   -0.000840472735633273
-0.019124640212992594   -0.03258062330928402   -0.0006826316892180858
-0.019793128480042537   -0.02170716120171119   -0.0004642147181056267
-0.025290329069556326   -0.03248006315067538   -0.0007698130368387551
-0.019177490999616603   -0.03252646276698391   -0.0006166232112533982
-0.019793128480042537   -0.02170716120171119   -0.0004642147181056267
-0.026004721810968398   -0.02166936933990616   -0.0005818736695249255
-0.025290329069556326   -0.03248006315067538   -0.0007698130368387551
-0.02602441991276292   -0.02160969502446612   -0.0005425860515065393
-0.019177490999616603   -0.03252646276698391   -0.0006166232112533982
-0.025266244525789745   -0.03244613231263922   -0.0006909760638464691
-0.02602441991276292   -0.02160969502446612   -0.0005425860515065393
-0.025290329069556326   -0.03248006315067538   -0.0007698130368387551
-0.019177490999616603   -0.03252646276698391   -0.0006166232112533982
-0.02602441991276292   -0.02160969502446612   -0.0005425860515065393
-0.019850217726333108   -0.021633068033088097   -0.0004202537256099207
-0.019793128480042537   -0.02170716120171119   -0.0004642147181056267
-0.019177490999616603   -0.03252646276698391   -0.0006166232112533982
-0.02602441991276292   -0.02160969502446612   -0.0005425860515065393
-0.019793128480042537   -0.02170716120171119   -0.0004642147181056267
-0.025290329069556326   -0.03248006315067538   -0.0007698130368387551
0.004352889180447753   -0.022019548751327323   0.00013271378538252552
0.003049429755700603   -0.011057221975770647   0.00014254388121411112
-0.0019245190327233444   -0.02191599797192314   -5.646990241406294e-05
0.004216540854771548   -0.021887258841100467   0.00018865127315171391
0.003049429755700603   -0.011057221975770647   0.00014254388121411112
-0.002803828685055489   -0.010913787075867917   7.238931158982629e-05
-0.0019245190327233444   -0.02191599797192314   -5.646990241406294e-05
-0.0028899022123356675   -0.01085838663069158   0.00013477437880203368
0.004216540854771548   -0.021887258841100467   0.00018865127315171391
-0.0020110614961058714   -0.021806333901029318   -1.155431337978672e-05
-0.0028899022123356675   -0.01085838663069158   0.00013477437880203368
-0.0019245190327233444   -0.02191599797192314   -5.646990241406294e-05
0.004216540854771548   -0.021887258841100467   0.00018865127315171391
-0.0028899022123356675   -0.01085838663069158   0.00013477437880203368
0.002781164128681493   -0.010916711945861853   0.00029699475048998556
0.003049429755700603   -0.011057221975770647   0.00014254388121411112
0.004216540854771548   -0.021887258841100467   0.00018865127315171391
-0.0028899022123356675   -0.01085838663069158   0.00013477437880203368
0.003049429755700603   -0.011057221975770647   0.00014254388121411112
-0.0019245190327233444   -0.02191599797192314   -5.646990241406294e-05
0.004216540854771548   -0.021887258841100467   0.00018865127315171391
0.002781164128681493   -0.010916711945861853   0.00029699475048998556
-0.0020110614961058714   -0.021806333901029318   -1.155431337978672e-05
0.004064378623968691   -0.02175585846052551   0.00026896578265645676
0.002781164128681493   -0.010916711945861853   0.00029699475048998556
-0.0028899022123356675   -0.01085838663069158   0.00013477437880203368
-0.0020110614961058714   -0.021806333901029318   -1.155431337978672e-05
-0.003002999023048934   -0.010759808871367016   0.00021052031167739517
0.004064378623968691   -0.02175585846052551   0.00026896578265645676
-0.002112293338138412   -0.021690584177689532   4.1346286595583854e-05
-0.003002999023048934   -0.010759808871367016   0.00021052031167739517
-0.0020110614961058714   -0.021806333901029318   -1.155431337978672e-05
0.004064378623968691   -0.02175585846052551   0.00026896578265645676
-0.003002999023048934   -0.010759808871367016   0.00021052031167739517
0.0026240621704179505   -0.01080173962733695   0.00041227010160779207
0.002781164128681493   -0.010916711945861853   0.00029699475048998556
0.004064378623968691   -0.02175585846052551   0.00026896578265645676
-0.003002999023048934   -0.010759808871367016   0.00021052031167739517
0.002781164128681493   -0.010916711945861853   0.00029699475048998556
-0.0020110614961058714   -0.021806333901029318   -1.155431337978672e-05
0.004064378623968691   -0.02175585846052551   0.00026896578265645676
0.0026240621704179505   -0.01080173962733695   0.00041227010160779207
-0.002112293338138412   -0.021690584177689532   4.1346286595583854e-05
0.0038784596105767223   -0.021594449513500143   0.00035733602694941875
0.0026240621704179505   -0.01080173962733695   0.00041227010160779207
-0.003002999023048934   -0.010759808871367016   0.00021052031167739517
-0.002112293338138412   -0.021690584177689532   4.1346286595583854e-05
-0.003098072406835196   -0.01065380033884558   0.0002772001155811063
0.0038784596105767223   -0.021594449513500143   0.00035733602694941875
-0.0022169965161994774   -0.021567674684466295   0.0001021240788417206
-0.003098072406835196   -0.01065380033884558   0.0002772001155811063
-0.002112293338138412   -0.021690584177689532   4.1346286595583854e-05
0.0038784596105767223   -0.021594449513500143   0.00035733602694941875
-0.003098072406835196   -0.01065380033884558   0.0002772001155811063
0.002422748327940283   -0.010626057110473824   0.0005442581436500566
0.0026240621704179505   -0.01080173962733695   0.00041227010160779207
0.0038784596105767223   -0.021594449513500143   0.00035733602694941875
-0.003098072406835196   -0.01065380033884558   0.0002772001155811063
0.0026240621704179505   -0.01080173962733695   0.00041227010160779207
-0.002112293338138412   -0.021690584177689532   4.1346286595583854e-05
-0.0019245190327233444   -0.02191599797192314   -5.646990241406294e-05
-0.002803828685055489   -0.010913787075867917   7.238931158982629e-05
-0.007835888832256523   -0.021889201032642053   -0.00023883927908829102
-0.0020110614961058714   -0.021806333901029318   -1.155431337978672e-05
-0.002803828685055489   -0.010913787075867917   7.238931158982629e-05
-0.008375099988859273   -0.011075052385837026   -7.276247794648045e-05
-0.007835888832256523   -0.021889201032642053   -0.00023883927908829102
-0.008454332332652787   -0.010990394575498412   -2.8581686201240483e-05
-0.0020110614961058714   -0.021806333901029318   -1.155431337978672e-05
-0.007914104682124707   -0.021793473079974396   -0.00019706508247084684
-0.008454332332652787   -0.010990394575498412   -2.8581686201240483e-05
-0.007835888832256523   -0.021889201032642053   -0.00023883927908829102
-0.0020110614961058714   -0.021806333901029318   -1.155431337978672e-05
-0.008454332332652787   -0.010990394575498412   -2.8581686201240483e-05
-0.0028899022123356675   -0.01085838663069158   0.00013477437880203368
-0.002803828685055489   -0.010913787075867917   7.238931158982629e-05
-0.0020110614961058714   -0.021806333901029318   -1.155431337978672e-05
-0.008454332332652787   -0.010990394575498412   -2.8581686201240483e-05
-0.002803828685055489   -0.010913787075867917   7.238931158982629e-05
-0.007835888832256523   -0.021889201032642053   -0.00023883927908829102
-0.0020110614961058714   -0.021806333901029318   -1.155431337978672e-05
-0.0028899022123356675   -0.01085838663069158   0.00013477437880203368
-0.007914104682124707   -0.021793473079974396   -0.00019706508247084684
-0.002112293338138412   -0.021690584177689532   4.1346286595583854e-05
-0.0028899022123356675   -0.01085838663069158   0.00013477437880203368
-0.008454332332652787   -0.010990394575498412   -2.8581686201240483e-05
-0.007914104682124707   -0.021793473079974396   -0.00019706508247084684
-0.008537254567797695   -0.010894823895835947   1.816930150049095e-05
-0.002112293338138412   -0.021690584177689532   4.1346286595583854e-05
-0.007995011918867393   -0.02169389455696527   -0.00015114975737194302
-0.008537254567797695   -0.010894823895835947   1.816930150049095e-05
-0.007914104682124707   -0.021793473079974396   -0.00019706508247084684
-0.002112293338138412   -0.021690584177689532   4.1346286595583854e-05
-0.008537254567797695   -0.010894823895835947   1.816930150049095e-05
-0.003002999023048934   -0.010759808871367016   0.00021052031167739517
-0.0028899022123356675   -0.01085838663069158   0.00013477437880203368
-0.002112293338138412   -0.021690584177689532   4.1346286595583854e-05
-0.008537254567797695   -0.010894823895835947   1.816930150049095e-05
-0.0028899022123356675   -0.01085838663069158   0.00013477437880203368
-0.007914104682124707   -0.021793473079974396   -0.00019706508247084684
-0.002112293338138412   -0.021690584177689532   4.1346286595583854e-05
-0.003002999023048934   -0.010759808871367016   0.00021052031167739517
-0.007995011918867393   -0.02169389455696527   -0.00015114975737194302
-0.0022169965161994774   -0.021567674684466295   0.0001021240788417206
-0.003002999023048934   -0.010759808871367016   0.00021052031167739517
-0.008537254567797695   -0.010894823895835947   1.816930150049095e-05
-0.007995011918867393   -0.02169389455696527   -0.00015114975737194302
-0.0086160609691443   -0.01079007866978057   6.972462104453668e-05
-0.0022169965161994774   -0.021567674684466295   0.0001021240788417206
-0.008079239645554437   -0.02159224231936737   -0.00010026492664474293
-0.0086160609691443   -0.01079007866978057   6.972462104453668e-05
-0.007995011918867393   -0.02169389455696527   -0.00015114975737194302
-0.0022169965161994774   -0.021567674684466295   0.0001021240788417206
-0.0086160609691443   -0.01079007866978057   6.972462104453668e-05
-0.003098072406835196   -0.01065380033884558   0.0002772001155811063
-0.003002999023048934   -0.010759808871367016   0.00021052031167739517
-0.0022169965161994774   -0.021567674684466295   0.0001021240788417206
-0.0086160609691443   -0.01079007866978057   6.972462104453668e-05
-0.003002999023048934   -0.010759808871367016   0.00021052031167739517
-0.007995011918867393   -0.02169389455696527   -0.00015114975737194302
-0.007835888832256523   -0.021889201032642053   -0.00023883927908829102
-0.008375099988859273   -0.011075052385837026   -7.276247794648045e-05
-0.013686701135655855   -0.021881754228397735   -0.00040369337418176375
-0.007914104682124707   -0.021793473079974396   -0.00019706508247084684
-0.008375099988859273   -0.011075052385837026   -7.276247794648045e-05
-0.014083152012770363   -0.011201027692105125   -0.00023359687628533607
-0.013686701135655855   -0.021881754228397735   -0.00040369337418176375
-0.014154303975518513   -0.011114116842616433   -0.00019937052526022815
-0.007914104682124707   -0.021793473079974396   -0.00019706508247084684
-0.013761469426564294   -0.02179780518124033   -0.0003638557036465983
-0.014154303975518513   -0.011114116842616433   -0.00019937052526022815
-0.013686701135655855   -0.021881754228397735   -0.00040369337418176375
-0.007914104682124707   -0.021793473079974396   -0.00019706508247084684
-0.014154303975518513   -0.011114116842616433   -0.00019937052526022815
-0.008454332332652787   -0.010990394575498412   -2.8581686201240483e-05
-0.008375099988859273   -0.011075052385837026   -7.276247794648045e-05
-0.007914104682124707   -0.021793473079974396   -0.00019706508247084684
-0.014154303975518513   -0.011114116842616433   -0.00019937052526022815
-0.008375099988859273   -0.011075052385837026   -7.276247794648045e-05
-0.013686701135655855   -0.021881754228397735   -0.00040369337418176375
-0.007914104682124707   -0.021793473079974396   -0.00019706508247084684
-0.008454332332652787   -0.010990394575498412   -2.8581686201240483e-05
-0.013761469426564294   -0.02179780518124033   -0.0003638557036465983
-0.007995011918867393   -0.02169389455696527   -0.00015114975737194302
-0.008454332332652787   -0.010990394575498412   -2.8581686201240483e-05
-0.014154303975518513   -0.011114116842616433   -0.00019937052526022815
-0.013761469426564294   -0.02179780518124033   -0.0003638557036465983
-0.014222401355586115   -0.011022331592263237   -0.00016526052388622889
-0.007995011918867393   -0.02169389455696527   -0.00015114975737194302
-0.013832693799410073   -0.021712332057512496   -0.0003203975202711345
-0.014222401355586115   -0.011022331592263237   -0.00016526052388622889
-0.013761469426564294   -0.02179780518124033   -0.0003638557036465983
-0.007995011918867393   -0.02169389455696527   -0.00015114975737194302
-0.014222401355586115   -0.011022331592263237   -0.00016526052388622889
-0.008537254567797695   -0.010894823895835947   1.816930150049095e-05
-0.008454332332652787   -0.010990394575498412   -2.8581686201240483e-05
-0.007995011918867393   -0.02169389455696527   -0.00015114975737194302
-0.014222401355586115   -0.011022331592263237   -0.00016526052388622889
-0.008454332332652787   -0.010990394575498412   -2.8581686201240483e-05
-0.013761469426564294   -0.02179780518124033   -0.0003638557036465983
-0.007995011918867393   -0.02169389455696527   -0.00015114975737194302
-0.008537254567797695   -0.010894823895835947   1.816930150049095e-05
-0.013832693799410073   -0.021712332057512496   -0.0003203975202711345
-0.008079239645554437   -0.02159224231936737   -0.00010026492664474293
-0.008537254567797695   -0.010894823895835947   1.816930150049095e-05
-0.014222401355586115   -0.011022331592263237   -0.00016526052388622889
-0.013832693799410073   -0.021712332057512496   -0.0003203975202711345
-0.014285163580919504   -0.010922961495584223   -0.0001281304191947051
-0.008079239645554437   -0.02159224231936737   -0.00010026492664474293
-0.013903201318467295   -0.02162484821233081   -0.00027352463572571565
-0.014285163580919504   -0.010922961495584223   -0.0001281304191947051
-0.013832693799410073   -0.021712332057512496   -0.0003203975202711345
-0.008079239645554437   -0.02159224231936737   -0.00010026492664474293
-0.014285163580919504   -0.010922961495584223   -0.0001281304191947051
-0.0086160609691443   -0.01079007866978057   6.972462104453668e-05
-0.008537254567797695   -0.010894823895835947   1.816930150049095e-05
-0.008079239645554437   -0.02159224231936737   -0.00010026492664474293
-0.014285163580919504   -0.010922961495584223   -0.0001281304191947051
-0.008537254567797695   -0.010894823895835947   1.816930150049095e-05
-0.013832693799410073   -0.021712332057512496   -0.0003203975202711345
-0.013686701135655855   -0.021881754228397735   -0.00040369337418176375
-0.014083152012770363   -0.011201027692105125   -0.00023359687628533607
-0.0196614479843974   -0.021847782791345617   -0.0005421876622107934
-0.013761469426564294   -0.02179780518124033   -0.0003638557036465983
-0.014083152012770363   -0.011201027692105125   -0.00023359687628533607
-0.019991699559837976   -0.011252704832048937   -0.00038208757805478484
-0.0196614479843974   -0.021847782791345617   -0.0005421876622107934
-0.020055799236099854   -0.01117462370491076   -0.00035714701478653386
-0.013761469426564294   -0.02179780518124033   -0.0003638557036465983
-0.019732726435108025   -0.02177934977420042   -0.0005044857753255811
-0.020055799236099854   -0.01117462370491076   -0.00035714701478653386
-0.0196614479843974   -0.021847782791345617   -0.0005421876622107934
-0.013761469426564294   -0.02179780518124033   -0.0003638557036465983
-0.020055799236099854   -0.01117462370491076   -0.00035714701478653386
-0.014154303975518513   -0.011114116842616433   -0.00019937052526022815
-0.014083152012770363   -0.011201027692105125   -0.00023359687628533607
-0.013761469426564294   -0.02179780518124033   -0.0003638557036465983
-0.020055799236099854   -0.01117462370491076   -0.00035714701478653386
-0.014083152012770363   -0.011201027692105125   -0.00023359687628533607
-0.0196614479843974   -0.021847782791345617   -0.0005421876622107934
-0.013761469426564294   -0.02179780518124033   -0.0003638557036465983
-0.014154303975518513   -0.011114116842616433   -0.00019937052526022815
-0.019732726435108025   -0.02177934977420042   -0.0005044857753255811
-0.013832693799410073   -0.021712332057512496   -0.0003203975202711345
-0.014154303975518513   -0.011114116842616433   -0.00019937052526022815
-0.020055799236099854   -0.01117462370491076   -0.00035714701478653386
-0.019732726435108025   -0.02177934977420042   -0.0005044857753255811
-0.020112918472640802   -0.011089592825460353   -0.00033292266174335703
-0.013832693799410073   -0.021712332057512496   -0.0003203975202711345
-0.019793128480042537   -0.02170716120171119   -0.0004642147181056267
-0.020112918472640802   -0.011089592825460353   -0.00033292266174335703
-0.019732726435108025   -0.02177934977420042   -0.0005044857753255811
-0.013832693799410073   -0.021712332057512496   -0.0003203975202711345
-0.020112918472640802   -0.011089592825460353   -0.00033292266174335703
-0.014222401355586115   -0.011022331592263237   -0.00016526052388622889
-0.014154303975518513   -0.011114116842616433   -0.00019937052526022815
-0.013832693799410073   -0.021712332057512496   -0.0003203975202711345
-0.020112918472640802   -0.011089592825460353   -0.00033292266174335703
-0.014154303975518513   -0.011114116842616433   -0.00019937052526022815
-0.019732726435108025   -0.02177934977420042   -0.0005044857753255811
-0.013832693799410073   -0.021712332057512496   -0.0003203975202711345
-0.014222401355586115   -0.011022331592263237   -0.00016526052388622889
-0.019793128480042537   -0.02170716120171119   -0.0004642147181056267
-0.013903201318467295   -0.02162484821233081   -0.00027352463572571565
-0.014222401355586115   -0.011022331592263237   -0.00016526052388622889
-0.020112918472640802   -0.011089592825460353   -0.00033292266174335703
-0.019793128480042537   -0.02170716120171119   -0.0004642147181056267
-0.020164639271994033   -0.010999084656784818   -0.000307985099829672
-0.013903201318467295   -0.02162484821233081   -0.00027352463572571565
-0.019850217726333108   -0.021633068033088097   -0.0004202537256099207
-0.020164639271994033   -0.010999084656784818   -0.000307985099829672
-0.019793128480042537   -0.02170716120171119   -0.0004642147181056267
-0.013903201318467295   -0.02162484821233081   -0.00027352463572571565
-0.020164639271994033   -0.010999084656784818   -0.000307985099829672
-0.014285163580919504   -0.010922961495584223   -0.0001281304191947051
-0.014222401355586115   -0.011022331592263237   -0.00016526052388622889
-0.013903201318467295   -0.02162484821233081   -0.00027352463572571565
-0.020164639271994033   -0.010999084656784818   -0.000307985099829672
-0.014222401355586115   -0.011022331592263237   -0.00016526052388622889
-0.019793128480042537   -0.02170716120171119   -0.0004642147181056267
-0.0196614479843974   -0.021847782791345617   -0.0005421876622107934
-0.019991699559837976   -0.011252704832048937   -0.00038208757805478484
-0.025919833256653285   -0.021791838599374586   -0.0006446869248951164
-0.019732726435108025   -0.02177934977420042   -0.0005044857753255811
-0.019991699559837976   -0.011252704832048937   -0.00038208757805478484
-0.02611038564537038   -0.011258512522503065   -0.0005054043513365859
-0.025919833256653285   -0.021791838599374586   -0.0006446869248951164
-0.02616548435281411   -0.011182710628949995   -0.0004947165384087687
-0.019732726435108025   -0.02177934977420042   -0.0005044857753255811
-0.02596417574354509   -0.021734380308579944   -0.0006164334995088687
-0.02616548435281411   -0.011182710628949995   -0.0004947165384087687
-0.025919833256653285   -0.021791838599374586   -0.0006446869248951164
-0.019732726435108025   -0.02177934977420042   -0.0005044857753255811
-0.02616548435281411   -0.011182710628949995   -0.0004947165384087687
-0.020055799236099854   -0.01117462370491076   -0.00035714701478653386
-0.019991699559837976   -0.011252704832048937   -0.00038208757805478484
-0.019732726435108025   -0.02177934977420042   -0.0005044857753255811
-0.02616548435281411   -0.011182710628949995   -0.0004947165384087687
-0.019991699559837976   -0.011252704832048937   -0.00038208757805478484
-0.025919833256653285   -0.021791838599374586   -0.0006446869248951164
-0.019732726435108025   -0.02177934977420042   -0.0005044857753255811
-0.020055799236099854   -0.01117462370491076   -0.00035714701478653386
-0.02596417574354509   -0.021734380308579944   -0.0006164334995088687
-0.019793128480042537   -0.02170716120171119   -0.0004642147181056267
-0.020055799236099854   -0.01117462370491076   -0.00035714701478653386
-0.02616548435281411   -0.011182710628949995   -0.0004947165384087687
-0.02596417574354509   -0.021734380308579944   -0.0006164334995088687
-0.026214847938658088   -0.011100768699974024   -0.0004822202139922128
-0.019793128480042537   -0.02170716120171119   -0.0004642147181056267
-0.026004721810968398   -0.02166936933990616   -0.0005818736695249255
-0.026214847938658088   -0.011100768699974024   -0.0004822202139922128
-0.02596417574354509   -0.021734380308579944   -0.0006164334995088687
-0.019793128480042537   -0.02170716120171119   -0.0004642147181056267
-0.026214847938658088   -0.011100768699974024   -0.0004822202139922128
-0.020112918472640802   -0.011089592825460353   -0.00033292266174335703
-0.020055799236099854   -0.01117462370491076   -0.00035714701478653386
-0.019793128480042537   -0.02170716120171119   -0.0004642147181056267
-0.026214847938658088   -0.011100768699974024   -0.0004822202139922128
-0.020055799236099854   -0.01117462370491076   -0.00035714701478653386
-0.02596417574354509   -0.021734380308579944   -0.0006164334995088687
-0.019793128480042537   -0.02170716120171119   -0.0004642147181056267
-0.020112918472640802   -0.011089592825460353   -0.00033292266174335703
-0.026004721810968398   -0.02166936933990616   -0.0005818736695249255
-0.019850217726333108   -0.021633068033088097   -0.0004202537256099207
-0.020112918472640802   -0.011089592825460353   -0.00033292266174335703
-0.026214847938658088   -0.011100768699974024   -0.0004822202139922128
-0.026004721810968398   -0.02166936933990616   -0.0005818736695249255
-0.02625639006732386   -0.011013997169078978   -0.0004706106588007285
-0.019850217726333108   -0.021633068033088097   -0.0004202537256099207
-0.02602441991276292   -0.02160969502446612   -0.0005425860515065393
-0.02625639006732386   -0.011013997169078978   -0.0004706106588007285
-0.026004721810968398   -0.02166936933990616   -0.0005818736695249255
-0.019850217726333108   -0.021633068033088097   -0.0004202537256099207
-0.02625639006732386   -0.011013997169078978   -0.0004706106588007285
-0.020164639271994033   -0.010999084656784818   -0.000307985099829672
-0.020112918472640802   -0.011089592825460353   -0.00033292266174335703
-0.019850217726333108   -0.021633068033088097   -0.0004202537256099207
-0.02625639006732386   -0.011013997169078978   -0.0004706106588007285
-0.020112918472640802   -0.011089592825460353   -0.00033292266174335703
-0.026004721810968398   -0.02166936933990616   -0.0005818736695249255
0.003049429755700603   -0.011057221975770647   0.00014254388121411112
0.0   0.0   0.0
-0.002803828685055489   -0.010913787075867917   7.238931158982629e-05
0.002781164128681493   -0.010916711945861853   0.00029699475048998556
0.0   0.0   0.0
-0.0035212899757675587   -0.000890405787731496   -3.02401140525932e-05
-0.002803828685055489   -0.010913787075867917   7.238931158982629e-05
-0.0037316265742848445   -0.0006915141741443054   9.081377667564934e-05
0.002781164128681493   -0.010916711945861853   0.00029699475048998556
-0.0028899022123356675   -0.01085838663069158   0.00013477437880203368
-0.0037316265742848445   -0.0006915141741443054   9.081377667564934e-05
-0.002803828685055489   -0.010913787075867917   7.238931158982629e-05
0.002781164128681493   -0.010916711945861853   0.00029699475048998556
-0.0037316265742848445   -0.0006915141741443054   9.081377667564934e-05
0.0   0.0   0.0
0.0   0.0   0.0
0.002781164128681493   -0.010916711945861853   0.00029699475048998556
-0.0037316265742848445   -0.0006915141741443054   9.081377667564934e-05
0.0   0.0   0.0
-0.002803828685055489   -0.010913787075867917   7.238931158982629e-05
0.002781164128681493   -0.010916711945861853   0.00029699475048998556
0.0   0.0   0.0
-0.0028899022123356675   -0.01085838663069158   0.00013477437880203368
0.0026240621704179505   -0.01080173962733695   0.00041227010160779207
0.0   0.0   0.0
-0.0037316265742848445   -0.0006915141741443054   9.081377667564934e-05
-0.0028899022123356675   -0.01085838663069158   0.00013477437880203368
-0.0038635605018942677   -0.0005956034036261396   0.00016061270379316649
0.0026240621704179505   -0.01080173962733695   0.00041227010160779207
-0.003002999023048934   -0.010759808871367016   0.00021052031167739517
-0.0038635605018942677   -0.0005956034036261396   0.00016061270379316649
-0.0028899022123356675   -0.01085838663069158   0.00013477437880203368
0.0026240621704179505   -0.01080173962733695   0.00041227010160779207
-0.0038635605018942677   -0.0005956034036261396   0.00016061270379316649
0.0   0.0   0.0
0.0   0.0   0.0
0.0026240621704179505   -0.01080173962733695   0.00041227010160779207
-0.0038635605018942677   -0.0005956034036261396   0.00016061270379316649
0.0   0.0   0.0
-0.0028899022123356675   -0.01085838663069158   0.00013477437880203368
0.0026240621704179505   -0.01080173962733695   0.00041227010160779207
0.0   0.0   0.0
-0.003002999023048934   -0.010759808871367016   0.00021052031167739517
0.002422748327940283   -0.010626057110473824   0.0005442581436500566
0.0   0.0   0.0
-0.0038635605018942677   -0.0005956034036261396   0.00016061270379316649
-0.003002999023048934   -0.010759808871367016   0.00021052031167739517
-0.0040403219591724285   -0.0004682818529257964   0.0002407149328389824
0.002422748327940283   -0.010626057110473824   0.0005442581436500566
-0.003098072406835196   -0.01065380033884558   0.0002772001155811063
-0.0040403219591724285   -0.0004682818529257964   0.0002407149328389824
-0.003002999023048934   -0.010759808871367016   0.00021052031167739517
0.002422748327940283   -0.010626057110473824   0.0005442581436500566
-0.0040403219591724285   -0.0004682818529257964   0.0002407149328389824
0.0   0.0   0.0
0.0   0.0   0.0
0.002422748327940283   -0.010626057110473824   0.0005442581436500566
-0.0040403219591724285   -0.0004682818529257964   0.0002407149328389824
0.0   0.0   0.0
-0.003002999023048934   -0.010759808871367016   0.00021052031167739517
-0.002803828685055489   -0.010913787075867917   7.238931158982629e-05
-0.0035212899757675587   -0.000890405787731496   -3.02401140525932e-05
-0.008375099988859273   -0.011075052385837026   -7.276247794648045e-05
-0.0028899022123356675   -0.01085838663069158   0.00013477437880203368
-0.0035212899757675587   -0.000890405787731496   -3.02401140525932e-05
-0.008625189003697917   -0.0011654182350429095   -2.937792124223091e-05
-0.008375099988859273   -0.011075052385837026   -7.276247794648045e-05
-0.008733476978891022   -0.0010565561337145695   1.5275525627245419e-06
-0.0028899022123356675   -0.01085838663069158   0.00013477437880203368
-0.008454332332652787   -0.010990394575498412   -2.8581686201240483e-05
-0.008733476978891022   -0.0010565561337145695   1.5275525627245419e-06
-0.008375099988859273   -0.011075052385837026   -7.276247794648045e-05
-0.0028899022123356675   -0.01085838663069158   0.00013477437880203368
-0.008733476978891022   -0.0010565561337145695   1.5275525627245419e-06
-0.0037316265742848445   -0.0006915141741443054   9.081377667564934e-05
-0.0035212899757675587   -0.000890405787731496   -3.02401140525932e-05
-0.0028899022123356675   -0.01085838663069158   0.00013477437880203368
-0.008733476978891022   -0.0010565561337145695   1.5275525627245419e-06
-0.0035212899757675587   -0.000890405787731496   -3.02401140525932e-05
-0.008375099988859273   -0.011075052385837026   -7.276247794648045e-05
-0.0028899022123356675   -0.01085838663069158   0.00013477437880203368
-0.0037316265742848445   -0.0006915141741443054   9.081377667564934e-05
-0.008454332332652787   -0.010990394575498412   -2.8581686201240483e-05
-0.003002999023048934   -0.010759808871367016   0.00021052031167739517
-0.0037316265742848445   -0.0006915141741443054   9.081377667564934e-05
-0.008733476978891022   -0.0010565561337145695   1.5275525627245419e-06
-0.008454332332652787   -0.010990394575498412   -2.8581686201240483e-05
-0.00884127495890193   -0.0009292264326081789   5.6982806804430045e-05
-0.003002999023048934   -0.010759808871367016   0.00021052031167739517
-0.008537254567797695   -0.010894823895835947   1.816930150049095e-05
-0.00884127495890193   -0.0009292264326081789   5.6982806804430045e-05
-0.008454332332652787   -0.010990394575498412   -2.8581686201240483e-05
-0.003002999023048934   -0.010759808871367016   0.00021052031167739517
-0.00884127495890193   -0.0009292264326081789   5.6982806804430045e-05
-0.0038635605018942677   -0.0005956034036261396   0.00016061270379316649
-0.0037316265742848445   -0.0006915141741443054   9.081377667564934e-05
-0.003002999023048934   -0.010759808871367016   0.00021052031167739517
-0.00884127495890193   -0.0009292264326081789   5.6982806804430045e-05
-0.0037316265742848445   -0.0006915141741443054   9.081377667564934e-05
-0.008454332332652787   -0.010990394575498412   -2.8581686201240483e-05
-0.003002999023048934   -0.010759808871367016   0.00021052031167739517
-0.0038635605018942677   -0.0005956034036261396   0.00016061270379316649
-0.008537254567797695   -0.010894823895835947   1.816930150049095e-05
-0.003098072406835196   -0.01065380033884558   0.0002772001155811063
-0.0038635605018942677   -0.0005956034036261396   0.00016061270379316649
-0.00884127495890193   -0.0009292264326081789   5.6982806804430045e-05
-0.008537254567797695   -0.010894823895835947   1.816930150049095e-05
-0.008960507467428686   -0.0007821128046150483   0.0001100213293441268
-0.003098072406835196   -0.01065380033884558   0.0002772001155811063
-0.0086160609691443   -0.01079007866978057   6.972462104453668e-05
-0.008960507467428686   -0.0007821128046150483   0.0001100213293441268
-0.008537254567797695   -0.010894823895835947   1.816930150049095e-05
-0.003098072406835196   -0.01065380033884558   0.0002772001155811063
-0.008960507467428686   -0.0007821128046150483   0.0001100213293441268
-0.0040403219591724285   -0.0004682818529257964   0.0002407149328389824
-0.0038635605018942677   -0.0005956034036261396   0.00016061270379316649
-0.003098072406835196   -0.01065380033884558   0.0002772001155811063
-0.008960507467428686   -0.0007821128046150483   0.0001100213293441268
-0.0038635605018942677   -0.0005956034036261396   0.00016061270379316649
-0.008537254567797695   -0.010894823895835947   1.816930150049095e-05
-0.008375099988859273   -0.011075052385837026   -7.276247794648045e-05
-0.008625189003697917   -0.0011654182350429095   -2.937792124223091e-05
-0.014083152012770363   -0.011201027692105125   -0.00023359687628533607
-0.008454332332652787   -0.010990394575498412   -2.8581686201240483e-05
-0.008625189003697917   -0.0011654182350429095   -2.937792124223091e-05
-0.014222579256766212   -0.0012416796798589474   -0.00013152277481320393
-0.014083152012770363   -0.011201027692105125   -0.00023359687628533607
-0.014288203770048014   -0.0011565670811334444   -0.00012305165077809303
-0.008454332332652787   -0.010990394575498412   -2.8581686201240483e-05
-0.014154303975518513   -0.011114116842616433   -0.00019937052526022815
-0.014288203770048014   -0.0011565670811334444   -0.00012305165077809303
-0.014083152012770363   -0.011201027692105125   -0.00023359687628533607
-0.008454332332652787   -0.010990394575498412   -2.8581686201240483e-05
-0.014288203770048014   -0.0011565670811334444   -0.00012305165077809303
-0.008733476978891022   -0.0010565561337145695   1.5275525627245419e-06
-0.008625189003697917   -0.0011654182350429095   -2.937792124223091e-05
-0.008454332332652787   -0.010990394575498412   -2.8581686201240483e-05
-0.014288203770048014   -0.0011565670811334444   -0.00012305165077809303
-0.008625189003697917   -0.0011654182350429095   -2.937792124223091e-05
-0.014083152012770363   -0.011201027692105125   -0.00023359687628533607
-0.008454332332652787   -0.010990394575498412   -2.8581686201240483e-05
-0.008733476978891022   -0.0010565561337145695   1.5275525627245419e-06
-0.014154303975518513   -0.011114116842616433   -0.00019937052526022815
-0.008537254567797695   -0.010894823895835947   1.816930150049095e-05
-0.008733476978891022   -0.0010565561337145695   1.5275525627245419e-06
-0.014288203770048014   -0.0011565670811334444   -0.00012305165077809303
-0.014154303975518513   -0.011114116842616433   -0.00019937052526022815
-0.01435642667329245   -0.0010578924575404172   -0.00010813374412978308
-0.008537254567797695   -0.010894823895835947   1.816930150049095e-05
-0.014222401355586115   -0.011022331592263237   -0.00016526052388622889
-0.01435642667329245   -0.0010578924575404172   -0.00010813374412978308
-0.014154303975518513   -0.011114116842616433   -0.00019937052526022815
-0.008537254567797695   -0.010894823895835947   1.816930150049095e-05
-0.01435642667329245   -0.0010578924575404172   -0.00010813374412978308
-0.00884127495890193   -0.0009292264326081789   5.6982806804430045e-05
-0.008733476978891022   -0.0010565561337145695   1.5275525627245419e-06
-0.008537254567797695   -0.010894823895835947   1.816930150049095e-05
-0.01435642667329245   -0.0010578924575404172   -0.00010813374412978308
-0.008733476978891022   -0.0010565561337145695   1.5275525627245419e-06
-0.014154303975518513   -0.011114116842616433   -0.00019937052526022815
-0.008537254567797695   -0.010894823895835947   1.816930150049095e-05
-0.00884127495890193   -0.0009292264326081789   5.6982806804430045e-05
-0.014222401355586115   -0.011022331592263237   -0.00016526052388622889
-0.0086160609691443   -0.01079007866978057   6.972462104453668e-05
-0.00884127495890193   -0.0009292264326081789   5.6982806804430045e-05
-0.01435642667329245   -0.0010578924575404172   -0.00010813374412978308
-0.014222401355586115   -0.011022331592263237   -0.00016526052388622889
-0.014421045579171173   -0.0009380207840275466   -8.83959780224634e-05
-0.0086160609691443   -0.01079007866978057   6.972462104453668e-05
-0.014285163580919504   -0.010922961495584223   -0.0001281304191947051
-0.014421045579171173   -0.0009380207840275466   -8.83959780224634e-05
-0.014222401355586115   -0.011022331592263237   -0.00016526052388622889
-0.0086160609691443   -0.01079007866978057   6.972462104453668e-05
-0.014421045579171173   -0.0009380207840275466   -8.83959780224634e-05
-0.008960507467428686   -0.0007821128046150483   0.0001100213293441268
-0.00884127495890193   -0.0009292264326081789   5.6982806804430045e-05
-0.0086160609691443   -0.01079007866978057   6.972462104453668e-05
-0.014421045579171173   -0.0009380207840275466   -8.83959780224634e-05
-0.00884127495890193   -0.0009292264326081789   5.6982806804430045e-05
-0.014222401355586115   -0.011022331592263237   -0.00016526052388622889
-0.014083152012770363   -0.011201027692105125   -0.00023359687628533607
-0.014222579256766212   -0.0012416796798589474   -0.00013152277481320393
-0.019991699559837976   -0.011252704832048937   -0.00038208757805478484
-0.014154303975518513   -0.011114116842616433   -0.00019937052526022815
-0.014222579256766212   -0.0012416796798589474   -0.00013152277481320393
-0.020095043393082556   -0.0012279038017424296   -0.00027786291766658105
-0.019991699559837976   -0.011252704832048937   -0.00038208757805478484
-0.02013934703298483   -0.0011512540401712598   -0.00027424968133735867
-0.014154303975518513   -0.011114116842616433   -0.00019937052526022815
-0.020055799236099854   -0.01117462370491076   -0.00035714701478653386
-0.02013934703298483   -0.0011512540401712598   -0.00027424968133735867
-0.019991699559837976   -0.011252704832048937   -0.00038208757805478484
-0.014154303975518513   -0.011114116842616433   -0.00019937052526022815
-0.02013934703298483   -0.0011512540401712598   -0.00027424968133735867
-0.014288203770048014   -0.0011565670811334444   -0.00012305165077809303
-0.014222579256766212   -0.0012416796798589474   -0.00013152277481320393
-0.014154303975518513   -0.011114116842616433   -0.00019937052526022815
-0.02013934703298483   -0.0011512540401712598   -0.00027424968133735867
-0.014222579256766212   -0.0012416796798589474   -0.00013152277481320393
-0.019991699559837976   -0.011252704832048937   -0.00038208757805478484
-0.014154303975518513   -0.011114116842616433   -0.00019937052526022815
-0.014288203770048014   -0.0011565670811334444   -0.00012305165077809303
-0.020055799236099854   -0.01117462370491076   -0.00035714701478653386
-0.014222401355586115   -0.011022331592263237   -0.00016526052388622889
-0.014288203770048014   -0.0011565670811334444   -0.00012305165077809303
-0.02013934703298483   -0.0011512540401712598   -0.00027424968133735867
-0.020055799236099854   -0.01117462370491076   -0.00035714701478653386
-0.02018557343281944   -0.0010660460816036804   -0.00027181181218153443
-0.014222401355586115   -0.011022331592263237   -0.00016526052388622889
-0.020112918472640802   -0.011089592825460353   -0.00033292266174335703
-0.02018557343281944   -0.0010660460816036804   -0.00027181181218153443
-0.020055799236099854   -0.01117462370491076   -0.00035714701478653386
-0.014222401355586115   -0.011022331592263237   -0.00016526052388622889
-0.02018557343281944   -0.0010660460816036804   -0.00027181181218153443
-0.01435642667329245   -0.0010578924575404172   -0.00010813374412978308
-0.014288203770048014   -0.0011565670811334444   -0.00012305165077809303
-0.014222401355586115   -0.011022331592263237   -0.00016526052388622889
-0.02018557343281944   -0.0010660460816036804   -0.00027181181218153443
-0.014288203770048014   -0.0011565670811334444   -0.00012305165077809303
-0.020055799236099854   -0.01117462370491076   -0.00035714701478653386
-0.014222401355586115   -0.011022331592263237   -0.00016526052388622889
-0.01435642667329245   -0.0010578924575404172   -0.00010813374412978308
-0.020112918472640802   -0.011089592825460353   -0.00033292266174335703
-0.014285163580919504   -0.010922961495584223   -0.0001281304191947051
-0.01435642667329245   -0.0010578924575404172   -0.00010813374412978308
-0.02018557343281944   -0.0010660460816036804   -0.00027181181218153443
-0.020112918472640802   -0.011089592825460353   -0.00033292266174335703
-0.0202205815608319   -0.0009738969580239938   -0.00027075323025163204
-0.014285163580919504   -0.010922961495584223   -0.0001281304191947051
-0.020164639271994033   -0.010999084656784818   -0.000307985099829672
-0.0202205815608319   -0.0009738969580239938   -0.00027075323025163204
-0.020112918472640802   -0.011089592825460353   -0.00033292266174335703
-0.014285163580919504   -0.010922961495584223   -0.0001281304191947051
-0.0202205815608319   -0.0009738969580239938   -0.00027075323025163204
-0.014421045579171173   -0.0009380207840275466   -8.83959780224634e-05
-0.01435642667329245   -0.0010578924575404172   -0.00010813374412978308
-0.014285163580919504   -0.010922961495584223   -0.0001281304191947051
-0.0202205815608319   -0.0009738969580239938   -0.00027075323025163204
-0.01435642667329245   -0.0010578924575404172   -0.00010813374412978308
-0.020112918472640802   -0.011089592825460353   -0.00033292266174335703
-0.019991699559837976   -0.011252704832048937   -0.00038208757805478484
-0.020095043393082556   -0.0012279038017424296   -0.00027786291766658105
-0.02611038564537038   -0.011258512522503065   -0.0005054043513365859
-0.020055799236099854   -0.01117462370491076   -0.00035714701478653386
-0.020095043393082556   -0.0012279038017424296   -0.00027786291766658105
-0.026129402908434123   -0.0012189756076322483   -0.0004218746876298557
-0.02611038564537038   -0.011258512522503065   -0.0005054043513365859
-0.026165054807693124   -0.0011357883408992784   -0.00042184337578211504
-0.020055799236099854   -0.01117462370491076   -0.00035714701478653386
-0.02616548435281411   -0.011182710628949995   -0.0004947165384087687
-0.026165054807693124   -0.0011357883408992784   -0.00042184337578211504
-0.02611038564537038   -0.011258512522503065   -0.0005054043513365859
-0.020055799236099854   -0.01117462370491076   -0.00035714701478653386
-0.026165054807693124   -0.0011357883408992784   -0.00042184337578211504
-0.02013934703298483   -0.0011512540401712598   -0.00027424968133735867
-0.020095043393082556   -0.0012279038017424296   -0.00027786291766658105
-0.020055799236099854   -0.01117462370491076   -0.00035714701478653386
-0.026165054807693124   -0.0011357883408992784   -0.00042184337578211504
-0.020095043393082556   -0.0012279038017424296   -0.00027786291766658105
-0.02611038564537038   -0.011258512522503065   -0.0005054043513365859
-0.020055799236099854   -0.01117462370491076   -0.00035714701478653386
-0.02013934703298483   -0.0011512540401712598   -0.00027424968133735867
-0.02616548435281411   -0.011182710628949995   -0.0004947165384087687
-0.020112918472640802   -0.011089592825460353   -0.00033292266174335703
-0.02013934703298483   -0.0011512540401712598   -0.00027424968133735867
-0.026165054807693124   -0.0011357883408992784   -0.00042184337578211504
-0.02616548435281411   -0.011182710628949995   -0.0004947165384087687
-0.02620420035012277   -0.0010527555326529199   -0.0004282992994416229
-0.020112918472640802   -0.011089592825460353   -0.00033292266174335703
-0.026214847938658088   -0.011100768699974024   -0.0004822202139922128
-0.02620420035012277   -0.0010527555326529199   -0.0004282992994416229
-0.02616548435281411   -0.011182710628949995   -0.0004947165384087687
-0.020112918472640802   -0.011089592825460353   -0.00033292266174335703
-0.02620420035012277   -0.0010527555326529199   -0.0004282992994416229
-0.02018557343281944   -0.0010660460816036804   -0.00027181181218153443
-0.02013934703298483   -0.0011512540401712598   -0.00027424968133735867
-0.020112918472640802   -0.011089592825460353   -0.00033292266174335703
-0.02620420035012277   -0.0010527555326529199   -0.0004282992994416229
-0.02013934703298483   -0.0011512540401712598   -0.00027424968133735867
-0.02616548435281411   -0.011182710628949995   -0.0004947165384087687
-0.020112918472640802   -0.011089592825460353   -0.00033292266174335703
-0.02018557343281944   -0.0010660460816036804   -0.00027181181218153443
-0.026214847938658088   -0.011100768699974024   -0.0004822202139922128
-0.020164639271994033   -0.010999084656784818   -0.000307985099829672
-0.02018557343281944   -0.0010660460816036804   -0.00027181181218153443
-0.02620420035012277   -0.0010527555326529199   -0.0004282992994416229
-0.026214847938658088   -0.011100768699974024   -0.0004822202139922128
-0.02623300670662326   -0.0009624068314660777   -0.0004351805405080319
-0.020164639271994033   -0.010999084656784818   -0.000307985099829672
-0.02625639006732386   -0.011013997169078978   -0.0004706106588007285
-0.02623300670662326   -0.0009624068314660777   -0.0004351805405080319
-0.026214847938658088   -0.011100768699974024   -0.0004822202139922128
-0.020164639271994033   -0.010999084656784818   -0.000307985099829672
-0.02623300670662326   -0.0009624068314660777   -0.0004351805405080319
-0.0202205815608319   -0.0009738969580239938   -0.00027075323025163204
-0.02018557343281944   -0.0010660460816036804   -0.00027181181218153443
-0.020164639271994033   -0.010999084656784818   -0.000307985099829672
-0.02623300670662326   -0.0009624068314660777   -0.0004351805405080319
-0.02018557343281944   -0.0010660460816036804   -0.00027181181218153443
-0.026214847938658088   -0.011100768699974024   -0.0004822202139922128
              </DataArray>   
          </PointData>  
       </Piece>  
   </UnstructuredGrid> 
</VTKFile> 
